<?xml version="1.0"?>
<VTKFile type="UnstructuredGrid" version="0.1" byte_order="LittleEndian">
<UnstructuredGrid>
<Piece NumberOfPoints="29506" NumberOfCells="10360">
<Points>
<DataArray type="Float64" NumberOfComponents="3" format="ascii">
-0.5 -0.5 0 -0.47696226168452538 -0.47508257674467608 0 -0.5 -0.40194873453805408 0 -0.5 -0.5 0 -0.48617485428971441 -0.49999999999999978 0 -0.47696226168452538 -0.47508257674467608 0 -0.47696226168452538 -0.47508257674467608 0 -0.46774966907933629 -0.45016515348935238 0 -0.5 -0.40194873453805408 0 -0.48617485428971441 -0.49999999999999978 0 -0.47696226168452538 -0.47508257674467608 0 -0.45664250176891619 -0.5 0 -0.48617485428971441 -0.49999999999999978 0 -0.47696226168452538 -0.47508257674467608 0 -0.47696226168452538 -0.47508257674467608 0 -0.45664250176891619 -0.5 0 -0.45700033410924101 -0.47265801169205562 0 -0.45700033410924101 -0.47265801169205562 0 -0.4418902773561707 -0.48175554229659401 0 -0.44175696065725573 -0.45628678592965521 0 -0.45664250176891619 -0.5 0 -0.4418902773561707 -0.48175554229659401 0 -0.42711014924811808 -0.5 0 -0.45664250176891619 -0.5 0 -0.45700033410924101 -0.47265801169205562 0 -0.4418902773561707 -0.48175554229659401 0 -0.44187400167307422 -0.44095767887066201 0 -0.44175696065725573 -0.45628678592965521 0 -0.42955524590135852 -0.43868986677814847 0 -0.44187400167307422 -0.44095767887066201 0 -0.44175696065725573 -0.45628678592965521 0 -0.45325755922839678 -0.44082427593074058 0 -0.47696226168452538 -0.47508257674467608 0 -0.45700033410924101 -0.47265801169205562 0 -0.46774966907933629 -0.45016515348935238 0 -0.45700033410924101 -0.47265801169205562 0 -0.44175696065725573 -0.45628678592965521 0 -0.46774966907933629 -0.45016515348935238 0 -0.46774966907933629 -0.45016515348935238 0 -0.45853707647414721 -0.42524773023402862 0 -0.46774966907933629 -0.45016515348935238 0 -0.45325755922839678 -0.44082427593074058 0 -0.45853707647414721 -0.42524773023402862 0 -0.44175696065725573 -0.45628678592965521 0 -0.46774966907933629 -0.45016515348935238 0 -0.45325755922839678 -0.44082427593074058 0 -0.47696226168452538 -0.47508257674467608 0 -0.46774966907933629 -0.45016515348935238 0 -0.46774966907933629 -0.45016515348935238 0 -0.5 -0.40194873453805408 0 -0.45853707647414721 -0.42524773023402862 0 -0.5 -0.40194873453805408 0 -0.46923291525112393 -0.40227919791892319 0 -0.45853707647414721 -0.42524773023402862 0 -0.46923291525112393 -0.40227919791892319 0 -0.47723926971091502 -0.37883738684114437 0 -0.46199791381478489 -0.39324373611997282 0 -0.5 -0.40194873453805408 0 -0.46923291525112393 -0.40227919791892319 0 -0.47723926971091502 -0.37883738684114437 0 -0.47723926971091502 -0.37883738684114437 0 -0.46063227861286149 -0.37802114421650379 0 -0.46199791381478489 -0.39324373611997282 0 -0.46063227861286149 -0.37802114421650379 0 -0.44934692324427572 -0.38602370070780923 0 -0.46063227861286149 -0.37802114421650379 0 -0.46199791381478489 -0.39324373611997282 0 -0.44934692324427572 -0.38602370070780923 0 -0.46199791381478489 -0.39324373611997282 0 -0.44934692324427572 -0.38602370070780923 0 -0.45186062385423548 -0.41581831998743252 0 -0.46923291525112393 -0.40227919791892319 0 -0.46199791381478489 -0.39324373611997282 0 -0.45186062385423548 -0.41581831998743252 0 -0.44934692324427572 -0.38602370070780923 0 -0.45186062385423548 -0.41581831998743252 0 -0.44934692324427572 -0.38602370070780923 0 -0.4281951023695143 -0.40102266493320532 0 -0.44194423197073762 -0.40414133886736581 0 -0.44934692324427572 -0.38602370070780923 0 -0.45186062385423548 -0.41581831998743252 0 -0.44194423197073762 -0.40414133886736581 0 -0.44934692324427572 -0.38602370070780923 0 -0.4281951023695143 -0.40102266493320532 0 -0.46063227861286149 -0.37802114421650379 0 -0.44934692324427572 -0.38602370070780923 0 -0.44739979342913311 -0.36294458329013229 0 -0.44934692324427572 -0.38602370070780923 0 -0.43674333185042352 -0.37641919199672741 0 -0.4281951023695143 -0.40102266493320532 0 -0.44934692324427572 -0.38602370070780923 0 -0.43674333185042352 -0.37641919199672741 0 -0.44739979342913311 -0.36294458329013229 0 -0.46923291525112393 -0.40227919791892319 0 -0.45853707647414721 -0.42524773023402862 0 -0.45186062385423548 -0.41581831998743252 0 -0.44194423197073762 -0.40414133886736581 0 -0.45186062385423548 -0.41581831998743252 0 -0.43823280816596138 -0.41379272184435001 0 -0.45186062385423548 -0.41581831998743252 0 -0.43823280816596138 -0.41379272184435001 0 -0.44292624090528621 -0.42802978684410381 0 -0.45853707647414721 -0.42524773023402862 0 -0.45186062385423548 -0.41581831998743252 0 -0.44292624090528621 -0.42802978684410381 0 -0.45325755922839678 -0.44082427593074058 0 -0.45853707647414721 -0.42524773023402862 0 -0.44292624090528621 -0.42802978684410381 0 -0.44187400167307422 -0.44095767887066201 0 -0.45325755922839678 -0.44082427593074058 0 -0.44292624090528621 -0.42802978684410381 0 -0.44187400167307422 -0.44095767887066201 0 -0.44292624090528621 -0.42802978684410381 0 -0.42955524590135852 -0.43868986677814847 0 -0.42623784173003332 -0.41995149858964231 0 -0.41099716969282479 -0.4344190863311328 0 -0.42955524590135852 -0.43868986677814847 0 -0.44292624090528621 -0.42802978684410381 0 -0.42623784173003332 -0.41995149858964231 0 -0.42955524590135852 -0.43868986677814847 0 -0.43823280816596138 -0.41379272184435001 0 -0.42623784173003332 -0.41995149858964231 0 -0.4281951023695143 -0.40102266493320532 0 -0.43823280816596138 -0.41379272184435001 0 -0.44292624090528621 -0.42802978684410381 0 -0.42623784173003332 -0.41995149858964231 0 -0.44194423197073762 -0.40414133886736581 0 -0.43823280816596138 -0.41379272184435001 0 -0.4281951023695143 -0.40102266493320532 0 -0.42623784173003332 -0.41995149858964231 0 -0.40704328149475222 -0.41602162915860041 0 -0.4281951023695143 -0.40102266493320532 0 -0.40704328149475222 -0.41602162915860041 0 -0.4281951023695143 -0.40102266493320532 0 -0.42623784173003332 -0.41995149858964231 0 -0.40704328149475222 -0.41602162915860041 0 -0.41099716969282479 -0.4344190863311328 0 -0.43674333185042352 -0.37641919199672741 0 -0.4281951023695143 -0.40102266493320532 0 -0.42089628469911827 -0.37612820863284591 0 -0.40704328149475222 -0.41602162915860041 0 -0.4281951023695143 -0.40102266493320532 0 -0.40139446399348361 -0.38776554810080882 0 -0.4281951023695143 -0.40102266493320532 0 -0.42089628469911827 -0.37612820863284591 0 -0.40139446399348361 -0.38776554810080882 0 -0.40704328149475222 -0.41602162915860041 0 -0.40139446399348361 -0.38776554810080882 0 -0.38513132625911939 -0.40249628858521058 0 -0.38513132625911939 -0.40249628858521058 0 -0.36791152532905752 -0.40939097156179138 0 -0.37494147391003102 -0.38718626649864601 0 -0.40139446399348361 -0.38776554810080882 0 -0.38513132625911939 -0.40249628858521058 0 -0.37494147391003102 -0.38718626649864601 0 -0.40139446399348361 -0.38776554810080882 0 -0.38864739629284478 -0.37358803665991203 0 -0.37494147391003102 -0.38718626649864601 0 -0.40704328149475222 -0.41602162915860041 0 -0.38589146061999008 -0.43102059338399551 0 -0.40704328149475222 -0.41602162915860041 0 -0.41099716969282479 -0.4344190863311328 0 -0.38589146061999008 -0.43102059338399551 0 -0.40704328149475222 -0.41602162915860041 0 -0.38513132625911939 -0.40249628858521058 0 -0.3825683938499011 -0.41720756293568267 0 -0.40704328149475222 -0.41602162915860041 0 -0.3825683938499011 -0.41720756293568267 0 -0.38589146061999008 -0.43102059338399551 0 -0.38513132625911939 -0.40249628858521058 0 -0.3825683938499011 -0.41720756293568267 0 -0.36791152532905752 -0.40939097156179138 0 -0.3825683938499011 -0.41720756293568267 0 -0.38589146061999008 -0.43102059338399551 0 -0.36686437554658652 -0.42710833198881581 0 -0.38589146061999008 -0.43102059338399551 0 -0.38071661097606729 -0.4504362562503097 0 -0.36473963974522788 -0.4460195576093906 0 -0.38589146061999008 -0.43102059338399551 0 -0.36473963974522788 -0.4460195576093906 0 -0.38589146061999008 -0.43102059338399551 0 -0.38071661097606729 -0.4504362562503097 0 -0.3987887142996418 -0.44824954428615721 0 -0.41099716969282479 -0.4344190863311328 0 -0.38589146061999008 -0.43102059338399551 0 -0.3987887142996418 -0.44824954428615721 0 -0.3987887142996418 -0.44824954428615721 0 -0.3834170792530821 -0.47412477214307952 0 -0.3987887142996418 -0.44824954428615721 0 -0.3834170792530821 -0.47412477214307952 0 -0.40627049207056282 -0.46605163612719602 0 -0.38071661097606729 -0.4504362562503097 0 -0.3834170792530821 -0.47412477214307952 0 -0.3690595195626194 -0.4589872873636125 0 -0.38071661097606729 -0.4504362562503097 0 -0.3987887142996418 -0.44824954428615721 0 -0.3834170792530821 -0.47412477214307952 0 -0.3834170792530821 -0.47412477214307952 0 -0.39757779672732002 -0.5 0 -0.36804544420652191 -0.50000000000000133 0 -0.3834170792530821 -0.47412477214307952 0 -0.36804544420652191 -0.50000000000000133 0 -0.3834170792530821 -0.47412477214307952 0 -0.39757779672732002 -0.5 0 -0.4093383027102272 -0.48413714586396528 0 -0.3834170792530821 -0.47412477214307952 0 -0.4093383027102272 -0.48413714586396528 0 -0.40627049207056282 -0.46605163612719602 0 -0.4093383027102272 -0.48413714586396528 0 -0.42406828670935232 -0.47348097578246062 0 -0.40627049207056282 -0.46605163612719602 0 -0.4093383027102272 -0.48413714586396528 0 -0.42711014924811808 -0.5 0 -0.42406828670935232 -0.47348097578246062 0 -0.39757779672732002 -0.5 0 -0.4093383027102272 -0.48413714586396528 0 -0.42711014924811808 -0.5 0 -0.4418902773561707 -0.48175554229659401 0 -0.42711014924811808 -0.5 0 -0.42406828670935232 -0.47348097578246062 0 -0.4418902773561707 -0.48175554229659401 0 -0.44175696065725573 -0.45628678592965521 0 -0.42406828670935232 -0.47348097578246062 0 -0.44175696065725573 -0.45628678592965521 0 -0.42406828670935232 -0.47348097578246062 0 -0.41846647411117333 -0.45258138579025292 0 -0.44175696065725573 -0.45628678592965521 0 -0.42955524590135852 -0.43868986677814847 0 -0.41846647411117333 -0.45258138579025292 0 -0.41099716969282479 -0.4344190863311328 0 -0.42955524590135852 -0.43868986677814847 0 -0.41846647411117333 -0.45258138579025292 0 -0.41099716969282479 -0.4344190863311328 0 -0.3987887142996418 -0.44824954428615721 0 -0.41846647411117333 -0.45258138579025292 0 -0.3987887142996418 -0.44824954428615721 0 -0.41846647411117333 -0.45258138579025292 0 -0.40627049207056282 -0.46605163612719602 0 -0.42406828670935232 -0.47348097578246062 0 -0.41846647411117333 -0.45258138579025292 0 -0.40627049207056282 -0.46605163612719602 0 -0.44751522815918809 -0.25729726868341207 0 -0.47907445362755119 -0.25549534773603921 0 -0.45491676699532968 -0.28212372019175952 0 -0.44751522815918809 -0.25729726868341207 0 -0.47907445362755119 -0.25549534773603921 0 -0.46631009223088599 -0.24029623575425851 0 -0.44751522815918809 -0.25729726868341207 0 -0.45491676699532968 -0.28212372019175952 0 -0.42618170300901109 -0.28560522790287618 0 -0.47907445362755119 -0.25549534773603921 0 -0.5 -0.27408063401246119 0 -0.48953722681377398 -0.2293897766599379 0 -0.47907445362755119 -0.25549534773603921 0 -0.5 -0.27408063401246119 0 -0.48033196514368143 -0.2862932808312918 0 -0.47907445362755119 -0.25549534773603921 0 -0.48033196514368143 -0.2862932808312918 0 -0.45491676699532968 -0.28212372019175952 0 -0.5 -0.27408063401246119 0 -0.48222840631435671 -0.3064384797584882 0 -0.5 -0.32863004516883848 0 -0.5 -0.27408063401246119 0 -0.48033196514368143 -0.2862932808312918 0 -0.48222840631435671 -0.3064384797584882 0 -0.48033196514368143 -0.2862932808312918 0 -0.46159690444313162 -0.30426104926482672 0 -0.48033196514368143 -0.2862932808312918 0 -0.48222840631435671 -0.3064384797584882 0 -0.46159690444313162 -0.30426104926482672 0 -0.48033196514368143 -0.2862932808312918 0 -0.46159690444313162 -0.30426104926482672 0 -0.45491676699532968 -0.28212372019175952 0 -0.45491676699532968 -0.28212372019175952 0 -0.43480034758941483 -0.3037901467321113 0 -0.42618170300901109 -0.28560522790287618 0 -0.46159690444313162 -0.30426104926482672 0 -0.45491676699532968 -0.28212372019175952 0 -0.43480034758941483 -0.3037901467321113 0 -0.46159690444313162 -0.30426104926482672 0 -0.44286184374258181 -0.32222881769836159 0 -0.43480034758941483 -0.3037901467321113 0 -0.5 -0.40194873453805408 0 -0.47723926971091502 -0.37883738684114437 0 -0.5 -0.32863004516883848 0 -0.46159690444313162 -0.30426104926482672 0 -0.44286184374258181 -0.32222881769836159 0 -0.44286184374258181 -0.32222881769836159 0 -0.44545266361399111 -0.33986546587245547 0 -0.46669516812411538 -0.32738828931040398 0 -0.44545266361399111 -0.33986546587245547 0 -0.46669516812411538 -0.32738828931040398 0 -0.47525891843354978 -0.34995572757458282 0 -0.46159690444313162 -0.30426104926482672 0 -0.44286184374258181 -0.32222881769836159 0 -0.46669516812411538 -0.32738828931040398 0 -0.46669516812411538 -0.32738828931040398 0 -0.5 -0.32863004516883848 0 -0.47525891843354978 -0.34995572757458282 0 -0.48222840631435671 -0.3064384797584882 0 -0.46669516812411538 -0.32738828931040398 0 -0.5 -0.32863004516883848 0 -0.48222840631435671 -0.3064384797584882 0 -0.46159690444313162 -0.30426104926482672 0 -0.46669516812411538 -0.32738828931040398 0 -0.47723926971091502 -0.37883738684114437 0 -0.5 -0.32863004516883848 0 -0.47525891843354978 -0.34995572757458282 0 -0.47723926971091502 -0.37883738684114437 0 -0.47525891843354978 -0.34995572757458282 0 -0.46227966941263993 -0.3625775065146376 0 -0.47723926971091502 -0.37883738684114437 0 -0.46063227861286149 -0.37802114421650379 0 -0.46227966941263993 -0.3625775065146376 0 -0.46063227861286149 -0.37802114421650379 0 -0.46227966941263993 -0.3625775065146376 0 -0.44739979342913311 -0.36294458329013229 0 -0.44545266361399111 -0.33986546587245547 0 -0.47525891843354978 -0.34995572757458282 0 -0.46227966941263993 -0.3625775065146376 0 -0.44545266361399111 -0.33986546587245547 0 -0.44739979342913311 -0.36294458329013229 0 -0.43030886659497392 -0.35852314400993812 0 -0.44545266361399111 -0.33986546587245547 0 -0.46227966941263993 -0.3625775065146376 0 -0.44739979342913311 -0.36294458329013229 0 -0.44545266361399111 -0.33986546587245547 0 -0.44739979342913311 -0.36294458329013229 0 -0.43674333185042352 -0.37641919199672741 0 -0.44739979342913311 -0.36294458329013229 0 -0.43030886659497392 -0.35852314400993812 0 -0.44934692324427572 -0.38602370070780923 0 -0.44739979342913311 -0.36294458329013229 0 -0.43674333185042352 -0.37641919199672741 0 -0.42089628469911827 -0.37612820863284591 0 -0.43030886659497392 -0.35852314400993812 0 -0.44545266361399111 -0.33986546587245547 0 -0.43030886659497392 -0.35852314400993812 0 -0.42412678304203177 -0.34019658613189668 0 -0.43030886659497392 -0.35852314400993812 0 -0.40539172234148191 -0.35816435456543172 0 -0.42412678304203177 -0.34019658613189668 0 -0.40539172234148191 -0.35816435456543172 0 -0.40545726095397228 -0.33342364923325463 0 -0.42412678304203177 -0.34019658613189668 0 -0.40539172234148191 -0.35816435456543172 0 -0.42412678304203177 -0.34019658613189668 0 -0.42089628469911827 -0.37612820863284591 0 -0.43030886659497392 -0.35852314400993812 0 -0.40539172234148191 -0.35816435456543172 0 -0.42089628469911827 -0.37612820863284591 0 -0.40139446399348361 -0.38776554810080882 0 -0.40539172234148191 -0.35816435456543172 0 -0.40139446399348361 -0.38776554810080882 0 -0.38864739629284478 -0.37358803665991203 0 -0.40539172234148191 -0.35816435456543172 0 -0.40539172234148191 -0.35816435456543172 0 -0.38531018032108549 -0.33907566771317649 0 -0.37286192492638293 -0.36123597747476138 0 -0.38864739629284478 -0.37358803665991203 0 -0.40539172234148191 -0.35816435456543172 0 -0.37286192492638293 -0.36123597747476138 0 -0.38864739629284478 -0.37358803665991203 0 -0.37286192492638293 -0.36123597747476138 0 -0.37494147391003102 -0.38718626649864601 0 -0.40539172234148191 -0.35816435456543172 0 -0.40545726095397228 -0.33342364923325463 0 -0.38531018032108549 -0.33907566771317649 0 -0.40545726095397228 -0.33342364923325463 0 -0.38531018032108549 -0.33907566771317649 0 -0.39316441921368328 -0.31604462385908738 0 -0.38531018032108549 -0.33907566771317649 0 -0.39316441921368328 -0.31604462385908738 0 -0.37108392967224652 -0.3170082190878597 0 -0.40545726095397228 -0.33342364923325463 0 -0.39316441921368328 -0.31604462385908738 0 -0.41795827650616701 -0.3177796642102107 0 -0.40545726095397228 -0.33342364923325463 0 -0.41795827650616701 -0.3177796642102107 0 -0.42412678304203177 -0.34019658613189668 0 -0.44286184374258181 -0.32222881769836159 0 -0.42412678304203177 -0.34019658613189668 0 -0.44286184374258181 -0.32222881769836159 0 -0.44545266361399111 -0.33986546587245547 0 -0.42412678304203177 -0.34019658613189668 0 -0.44286184374258181 -0.32222881769836159 0 -0.41795827650616701 -0.3177796642102107 0 -0.42412678304203177 -0.34019658613189668 0 -0.44286184374258181 -0.32222881769836159 0 -0.41795827650616701 -0.3177796642102107 0 -0.43480034758941483 -0.3037901467321113 0 -0.43480034758941483 -0.3037901467321113 0 -0.42618170300901109 -0.28560522790287618 0 -0.40924182331169912 -0.29980218212012971 0 -0.42618170300901109 -0.28560522790287618 0 -0.40071275492830161 -0.27750882383617831 0 -0.42618170300901109 -0.28560522790287618 0 -0.40924182331169912 -0.29980218212012971 0 -0.40071275492830161 -0.27750882383617831 0 -0.41795827650616701 -0.3177796642102107 0 -0.43480034758941483 -0.3037901467321113 0 -0.40924182331169912 -0.29980218212012971 0 -0.39316441921368328 -0.31604462385908738 0 -0.41795827650616701 -0.3177796642102107 0 -0.40924182331169912 -0.29980218212012971 0 -0.39316441921368328 -0.31604462385908738 0 -0.40924182331169912 -0.29980218212012971 0 -0.38263343862361771 -0.29808460618031479 0 -0.39316441921368328 -0.31604462385908738 0 -0.38263343862361771 -0.29808460618031479 0 -0.37108392967224652 -0.3170082190878597 0 -0.38263343862361771 -0.29808460618031479 0 -0.40071275492830161 -0.27750882383617831 0 -0.37476378069317839 -0.28447037374388823 0 -0.40924182331169912 -0.29980218212012971 0 -0.38263343862361771 -0.29808460618031479 0 -0.40071275492830161 -0.27750882383617831 0 -0.37524380684759201 -0.26941241976948033 0 -0.39194677310835552 -0.25566444093544283 0 -0.37780692922792158 -0.23807922274995119 0 -0.40071275492830161 -0.27750882383617831 0 -0.37524380684759201 -0.26941241976948033 0 -0.37476378069317839 -0.28447037374388823 0 -0.40071275492830161 -0.27750882383617831 0 -0.37524380684759201 -0.26941241976948033 0 -0.39194677310835552 -0.25566444093544283 0 -0.40071275492830161 -0.27750882383617831 0 -0.37524380684759201 -0.26941241976948033 0 -0.40071275492830161 -0.27750882383617831 0 -0.39194677310835552 -0.25566444093544283 0 -0.42050334194304301 -0.26152975791797672 0 -0.39194677310835552 -0.25566444093544283 0 -0.42050334194304301 -0.26152975791797672 0 -0.40764792715735171 -0.2429427266549983 0 -0.42050334194304301 -0.26152975791797672 0 -0.43236564191033428 -0.24645372493203599 0 -0.40764792715735171 -0.2429427266549983 0 -0.42618170300901109 -0.28560522790287618 0 -0.40071275492830161 -0.27750882383617831 0 -0.42050334194304301 -0.26152975791797672 0 -0.44751522815918809 -0.25729726868341207 0 -0.42618170300901109 -0.28560522790287618 0 -0.42050334194304301 -0.26152975791797672 0 -0.44751522815918809 -0.25729726868341207 0 -0.42050334194304301 -0.26152975791797672 0 -0.43236564191033428 -0.24645372493203599 0 -0.32430591068617282 -0.25321961163608447 0 -0.32356720886040308 -0.27278828722040238 0 -0.33571343384910091 -0.26885906401951692 0 -0.32430591068617282 -0.25321961163608447 0 -0.32356720886040308 -0.27278828722040238 0 -0.30876465948446402 -0.26902062747230587 0 -0.32356720886040308 -0.27278828722040238 0 -0.31416856374581231 -0.29139524820457219 0 -0.30876465948446402 -0.26902062747230587 0 -0.32356720886040308 -0.27278828722040238 0 -0.33571343384910091 -0.26885906401951692 0 -0.33488347653646577 -0.28144688476953239 0 -0.33571343384910091 -0.26885906401951692 0 -0.34697670476062642 -0.27429673006352601 0 -0.33488347653646577 -0.28144688476953239 0 -0.34697670476062642 -0.27429673006352601 0 -0.34647867644199137 -0.28688970377575018 0 -0.33488347653646577 -0.28144688476953239 0 -0.32430591068617282 -0.25321961163608447 0 -0.34977485876688241 -0.26131601570278251 0 -0.33990594190953799 -0.24414370118103401 0 -0.32430591068617282 -0.25321961163608447 0 -0.33571343384910091 -0.26885906401951692 0 -0.34977485876688241 -0.26131601570278251 0 -0.32430591068617282 -0.25321961163608447 0 -0.34977485876688241 -0.26131601570278251 0 -0.34977485876688241 -0.26131601570278251 0 -0.36015300461917221 -0.26088545089158299 0 -0.35471287504477877 -0.24494242047594239 0 -0.37524380684759201 -0.26941241976948033 0 -0.36015300461917221 -0.26088545089158299 0 -0.37780692922792158 -0.23807922274995119 0 -0.34977485876688241 -0.26131601570278251 0 -0.35471287504477877 -0.24494242047594239 0 -0.33990594190953799 -0.24414370118103401 0 -0.37524380684759201 -0.26941241976948033 0 -0.34977485876688241 -0.26131601570278251 0 -0.36015300461917221 -0.26088545089158299 0 -0.37524380684759201 -0.26941241976948033 0 -0.34977485876688241 -0.26131601570278251 0 -0.37524380684759201 -0.26941241976948033 0 -0.3588731948879994 -0.27984953781366428 0 -0.35771714131577498 -0.27121867583736331 0 -0.37524380684759201 -0.26941241976948033 0 -0.34977485876688241 -0.26131601570278251 0 -0.35771714131577498 -0.27121867583736331 0 -0.37524380684759201 -0.26941241976948033 0 -0.3588731948879994 -0.27984953781366428 0 -0.37476378069317839 -0.28447037374388823 0 -0.3588731948879994 -0.27984953781366428 0 -0.35771714131577498 -0.27121867583736331 0 -0.34697670476062642 -0.27429673006352601 0 -0.34977485876688241 -0.26131601570278251 0 -0.35771714131577498 -0.27121867583736331 0 -0.34697670476062642 -0.27429673006352601 0 -0.33571343384910091 -0.26885906401951692 0 -0.34977485876688241 -0.26131601570278251 0 -0.34697670476062642 -0.27429673006352601 0 -0.3588731948879994 -0.27984953781366428 0 -0.34697670476062642 -0.27429673006352601 0 -0.34647867644199137 -0.28688970377575018 0 -0.34647867644199137 -0.28688970377575018 0 -0.35635570817838158 -0.29749648111980342 0 -0.33530429784648341 -0.30135888511222508 0 -0.3588731948879994 -0.27984953781366428 0 -0.34647867644199137 -0.28688970377575018 0 -0.35635570817838158 -0.29749648111980342 0 -0.38263343862361771 -0.29808460618031479 0 -0.37476378069317839 -0.28447037374388823 0 -0.35635570817838158 -0.29749648111980342 0 -0.3588731948879994 -0.27984953781366428 0 -0.37476378069317839 -0.28447037374388823 0 -0.35635570817838158 -0.29749648111980342 0 -0.35635570817838158 -0.29749648111980342 0 -0.35109624349615831 -0.3185371698854309 0 -0.37108392967224652 -0.3170082190878597 0 -0.38263343862361771 -0.29808460618031479 0 -0.35635570817838158 -0.29749648111980342 0 -0.37108392967224652 -0.3170082190878597 0 -0.35635570817838158 -0.29749648111980342 0 -0.33530429784648341 -0.30135888511222508 0 -0.35109624349615831 -0.3185371698854309 0 -0.33530429784648341 -0.30135888511222508 0 -0.33488347653646577 -0.28144688476953239 0 -0.31416856374581231 -0.29139524820457219 0 -0.34647867644199137 -0.28688970377575018 0 -0.33530429784648341 -0.30135888511222508 0 -0.33488347653646577 -0.28144688476953239 0 -0.32356720886040308 -0.27278828722040238 0 -0.33488347653646577 -0.28144688476953239 0 -0.31416856374581231 -0.29139524820457219 0 -0.33530429784648341 -0.30135888511222508 0 -0.31416856374581231 -0.29139524820457219 0 -0.31926080542162649 -0.31287684572582841 0 -0.31926080542162649 -0.31287684572582841 0 -0.33285451500668439 -0.32443380081241469 0 -0.31206404961264378 -0.3322168165783792 0 -0.32507476096087501 -0.34274994898806649 0 -0.31565398713330561 -0.35593537231161743 0 -0.31206404961264378 -0.3322168165783792 0 -0.32507476096087501 -0.34274994898806649 0 -0.33285451500668439 -0.32443380081241469 0 -0.31206404961264378 -0.3322168165783792 0 -0.32507476096087501 -0.34274994898806649 0 -0.34361195581972509 -0.33781120688065958 0 -0.33285451500668439 -0.32443380081241469 0 -0.33530429784648341 -0.30135888511222508 0 -0.33285451500668439 -0.32443380081241469 0 -0.35109624349615831 -0.3185371698854309 0 -0.34361195581972509 -0.33781120688065958 0 -0.33285451500668439 -0.32443380081241469 0 -0.35109624349615831 -0.3185371698854309 0 -0.33530429784648341 -0.30135888511222508 0 -0.31926080542162649 -0.31287684572582841 0 -0.33285451500668439 -0.32443380081241469 0 -0.35109624349615831 -0.3185371698854309 0 -0.37108392967224652 -0.3170082190878597 0 -0.36301503343016528 -0.33729259274968598 0 -0.38531018032108549 -0.33907566771317649 0 -0.37108392967224652 -0.3170082190878597 0 -0.36301503343016528 -0.33729259274968598 0 -0.34361195581972509 -0.33781120688065958 0 -0.35109624349615831 -0.3185371698854309 0 -0.36301503343016528 -0.33729259274968598 0 -0.34361195581972509 -0.33781120688065958 0 -0.36301503343016528 -0.33729259274968598 0 -0.35243490625858842 -0.35292368742369867 0 -0.34361195581972509 -0.33781120688065958 0 -0.35243490625858842 -0.35292368742369867 0 -0.33719627576587891 -0.35093004142466022 0 -0.36301503343016528 -0.33729259274968598 0 -0.35243490625858842 -0.35292368742369867 0 -0.37286192492638293 -0.36123597747476138 0 -0.38531018032108549 -0.33907566771317649 0 -0.36301503343016528 -0.33729259274968598 0 -0.37286192492638293 -0.36123597747476138 0 -0.37286192492638293 -0.36123597747476138 0 -0.34980743866496788 -0.36872877810499027 0 -0.35880049029492439 -0.38038687460091292 0 -0.35243490625858842 -0.35292368742369867 0 -0.37286192492638293 -0.36123597747476138 0 -0.34980743866496788 -0.36872877810499027 0 -0.35243490625858842 -0.35292368742369867 0 -0.34980743866496788 -0.36872877810499027 0 -0.33650287208452601 -0.36304320074714391 0 -0.34980743866496788 -0.36872877810499027 0 -0.33609122698737909 -0.37457068137499022 0 -0.34541100581246698 -0.3818031767435115 0 -0.34980743866496788 -0.36872877810499027 0 -0.33609122698737909 -0.37457068137499022 0 -0.33650287208452601 -0.36304320074714391 0 -0.33609122698737909 -0.37457068137499022 0 -0.33650287208452601 -0.36304320074714391 0 -0.32159156026024488 -0.36692584721770138 0 -0.33650287208452601 -0.36304320074714391 0 -0.32720389124096599 -0.3559168821378379 0 -0.32159156026024488 -0.36692584721770138 0 -0.32507476096087501 -0.34274994898806649 0 -0.34361195581972509 -0.33781120688065958 0 -0.33719627576587891 -0.35093004142466022 0 -0.35243490625858842 -0.35292368742369867 0 -0.33650287208452601 -0.36304320074714391 0 -0.33719627576587891 -0.35093004142466022 0 -0.32507476096087501 -0.34274994898806649 0 -0.33719627576587891 -0.35093004142466022 0 -0.32720389124096599 -0.3559168821378379 0 -0.33650287208452601 -0.36304320074714391 0 -0.33719627576587891 -0.35093004142466022 0 -0.32720389124096599 -0.3559168821378379 0 -0.31565398713330561 -0.35593537231161743 0 -0.31206404961264378 -0.3322168165783792 0 -0.32507476096087501 -0.34274994898806649 0 -0.32720389124096599 -0.3559168821378379 0 -0.31565398713330561 -0.35593537231161743 0 -0.31565398713330561 -0.35593537231161743 0 -0.30861606156995441 -0.36823990918037808 0 -0.31924392465396739 -0.37965392804485559 0 -0.31565398713330561 -0.35593537231161743 0 -0.31924392465396739 -0.37965392804485559 0 -0.31565398713330561 -0.35593537231161743 0 -0.32159156026024488 -0.36692584721770138 0 -0.31924392465396739 -0.37965392804485559 0 -0.32720389124096599 -0.3559168821378379 0 -0.31565398713330561 -0.35593537231161743 0 -0.32159156026024488 -0.36692584721770138 0 -0.2979913325718696 -0.36047510738532179 0 -0.30861606156995441 -0.36823990918037808 0 -0.30706578425633352 -0.35935010721947602 0 -0.2979913325718696 -0.36047510738532179 0 -0.29798709164564691 -0.37156528738488392 0 -0.30861606156995441 -0.36823990918037808 0 -0.29798709164564691 -0.37156528738488392 0 -0.30861606156995441 -0.36823990918037808 0 -0.30679259434477119 -0.37826521245862432 0 -0.31565398713330561 -0.35593537231161743 0 -0.30861606156995441 -0.36823990918037808 0 -0.30706578425633352 -0.35935010721947602 0 -0.2979913325718696 -0.36047510738532179 0 -0.30359058690150648 -0.34563027960839371 0 -0.28958752031042839 -0.3323677794863113 0 -0.31565398713330561 -0.35593537231161743 0 -0.30706578425633352 -0.35935010721947602 0 -0.30359058690150648 -0.34563027960839371 0 -0.31565398713330561 -0.35593537231161743 0 -0.30359058690150648 -0.34563027960839371 0 -0.31206404961264378 -0.3322168165783792 0 -0.2979913325718696 -0.36047510738532179 0 -0.30706578425633352 -0.35935010721947602 0 -0.30359058690150648 -0.34563027960839371 0 -0.28864269168997703 -0.36323470038617228 0 -0.27623815596808737 -0.34240350764888611 0 -0.2979913325718696 -0.36047510738532179 0 -0.28958752031042839 -0.3323677794863113 0 -0.2979913325718696 -0.36047510738532179 0 -0.28864269168997703 -0.36323470038617228 0 -0.27623815596808737 -0.34240350764888611 0 -0.2979913325718696 -0.36047510738532179 0 -0.27623815596808737 -0.34240350764888611 0 -0.28958752031042839 -0.3323677794863113 0 -0.2979913325718696 -0.36047510738532179 0 -0.29798709164564691 -0.37156528738488392 0 -0.28864269168997703 -0.36323470038617228 0 -0.29798709164564691 -0.37156528738488392 0 -0.28864269168997703 -0.36323470038617228 0 -0.28489988464892418 -0.37638961154645778 0 -0.28864269168997703 -0.36323470038617228 0 -0.27820594333017978 -0.36814641930529712 0 -0.28489988464892418 -0.37638961154645778 0 -0.28864269168997703 -0.36323470038617228 0 -0.27820594333017978 -0.36814641930529712 0 -0.27146670317426819 -0.36037672755938932 0 -0.27820594333017978 -0.36814641930529712 0 -0.27050958203810649 -0.37368082221002602 0 -0.28489988464892418 -0.37638961154645778 0 -0.27820594333017978 -0.36814641930529712 0 -0.27146670317426819 -0.36037672755938932 0 -0.27050958203810649 -0.37368082221002602 0 -0.27146670317426819 -0.36037672755938932 0 -0.27050958203810649 -0.37368082221002602 0 -0.25411823777705178 -0.37005376561696479 0 -0.27146670317426819 -0.36037672755938932 0 -0.25411823777705178 -0.37005376561696479 0 -0.26270346426377728 -0.34761056941625329 0 -0.25411823777705178 -0.37005376561696479 0 -0.26270346426377728 -0.34761056941625329 0 -0.24786060415328129 -0.34364653134442652 0 -0.27146670317426819 -0.36037672755938932 0 -0.26270346426377728 -0.34761056941625329 0 -0.27623815596808737 -0.34240350764888611 0 -0.28864269168997703 -0.36323470038617228 0 -0.27146670317426819 -0.36037672755938932 0 -0.27623815596808737 -0.34240350764888611 0 -0.27623815596808737 -0.34240350764888611 0 -0.26383362024619789 -0.32157231491159988 0 -0.27623815596808737 -0.34240350764888611 0 -0.26383362024619789 -0.32157231491159988 0 -0.28958752031042839 -0.3323677794863113 0 -0.26270346426377728 -0.34761056941625329 0 -0.27623815596808737 -0.34240350764888611 0 -0.26383362024619789 -0.32157231491159988 0 -0.26270346426377728 -0.34761056941625329 0 -0.26383362024619789 -0.32157231491159988 0 -0.24786060415328129 -0.34364653134442652 0 -0.26383362024619789 -0.32157231491159988 0 -0.2514290845243084 -0.30074112217431381 0 -0.23772176552187679 -0.32069741309768929 0 -0.26383362024619789 -0.32157231491159988 0 -0.28958752031042839 -0.3323677794863113 0 -0.28118370804898718 -0.30426045158730092 0 -0.28958752031042839 -0.3323677794863113 0 -0.28118370804898718 -0.30426045158730092 0 -0.28958752031042839 -0.3323677794863113 0 -0.30139077811245818 -0.31093762735745922 0 -0.28118370804898718 -0.30426045158730092 0 -0.30359058690150648 -0.34563027960839371 0 -0.28958752031042839 -0.3323677794863113 0 -0.31206404961264378 -0.3322168165783792 0 -0.28958752031042839 -0.3323677794863113 0 -0.31206404961264378 -0.3322168165783792 0 -0.30139077811245818 -0.31093762735745922 0 -0.31926080542162649 -0.31287684572582841 0 -0.31206404961264378 -0.3322168165783792 0 -0.30139077811245818 -0.31093762735745922 0 -0.31416856374581231 -0.29139524820457219 0 -0.31926080542162649 -0.31287684572582841 0 -0.30139077811245818 -0.31093762735745922 0 -0.31416856374581231 -0.29139524820457219 0 -0.29347422976667942 -0.28377418594643089 0 -0.31416856374581231 -0.29139524820457219 0 -0.30139077811245818 -0.31093762735745922 0 -0.29347422976667942 -0.28377418594643089 0 -0.31416856374581231 -0.29139524820457219 0 -0.29347422976667942 -0.28377418594643089 0 -0.30876465948446402 -0.26902062747230587 0 -0.29347422976667942 -0.28377418594643089 0 -0.28118370804898718 -0.30426045158730092 0 -0.27277989578754641 -0.27615312368829031 0 -0.30139077811245818 -0.31093762735745922 0 -0.29347422976667942 -0.28377418594643089 0 -0.28118370804898718 -0.30426045158730092 0 -0.26383362024619789 -0.32157231491159988 0 -0.28118370804898718 -0.30426045158730092 0 -0.26565383800534931 -0.29770312188275311 0 -0.26383362024619789 -0.32157231491159988 0 -0.26565383800534931 -0.29770312188275311 0 -0.2514290845243084 -0.30074112217431381 0 -0.26383362024619789 -0.32157231491159988 0 -0.2514290845243084 -0.30074112217431381 0 -0.2514290845243084 -0.30074112217431381 0 -0.25904288141970672 -0.28578859705226067 0 -0.2504921355384786 -0.27933653031883537 0 -0.26565383800534931 -0.29770312188275311 0 -0.2514290845243084 -0.30074112217431381 0 -0.25904288141970672 -0.28578859705226067 0 -0.28118370804898718 -0.30426045158730092 0 -0.27277989578754641 -0.27615312368829031 0 -0.28118370804898718 -0.30426045158730092 0 -0.26565383800534931 -0.29770312188275311 0 -0.27277989578754641 -0.27615312368829031 0 -0.26565383800534931 -0.29770312188275311 0 -0.25904288141970672 -0.28578859705226067 0 -0.27277989578754641 -0.27615312368829031 0 -0.27039983795990519 -0.26819280000435392 0 -0.27277989578754641 -0.27615312368829031 0 -0.28132165967320882 -0.27029664606334958 0 -0.27039983795990519 -0.26819280000435392 0 -0.27277989578754641 -0.27615312368829031 0 -0.27039983795990519 -0.26819280000435392 0 -0.27277989578754641 -0.27615312368829031 0 -0.26463925571377511 -0.26752141066430252 0 -0.27039983795990519 -0.26819280000435392 0 -0.26463925571377511 -0.26752141066430252 0 -0.26625185319353689 -0.26213242343221049 0 -0.25904288141970672 -0.28578859705226067 0 -0.25483627904399642 -0.26954506273417939 0 -0.2504921355384786 -0.27933653031883537 0 -0.25904288141970672 -0.28578859705226067 0 -0.27277989578754641 -0.27615312368829031 0 -0.25483627904399642 -0.26954506273417939 0 -0.27277989578754641 -0.27615312368829031 0 -0.25483627904399642 -0.26954506273417939 0 -0.27277989578754641 -0.27615312368829031 0 -0.26463925571377511 -0.26752141066430252 0 -0.25483627904399642 -0.26954506273417939 0 -0.26463925571377511 -0.26752141066430252 0 -0.25483627904399642 -0.26954506273417939 0 -0.25892841258389032 -0.26158364346247859 0 -0.25483627904399642 -0.26954506273417939 0 -0.25892841258389032 -0.26158364346247859 0 -0.24552228452451999 -0.26611501602784698 0 -0.25483627904399642 -0.26954506273417939 0 -0.24552228452451999 -0.26611501602784698 0 -0.24454988477764869 -0.25749770810531208 0 -0.2589589496512007 -0.24726225580399791 0 -0.25892841258389032 -0.26158364346247859 0 -0.24454988477764869 -0.25749770810531208 0 -0.2589589496512007 -0.24726225580399791 0 -0.25892841258389032 -0.26158364346247859 0 -0.24454988477764869 -0.25749770810531208 0 -0.25892841258389032 -0.26158364346247859 0 -0.26725718232416801 -0.25389859205194781 0 -0.26625185319353689 -0.26213242343221049 0 -0.26463925571377511 -0.26752141066430252 0 -0.25892841258389032 -0.26158364346247859 0 -0.26625185319353689 -0.26213242343221049 0 -0.25892841258389032 -0.26158364346247859 0 -0.26725718232416801 -0.25389859205194781 0 -0.2589589496512007 -0.24726225580399791 0 -0.26725718232416801 -0.25389859205194781 0 -0.26625185319353689 -0.26213242343221049 0 -0.27810165793155861 -0.25747132149105112 0 -0.27039983795990519 -0.26819280000435392 0 -0.26625185319353689 -0.26213242343221049 0 -0.27810165793155861 -0.25747132149105112 0 -0.27039983795990519 -0.26819280000435392 0 -0.27810165793155861 -0.25747132149105112 0 -0.28132165967320882 -0.27029664606334958 0 -0.27810165793155861 -0.25747132149105112 0 -0.2918526769203546 -0.26589179918662209 0 -0.29883696260546339 -0.2451232075693866 0 -0.27810165793155861 -0.25747132149105112 0 -0.28132165967320882 -0.27029664606334958 0 -0.2918526769203546 -0.26589179918662209 0 -0.29347422976667942 -0.28377418594643089 0 -0.27277989578754641 -0.27615312368829031 0 -0.29347422976667942 -0.28377418594643089 0 -0.27277989578754641 -0.27615312368829031 0 -0.28132165967320882 -0.27029664606334958 0 -0.29347422976667942 -0.28377418594643089 0 -0.28132165967320882 -0.27029664606334958 0 -0.2918526769203546 -0.26589179918662209 0 -0.29347422976667942 -0.28377418594643089 0 -0.2918526769203546 -0.26589179918662209 0 -0.30876465948446402 -0.26902062747230587 0 -0.2918526769203546 -0.26589179918662209 0 -0.30876465948446402 -0.26902062747230587 0 -0.29883696260546339 -0.2451232075693866 0 -0.32430591068617282 -0.25321961163608447 0 -0.30876465948446402 -0.26902062747230587 0 -0.29883696260546339 -0.2451232075693866 0 -0.34070387063187391 -0.44890812280486159 0 -0.32673552176375931 -0.45926342863641878 0 -0.34391597724767481 -0.46248769604489992 0 -0.32673552176375931 -0.45926342863641878 0 -0.34413665328442189 -0.47980692487555021 0 -0.34391597724767481 -0.46248769604489992 0 -0.34070387063187391 -0.44890812280486159 0 -0.3248744219704372 -0.44319375633310693 0 -0.34747634599010169 -0.43350166290582021 0 -0.34070387063187391 -0.44890812280486159 0 -0.3248744219704372 -0.44319375633310693 0 -0.32673552176375931 -0.45926342863641878 0 -0.3248744219704372 -0.44319375633310693 0 -0.31002613221508479 -0.43677298132399561 0 -0.30668794640389291 -0.44225560112653511 0 -0.3248744219704372 -0.44319375633310693 0 -0.32673552176375931 -0.45926342863641878 0 -0.30668794640389291 -0.44225560112653511 0 -0.32673552176375931 -0.45926342863641878 0 -0.30668794640389291 -0.44225560112653511 0 -0.32673552176375931 -0.45926342863641878 0 -0.30928733762356342 -0.46010499016793133 0 -0.31201595483115963 -0.47770134639006911 0 -0.32673552176375931 -0.45926342863641878 0 -0.30928733762356342 -0.46010499016793133 0 -0.30668794640389291 -0.44225560112653511 0 -0.32673552176375931 -0.45926342863641878 0 -0.32710994319331749 -0.48432020426099931 0 -0.31201595483115963 -0.47770134639006911 0 -0.32710994319331749 -0.48432020426099931 0 -0.33837172287629852 -0.5 0 -0.3086980015460753 -0.50004019725791848 0 -0.32710994319331749 -0.48432020426099931 0 -0.3086980015460753 -0.50004019725791848 0 -0.31201595483115963 -0.47770134639006911 0 -0.32710994319331749 -0.48432020426099931 0 -0.33837172287629852 -0.5 0 -0.34413665328442189 -0.47980692487555021 0 -0.32673552176375931 -0.45926342863641878 0 -0.32710994319331749 -0.48432020426099931 0 -0.34413665328442189 -0.47980692487555021 0 -0.34413665328442189 -0.47980692487555021 0 -0.36804544420652191 -0.50000000000000133 0 -0.36077988024239571 -0.47185004698261129 0 -0.34413665328442189 -0.47980692487555021 0 -0.36077988024239571 -0.47185004698261129 0 -0.34391597724767481 -0.46248769604489992 0 -0.33837172287629852 -0.5 0 -0.34413665328442189 -0.47980692487555021 0 -0.36804544420652191 -0.50000000000000133 0 -0.3834170792530821 -0.47412477214307952 0 -0.36804544420652191 -0.50000000000000133 0 -0.36077988024239571 -0.47185004698261129 0 -0.3834170792530821 -0.47412477214307952 0 -0.36077988024239571 -0.47185004698261129 0 -0.3690595195626194 -0.4589872873636125 0 -0.36077988024239571 -0.47185004698261129 0 -0.3690595195626194 -0.4589872873636125 0 -0.35610460790005399 -0.4556936014685265 0 -0.3690595195626194 -0.4589872873636125 0 -0.35610460790005399 -0.4556936014685265 0 -0.36473963974522788 -0.4460195576093906 0 -0.36077988024239571 -0.47185004698261129 0 -0.35610460790005399 -0.4556936014685265 0 -0.34391597724767481 -0.46248769604489992 0 -0.34070387063187391 -0.44890812280486159 0 -0.35610460790005399 -0.4556936014685265 0 -0.34391597724767481 -0.46248769604489992 0 -0.34070387063187391 -0.44890812280486159 0 -0.35610460790005399 -0.4556936014685265 0 -0.34747634599010169 -0.43350166290582021 0 -0.35610460790005399 -0.4556936014685265 0 -0.34747634599010169 -0.43350166290582021 0 -0.35610460790005399 -0.4556936014685265 0 -0.36473963974522788 -0.4460195576093906 0 -0.34747634599010169 -0.43350166290582021 0 -0.38071661097606729 -0.4504362562503097 0 -0.3690595195626194 -0.4589872873636125 0 -0.36473963974522788 -0.4460195576093906 0 -0.38589146061999008 -0.43102059338399551 0 -0.36473963974522788 -0.4460195576093906 0 -0.36686437554658652 -0.42710833198881581 0 -0.36473963974522788 -0.4460195576093906 0 -0.36686437554658652 -0.42710833198881581 0 -0.34747634599010169 -0.43350166290582021 0 -0.3825683938499011 -0.41720756293568267 0 -0.36686437554658652 -0.42710833198881581 0 -0.36791152532905752 -0.40939097156179138 0 -0.36686437554658652 -0.42710833198881581 0 -0.36791152532905752 -0.40939097156179138 0 -0.3546472763781523 -0.41550449093115938 0 -0.3546472763781523 -0.41550449093115938 0 -0.35213605094486661 -0.39621176385625623 0 -0.33884808408014938 -0.41130972434311391 0 -0.3546472763781523 -0.41550449093115938 0 -0.34747634599010169 -0.43350166290582021 0 -0.33884808408014938 -0.41130972434311391 0 -0.36791152532905752 -0.40939097156179138 0 -0.3546472763781523 -0.41550449093115938 0 -0.35213605094486661 -0.39621176385625623 0 -0.36686437554658652 -0.42710833198881581 0 -0.3546472763781523 -0.41550449093115938 0 -0.34747634599010169 -0.43350166290582021 0 -0.37494147391003102 -0.38718626649864601 0 -0.35213605094486661 -0.39621176385625623 0 -0.35880049029492439 -0.38038687460091292 0 -0.37286192492638293 -0.36123597747476138 0 -0.37494147391003102 -0.38718626649864601 0 -0.35880049029492439 -0.38038687460091292 0 -0.36791152532905752 -0.40939097156179138 0 -0.37494147391003102 -0.38718626649864601 0 -0.35213605094486661 -0.39621176385625623 0 -0.35213605094486661 -0.39621176385625623 0 -0.34541100581246698 -0.3818031767435115 0 -0.35880049029492439 -0.38038687460091292 0 -0.34980743866496788 -0.36872877810499027 0 -0.34541100581246698 -0.3818031767435115 0 -0.35880049029492439 -0.38038687460091292 0 -0.35213605094486661 -0.39621176385625623 0 -0.34541100581246698 -0.3818031767435115 0 -0.33021982217019707 -0.38911778578040768 0 -0.33609122698737909 -0.37457068137499022 0 -0.32159156026024488 -0.36692584721770138 0 -0.33021982217019707 -0.38911778578040768 0 -0.33609122698737909 -0.37457068137499022 0 -0.34541100581246698 -0.3818031767435115 0 -0.33021982217019707 -0.38911778578040768 0 -0.33021982217019707 -0.38911778578040768 0 -0.33884808408014938 -0.41130972434311391 0 -0.35213605094486661 -0.39621176385625623 0 -0.33021982217019707 -0.38911778578040768 0 -0.33884808408014938 -0.41130972434311391 0 -0.33021982217019707 -0.38911778578040768 0 -0.32283386217462928 -0.40337248377809393 0 -0.33884808408014938 -0.41130972434311391 0 -0.33021982217019707 -0.38911778578040768 0 -0.32283386217462928 -0.40337248377809393 0 -0.31924392465396739 -0.37965392804485559 0 -0.32283386217462928 -0.40337248377809393 0 -0.31924392465396739 -0.37965392804485559 0 -0.32159156026024488 -0.36692584721770138 0 -0.33021982217019707 -0.38911778578040768 0 -0.32159156026024488 -0.36692584721770138 0 -0.33021982217019707 -0.38911778578040768 0 -0.31924392465396739 -0.37965392804485559 0 -0.32283386217462928 -0.40337248377809393 0 -0.31924392465396739 -0.37965392804485559 0 -0.30950742870789849 -0.38772165988522722 0 -0.34747634599010169 -0.43350166290582021 0 -0.33884808408014938 -0.41130972434311391 0 -0.32642379969529112 -0.42709103951133209 0 -0.34747634599010169 -0.43350166290582021 0 -0.33884808408014938 -0.41130972434311391 0 -0.3248744219704372 -0.44319375633310693 0 -0.34747634599010169 -0.43350166290582021 0 -0.32642379969529112 -0.42709103951133209 0 -0.32283386217462928 -0.40337248377809393 0 -0.33884808408014938 -0.41130972434311391 0 -0.32642379969529112 -0.42709103951133209 0 -0.32283386217462928 -0.40337248377809393 0 -0.32642379969529112 -0.42709103951133209 0 -0.32283386217462928 -0.40337248377809393 0 -0.32642379969529112 -0.42709103951133209 0 -0.31131226455116001 -0.41597783346429568 0 -0.32283386217462928 -0.40337248377809393 0 -0.31131226455116001 -0.41597783346429568 0 -0.30420011064883262 -0.3995106203806727 0 -0.31533948201136741 -0.42782381077858972 0 -0.32642379969529112 -0.42709103951133209 0 -0.31131226455116001 -0.41597783346429568 0 -0.3248744219704372 -0.44319375633310693 0 -0.31533948201136741 -0.42782381077858972 0 -0.32642379969529112 -0.42709103951133209 0 -0.3248744219704372 -0.44319375633310693 0 -0.31533948201136741 -0.42782381077858972 0 -0.31002613221508479 -0.43677298132399561 0 -0.30410919953869892 -0.42722997339501789 0 -0.28672485496207251 -0.42531944751634698 0 -0.30668794640389291 -0.44225560112653511 0 -0.31533948201136741 -0.42782381077858972 0 -0.31002613221508479 -0.43677298132399561 0 -0.30410919953869892 -0.42722997339501789 0 -0.31002613221508479 -0.43677298132399561 0 -0.30410919953869892 -0.42722997339501789 0 -0.30668794640389291 -0.44225560112653511 0 -0.31533948201136741 -0.42782381077858972 0 -0.30410919953869892 -0.42722997339501789 0 -0.31131226455116001 -0.41597783346429568 0 -0.31131226455116001 -0.41597783346429568 0 -0.29350984341365882 -0.41172067100941218 0 -0.30420011064883262 -0.3995106203806727 0 -0.30410919953869892 -0.42722997339501789 0 -0.31131226455116001 -0.41597783346429568 0 -0.29350984341365882 -0.41172067100941218 0 -0.30410919953869892 -0.42722997339501789 0 -0.29350984341365882 -0.41172067100941218 0 -0.28672485496207251 -0.42531944751634698 0 -0.29350984341365882 -0.41172067100941218 0 -0.28672485496207251 -0.42531944751634698 0 -0.2667617635202521 -0.40838329390615891 0 -0.28672485496207251 -0.42531944751634698 0 -0.30668794640389291 -0.44225560112653511 0 -0.29798709164564691 -0.37156528738488392 0 -0.30679259434477119 -0.37826521245862432 0 -0.29860846514638872 -0.38414527779777657 0 -0.30861606156995441 -0.36823990918037808 0 -0.31924392465396739 -0.37965392804485559 0 -0.30679259434477119 -0.37826521245862432 0 -0.31924392465396739 -0.37965392804485559 0 -0.30679259434477119 -0.37826521245862432 0 -0.30950742870789849 -0.38772165988522722 0 -0.30679259434477119 -0.37826521245862432 0 -0.30950742870789849 -0.38772165988522722 0 -0.29860846514638872 -0.38414527779777657 0 -0.30950742870789849 -0.38772165988522722 0 -0.29860846514638872 -0.38414527779777657 0 -0.30420011064883262 -0.3995106203806727 0 -0.29860846514638872 -0.38414527779777657 0 -0.30420011064883262 -0.3995106203806727 0 -0.28795086726093688 -0.39390285739398118 0 -0.32283386217462928 -0.40337248377809393 0 -0.30950742870789849 -0.38772165988522722 0 -0.30420011064883262 -0.3995106203806727 0 -0.29350984341365882 -0.41172067100941218 0 -0.28795086726093688 -0.39390285739398118 0 -0.2667617635202521 -0.40838329390615891 0 -0.29350984341365882 -0.41172067100941218 0 -0.30420011064883262 -0.3995106203806727 0 -0.28795086726093688 -0.39390285739398118 0 -0.29860846514638872 -0.38414527779777657 0 -0.28795086726093688 -0.39390285739398118 0 -0.28489988464892418 -0.37638961154645778 0 -0.28795086726093688 -0.39390285739398118 0 -0.28489988464892418 -0.37638961154645778 0 -0.27465056207703309 -0.38320050885552082 0 -0.29798709164564691 -0.37156528738488392 0 -0.29860846514638872 -0.38414527779777657 0 -0.28489988464892418 -0.37638961154645778 0 -0.27050958203810649 -0.37368082221002602 0 -0.27465056207703309 -0.38320050885552082 0 -0.25971616122118252 -0.38391790037652651 0 -0.27050958203810649 -0.37368082221002602 0 -0.28489988464892418 -0.37638961154645778 0 -0.27465056207703309 -0.38320050885552082 0 -0.27465056207703309 -0.38320050885552082 0 -0.25971616122118252 -0.38391790037652651 0 -0.2667617635202521 -0.40838329390615891 0 -0.28795086726093688 -0.39390285739398118 0 -0.27465056207703309 -0.38320050885552082 0 -0.2667617635202521 -0.40838329390615891 0 -0.25971616122118252 -0.38391790037652651 0 -0.2667617635202521 -0.40838329390615891 0 -0.24679867207843029 -0.39144714029597261 0 -0.2667617635202521 -0.40838329390615891 0 -0.24679867207843029 -0.39144714029597261 0 -0.25278507215510421 -0.40401782343052561 0 -0.2667617635202521 -0.40838329390615891 0 -0.24679867207843029 -0.39144714029597261 0 -0.25411823777705178 -0.37005376561696479 0 -0.25971616122118252 -0.38391790037652651 0 -0.24679867207843029 -0.39144714029597261 0 -0.27050958203810649 -0.37368082221002602 0 -0.25411823777705178 -0.37005376561696479 0 -0.25971616122118252 -0.38391790037652651 0 -0.25411823777705178 -0.37005376561696479 0 -0.24679867207843029 -0.39144714029597261 0 -0.28672485496207251 -0.42531944751634698 0 -0.27378648631288982 -0.43298150932571772 0 -0.27894394365693459 -0.44646011011249842 0 -0.27378648631288982 -0.43298150932571772 0 -0.27235810606962041 -0.41926703266550691 0 -0.257119040562932 -0.44087944700851878 0 -0.28672485496207251 -0.42531944751634698 0 -0.27378648631288982 -0.43298150932571772 0 -0.27235810606962041 -0.41926703266550691 0 -0.28672485496207251 -0.42531944751634698 0 -0.2667617635202521 -0.40838329390615891 0 -0.27235810606962041 -0.41926703266550691 0 -0.28672485496207251 -0.42531944751634698 0 -0.2667617635202521 -0.40838329390615891 0 -0.2667617635202521 -0.40838329390615891 0 -0.27235810606962041 -0.41926703266550691 0 -0.25876688745518678 -0.41937487293987158 0 -0.2667617635202521 -0.40838329390615891 0 -0.25876688745518678 -0.41937487293987158 0 -0.25383257035148121 -0.41336057970423362 0 -0.25278507215510421 -0.40401782343052561 0 -0.25383257035148121 -0.41336057970423362 0 -0.24635151002356409 -0.41453556073199249 0 -0.25278507215510421 -0.40401782343052561 0 -0.2667617635202521 -0.40838329390615891 0 -0.25383257035148121 -0.41336057970423362 0 -0.25876688745518678 -0.41937487293987158 0 -0.25383257035148121 -0.41336057970423362 0 -0.2476389868817622 -0.42717888996817632 0 -0.27235810606962041 -0.41926703266550691 0 -0.25876688745518678 -0.41937487293987158 0 -0.257119040562932 -0.44087944700851878 0 -0.25876688745518678 -0.41937487293987158 0 -0.257119040562932 -0.44087944700851878 0 -0.2476389868817622 -0.42717888996817632 0 -0.27235810606962041 -0.41926703266550691 0 -0.257119040562932 -0.44087944700851878 0 -0.26115438459901041 -0.45717506045676642 0 -0.26143318937379523 -0.47347977431176808 0 -0.24187997505624381 -0.46249186135153081 0 -0.257119040562932 -0.44087944700851878 0 -0.26115438459901041 -0.45717506045676642 0 -0.24187997505624381 -0.46249186135153081 0 -0.26143318937379523 -0.47347977431176808 0 -0.24187997505624381 -0.46249186135153081 0 -0.26115438459901041 -0.45717506045676642 0 -0.27527101927374142 -0.46498885527046119 0 -0.26143318937379523 -0.47347977431176808 0 -0.26115438459901041 -0.45717506045676642 0 -0.27527101927374142 -0.46498885527046119 0 -0.27894394365693459 -0.44646011011249842 0 -0.27378648631288982 -0.43298150932571772 0 -0.257119040562932 -0.44087944700851878 0 -0.27894394365693459 -0.44646011011249842 0 -0.257119040562932 -0.44087944700851878 0 -0.26115438459901041 -0.45717506045676642 0 -0.27894394365693459 -0.44646011011249842 0 -0.27894394365693459 -0.44646011011249842 0 -0.29383717504761919 -0.46336164419926901 0 -0.30668794640389291 -0.44225560112653511 0 -0.28672485496207251 -0.42531944751634698 0 -0.27894394365693459 -0.44646011011249842 0 -0.30668794640389291 -0.44225560112653511 0 -0.27527101927374142 -0.46498885527046119 0 -0.27894394365693459 -0.44646011011249842 0 -0.29383717504761919 -0.46336164419926901 0 -0.29383717504761919 -0.46336164419926901 0 -0.30928733762356342 -0.46010499016793133 0 -0.2975640406243143 -0.47769563315258001 0 -0.29383717504761919 -0.46336164419926901 0 -0.30928733762356342 -0.46010499016793133 0 -0.30668794640389291 -0.44225560112653511 0 -0.29383717504761919 -0.46336164419926901 0 -0.30668794640389291 -0.44225560112653511 0 -0.31002613221508479 -0.43677298132399561 0 -0.30668794640389291 -0.44225560112653511 0 -0.3086980015460753 -0.50004019725791848 0 -0.31201595483115963 -0.47770134639006911 0 -0.29484220261871141 -0.49225394226496128 0 -0.3086980015460753 -0.50004019725791848 0 -0.29484220261871141 -0.49225394226496128 0 -0.29011364694359371 -0.5 0 -0.3086980015460753 -0.50004019725791848 0 -0.29484220261871141 -0.49225394226496128 0 -0.2975640406243143 -0.47769563315258001 0 -0.31201595483115963 -0.47770134639006911 0 -0.29484220261871141 -0.49225394226496128 0 -0.30928733762356342 -0.46010499016793133 0 -0.2975640406243143 -0.47769563315258001 0 -0.31201595483115963 -0.47770134639006911 0 -0.27527101927374142 -0.46498885527046119 0 -0.29383717504761919 -0.46336164419926901 0 -0.28098640369134759 -0.48446768727200401 0 -0.29383717504761919 -0.46336164419926901 0 -0.28098640369134759 -0.48446768727200401 0 -0.29383717504761919 -0.46336164419926901 0 -0.2975640406243143 -0.47769563315258001 0 -0.28098640369134759 -0.48446768727200401 0 -0.29484220261871141 -0.49225394226496128 0 -0.28098640369134759 -0.48446768727200401 0 -0.2975640406243143 -0.47769563315258001 0 -0.29484220261871141 -0.49225394226496128 0 -0.28098640369134759 -0.48446768727200401 0 -0.29484220261871141 -0.49225394226496128 0 -0.29011364694359371 -0.5 0 -0.28098640369134759 -0.48446768727200401 0 -0.28098640369134759 -0.48446768727200401 0 -0.27152929234111212 -0.50000000000000178 0 -0.2605243916440742 -0.48736275436770671 0 -0.29011364694359371 -0.5 0 -0.28098640369134759 -0.48446768727200401 0 -0.27152929234111212 -0.50000000000000178 0 -0.28098640369134759 -0.48446768727200401 0 -0.27152929234111212 -0.50000000000000178 0 -0.28098640369134759 -0.48446768727200401 0 -0.26143318937379523 -0.47347977431176808 0 -0.2605243916440742 -0.48736275436770671 0 -0.27527101927374142 -0.46498885527046119 0 -0.28098640369134759 -0.48446768727200401 0 -0.26143318937379523 -0.47347977431176808 0 -0.28098640369134759 -0.48446768727200401 0 -0.26143318937379523 -0.47347977431176808 0 -0.26143318937379523 -0.47347977431176808 0 -0.2605243916440742 -0.48736275436770671 0 -0.24621396186262709 -0.47991210305404253 0 -0.2605243916440742 -0.48736275436770671 0 -0.2434810073877455 -0.5 0 -0.24621396186262709 -0.47991210305404253 0 -0.27152929234111212 -0.50000000000000178 0 -0.2605243916440742 -0.48736275436770671 0 -0.2434810073877455 -0.5 0 -0.2434810073877455 -0.5 0 -0.24621396186262709 -0.47991210305404253 0 -0.22865634874531179 -0.48124593067576699 0 -0.26143318937379523 -0.47347977431176808 0 -0.24621396186262709 -0.47991210305404253 0 -0.24187997505624381 -0.46249186135153081 0 -0.24621396186262709 -0.47991210305404253 0 -0.22865634874531179 -0.48124593067576699 0 -0.24187997505624381 -0.46249186135153081 0 -0.22865634874531179 -0.48124593067576699 0 -0.24187997505624381 -0.46249186135153081 0 -0.22865634874531179 -0.48124593067576699 0 -0.23098002792343519 -0.46884530255735851 0 -0.24187997505624381 -0.46249186135153081 0 -0.22865634874531179 -0.48124593067576699 0 -0.23098002792343519 -0.46884530255735851 0 -0.21800844742381051 -0.47811557344673122 0 -0.2434810073877455 -0.5 0 -0.22865634874531179 -0.48124593067576699 0 -0.21543272243437889 -0.50000000000000244 0 -0.22865634874531179 -0.48124593067576699 0 -0.21543272243437889 -0.50000000000000244 0 -0.21800844742381051 -0.47811557344673122 0 -0.22865634874531179 -0.48124593067576699 0 -0.21543272243437889 -0.50000000000000244 0 -0.257119040562932 -0.44087944700851878 0 -0.23918894669088919 -0.4417050184308175 0 -0.2422317172025201 -0.45032686842108172 0 -0.257119040562932 -0.44087944700851878 0 -0.24187997505624381 -0.46249186135153081 0 -0.257119040562932 -0.44087944700851878 0 -0.2422317172025201 -0.45032686842108172 0 -0.24187997505624381 -0.46249186135153081 0 -0.23918894669088919 -0.4417050184308175 0 -0.23073890650001619 -0.45623114689345862 0 -0.23918894669088919 -0.4417050184308175 0 -0.2422317172025201 -0.45032686842108172 0 -0.23073890650001619 -0.45623114689345862 0 -0.24187997505624381 -0.46249186135153081 0 -0.23073890650001619 -0.45623114689345862 0 -0.2422317172025201 -0.45032686842108172 0 -0.24187997505624381 -0.46249186135153081 0 -0.23073890650001619 -0.45623114689345862 0 -0.23098002792343519 -0.46884530255735851 0 -0.24187997505624381 -0.46249186135153081 0 -0.23073890650001619 -0.45623114689345862 0 -0.23073890650001619 -0.45623114689345862 0 -0.21523072231492049 -0.45997308976628931 0 -0.21800844742381051 -0.47811557344673122 0 -0.23073890650001619 -0.45623114689345862 0 -0.21800844742381051 -0.47811557344673122 0 -0.23098002792343519 -0.46884530255735851 0 -0.23073890650001619 -0.45623114689345862 0 -0.21800844742381051 -0.47811557344673122 0 -0.22555664095438929 -0.45331897696438911 0 -0.21747519618713079 -0.44877761561819041 0 -0.21523072231492049 -0.45997308976628931 0 -0.22555664095438929 -0.45331897696438911 0 -0.23073890650001619 -0.45623114689345862 0 -0.21523072231492049 -0.45997308976628931 0 -0.22555664095438929 -0.45331897696438911 0 -0.23073890650001619 -0.45623114689345862 0 -0.22555664095438929 -0.45331897696438911 0 -0.2228254897013815 -0.44374926620882132 0 -0.2278394003245621 -0.43330761624069392 0 -0.22555664095438929 -0.45331897696438911 0 -0.2278394003245621 -0.43330761624069392 0 -0.2345348941729859 -0.42729128822954981 0 -0.23918894669088919 -0.4417050184308175 0 -0.22555664095438929 -0.45331897696438911 0 -0.2345348941729859 -0.42729128822954981 0 -0.22555664095438929 -0.45331897696438911 0 -0.2345348941729859 -0.42729128822954981 0 -0.23918894669088919 -0.4417050184308175 0 -0.22555664095438929 -0.45331897696438911 0 -0.23073890650001619 -0.45623114689345862 0 -0.22555664095438929 -0.45331897696438911 0 -0.21747519618713079 -0.44877761561819041 0 -0.22555664095438929 -0.45331897696438911 0 -0.2228254897013815 -0.44374926620882132 0 -0.21747519618713079 -0.44877761561819041 0 -0.22024384916013581 -0.43992539885114967 0 -0.2228254897013815 -0.44374926620882132 0 -0.21747519618713079 -0.44877761561819041 0 -0.22024384916013581 -0.43992539885114967 0 -0.2228254897013815 -0.44374926620882132 0 -0.2278394003245621 -0.43330761624069392 0 -0.20421148587424259 -0.4413240843429273 0 -0.21747519618713079 -0.44877761561819041 0 -0.20421148587424259 -0.4413240843429273 0 -0.2141465979365792 -0.43863267996258581 0 -0.21747519618713079 -0.44877761561819041 0 -0.22024384916013581 -0.43992539885114967 0 -0.2141465979365792 -0.43863267996258581 0 -0.21747519618713079 -0.44877761561819041 0 -0.20421148587424259 -0.4413240843429273 0 -0.21747519618713079 -0.44877761561819041 0 -0.2068547162027706 -0.45326333178616712 0 -0.21523072231492049 -0.45997308976628931 0 -0.202771668590077 -0.46513460231241532 0 -0.21800844742381051 -0.47811557344673122 0 -0.2068547162027706 -0.45326333178616712 0 -0.21523072231492049 -0.45997308976628931 0 -0.202771668590077 -0.46513460231241532 0 -0.21747519618713079 -0.44877761561819041 0 -0.2068547162027706 -0.45326333178616712 0 -0.21523072231492049 -0.45997308976628931 0 -0.202771668590077 -0.46513460231241532 0 -0.19458450804748181 -0.4511072668910131 0 -0.18311844998387719 -0.46695207004743211 0 -0.2068547162027706 -0.45326333178616712 0 -0.202771668590077 -0.46513460231241532 0 -0.19458450804748181 -0.4511072668910131 0 -0.19458450804748181 -0.4511072668910131 0 -0.1776291891415438 -0.44386699931794688 0 -0.1911511217857513 -0.43665442797760401 0 -0.20421148587424259 -0.4413240843429273 0 -0.2068547162027706 -0.45326333178616712 0 -0.19458450804748181 -0.4511072668910131 0 -0.20421148587424259 -0.4413240843429273 0 -0.19458450804748181 -0.4511072668910131 0 -0.1911511217857513 -0.43665442797760401 0 -0.2052779883476035 -0.50000000000000289 0 -0.21800844742381051 -0.47811557344673122 0 -0.2052779883476035 -0.50000000000000289 0 -0.21800844742381051 -0.47811557344673122 0 -0.19270244617229271 -0.48197151382671088 0 -0.2052779883476035 -0.50000000000000289 0 -0.21543272243437889 -0.50000000000000244 0 -0.21800844742381051 -0.47811557344673122 0 -0.202771668590077 -0.46513460231241532 0 -0.21800844742381051 -0.47811557344673122 0 -0.19270244617229271 -0.48197151382671088 0 -0.202771668590077 -0.46513460231241532 0 -0.19270244617229271 -0.48197151382671088 0 -0.18311844998387719 -0.46695207004743211 0 -0.2052779883476035 -0.50000000000000289 0 -0.19270244617229271 -0.48197151382671088 0 -0.17718074726997801 -0.5 0 -0.19270244617229271 -0.48197151382671088 0 -0.17718074726997801 -0.5 0 -0.16745185279653399 -0.48233229869300093 0 -0.17718074726997801 -0.5 0 -0.16745185279653399 -0.48233229869300093 0 -0.14908350619235231 -0.5 0 -0.16745185279653399 -0.48233229869300093 0 -0.18311844998387719 -0.46695207004743211 0 -0.15993942239199299 -0.46451429508596581 0 -0.16745185279653399 -0.48233229869300093 0 -0.15993942239199299 -0.46451429508596581 0 -0.1426865447687107 -0.48055591319789681 0 -0.19270244617229271 -0.48197151382671088 0 -0.16745185279653399 -0.48233229869300093 0 -0.18311844998387719 -0.46695207004743211 0 -0.19458450804748181 -0.4511072668910131 0 -0.18311844998387719 -0.46695207004743211 0 -0.1776291891415438 -0.44386699931794688 0 -0.18311844998387719 -0.46695207004743211 0 -0.1776291891415438 -0.44386699931794688 0 -0.15993942239199299 -0.46451429508596581 0 -0.1776291891415438 -0.44386699931794688 0 -0.15993942239199299 -0.46451429508596581 0 -0.1514994063912726 -0.44545048461858422 0 -0.1776291891415438 -0.44386699931794688 0 -0.1514994063912726 -0.44545048461858422 0 -0.162913233289116 -0.42881904266211363 0 -0.18311844998387719 -0.46695207004743211 0 -0.15993942239199299 -0.46451429508596581 0 -0.15993942239199299 -0.46451429508596581 0 -0.13676039480010871 -0.4620765201244994 0 -0.15993942239199299 -0.46451429508596581 0 -0.1514994063912726 -0.44545048461858422 0 -0.13676039480010871 -0.4620765201244994 0 -0.1514994063912726 -0.44545048461858422 0 -0.13070341277012409 -0.44586269453286981 0 -0.14079029812156341 -0.42716994583476853 0 -0.1514994063912726 -0.44545048461858422 0 -0.13070341277012409 -0.44586269453286981 0 -0.13676039480010871 -0.4620765201244994 0 -0.13070341277012409 -0.44586269453286981 0 -0.13676039480010871 -0.4620765201244994 0 -0.1135813672082245 -0.45963874516303299 0 -0.13676039480010871 -0.4620765201244994 0 -0.1135813672082245 -0.45963874516303299 0 -0.13676039480010871 -0.4620765201244994 0 -0.1426865447687107 -0.48055591319789681 0 -0.119492304694676 -0.47511782682322767 0 -0.14908350619235231 -0.5 0 -0.1426865447687107 -0.48055591319789681 0 -0.1209862651147269 -0.50000000000000289 0 -0.1426865447687107 -0.48055591319789681 0 -0.119492304694676 -0.47511782682322767 0 -0.1209862651147269 -0.50000000000000289 0 -0.16745185279653399 -0.48233229869300093 0 -0.14908350619235231 -0.5 0 -0.1426865447687107 -0.48055591319789681 0 -0.15993942239199299 -0.46451429508596581 0 -0.13676039480010871 -0.4620765201244994 0 -0.1426865447687107 -0.48055591319789681 0 -0.14896882759582011 -0.40464617901746941 0 -0.1532594722774569 -0.37853685948595361 0 -0.16185777795326939 -0.39902661817752888 0 -0.14896882759582011 -0.40464617901746941 0 -0.1532594722774569 -0.37853685948595361 0 -0.14896882759582011 -0.40464617901746941 0 -0.14070792052904091 -0.38775474066515597 0 -0.1532594722774569 -0.37853685948595361 0 -0.14070792052904091 -0.38775474066515597 0 -0.1532594722774569 -0.37853685948595361 0 -0.1327962299645537 -0.37329777386170088 0 -0.1532594722774569 -0.37853685948595361 0 -0.1327962299645537 -0.37329777386170088 0 -0.14070792052904091 -0.38775474066515597 0 -0.127807152278333 -0.39453815029550032 0 -0.1327962299645537 -0.37329777386170088 0 -0.14896882759582011 -0.40464617901746941 0 -0.14070792052904091 -0.38775474066515597 0 -0.127807152278333 -0.39453815029550032 0 -0.14896882759582011 -0.40464617901746941 0 -0.127807152278333 -0.39453815029550032 0 -0.1249760016650604 -0.41140088444285461 0 -0.14896882759582011 -0.40464617901746941 0 -0.14079029812156341 -0.42716994583476853 0 -0.1249760016650604 -0.41140088444285461 0 -0.14079029812156341 -0.42716994583476853 0 -0.1229075344292966 -0.42992744480411849 0 -0.1249760016650604 -0.41140088444285461 0 -0.13070341277012409 -0.44586269453286981 0 -0.14079029812156341 -0.42716994583476853 0 -0.1229075344292966 -0.42992744480411849 0 -0.1514994063912726 -0.44545048461858422 0 -0.14079029812156341 -0.42716994583476853 0 -0.162913233289116 -0.42881904266211363 0 -0.14896882759582011 -0.40464617901746941 0 -0.14079029812156341 -0.42716994583476853 0 -0.162913233289116 -0.42881904266211363 0 -0.14896882759582011 -0.40464617901746941 0 -0.16638164047133841 -0.41096621130249522 0 -0.162913233289116 -0.42881904266211363 0 -0.16638164047133841 -0.41096621130249522 0 -0.162913233289116 -0.42881904266211363 0 -0.18251498299402369 -0.42059490551352591 0 -0.1776291891415438 -0.44386699931794688 0 -0.18251498299402369 -0.42059490551352591 0 -0.1911511217857513 -0.43665442797760401 0 -0.1776291891415438 -0.44386699931794688 0 -0.162913233289116 -0.42881904266211363 0 -0.18251498299402369 -0.42059490551352591 0 -0.16638164047133841 -0.41096621130249522 0 -0.18251498299402369 -0.42059490551352591 0 -0.17565338052446289 -0.40174431114183767 0 -0.18251498299402369 -0.42059490551352591 0 -0.17565338052446289 -0.40174431114183767 0 -0.19104761111212371 -0.40534546279586248 0 -0.18424251579808321 -0.39624042796665709 0 -0.17565338052446289 -0.40174431114183767 0 -0.19104761111212371 -0.40534546279586248 0 -0.18424251579808321 -0.39624042796665709 0 -0.17487448577604731 -0.39132996846735291 0 -0.1854639567937077 -0.38678198747132558 0 -0.18424251579808321 -0.39624042796665709 0 -0.17487448577604731 -0.39132996846735291 0 -0.17565338052446289 -0.40174431114183767 0 -0.17487448577604731 -0.39132996846735291 0 -0.17565338052446289 -0.40174431114183767 0 -0.16945729341999721 -0.39440175963630592 0 -0.14896882759582011 -0.40464617901746941 0 -0.16638164047133841 -0.41096621130249522 0 -0.16185777795326939 -0.39902661817752888 0 -0.16638164047133841 -0.41096621130249522 0 -0.17565338052446289 -0.40174431114183767 0 -0.16185777795326939 -0.39902661817752888 0 -0.16945729341999721 -0.39440175963630592 0 -0.16185777795326939 -0.39902661817752888 0 -0.1671525921069027 -0.38600089560912287 0 -0.17565338052446289 -0.40174431114183767 0 -0.16945729341999721 -0.39440175963630592 0 -0.16185777795326939 -0.39902661817752888 0 -0.1532594722774569 -0.37853685948595361 0 -0.16185777795326939 -0.39902661817752888 0 -0.1671525921069027 -0.38600089560912287 0 -0.1532594722774569 -0.37853685948595361 0 -0.1671525921069027 -0.38600089560912287 0 -0.1686399661827008 -0.38247463842052742 0 -0.1532594722774569 -0.37853685948595361 0 -0.1686399661827008 -0.38247463842052742 0 -0.1532594722774569 -0.37853685948595361 0 -0.1686399661827008 -0.38247463842052742 0 -0.1643739482181307 -0.36793813151770821 0 -0.17487448577604731 -0.39132996846735291 0 -0.1671525921069027 -0.38600089560912287 0 -0.1686399661827008 -0.38247463842052742 0 -0.17487448577604731 -0.39132996846735291 0 -0.16945729341999721 -0.39440175963630592 0 -0.1671525921069027 -0.38600089560912287 0 -0.1671525921069027 -0.38600089560912287 0 -0.1686399661827008 -0.38247463842052742 0 -0.17487448577604731 -0.39132996846735291 0 -0.1686399661827008 -0.38247463842052742 0 -0.1854639567937077 -0.38678198747132558 0 -0.1686399661827008 -0.38247463842052742 0 -0.1854639567937077 -0.38678198747132558 0 -0.18168741137988989 -0.37422709064061449 0 -0.1686399661827008 -0.38247463842052742 0 -0.1854639567937077 -0.38678198747132558 0 -0.1854639567937077 -0.38678198747132558 0 -0.19510046258372049 -0.36628971323222848 0 -0.18168741137988989 -0.37422709064061449 0 -0.20228794740471501 -0.39108933652212258 0 -0.19510046258372049 -0.36628971323222848 0 -0.1854639567937077 -0.38678198747132558 0 -0.20228794740471501 -0.39108933652212258 0 -0.19510046258372049 -0.36628971323222848 0 -0.20228794740471501 -0.39108933652212258 0 -0.19510046258372049 -0.36628971323222848 0 -0.20642263145494691 -0.3710060692632785 0 -0.1854639567937077 -0.38678198747132558 0 -0.20228794740471501 -0.39108933652212258 0 -0.18424251579808321 -0.39624042796665709 0 -0.1854639567937077 -0.38678198747132558 0 -0.19417314478407449 -0.39600040995690672 0 -0.1854639567937077 -0.38678198747132558 0 -0.19417314478407449 -0.39600040995690672 0 -0.20228794740471501 -0.39108933652212258 0 -0.18424251579808321 -0.39624042796665709 0 -0.19417314478407449 -0.39600040995690672 0 -0.19104761111212371 -0.40534546279586248 0 -0.19417314478407449 -0.39600040995690672 0 -0.19104761111212371 -0.40534546279586248 0 -0.19896539192492529 -0.40122896291237359 0 -0.19104761111212371 -0.40534546279586248 0 -0.19896539192492529 -0.40122896291237359 0 -0.2047319746066372 -0.40758401122898608 0 -0.19896539192492529 -0.40122896291237359 0 -0.20332607166502839 -0.39467126973312411 0 -0.2043746443278511 -0.40093393335250682 0 -0.19896539192492529 -0.40122896291237359 0 -0.2043746443278511 -0.40093393335250682 0 -0.2047319746066372 -0.40758401122898608 0 -0.19417314478407449 -0.39600040995690672 0 -0.19896539192492529 -0.40122896291237359 0 -0.20332607166502839 -0.39467126973312411 0 -0.19417314478407449 -0.39600040995690672 0 -0.20228794740471501 -0.39108933652212258 0 -0.20332607166502839 -0.39467126973312411 0 -0.20228794740471501 -0.39108933652212258 0 -0.20332607166502839 -0.39467126973312411 0 -0.20228794740471501 -0.39108933652212258 0 -0.20332607166502839 -0.39467126973312411 0 -0.2104751391148135 -0.40025148953554368 0 -0.20228794740471501 -0.39108933652212258 0 -0.2104751391148135 -0.40025148953554368 0 -0.2228071113084949 -0.39634273942798448 0 -0.20228794740471501 -0.39108933652212258 0 -0.2228071113084949 -0.39634273942798448 0 -0.2104751391148135 -0.40025148953554368 0 -0.2047319746066372 -0.40758401122898608 0 -0.2167251730499917 -0.40952503044492761 0 -0.2043746443278511 -0.40093393335250682 0 -0.2104751391148135 -0.40025148953554368 0 -0.2047319746066372 -0.40758401122898608 0 -0.20332607166502839 -0.39467126973312411 0 -0.2043746443278511 -0.40093393335250682 0 -0.2104751391148135 -0.40025148953554368 0 -0.2104751391148135 -0.40025148953554368 0 -0.2167251730499917 -0.40952503044492761 0 -0.2228071113084949 -0.39634273942798448 0 -0.20228794740471501 -0.39108933652212258 0 -0.21096782797567301 -0.38222337013062552 0 -0.2228071113084949 -0.39634273942798448 0 -0.20228794740471501 -0.39108933652212258 0 -0.21096782797567301 -0.38222337013062552 0 -0.20642263145494691 -0.3710060692632785 0 -0.21096782797567301 -0.38222337013062552 0 -0.20642263145494691 -0.3710060692632785 0 -0.21766298169056489 -0.372942845804696 0 -0.21096782797567301 -0.38222337013062552 0 -0.2229663114131725 -0.38448862630997671 0 -0.21766298169056489 -0.372942845804696 0 -0.18251498299402369 -0.42059490551352591 0 -0.1911511217857513 -0.43665442797760401 0 -0.19681544287146471 -0.42637888382260708 0 -0.20421148587424259 -0.4413240843429273 0 -0.19681544287146471 -0.42637888382260708 0 -0.20758651138044529 -0.43035119248362208 0 -0.20421148587424259 -0.4413240843429273 0 -0.1911511217857513 -0.43665442797760401 0 -0.19681544287146471 -0.42637888382260708 0 -0.19681544287146471 -0.42637888382260708 0 -0.1965222888545764 -0.41561696163457001 0 -0.20992938721926421 -0.41973201134813998 0 -0.18251498299402369 -0.42059490551352591 0 -0.19681544287146471 -0.42637888382260708 0 -0.1965222888545764 -0.41561696163457001 0 -0.18251498299402369 -0.42059490551352591 0 -0.19104761111212371 -0.40534546279586248 0 -0.1965222888545764 -0.41561696163457001 0 -0.19104761111212371 -0.40534546279586248 0 -0.1965222888545764 -0.41561696163457001 0 -0.2047319746066372 -0.40758401122898608 0 -0.2047319746066372 -0.40758401122898608 0 -0.2167251730499917 -0.40952503044492761 0 -0.20992938721926421 -0.41973201134813998 0 -0.2167251730499917 -0.40952503044492761 0 -0.20992938721926421 -0.41973201134813998 0 -0.22368592316088079 -0.4218822150732211 0 -0.1965222888545764 -0.41561696163457001 0 -0.2047319746066372 -0.40758401122898608 0 -0.20992938721926421 -0.41973201134813998 0 -0.19681544287146471 -0.42637888382260708 0 -0.20992938721926421 -0.41973201134813998 0 -0.20758651138044529 -0.43035119248362208 0 -0.20992938721926421 -0.41973201134813998 0 -0.21827876087025549 -0.43170058779863818 0 -0.20758651138044529 -0.43035119248362208 0 -0.20992938721926421 -0.41973201134813998 0 -0.21827876087025549 -0.43170058779863818 0 -0.22368592316088079 -0.4218822150732211 0 -0.2141465979365792 -0.43863267996258581 0 -0.21827876087025549 -0.43170058779863818 0 -0.20758651138044529 -0.43035119248362208 0 -0.22024384916013581 -0.43992539885114967 0 -0.2141465979365792 -0.43863267996258581 0 -0.21827876087025549 -0.43170058779863818 0 -0.20421148587424259 -0.4413240843429273 0 -0.2141465979365792 -0.43863267996258581 0 -0.20758651138044529 -0.43035119248362208 0 -0.22024384916013581 -0.43992539885114967 0 -0.21827876087025549 -0.43170058779863818 0 -0.2278394003245621 -0.43330761624069392 0 -0.21827876087025549 -0.43170058779863818 0 -0.2278394003245621 -0.43330761624069392 0 -0.22368592316088079 -0.4218822150732211 0 -0.2278394003245621 -0.43330761624069392 0 -0.22368592316088079 -0.4218822150732211 0 -0.2345348941729859 -0.42729128822954981 0 -0.22368592316088079 -0.4218822150732211 0 -0.2287215028898596 -0.4113577160556906 0 -0.2345348941729859 -0.42729128822954981 0 -0.2167251730499917 -0.40952503044492761 0 -0.22368592316088079 -0.4218822150732211 0 -0.2287215028898596 -0.4113577160556906 0 -0.2345348941729859 -0.42729128822954981 0 -0.24332627521227429 -0.40159614233384838 0 -0.24635151002356409 -0.41453556073199249 0 -0.2345348941729859 -0.42729128822954981 0 -0.24332627521227429 -0.40159614233384838 0 -0.2287215028898596 -0.4113577160556906 0 -0.2345348941729859 -0.42729128822954981 0 -0.24332627521227429 -0.40159614233384838 0 -0.25278507215510421 -0.40401782343052561 0 -0.24635151002356409 -0.41453556073199249 0 -0.24332627521227429 -0.40159614233384838 0 -0.25383257035148121 -0.41336057970423362 0 -0.24635151002356409 -0.41453556073199249 0 -0.2476389868817622 -0.42717888996817632 0 -0.257119040562932 -0.44087944700851878 0 -0.23918894669088919 -0.4417050184308175 0 -0.2476389868817622 -0.42717888996817632 0 -0.24635151002356409 -0.41453556073199249 0 -0.2345348941729859 -0.42729128822954981 0 -0.2476389868817622 -0.42717888996817632 0 -0.23918894669088919 -0.4417050184308175 0 -0.2476389868817622 -0.42717888996817632 0 -0.23918894669088919 -0.4417050184308175 0 -0.2345348941729859 -0.42729128822954981 0 -0.2476389868817622 -0.42717888996817632 0 -0.23356089000078331 -0.39053746225694203 0 -0.23190607999154339 -0.37881266291692961 0 -0.2229663114131725 -0.38448862630997671 0 -0.23190607999154339 -0.37881266291692961 0 -0.2229663114131725 -0.38448862630997671 0 -0.21766298169056489 -0.372942845804696 0 -0.23356089000078331 -0.39053746225694203 0 -0.2229663114131725 -0.38448862630997671 0 -0.2228071113084949 -0.39634273942798448 0 -0.21096782797567301 -0.38222337013062552 0 -0.2229663114131725 -0.38448862630997671 0 -0.2228071113084949 -0.39634273942798448 0 -0.2287215028898596 -0.4113577160556906 0 -0.2228071113084949 -0.39634273942798448 0 -0.24332627521227429 -0.40159614233384838 0 -0.23356089000078331 -0.39053746225694203 0 -0.2228071113084949 -0.39634273942798448 0 -0.24332627521227429 -0.40159614233384838 0 -0.2228071113084949 -0.39634273942798448 0 -0.24332627521227429 -0.40159614233384838 0 -0.2167251730499917 -0.40952503044492761 0 -0.2287215028898596 -0.4113577160556906 0 -0.2228071113084949 -0.39634273942798448 0 -0.23356089000078331 -0.39053746225694203 0 -0.24332627521227429 -0.40159614233384838 0 -0.24679867207843029 -0.39144714029597261 0 -0.25278507215510421 -0.40401782343052561 0 -0.24332627521227429 -0.40159614233384838 0 -0.24679867207843029 -0.39144714029597261 0 -0.25278507215510421 -0.40401782343052561 0 -0.24332627521227429 -0.40159614233384838 0 -0.24332627521227429 -0.40159614233384838 0 -0.24679867207843029 -0.39144714029597261 0 -0.25411823777705178 -0.37005376561696479 0 -0.23190607999154339 -0.37881266291692961 0 -0.24679867207843029 -0.39144714029597261 0 -0.23356089000078331 -0.39053746225694203 0 -0.23190607999154339 -0.37881266291692961 0 -0.24679867207843029 -0.39144714029597261 0 -0.23190607999154339 -0.37881266291692961 0 -0.24679867207843029 -0.39144714029597261 0 -0.25411823777705178 -0.37005376561696479 0 -0.23190607999154339 -0.37881266291692961 0 -0.23299750553274251 -0.35708382556414447 0 -0.23190607999154339 -0.37881266291692961 0 -0.23299750553274251 -0.35708382556414447 0 -0.2170134879046566 -0.36617818553788661 0 -0.23190607999154339 -0.37881266291692961 0 -0.2170134879046566 -0.36617818553788661 0 -0.23190607999154339 -0.37881266291692961 0 -0.21766298169056489 -0.372942845804696 0 -0.2170134879046566 -0.36617818553788661 0 -0.23299750553274251 -0.35708382556414447 0 -0.22914139756894319 -0.33638402550069402 0 -0.21471353351382511 -0.34222351434503212 0 -0.23299750553274251 -0.35708382556414447 0 -0.21471353351382511 -0.34222351434503212 0 -0.2170134879046566 -0.36617818553788661 0 -0.25411823777705178 -0.37005376561696479 0 -0.23299750553274251 -0.35708382556414447 0 -0.24786060415328129 -0.34364653134442652 0 -0.23299750553274251 -0.35708382556414447 0 -0.24786060415328129 -0.34364653134442652 0 -0.22914139756894319 -0.33638402550069402 0 -0.26383362024619789 -0.32157231491159988 0 -0.24786060415328129 -0.34364653134442652 0 -0.23772176552187679 -0.32069741309768929 0 -0.24786060415328129 -0.34364653134442652 0 -0.23772176552187679 -0.32069741309768929 0 -0.22914139756894319 -0.33638402550069402 0 -0.23772176552187679 -0.32069741309768929 0 -0.21241357912299019 -0.31826884315217779 0 -0.2225787399257759 -0.30520510978755128 0 -0.23772176552187679 -0.32069741309768929 0 -0.22914139756894319 -0.33638402550069402 0 -0.21241357912299019 -0.31826884315217779 0 -0.22914139756894319 -0.33638402550069402 0 -0.21471353351382511 -0.34222351434503212 0 -0.21241357912299019 -0.31826884315217779 0 -0.21471353351382511 -0.34222351434503212 0 -0.20353935037939089 -0.32634266615534119 0 -0.20147222213233659 -0.33604790027062181 0 -0.21471353351382511 -0.34222351434503212 0 -0.21241357912299019 -0.31826884315217779 0 -0.20353935037939089 -0.32634266615534119 0 -0.21471353351382511 -0.34222351434503212 0 -0.21241357912299019 -0.31826884315217779 0 -0.21471353351382511 -0.34222351434503212 0 -0.200225362357971 -0.34365939551231678 0 -0.20147222213233659 -0.33604790027062181 0 -0.21241357912299019 -0.31826884315217779 0 -0.20353935037939089 -0.32634266615534119 0 -0.19743074241275649 -0.3142176455776034 0 -0.19743074241275649 -0.3142176455776034 0 -0.18710424405517961 -0.33869964352213022 0 -0.18097640741422871 -0.31755621935326062 0 -0.20353935037939089 -0.32634266615534119 0 -0.19743074241275649 -0.3142176455776034 0 -0.19679345423781011 -0.33067988817872601 0 -0.19743074241275649 -0.3142176455776034 0 -0.19679345423781011 -0.33067988817872601 0 -0.18710424405517961 -0.33869964352213022 0 -0.19743074241275649 -0.3142176455776034 0 -0.18710424405517961 -0.33869964352213022 0 -0.200225362357971 -0.34365939551231678 0 -0.20147222213233659 -0.33604790027062181 0 -0.19442071220938731 -0.33809158536793332 0 -0.20353935037939089 -0.32634266615534119 0 -0.20147222213233659 -0.33604790027062181 0 -0.19679345423781011 -0.33067988817872601 0 -0.20147222213233659 -0.33604790027062181 0 -0.19679345423781011 -0.33067988817872601 0 -0.19442071220938731 -0.33809158536793332 0 -0.19679345423781011 -0.33067988817872601 0 -0.19442071220938731 -0.33809158536793332 0 -0.18710424405517961 -0.33869964352213022 0 -0.19442071220938731 -0.33809158536793332 0 -0.18791297776272839 -0.34149008994233349 0 -0.18710424405517961 -0.33869964352213022 0 -0.200225362357971 -0.34365939551231678 0 -0.19442071220938731 -0.33809158536793332 0 -0.18791297776272839 -0.34149008994233349 0 -0.18791297776272839 -0.34149008994233349 0 -0.18710424405517961 -0.33869964352213022 0 -0.18791297776272839 -0.34149008994233349 0 -0.20246323283369219 -0.35383413774011041 0 -0.18791297776272839 -0.34149008994233349 0 -0.20246323283369219 -0.35383413774011041 0 -0.19510046258372049 -0.36628971323222848 0 -0.18791297776272839 -0.34149008994233349 0 -0.19510046258372049 -0.36628971323222848 0 -0.200225362357971 -0.34365939551231678 0 -0.18791297776272839 -0.34149008994233349 0 -0.20246323283369219 -0.35383413774011041 0 -0.20246323283369219 -0.35383413774011041 0 -0.19510046258372049 -0.36628971323222848 0 -0.20642263145494691 -0.3710060692632785 0 -0.20246323283369219 -0.35383413774011041 0 -0.20642263145494691 -0.3710060692632785 0 -0.2170134879046566 -0.36617818553788661 0 -0.20246323283369219 -0.35383413774011041 0 -0.2170134879046566 -0.36617818553788661 0 -0.20642263145494691 -0.3710060692632785 0 -0.21766298169056489 -0.372942845804696 0 -0.2170134879046566 -0.36617818553788661 0 -0.21766298169056489 -0.372942845804696 0 -0.2170134879046566 -0.36617818553788661 0 -0.21471353351382511 -0.34222351434503212 0 -0.20246323283369219 -0.35383413774011041 0 -0.2170134879046566 -0.36617818553788661 0 -0.21471353351382511 -0.34222351434503212 0 -0.2170134879046566 -0.36617818553788661 0 -0.21471353351382511 -0.34222351434503212 0 -0.200225362357971 -0.34365939551231678 0 -0.20246323283369219 -0.35383413774011041 0 -0.2248525589425418 -0.25190033394045769 0 -0.22863313209780209 -0.25989528060359562 0 -0.24454988477764869 -0.25749770810531208 0 -0.2248525589425418 -0.25190033394045769 0 -0.22863313209780209 -0.25989528060359562 0 -0.21715726273407621 -0.26052043792771168 0 -0.22863313209780209 -0.25989528060359562 0 -0.2239939250699762 -0.27209959566304109 0 -0.21715726273407621 -0.26052043792771168 0 -0.22863313209780209 -0.25989528060359562 0 -0.2368926623004447 -0.26293700178007329 0 -0.2239939250699762 -0.27209959566304109 0 -0.22863313209780209 -0.25989528060359562 0 -0.2368926623004447 -0.26293700178007329 0 -0.2248525589425418 -0.25190033394045769 0 -0.24454988477764869 -0.25749770810531208 0 -0.2248525589425418 -0.25190033394045769 0 -0.24454988477764869 -0.25749770810531208 0 -0.2411477483349829 -0.24160624167899691 0 -0.22863313209780209 -0.25989528060359562 0 -0.24454988477764869 -0.25749770810531208 0 -0.2368926623004447 -0.26293700178007329 0 -0.25892841258389032 -0.26158364346247859 0 -0.24454988477764869 -0.25749770810531208 0 -0.24552228452451999 -0.26611501602784698 0 -0.24454988477764869 -0.25749770810531208 0 -0.24552228452451999 -0.26611501602784698 0 -0.24454988477764869 -0.25749770810531208 0 -0.2368926623004447 -0.26293700178007329 0 -0.24552228452451999 -0.26611501602784698 0 -0.2368926623004447 -0.26293700178007329 0 -0.24552228452451999 -0.26611501602784698 0 -0.24454988477764869 -0.25749770810531208 0 -0.2368926623004447 -0.26293700178007329 0 -0.2368926623004447 -0.26293700178007329 0 -0.2429702656020751 -0.27273974735635048 0 -0.23360570232503691 -0.27197021251163678 0 -0.2368926623004447 -0.26293700178007329 0 -0.24552228452451999 -0.26611501602784698 0 -0.2429702656020751 -0.27273974735635048 0 -0.25483627904399642 -0.26954506273417939 0 -0.24552228452451999 -0.26611501602784698 0 -0.2429702656020751 -0.27273974735635048 0 -0.25483627904399642 -0.26954506273417939 0 -0.2504921355384786 -0.27933653031883537 0 -0.2429702656020751 -0.27273974735635048 0 -0.2504921355384786 -0.27933653031883537 0 -0.2429702656020751 -0.27273974735635048 0 -0.23902454880241891 -0.27990992943702758 0 -0.2429702656020751 -0.27273974735635048 0 -0.23902454880241891 -0.27990992943702758 0 -0.23360570232503691 -0.27197021251163678 0 -0.23902454880241891 -0.27990992943702758 0 -0.23360570232503691 -0.27197021251163678 0 -0.2252628085618196 -0.28628740176065332 0 -0.23360570232503691 -0.27197021251163678 0 -0.2239939250699762 -0.27209959566304109 0 -0.2252628085618196 -0.28628740176065332 0 -0.2368926623004447 -0.26293700178007329 0 -0.23360570232503691 -0.27197021251163678 0 -0.2239939250699762 -0.27209959566304109 0 -0.2368926623004447 -0.26293700178007329 0 -0.2239939250699762 -0.27209959566304109 0 -0.2239939250699762 -0.27209959566304109 0 -0.2252628085618196 -0.28628740176065332 0 -0.2110951878395064 -0.28126218954600679 0 -0.2252628085618196 -0.28628740176065332 0 -0.2225787399257759 -0.30520510978755128 0 -0.21011362473215531 -0.29431417195932352 0 -0.2252628085618196 -0.28628740176065332 0 -0.23580316502836379 -0.29890243598705812 0 -0.2225787399257759 -0.30520510978755128 0 -0.23902454880241891 -0.27990992943702758 0 -0.2252628085618196 -0.28628740176065332 0 -0.23580316502836379 -0.29890243598705812 0 -0.2514290845243084 -0.30074112217431381 0 -0.23902454880241891 -0.27990992943702758 0 -0.2514290845243084 -0.30074112217431381 0 -0.2504921355384786 -0.27933653031883537 0 -0.23902454880241891 -0.27990992943702758 0 -0.2514290845243084 -0.30074112217431381 0 -0.23902454880241891 -0.27990992943702758 0 -0.23580316502836379 -0.29890243598705812 0 -0.2514290845243084 -0.30074112217431381 0 -0.23772176552187679 -0.32069741309768929 0 -0.23580316502836379 -0.29890243598705812 0 -0.23772176552187679 -0.32069741309768929 0 -0.23580316502836379 -0.29890243598705812 0 -0.2225787399257759 -0.30520510978755128 0 -0.19743074241275649 -0.3142176455776034 0 -0.21011362473215531 -0.29431417195932352 0 -0.20775724077033311 -0.28973564763307619 0 -0.21241357912299019 -0.31826884315217779 0 -0.19743074241275649 -0.3142176455776034 0 -0.21011362473215531 -0.29431417195932352 0 -0.21241357912299019 -0.31826884315217779 0 -0.21011362473215531 -0.29431417195932352 0 -0.21241357912299019 -0.31826884315217779 0 -0.2225787399257759 -0.30520510978755128 0 -0.21011362473215531 -0.29431417195932352 0 -0.19743074241275649 -0.3142176455776034 0 -0.19174933982206149 -0.30561711813331388 0 -0.20775724077033311 -0.28973564763307619 0 -0.19743074241275649 -0.3142176455776034 0 -0.19174933982206149 -0.30561711813331388 0 -0.18097640741422871 -0.31755621935326062 0 -0.19743074241275649 -0.3142176455776034 0 -0.20775724077033311 -0.28973564763307619 0 -0.19174933982206149 -0.30561711813331388 0 -0.1911003370664548 -0.29640531342434651 0 -0.20775724077033311 -0.28973564763307619 0 -0.19174933982206149 -0.30561711813331388 0 -0.1911003370664548 -0.29640531342434651 0 -0.18140063327193481 -0.30541514080189769 0 -0.1911003370664548 -0.29640531342434651 0 -0.19490184845290329 -0.28861584465878681 0 -0.20775724077033311 -0.28973564763307619 0 -0.1911003370664548 -0.29640531342434651 0 -0.19490184845290329 -0.28861584465878681 0 -0.18684647095181331 -0.28795204883288789 0 -0.19390334502301179 -0.28037036874483628 0 -0.18351168798418749 -0.27966947999265329 0 -0.18684647095181331 -0.28795204883288789 0 -0.19490184845290329 -0.28861584465878681 0 -0.19390334502301179 -0.28037036874483628 0 -0.18684647095181331 -0.28795204883288789 0 -0.19490184845290329 -0.28861584465878681 0 -0.20775724077033311 -0.28973564763307619 0 -0.19390334502301179 -0.28037036874483628 0 -0.21011362473215531 -0.29431417195932352 0 -0.20781367034132039 -0.27035950076646931 0 -0.2110951878395064 -0.28126218954600679 0 -0.21011362473215531 -0.29431417195932352 0 -0.20781367034132039 -0.27035950076646931 0 -0.21011362473215531 -0.29431417195932352 0 -0.20775724077033311 -0.28973564763307619 0 -0.20781367034132039 -0.27035950076646931 0 -0.2252628085618196 -0.28628740176065332 0 -0.21011362473215531 -0.29431417195932352 0 -0.2110951878395064 -0.28126218954600679 0 -0.2239939250699762 -0.27209959566304109 0 -0.20781367034132039 -0.27035950076646931 0 -0.21715726273407621 -0.26052043792771168 0 -0.2239939250699762 -0.27209959566304109 0 -0.20781367034132039 -0.27035950076646931 0 -0.2110951878395064 -0.28126218954600679 0 -0.20775724077033311 -0.28973564763307619 0 -0.20781367034132039 -0.27035950076646931 0 -0.19390334502301179 -0.28037036874483628 0 -0.2239939250699762 -0.27209959566304109 0 -0.2110951878395064 -0.28126218954600679 0 -0.20781367034132039 -0.27035950076646931 0 -0.19390334502301179 -0.28037036874483628 0 -0.1902174626211485 -0.27083950258952061 0 -0.20781367034132039 -0.27035950076646931 0 -0.1902174626211485 -0.27083950258952061 0 -0.1959214867612597 -0.26032827192655439 0 -0.19390334502301179 -0.28037036874483628 0 -0.1902174626211485 -0.27083950258952061 0 -0.18351168798418749 -0.27966947999265329 0 -0.1959214867612597 -0.26032827192655439 0 -0.18936100069649531 -0.25130593984176219 0 -0.20551371595048259 -0.2464048295736154 0 -0.20781367034132039 -0.27035950076646931 0 -0.1959214867612597 -0.26032827192655439 0 -0.20551371595048259 -0.2464048295736154 0 -0.1902174626211485 -0.27083950258952061 0 -0.1959214867612597 -0.26032827192655439 0 -0.18441910075860329 -0.26115883217695829 0 -0.1959214867612597 -0.26032827192655439 0 -0.18936100069649531 -0.25130593984176219 0 -0.18441910075860329 -0.26115883217695829 0 -0.20781367034132039 -0.27035950076646931 0 -0.21715726273407621 -0.26052043792771168 0 -0.20551371595048259 -0.2464048295736154 0 -0.2248525589425418 -0.25190033394045769 0 -0.21715726273407621 -0.26052043792771168 0 -0.20551371595048259 -0.2464048295736154 0 -0.20781367034132039 -0.27035950076646931 0 -0.20551371595048259 -0.2464048295736154 0 -0.1609712796120123 -0.26761162056871102 0 -0.16888952720563299 -0.248643973516668 0 -0.1563410501836712 -0.2498212514116096 0 -0.1738964440493603 -0.26179383161322289 0 -0.1609712796120123 -0.26761162056871102 0 -0.16888952720563299 -0.248643973516668 0 -0.1791349909606712 -0.2525987561777624 0 -0.1738964440493603 -0.26179383161322289 0 -0.16888952720563299 -0.248643973516668 0 -0.18936100069649531 -0.25130593984176219 0 -0.1791349909606712 -0.2525987561777624 0 -0.18441910075860329 -0.26115883217695829 0 -0.18441910075860329 -0.26115883217695829 0 -0.1738964440493603 -0.26179383161322289 0 -0.17573548485850859 -0.27315056192965248 0 -0.1791349909606712 -0.2525987561777624 0 -0.18441910075860329 -0.26115883217695829 0 -0.1738964440493603 -0.26179383161322289 0 -0.1902174626211485 -0.27083950258952061 0 -0.18441910075860329 -0.26115883217695829 0 -0.17573548485850859 -0.27315056192965248 0 -0.1902174626211485 -0.27083950258952061 0 -0.17573548485850859 -0.27315056192965248 0 -0.18351168798418749 -0.27966947999265329 0 -0.17573548485850859 -0.27315056192965248 0 -0.16592107078186569 -0.28062610613970029 0 -0.1764460466094106 -0.28639490931553191 0 -0.17573548485850859 -0.27315056192965248 0 -0.18351168798418749 -0.27966947999265329 0 -0.1764460466094106 -0.28639490931553191 0 -0.17573548485850859 -0.27315056192965248 0 -0.16592107078186569 -0.28062610613970029 0 -0.1609712796120123 -0.26761162056871102 0 -0.1738964440493603 -0.26179383161322289 0 -0.17573548485850859 -0.27315056192965248 0 -0.1609712796120123 -0.26761162056871102 0 -0.16592107078186569 -0.28062610613970029 0 -0.1609712796120123 -0.26761162056871102 0 -0.15757837127381469 -0.2806281954597668 0 -0.16592107078186569 -0.28062610613970029 0 -0.15757837127381469 -0.2806281954597668 0 -0.15811159896791679 -0.29257792217861228 0 -0.15811159896791679 -0.29257792217861228 0 -0.16966512128831751 -0.29308224750542189 0 -0.16512664119574441 -0.29985341266363602 0 -0.16592107078186569 -0.28062610613970029 0 -0.15811159896791679 -0.29257792217861228 0 -0.16966512128831751 -0.29308224750542189 0 -0.16592107078186569 -0.28062610613970029 0 -0.16966512128831751 -0.29308224750542189 0 -0.1764460466094106 -0.28639490931553191 0 -0.18351168798418749 -0.27966947999265329 0 -0.1764460466094106 -0.28639490931553191 0 -0.18684647095181331 -0.28795204883288789 0 -0.1911003370664548 -0.29640531342434651 0 -0.18684647095181331 -0.28795204883288789 0 -0.17994847981364021 -0.29584982630205608 0 -0.1764460466094106 -0.28639490931553191 0 -0.18684647095181331 -0.28795204883288789 0 -0.17994847981364021 -0.29584982630205608 0 -0.16966512128831751 -0.29308224750542189 0 -0.1764460466094106 -0.28639490931553191 0 -0.17994847981364021 -0.29584982630205608 0 -0.17994847981364021 -0.29584982630205608 0 -0.17243689036132739 -0.30319130843299502 0 -0.18140063327193481 -0.30541514080189769 0 -0.16966512128831751 -0.29308224750542189 0 -0.17994847981364021 -0.29584982630205608 0 -0.17243689036132739 -0.30319130843299502 0 -0.1911003370664548 -0.29640531342434651 0 -0.17994847981364021 -0.29584982630205608 0 -0.18140063327193481 -0.30541514080189769 0 -0.19174933982206149 -0.30561711813331388 0 -0.18140063327193481 -0.30541514080189769 0 -0.18097640741422871 -0.31755621935326062 0 -0.18140063327193481 -0.30541514080189769 0 -0.18097640741422871 -0.31755621935326062 0 -0.17217539970085491 -0.3128803041911673 0 -0.17243689036132739 -0.30319130843299502 0 -0.18140063327193481 -0.30541514080189769 0 -0.17217539970085491 -0.3128803041911673 0 -0.16562723389912229 -0.30950573850999719 0 -0.17217539970085491 -0.3128803041911673 0 -0.1678309582223341 -0.31479621359611409 0 -0.17243689036132739 -0.30319130843299502 0 -0.16562723389912229 -0.30950573850999719 0 -0.17217539970085491 -0.3128803041911673 0 -0.16966512128831751 -0.29308224750542189 0 -0.17243689036132739 -0.30319130843299502 0 -0.16512664119574441 -0.29985341266363602 0 -0.17243689036132739 -0.30319130843299502 0 -0.16562723389912229 -0.30950573850999719 0 -0.16512664119574441 -0.29985341266363602 0 -0.15811159896791679 -0.29257792217861228 0 -0.16512664119574441 -0.29985341266363602 0 -0.1592338318295245 -0.30489553619614812 0 -0.16562723389912229 -0.30950573850999719 0 -0.1592338318295245 -0.30489553619614812 0 -0.16330311815720641 -0.31741952654573508 0 -0.16562723389912229 -0.30950573850999719 0 -0.16512664119574441 -0.29985341266363602 0 -0.1592338318295245 -0.30489553619614812 0 -0.1592338318295245 -0.30489553619614812 0 -0.14611421371261041 -0.3060291348727272 0 -0.16330311815720641 -0.31741952654573508 0 -0.15811159896791679 -0.29257792217861228 0 -0.1592338318295245 -0.30489553619614812 0 -0.14611421371261041 -0.3060291348727272 0 -0.14611421371261041 -0.3060291348727272 0 -0.12934133919039109 -0.29179947609364237 0 -0.1209814817758855 -0.31158883754432648 0 -0.14611421371261041 -0.3060291348727272 0 -0.12934133919039109 -0.29179947609364237 0 -0.14611421371261041 -0.3060291348727272 0 -0.13429881139015529 -0.29130600869306011 0 -0.12934133919039109 -0.29179947609364237 0 -0.13429881139015529 -0.29130600869306011 0 -0.12934133919039109 -0.29179947609364237 0 -0.13429881139015529 -0.29130600869306011 0 -0.12934133919039109 -0.29179947609364237 0 -0.13059499209945211 -0.28293209586729801 0 -0.13429881139015529 -0.29130600869306011 0 -0.13059499209945211 -0.28293209586729801 0 -0.14530953573346411 -0.28169713295204368 0 -0.14611421371261041 -0.3060291348727272 0 -0.14530953573346411 -0.28169713295204368 0 -0.15811159896791679 -0.29257792217861228 0 -0.14611421371261041 -0.3060291348727272 0 -0.14530953573346411 -0.28169713295204368 0 -0.14611421371261041 -0.3060291348727272 0 -0.13429881139015529 -0.29130600869306011 0 -0.14530953573346411 -0.28169713295204368 0 -0.15757837127381469 -0.2806281954597668 0 -0.15811159896791679 -0.29257792217861228 0 -0.14530953573346411 -0.28169713295204368 0 -0.14530953573346411 -0.28169713295204368 0 -0.14450485775431851 -0.25736513103136011 0 -0.1609712796120123 -0.26761162056871102 0 -0.14530953573346411 -0.28169713295204368 0 -0.14450485775431851 -0.25736513103136011 0 -0.1609712796120123 -0.26761162056871102 0 -0.15757837127381469 -0.2806281954597668 0 -0.14530953573346411 -0.28169713295204368 0 -0.14530953573346411 -0.28169713295204368 0 -0.13054795344993381 -0.27151699507100491 0 -0.14450485775431851 -0.25736513103136011 0 -0.13059499209945211 -0.28293209586729801 0 -0.14530953573346411 -0.28169713295204368 0 -0.13054795344993381 -0.27151699507100491 0 -0.14450485775431851 -0.25736513103136011 0 -0.11840662886325649 -0.25645158738316548 0 -0.1278027162143065 -0.24043015051396341 0 -0.13054795344993381 -0.27151699507100491 0 -0.14450485775431851 -0.25736513103136011 0 -0.11840662886325649 -0.25645158738316548 0 -0.1609712796120123 -0.26761162056871102 0 -0.14450485775431851 -0.25736513103136011 0 -0.1563410501836712 -0.2498212514116096 0 -0.1580510944529343 -0.34937900472597561 0 -0.17754525995943099 -0.36136202343837648 0 -0.1741733858327007 -0.34530642895792157 0 -0.1686399661827008 -0.38247463842052742 0 -0.1643739482181307 -0.36793813151770821 0 -0.17754525995943099 -0.36136202343837648 0 -0.1532594722774569 -0.37853685948595361 0 -0.1580510944529343 -0.34937900472597561 0 -0.1643739482181307 -0.36793813151770821 0 -0.1580510944529343 -0.34937900472597561 0 -0.1643739482181307 -0.36793813151770821 0 -0.17754525995943099 -0.36136202343837648 0 -0.1686399661827008 -0.38247463842052742 0 -0.17754525995943099 -0.36136202343837648 0 -0.18168741137988989 -0.37422709064061449 0 -0.1686399661827008 -0.38247463842052742 0 -0.17754525995943099 -0.36136202343837648 0 -0.19510046258372049 -0.36628971323222848 0 -0.17754525995943099 -0.36136202343837648 0 -0.18168741137988989 -0.37422709064061449 0 -0.18791297776272839 -0.34149008994233349 0 -0.19510046258372049 -0.36628971323222848 0 -0.17754525995943099 -0.36136202343837648 0 -0.17754525995943099 -0.36136202343837648 0 -0.18645055373615341 -0.34024940845622209 0 -0.18791297776272839 -0.34149008994233349 0 -0.17754525995943099 -0.36136202343837648 0 -0.18645055373615341 -0.34024940845622209 0 -0.17754525995943099 -0.36136202343837648 0 -0.1741733858327007 -0.34530642895792157 0 -0.18645055373615341 -0.34024940845622209 0 -0.18645055373615341 -0.34024940845622209 0 -0.18710424405517961 -0.33869964352213022 0 -0.1746466351822859 -0.33023527921111018 0 -0.18710424405517961 -0.33869964352213022 0 -0.1746466351822859 -0.33023527921111018 0 -0.18097640741422871 -0.31755621935326062 0 -0.18791297776272839 -0.34149008994233349 0 -0.18645055373615341 -0.34024940845622209 0 -0.18710424405517961 -0.33869964352213022 0 -0.18791297776272839 -0.34149008994233349 0 -0.18645055373615341 -0.34024940845622209 0 -0.18645055373615341 -0.34024940845622209 0 -0.18710424405517961 -0.33869964352213022 0 -0.18645055373615341 -0.34024940845622209 0 -0.1746466351822859 -0.33023527921111018 0 -0.1741733858327007 -0.34530642895792157 0 -0.18645055373615341 -0.34024940845622209 0 -0.1746466351822859 -0.33023527921111018 0 -0.18710424405517961 -0.33869964352213022 0 -0.18097640741422871 -0.31755621935326062 0 -0.1746466351822859 -0.33023527921111018 0 -0.18097640741422871 -0.31755621935326062 0 -0.170218081132153 -0.31937928513755709 0 -0.18097640741422871 -0.31755621935326062 0 -0.17217539970085491 -0.3128803041911673 0 -0.170218081132153 -0.31937928513755709 0 -0.14611421371261041 -0.3060291348727272 0 -0.16284271662841809 -0.32022114996599871 0 -0.16330311815720641 -0.31741952654573508 0 -0.16562723389912229 -0.30950573850999719 0 -0.1678309582223341 -0.31479621359611409 0 -0.16330311815720641 -0.31741952654573508 0 -0.17217539970085491 -0.3128803041911673 0 -0.1678309582223341 -0.31479621359611409 0 -0.170218081132153 -0.31937928513755709 0 -0.1678309582223341 -0.31479621359611409 0 -0.170218081132153 -0.31937928513755709 0 -0.16330311815720641 -0.31741952654573508 0 -0.170218081132153 -0.31937928513755709 0 -0.16284271662841809 -0.32022114996599871 0 -0.16330311815720641 -0.31741952654573508 0 -0.1746466351822859 -0.33023527921111018 0 -0.16284271662841809 -0.32022114996599871 0 -0.1746466351822859 -0.33023527921111018 0 -0.170218081132153 -0.31937928513755709 0 -0.16284271662841809 -0.32022114996599871 0 -0.16284271662841809 -0.32022114996599871 0 -0.16330311815720641 -0.31741952654573508 0 -0.1580510944529343 -0.34937900472597561 0 -0.1741733858327007 -0.34530642895792157 0 -0.1746466351822859 -0.33023527921111018 0 -0.1580510944529343 -0.34937900472597561 0 -0.16284271662841809 -0.32022114996599871 0 -0.1580510944529343 -0.34937900472597561 0 -0.1746466351822859 -0.33023527921111018 0 -0.16284271662841809 -0.32022114996599871 0 -0.1580510944529343 -0.34937900472597561 0 -0.16284271662841809 -0.32022114996599871 0 -0.1469577034266312 -0.33153473322827948 0 -0.14611421371261041 -0.3060291348727272 0 -0.1469577034266312 -0.33153473322827948 0 -0.14611421371261041 -0.3060291348727272 0 -0.16284271662841809 -0.32022114996599871 0 -0.1469577034266312 -0.33153473322827948 0 -0.14611421371261041 -0.3060291348727272 0 -0.1469577034266312 -0.33153473322827948 0 -0.1298152324756163 -0.33060790568630199 0 -0.14611421371261041 -0.3060291348727272 0 -0.16284271662841809 -0.32022114996599871 0 -0.14611421371261041 -0.3060291348727272 0 -0.1298152324756163 -0.33060790568630199 0 -0.1209814817758855 -0.31158883754432648 0 -0.1469577034266312 -0.33153473322827948 0 -0.1298152324756163 -0.33060790568630199 0 -0.13676025319584681 -0.34568051156322599 0 -0.1298152324756163 -0.33060790568630199 0 -0.13676025319584681 -0.34568051156322599 0 -0.1240441974091905 -0.34877218573461488 0 -0.13676025319584681 -0.34568051156322599 0 -0.13298896078134079 -0.36026971055396362 0 -0.1240441974091905 -0.34877218573461488 0 -0.13676025319584681 -0.34568051156322599 0 -0.1478011931406526 -0.35704033158383192 0 -0.13298896078134079 -0.36026971055396362 0 -0.1469577034266312 -0.33153473322827948 0 -0.1478011931406526 -0.35704033158383192 0 -0.1580510944529343 -0.34937900472597561 0 -0.1469577034266312 -0.33153473322827948 0 -0.1478011931406526 -0.35704033158383192 0 -0.1469577034266312 -0.33153473322827948 0 -0.13676025319584681 -0.34568051156322599 0 -0.1478011931406526 -0.35704033158383192 0 -0.1532594722774569 -0.37853685948595361 0 -0.1580510944529343 -0.34937900472597561 0 -0.1478011931406526 -0.35704033158383192 0 -0.1532594722774569 -0.37853685948595361 0 -0.14242216097961519 -0.36770976986324749 0 -0.1327962299645537 -0.37329777386170088 0 -0.1532594722774569 -0.37853685948595361 0 -0.1478011931406526 -0.35704033158383192 0 -0.14242216097961519 -0.36770976986324749 0 -0.1532594722774569 -0.37853685948595361 0 -0.1580510944529343 -0.34937900472597561 0 -0.1478011931406526 -0.35704033158383192 0 -0.14242216097961519 -0.36770976986324749 0 -0.13298896078134079 -0.36026971055396362 0 -0.13298896078134079 -0.36026971055396362 0 -0.1327962299645537 -0.37329777386170088 0 -0.11233298765165051 -0.36805868823744797 0 -0.14242216097961519 -0.36770976986324749 0 -0.13298896078134079 -0.36026971055396362 0 -0.1327962299645537 -0.37329777386170088 0 -0.1327962299645537 -0.37329777386170088 0 -0.11233298765165051 -0.36805868823744797 0 -0.11233298765165051 -0.36805868823744797 0 -0.10657360197902239 -0.35093485707956451 0 -0.091869745338747338 -0.36281960261319512 0 -0.11233298765165051 -0.36805868823744797 0 -0.091869745338747338 -0.36281960261319512 0 -0.097775674146993077 -0.37739671169266148 0 -0.11233298765165051 -0.36805868823744797 0 -0.091869745338747338 -0.36281960261319512 0 -0.10657360197902239 -0.35093485707956451 0 -0.091916712325302422 -0.34155830555672678 0 -0.091869745338747338 -0.36281960261319512 0 -0.13298896078134079 -0.36026971055396362 0 -0.11233298765165051 -0.36805868823744797 0 -0.1240441974091905 -0.34877218573461488 0 -0.10657360197902239 -0.35093485707956451 0 -0.1240441974091905 -0.34877218573461488 0 -0.1127043671702211 -0.33346550325583779 0 -0.11233298765165051 -0.36805868823744797 0 -0.10657360197902239 -0.35093485707956451 0 -0.1240441974091905 -0.34877218573461488 0 -0.1298152324756163 -0.33060790568630199 0 -0.1240441974091905 -0.34877218573461488 0 -0.1127043671702211 -0.33346550325583779 0 -0.1127043671702211 -0.33346550325583779 0 -0.099986269548101969 -0.31566147358884428 0 -0.1209814817758855 -0.31158883754432648 0 -0.1298152324756163 -0.33060790568630199 0 -0.1127043671702211 -0.33346550325583779 0 -0.1209814817758855 -0.31158883754432648 0 -0.1127043671702211 -0.33346550325583779 0 -0.099986269548101969 -0.31566147358884428 0 -0.091916712325302422 -0.34155830555672678 0 -0.10657360197902239 -0.35093485707956451 0 -0.1127043671702211 -0.33346550325583779 0 -0.091916712325302422 -0.34155830555672678 0 -0.091916712325302422 -0.34155830555672678 0 -0.079659154099951807 -0.32209157050387333 0 -0.072088592165134774 -0.34819186869710661 0 -0.099986269548101969 -0.31566147358884428 0 -0.091916712325302422 -0.34155830555672678 0 -0.079659154099951807 -0.32209157050387333 0 -0.079659154099951807 -0.32209157050387333 0 -0.060522906676780952 -0.3312172837287945 0 -0.050280674938654853 -0.31344540534240262 0 -0.079659154099951807 -0.32209157050387333 0 -0.072088592165134774 -0.34819186869710661 0 -0.079659154099951807 -0.32209157050387333 0 -0.072088592165134774 -0.34819186869710661 0 -0.060522906676780952 -0.3312172837287945 0 -0.072088592165134774 -0.34819186869710661 0 -0.064518030230317755 -0.37429216689033978 0 -0.072088592165134774 -0.34819186869710661 0 -0.064518030230317755 -0.37429216689033978 0 -0.059265051853294219 -0.35862041164794711 0 -0.072088592165134774 -0.34819186869710661 0 -0.064518030230317755 -0.37429216689033978 0 -0.079614076326722516 -0.36002528721142618 0 -0.064518030230317755 -0.37429216689033978 0 -0.07767730157411025 -0.37326449229976272 0 -0.079614076326722516 -0.36002528721142618 0 -0.07767730157411025 -0.37326449229976272 0 -0.079614076326722516 -0.36002528721142618 0 -0.091869745338747338 -0.36281960261319512 0 -0.07767730157411025 -0.37326449229976272 0 -0.091869745338747338 -0.36281960261319512 0 -0.087607745564597259 -0.37649639105237848 0 -0.091869745338747338 -0.36281960261319512 0 -0.097775674146993077 -0.37739671169266148 0 -0.087607745564597259 -0.37649639105237848 0 -0.091916712325302422 -0.34155830555672678 0 -0.072088592165134774 -0.34819186869710661 0 -0.079614076326722516 -0.36002528721142618 0 -0.091916712325302422 -0.34155830555672678 0 -0.079614076326722516 -0.36002528721142618 0 -0.091869745338747338 -0.36281960261319512 0 -0.097613302276242722 -0.26488225695983642 0 -0.11840662886325649 -0.25645158738316548 0 -0.099162486762250313 -0.24921486017549499 0 -0.097613302276242722 -0.26488225695983642 0 -0.11840662886325649 -0.25645158738316548 0 -0.1134773207333163 -0.27834086652674012 0 -0.13054795344993381 -0.27151699507100491 0 -0.11840662886325649 -0.25645158738316548 0 -0.1134773207333163 -0.27834086652674012 0 -0.13059499209945211 -0.28293209586729801 0 -0.13054795344993381 -0.27151699507100491 0 -0.1134773207333163 -0.27834086652674012 0 -0.1134773207333163 -0.27834086652674012 0 -0.09405878642764437 -0.27540232535208747 0 -0.1006263221673562 -0.28481225473539401 0 -0.097613302276242722 -0.26488225695983642 0 -0.1134773207333163 -0.27834086652674012 0 -0.097613302276242722 -0.26488225695983642 0 -0.1134773207333163 -0.27834086652674012 0 -0.09405878642764437 -0.27540232535208747 0 -0.1006263221673562 -0.28481225473539401 0 -0.1082855276125807 -0.29389537420214129 0 -0.087229716034770394 -0.29599127231064071 0 -0.1082855276125807 -0.29389537420214129 0 -0.087229716034770394 -0.29599127231064071 0 -0.09405878642764437 -0.27540232535208747 0 -0.1006263221673562 -0.28481225473539401 0 -0.090183314227677461 -0.28580843591861821 0 -0.1134773207333163 -0.27834086652674012 0 -0.1006263221673562 -0.28481225473539401 0 -0.1082855276125807 -0.29389537420214129 0 -0.12934133919039109 -0.29179947609364237 0 -0.13059499209945211 -0.28293209586729801 0 -0.1134773207333163 -0.27834086652674012 0 -0.12934133919039109 -0.29179947609364237 0 -0.1134773207333163 -0.27834086652674012 0 -0.12934133919039109 -0.29179947609364237 0 -0.1082855276125807 -0.29389537420214129 0 -0.12934133919039109 -0.29179947609364237 0 -0.1134773207333163 -0.27834086652674012 0 -0.1082855276125807 -0.29389537420214129 0 -0.12934133919039109 -0.29179947609364237 0 -0.1082855276125807 -0.29389537420214129 0 -0.1209814817758855 -0.31158883754432648 0 -0.099986269548101969 -0.31566147358884428 0 -0.1082855276125807 -0.29389537420214129 0 -0.1209814817758855 -0.31158883754432648 0 -0.099986269548101969 -0.31566147358884428 0 -0.1082855276125807 -0.29389537420214129 0 -0.087229716034770394 -0.29599127231064071 0 -0.099986269548101969 -0.31566147358884428 0 -0.079659154099951807 -0.32209157050387333 0 -0.087229716034770394 -0.29599127231064071 0 -0.079659154099951807 -0.32209157050387333 0 -0.087229716034770394 -0.29599127231064071 0 -0.079659154099951807 -0.32209157050387333 0 -0.068422624734181092 -0.29786333252250419 0 -0.087229716034770394 -0.29599127231064071 0 -0.079659154099951807 -0.32209157050387333 0 -0.068422624734181092 -0.29786333252250419 0 -0.050280674938654853 -0.31344540534240262 0 -0.068422624734181092 -0.29786333252250419 0 -0.087229716034770394 -0.29599127231064071 0 -0.067268086142553363 -0.28664123588762519 0 -0.085857446980755966 -0.28288860968895929 0 -0.072553917982818947 -0.27861354390699988 0 -0.068422624734181092 -0.29786333252250419 0 -0.085857446980755966 -0.28288860968895929 0 -0.068422624734181092 -0.29786333252250419 0 -0.067268086142553363 -0.28664123588762519 0 -0.085857446980755966 -0.28288860968895929 0 -0.068422624734181092 -0.29786333252250419 0 -0.067268086142553363 -0.28664123588762519 0 -0.053380380114534207 -0.29318348926985971 0 -0.067268086142553363 -0.28664123588762519 0 -0.072553917982818947 -0.27861354390699988 0 -0.058601196893822059 -0.27937620074444142 0 -0.068422624734181092 -0.29786333252250419 0 -0.082923275494346235 -0.29063791261018068 0 -0.087229716034770394 -0.29599127231064071 0 -0.068422624734181092 -0.29786333252250419 0 -0.085857446980755966 -0.28288860968895929 0 -0.082923275494346235 -0.29063791261018068 0 -0.087229716034770394 -0.29599127231064071 0 -0.090183314227677461 -0.28580843591861821 0 -0.082923275494346235 -0.29063791261018068 0 -0.087229716034770394 -0.29599127231064071 0 -0.090183314227677461 -0.28580843591861821 0 -0.085857446980755966 -0.28288860968895929 0 -0.090183314227677461 -0.28580843591861821 0 -0.08689152267282621 -0.27798495039472332 0 -0.1006263221673562 -0.28481225473539401 0 -0.087229716034770394 -0.29599127231064071 0 -0.090183314227677461 -0.28580843591861821 0 -0.085857446980755966 -0.28288860968895929 0 -0.082923275494346235 -0.29063791261018068 0 -0.090183314227677461 -0.28580843591861821 0 -0.097613302276242722 -0.26488225695983642 0 -0.083575365836385945 -0.27132412139242579 0 -0.080579273192581694 -0.26139366306794182 0 -0.09405878642764437 -0.27540232535208747 0 -0.090183314227677461 -0.28580843591861821 0 -0.08689152267282621 -0.27798495039472332 0 -0.09405878642764437 -0.27540232535208747 0 -0.08689152267282621 -0.27798495039472332 0 -0.083575365836385945 -0.27132412139242579 0 -0.097613302276242722 -0.26488225695983642 0 -0.09405878642764437 -0.27540232535208747 0 -0.083575365836385945 -0.27132412139242579 0 -0.083575365836385945 -0.27132412139242579 0 -0.07202217162836394 -0.26465011606661792 0 -0.080579273192581694 -0.26139366306794182 0 -0.083575365836385945 -0.27132412139242579 0 -0.082219563368196774 -0.27770280634577699 0 -0.072553917982818947 -0.27861354390699988 0 -0.085857446980755966 -0.28288860968895929 0 -0.082219563368196774 -0.27770280634577699 0 -0.072553917982818947 -0.27861354390699988 0 -0.08689152267282621 -0.27798495039472332 0 -0.083575365836385945 -0.27132412139242579 0 -0.082219563368196774 -0.27770280634577699 0 -0.085857446980755966 -0.28288860968895929 0 -0.08689152267282621 -0.27798495039472332 0 -0.082219563368196774 -0.27770280634577699 0 -0.07202217162836394 -0.26465011606661792 0 -0.067936242402746733 -0.25468817352789619 0 -0.058601196893822059 -0.27937620074444142 0 -0.067936242402746733 -0.25468817352789619 0 -0.058601196893822059 -0.27937620074444142 0 -0.072553917982818947 -0.27861354390699988 0 -0.07202217162836394 -0.26465011606661792 0 -0.058601196893822059 -0.27937620074444142 0 -0.07202217162836394 -0.26465011606661792 0 -0.058601196893822059 -0.27937620074444142 0 -0.083575365836385945 -0.27132412139242579 0 -0.072553917982818947 -0.27861354390699988 0 -0.07202217162836394 -0.26465011606661792 0 -0.07202217162836394 -0.26465011606661792 0 -0.067936242402746733 -0.25468817352789619 0 -0.080579273192581694 -0.26139366306794182 0 -0.067936242402746733 -0.25468817352789619 0 -0.081749283819169183 -0.25142364739293283 0 -0.080579273192581694 -0.26139366306794182 0 -0.097613302276242722 -0.26488225695983642 0 -0.081749283819169183 -0.25142364739293283 0 -0.099162486762250313 -0.24921486017549499 0 -0.097613302276242722 -0.26488225695983642 0 -0.081749283819169183 -0.25142364739293283 0 -0.080579273192581694 -0.26139366306794182 0 -0.097613302276242722 -0.26488225695983642 0 -0.081749283819169183 -0.25142364739293283 0 -0.033515532645534807 -0.25565753410287012 0 -0.049783633663150237 -0.26257296060548302 0 -0.052778720187395052 -0.24295676583674891 0 -0.033515532645534807 -0.25565753410287012 0 -0.049783633663150237 -0.26257296060548302 0 -0.033086127311324841 -0.27854050452153889 0 -0.067936242402746733 -0.25468817352789619 0 -0.049783633663150237 -0.26257296060548302 0 -0.052778720187395052 -0.24295676583674891 0 -0.067936242402746733 -0.25468817352789619 0 -0.049783633663150237 -0.26257296060548302 0 -0.058601196893822059 -0.27937620074444142 0 -0.049783633663150237 -0.26257296060548302 0 -0.058601196893822059 -0.27937620074444142 0 -0.033086127311324841 -0.27854050452153889 0 -0.033515532645534807 -0.25565753410287012 0 -0.033086127311324841 -0.27854050452153889 0 -0.033086127311324841 -0.27854050452153889 0 -0.032656721977112148 -0.30142347494020783 0 -0.033086127311324841 -0.27854050452153889 0 -0.03909164358176101 -0.30078294204174028 0 -0.032656721977112148 -0.30142347494020783 0 -0.058601196893822059 -0.27937620074444142 0 -0.033086127311324841 -0.27854050452153889 0 -0.03909164358176101 -0.30078294204174028 0 -0.058601196893822059 -0.27937620074444142 0 -0.03909164358176101 -0.30078294204174028 0 -0.058601196893822059 -0.27937620074444142 0 -0.053380380114534207 -0.29318348926985971 0 -0.03909164358176101 -0.30078294204174028 0 -0.058601196893822059 -0.27937620074444142 0 -0.053380380114534207 -0.29318348926985971 0 -0.067268086142553363 -0.28664123588762519 0 -0.058601196893822059 -0.27937620074444142 0 -0.053380380114534207 -0.29318348926985971 0 -0.068422624734181092 -0.29786333252250419 0 -0.053380380114534207 -0.29318348926985971 0 -0.03909164358176101 -0.30078294204174028 0 -0.068422624734181092 -0.29786333252250419 0 -0.03909164358176101 -0.30078294204174028 0 -0.068422624734181092 -0.29786333252250419 0 -0.03909164358176101 -0.30078294204174028 0 -0.050280674938654853 -0.31344540534240262 0 -0.068422624734181092 -0.29786333252250419 0 -0.050280674938654853 -0.31344540534240262 0 -0.03909164358176101 -0.30078294204174028 0 -0.032533713374809578 -0.30797859194414418 0 -0.050280674938654853 -0.31344540534240262 0 -0.03909164358176101 -0.30078294204174028 0 -0.032656721977112148 -0.30142347494020783 0 -0.03909164358176101 -0.30078294204174028 0 -0.032533713374809578 -0.30797859194414418 0 -0.032656721977112148 -0.30142347494020783 0 -0.032533713374809578 -0.30797859194414418 0 -0.03909164358176101 -0.30078294204174028 0 -0.032656721977112148 -0.30142347494020783 0 -0.032533713374809578 -0.30797859194414418 0 -0.032656721977112148 -0.30142347494020783 0 -0.021022017901489429 -0.30978843881947632 0 -0.0056478410678713056 -0.30411194231184918 0 -0.032656721977112148 -0.30142347494020783 0 -0.0056478410678713056 -0.30411194231184918 0 -0.032656721977112148 -0.30142347494020783 0 -0.0056478410678713056 -0.30411194231184918 0 -0.01792318465985027 -0.28909843042835409 0 -0.032656721977112148 -0.30142347494020783 0 -0.032533713374809578 -0.30797859194414418 0 -0.021022017901489429 -0.30978843881947632 0 -0.0056478410678713056 -0.30411194231184918 0 -0.003550042800243684 -0.28209207201754433 0 -0.01792318465985027 -0.28909843042835409 0 -0.033086127311324841 -0.27854050452153889 0 -0.032656721977112148 -0.30142347494020783 0 -0.01792318465985027 -0.28909843042835409 0 -0.033515532645534807 -0.25565753410287012 0 -0.033086127311324841 -0.27854050452153889 0 -0.016964089863525041 -0.27073302193743187 0 -0.033086127311324841 -0.27854050452153889 0 -0.01792318465985027 -0.28909843042835409 0 -0.016964089863525041 -0.27073302193743187 0 -0.003550042800243684 -0.28209207201754433 0 -0.01792318465985027 -0.28909843042835409 0 -0.016964089863525041 -0.27073302193743187 0 -0.003550042800243684 -0.28209207201754433 0 -0.016964089863525041 -0.27073302193743187 0 0.00027413042534417219 -0.26461719389675081 0 -0.018248806879461149 -0.25297125270079762 0 -0.0070936043338453089 -0.2410739498827342 0 0.00027413042534417219 -0.26461719389675081 0 -0.016964089863525041 -0.27073302193743187 0 -0.018248806879461149 -0.25297125270079762 0 0.00027413042534417219 -0.26461719389675081 0 -0.033515532645534807 -0.25565753410287012 0 -0.016964089863525041 -0.27073302193743187 0 -0.018248806879461149 -0.25297125270079762 0 -0.031608971029783023 -0.35725802571037552 0 -0.03206575203586038 -0.33291620827788859 0 -0.031608971029783023 -0.35725802571037552 0 -0.045360730737570437 -0.36304176378248582 0 -0.050193049462686733 -0.34310053985071809 0 -0.031608971029783023 -0.35725802571037552 0 -0.050193049462686733 -0.34310053985071809 0 -0.03206575203586038 -0.33291620827788859 0 -0.031608971029783023 -0.35725802571037552 0 -0.031152190023703102 -0.38159984314286211 0 -0.045360730737570437 -0.36304176378248582 0 -0.051622219478239452 -0.37231677157947901 0 -0.031152190023703102 -0.38159984314286211 0 -0.031608971029783023 -0.35725802571037552 0 -0.045360730737570437 -0.36304176378248582 0 -0.031152190023703102 -0.38159984314286211 0 -0.045360730737570437 -0.36304176378248582 0 -0.051622219478239452 -0.37231677157947901 0 -0.059265051853294219 -0.35862041164794711 0 -0.064518030230317755 -0.37429216689033978 0 -0.051622219478239452 -0.37231677157947901 0 -0.059265051853294219 -0.35862041164794711 0 -0.045360730737570437 -0.36304176378248582 0 -0.059265051853294219 -0.35862041164794711 0 -0.050193049462686733 -0.34310053985071809 0 -0.072088592165134774 -0.34819186869710661 0 -0.059265051853294219 -0.35862041164794711 0 -0.050193049462686733 -0.34310053985071809 0 -0.072088592165134774 -0.34819186869710661 0 -0.060522906676780952 -0.3312172837287945 0 -0.050193049462686733 -0.34310053985071809 0 -0.060522906676780952 -0.3312172837287945 0 -0.050193049462686733 -0.34310053985071809 0 -0.044947263141536097 -0.33121288369516838 0 -0.060522906676780952 -0.3312172837287945 0 -0.050280674938654853 -0.31344540534240262 0 -0.044947263141536097 -0.33121288369516838 0 -0.050280674938654853 -0.31344540534240262 0 -0.032138725143127878 -0.32902747816229988 0 -0.032533713374809578 -0.30797859194414418 0 -0.050280674938654853 -0.31344540534240262 0 -0.032138725143127878 -0.32902747816229988 0 -0.032533713374809578 -0.30797859194414418 0 -0.032138725143127878 -0.32902747816229988 0 -0.050280674938654853 -0.31344540534240262 0 -0.044947263141536097 -0.33121288369516838 0 -0.032138725143127878 -0.32902747816229988 0 -0.050193049462686733 -0.34310053985071809 0 -0.03206575203586038 -0.33291620827788859 0 -0.050193049462686733 -0.34310053985071809 0 -0.044947263141536097 -0.33121288369516838 0 -0.03206575203586038 -0.33291620827788859 0 -0.044947263141536097 -0.33121288369516838 0 -0.032138725143127878 -0.32902747816229988 0 -0.03206575203586038 -0.33291620827788859 0 -0.032138725143127878 -0.32902747816229988 0 -0.03206575203586038 -0.33291620827788859 0 -0.02937271407803491 -0.33140319776921551 0 -0.0090340080922087593 -0.34887205868579768 0 -0.023577068608822679 -0.34507915116508331 0 -0.02937271407803491 -0.33140319776921551 0 -0.0090340080922087593 -0.34887205868579768 0 -0.02937271407803491 -0.33140319776921551 0 -0.01734413521792311 -0.32464526620462958 0 -0.0057410480103785074 -0.33737668460918963 0 -0.03206575203586038 -0.33291620827788859 0 -0.02937271407803491 -0.33140319776921551 0 -0.023577068608822679 -0.34507915116508331 0 -0.032138725143127878 -0.32902747816229988 0 -0.02937271407803491 -0.33140319776921551 0 -0.01734413521792311 -0.32464526620462958 0 -0.03206575203586038 -0.33291620827788859 0 -0.02937271407803491 -0.33140319776921551 0 -0.032138725143127878 -0.32902747816229988 0 -0.03206575203586038 -0.33291620827788859 0 -0.02937271407803491 -0.33140319776921551 0 -0.032138725143127878 -0.32902747816229988 0 -0.02937271407803491 -0.33140319776921551 0 -0.032533713374809578 -0.30797859194414418 0 -0.01734413521792311 -0.32464526620462958 0 -0.032533713374809578 -0.30797859194414418 0 -0.032138725143127878 -0.32902747816229988 0 -0.01734413521792311 -0.32464526620462958 0 -0.032533713374809578 -0.30797859194414418 0 -0.021022017901489429 -0.30978843881947632 0 -0.01734413521792311 -0.32464526620462958 0 -0.02937271407803491 -0.33140319776921551 0 -0.01734413521792311 -0.32464526620462958 0 -0.01734413521792311 -0.32464526620462958 0 0.0066724863395269743 -0.31115217722169719 0 -0.021022017901489429 -0.30978843881947632 0 -0.0056478410678713056 -0.30411194231184918 0 -0.01734413521792311 -0.32464526620462958 0 -0.01734413521792311 -0.32464526620462958 0 0.002600192195030319 -0.32665160973773938 0 0.0066724863395269743 -0.31115217722169719 0 -0.0056478410678713056 -0.30411194231184918 0 -0.01734413521792311 -0.32464526620462958 0 0.0066724863395269743 -0.31115217722169719 0 -0.01734413521792311 -0.32464526620462958 0 -0.0057410480103785074 -0.33737668460918963 0 0.002600192195030319 -0.32665160973773938 0 -0.02937271407803491 -0.33140319776921551 0 -0.0057410480103785074 -0.33737668460918963 0 -0.0090340080922087593 -0.34887205868579768 0 -0.01734413521792311 -0.32464526620462958 0 -0.0057410480103785074 -0.33737668460918963 0 -0.0057410480103785074 -0.33737668460918963 0 -0.0090340080922087593 -0.34887205868579768 0 0.0058620391971661648 -0.35010810301374962 0 -0.0090340080922087593 -0.34887205868579768 0 -0.005690371318418405 -0.36081602155646109 0 0.01130469789361814 -0.36634091960237891 0 -0.0090340080922087593 -0.34887205868579768 0 -0.016960018442695849 -0.35556889786043039 0 -0.005690371318418405 -0.36081602155646109 0 -0.0090340080922087593 -0.34887205868579768 0 -0.016960018442695849 -0.35556889786043039 0 -0.023577068608822679 -0.34507915116508331 0 -0.031608971029783023 -0.35725802571037552 0 -0.03206575203586038 -0.33291620827788859 0 -0.023577068608822679 -0.34507915116508331 0 -0.031608971029783023 -0.35725802571037552 0 -0.016960018442695849 -0.35556889786043039 0 -0.02076485931872029 -0.36238122822925101 0 -0.031608971029783023 -0.35725802571037552 0 -0.016960018442695849 -0.35556889786043039 0 -0.023577068608822679 -0.34507915116508331 0 -0.031608971029783023 -0.35725802571037552 0 -0.021982583817964741 -0.37065516071829641 0 -0.031152190023703102 -0.38159984314286211 0 -0.031608971029783023 -0.35725802571037552 0 -0.02076485931872029 -0.36238122822925101 0 -0.021982583817964741 -0.37065516071829641 0 -0.016960018442695849 -0.35556889786043039 0 -0.02076485931872029 -0.36238122822925101 0 -0.01250786398443756 -0.36604282862790172 0 -0.02076485931872029 -0.36238122822925101 0 -0.021982583817964741 -0.37065516071829641 0 -0.01250786398443756 -0.36604282862790172 0 -0.021982583817964741 -0.37065516071829641 0 -0.01250786398443756 -0.36604282862790172 0 -0.01261592041162685 -0.37562350234278058 0 -0.01250786398443756 -0.36604282862790172 0 -0.0056625916442426009 -0.37274107753382157 0 -0.01261592041162685 -0.37562350234278058 0 -0.016960018442695849 -0.35556889786043039 0 -0.01250786398443756 -0.36604282862790172 0 -0.005690371318418405 -0.36081602155646109 0 -0.01250786398443756 -0.36604282862790172 0 -0.005690371318418405 -0.36081602155646109 0 -0.0012546639663679939 -0.36725540300579651 0 -0.01250786398443756 -0.36604282862790172 0 -0.0056625916442426009 -0.37274107753382157 0 -0.0012546639663679939 -0.36725540300579651 0 -0.0056625916442426009 -0.37274107753382157 0 -0.0012546639663679939 -0.36725540300579651 0 0.00083080919627883981 -0.37495933448478602 0 -0.0056625916442426009 -0.37274107753382157 0 -0.0039418185662910459 -0.37940177918111478 0 -0.01261592041162685 -0.37562350234278058 0 -0.0056625916442426009 -0.37274107753382157 0 -0.0039418185662910459 -0.37940177918111478 0 0.00083080919627883981 -0.37495933448478602 0 -0.0039418185662910459 -0.37940177918111478 0 0.0023126715974343039 -0.38121453777462277 0 0.00083080919627883981 -0.37495933448478602 0 -0.0039418185662910459 -0.37940177918111478 0 -0.0019023268811386069 -0.38812108031404702 0 -0.010031692843495759 -0.38407302932068732 0 -0.0039418185662910459 -0.37940177918111478 0 -0.0019023268811386069 -0.38812108031404702 0 0.0023126715974343039 -0.38121453777462277 0 -0.010031692843495759 -0.38407302932068732 0 -0.011460378120849459 -0.39265938441852682 0 -0.016896198421982391 -0.38750483071309261 0 -0.0019023268811386069 -0.38812108031404702 0 -0.010031692843495759 -0.38407302932068732 0 -0.011460378120849459 -0.39265938441852682 0 -0.0039418185662910459 -0.37940177918111478 0 -0.010031692843495759 -0.38407302932068732 0 -0.01261592041162685 -0.37562350234278058 0 -0.010031692843495759 -0.38407302932068732 0 -0.01261592041162685 -0.37562350234278058 0 -0.021855983430249269 -0.38075266630750049 0 -0.0040835555638557286 -0.39851387390366932 0 -0.006097273337609779 -0.40725715184949118 0 0.0046086086085545663 -0.4058911627348869 0 -0.0019023268811386069 -0.38812108031404702 0 -0.0040835555638557286 -0.39851387390366932 0 0.0046112937987620997 -0.39629612094955691 0 -0.0019023268811386069 -0.38812108031404702 0 -0.0040835555638557286 -0.39851387390366932 0 -0.011460378120849459 -0.39265938441852682 0 -0.0040835555638557286 -0.39851387390366932 0 -0.014935916852572799 -0.40452273086999008 0 -0.006097273337609779 -0.40725715184949118 0 -0.0040835555638557286 -0.39851387390366932 0 -0.011460378120849459 -0.39265938441852682 0 -0.014935916852572799 -0.40452273086999008 0 -0.014935916852572799 -0.40452273086999008 0 -0.030715031898996579 -0.40489595904791142 0 -0.02232913139831539 -0.39227086140054951 0 -0.030715031898996579 -0.40489595904791142 0 -0.02232913139831539 -0.39227086140054951 0 -0.031152190023703102 -0.38159984314286211 0 -0.030715031898996579 -0.40489595904791142 0 -0.031152190023703102 -0.38159984314286211 0 -0.011460378120849459 -0.39265938441852682 0 -0.014935916852572799 -0.40452273086999008 0 -0.02232913139831539 -0.39227086140054951 0 -0.011460378120849459 -0.39265938441852682 0 -0.02232913139831539 -0.39227086140054951 0 -0.016896198421982391 -0.38750483071309261 0 -0.021982583817964741 -0.37065516071829641 0 -0.01261592041162685 -0.37562350234278058 0 -0.021855983430249269 -0.38075266630750049 0 -0.02232913139831539 -0.39227086140054951 0 -0.021855983430249269 -0.38075266630750049 0 -0.016896198421982391 -0.38750483071309261 0 -0.010031692843495759 -0.38407302932068732 0 -0.021855983430249269 -0.38075266630750049 0 -0.016896198421982391 -0.38750483071309261 0 -0.02232913139831539 -0.39227086140054951 0 -0.021855983430249269 -0.38075266630750049 0 -0.031152190023703102 -0.38159984314286211 0 -0.021855983430249269 -0.38075266630750049 0 -0.031152190023703102 -0.38159984314286211 0 -0.021982583817964741 -0.37065516071829641 0 -0.021855983430249269 -0.38075266630750049 0 -0.031152190023703102 -0.38159984314286211 0 -0.031152190023703102 -0.38159984314286211 0 -0.045612517276577148 -0.39621281994383428 0 -0.057815094546309002 -0.38402967243376029 0 -0.031152190023703102 -0.38159984314286211 0 -0.057815094546309002 -0.38402967243376029 0 -0.030715031898996579 -0.40489595904791142 0 -0.031152190023703102 -0.38159984314286211 0 -0.045612517276577148 -0.39621281994383428 0 -0.030715031898996579 -0.40489595904791142 0 -0.045612517276577148 -0.39621281994383428 0 -0.044970540071458787 -0.41223903647625282 0 -0.045612517276577148 -0.39621281994383428 0 -0.060072440452772297 -0.406233088969641 0 -0.044970540071458787 -0.41223903647625282 0 -0.045612517276577148 -0.39621281994383428 0 -0.057577700636528777 -0.39511111885993611 0 -0.057815094546309002 -0.38402967243376029 0 -0.045612517276577148 -0.39621281994383428 0 -0.060072440452772297 -0.406233088969641 0 -0.057577700636528777 -0.39511111885993611 0 -0.060072440452772297 -0.406233088969641 0 -0.057577700636528777 -0.39511111885993611 0 -0.066810750270456687 -0.39396889409250868 0 -0.057577700636528777 -0.39511111885993611 0 -0.057815094546309002 -0.38402967243376029 0 -0.066810750270456687 -0.39396889409250868 0 -0.051622219478239452 -0.37231677157947901 0 -0.031152190023703102 -0.38159984314286211 0 -0.057815094546309002 -0.38402967243376029 0 -0.064518030230317755 -0.37429216689033978 0 -0.051622219478239452 -0.37231677157947901 0 -0.057815094546309002 -0.38402967243376029 0 -0.058174836954660553 -0.42566123946691642 0 -0.052611732511095112 -0.44587233617779137 0 -0.076176396309111258 -0.44043700475793429 0 -0.058174836954660553 -0.42566123946691642 0 -0.03027787377429161 -0.4281920749529608 0 -0.052611732511095112 -0.44587233617779137 0 -0.060072440452772297 -0.406233088969641 0 -0.058174836954660553 -0.42566123946691642 0 -0.044970540071458787 -0.41223903647625282 0 -0.030715031898996579 -0.40489595904791142 0 -0.044970540071458787 -0.41223903647625282 0 -0.03027787377429161 -0.4281920749529608 0 -0.03027787377429161 -0.4281920749529608 0 -0.052611732511095112 -0.44587233617779137 0 -0.058174836954660553 -0.42566123946691642 0 -0.044970540071458787 -0.41223903647625282 0 -0.03027787377429161 -0.4281920749529608 0 -0.03027787377429161 -0.4281920749529608 0 -0.020254089366659209 -0.42025689774614111 0 -0.01935614224925079 -0.4352771610053851 0 -0.020254089366659209 -0.42025689774614111 0 -0.0082599908264913632 -0.42809619331814092 0 -0.03027787377429161 -0.4281920749529608 0 -0.01935614224925079 -0.4352771610053851 0 -0.020254089366659209 -0.42025689774614111 0 -0.030715031898996579 -0.40489595904791142 0 -0.03027787377429161 -0.4281920749529608 0 -0.014935916852572799 -0.40452273086999008 0 -0.030715031898996579 -0.40489595904791142 0 -0.020254089366659209 -0.42025689774614111 0 -0.030715031898996579 -0.40489595904791142 0 -0.03027787377429161 -0.4281920749529608 0 -0.020254089366659209 -0.42025689774614111 0 -0.014935916852572799 -0.40452273086999008 0 -0.020254089366659209 -0.42025689774614111 0 -0.0096947947739557533 -0.41681707354167308 0 -0.014935916852572799 -0.40452273086999008 0 -0.0096947947739557533 -0.41681707354167308 0 -0.006097273337609779 -0.40725715184949118 0 -0.020254089366659209 -0.42025689774614111 0 -0.0096947947739557533 -0.41681707354167308 0 -0.0082599908264913632 -0.42809619331814092 0 -0.0096947947739557533 -0.41681707354167308 0 -0.0082599908264913632 -0.42809619331814092 0 0.0028022247942034251 -0.41946384022854472 0 -0.0096947947739557533 -0.41681707354167308 0 -0.006097273337609779 -0.40725715184949118 0 0.0028022247942034251 -0.41946384022854472 0 -0.0082599908264913632 -0.42809619331814092 0 -0.0082063676535428925 -0.44524425972810189 0 0.0075572732535143317 -0.43656391431578739 0 -0.01935614224925079 -0.4352771610053851 0 -0.0082599908264913632 -0.42809619331814092 0 -0.0082063676535428925 -0.44524425972810189 0 -0.0082063676535428925 -0.44524425972810189 0 -0.0097957142331583924 -0.46367350718703881 0 0.013671953577505081 -0.46006232744794029 0 -0.0097957142331583924 -0.46367350718703881 0 -0.0297823896252731 -0.45459637928158059 0 -0.024717880258620709 -0.47843340575360083 0 -0.0082063676535428925 -0.44524425972810189 0 -0.0097957142331583924 -0.46367350718703881 0 -0.0297823896252731 -0.45459637928158059 0 -0.03027787377429161 -0.4281920749529608 0 -0.0297823896252731 -0.45459637928158059 0 -0.03027787377429161 -0.4281920749529608 0 -0.01935614224925079 -0.4352771610053851 0 -0.0297823896252731 -0.45459637928158059 0 -0.01935614224925079 -0.4352771610053851 0 -0.0082063676535428925 -0.44524425972810189 0 -0.0297823896252731 -0.45459637928158059 0 -0.01355972798922583 -0.50000000000000011 0 5.6112794139664267e-05 -0.48003116372397031 0 -0.01355972798922583 -0.50000000000000011 0 -0.024717880258620709 -0.47843340575360083 0 5.6112794139664267e-05 -0.48003116372397031 0 -0.01355972798922583 -0.50000000000000011 0 5.6112794139664267e-05 -0.48003116372397031 0 0.0029207159399868838 -0.5 0 -0.0097957142331583924 -0.46367350718703881 0 -0.024717880258620709 -0.47843340575360083 0 5.6112794139664267e-05 -0.48003116372397031 0 -0.01355972798922583 -0.50000000000000011 0 -0.024717880258620709 -0.47843340575360083 0 -0.043282326556483341 -0.5 0 -0.024717880258620709 -0.47843340575360083 0 -0.043282326556483341 -0.5 0 -0.050980105637671601 -0.47343453653750278 0 -0.0297823896252731 -0.45459637928158059 0 -0.024717880258620709 -0.47843340575360083 0 -0.050980105637671601 -0.47343453653750278 0 -0.050980105637671601 -0.47343453653750278 0 -0.058143625840113067 -0.49007101660018798 0 -0.073975258185815768 -0.48177629870131627 0 -0.043282326556483341 -0.5 0 -0.050980105637671601 -0.47343453653750278 0 -0.058143625840113067 -0.49007101660018798 0 -0.043282326556483341 -0.5 0 -0.058143625840113067 -0.49007101660018798 0 -0.073004925123740905 -0.50000000000000266 0 -0.03027787377429161 -0.4281920749529608 0 -0.0297823896252731 -0.45459637928158059 0 -0.052611732511095112 -0.44587233617779137 0 -0.0297823896252731 -0.45459637928158059 0 -0.050980105637671601 -0.47343453653750278 0 -0.052611732511095112 -0.44587233617779137 0 -0.050980105637671601 -0.47343453653750278 0 -0.052611732511095112 -0.44587233617779137 0 -0.074945591247892296 -0.46355259740263011 0 -0.052611732511095112 -0.44587233617779137 0 -0.076176396309111258 -0.44043700475793429 0 -0.074945591247892296 -0.46355259740263011 0 -0.076176396309111258 -0.44043700475793429 0 -0.074945591247892296 -0.46355259740263011 0 -0.052611732511095112 -0.44587233617779137 0 -0.074945591247892296 -0.46355259740263011 0 -0.076176396309111258 -0.44043700475793429 0 -0.074945591247892296 -0.46355259740263011 0 -0.090402339616340477 -0.45720097020156669 0 -0.074945591247892296 -0.46355259740263011 0 -0.090402339616340477 -0.45720097020156669 0 -0.1010499717879187 -0.46737552442943681 0 -0.076176396309111258 -0.44043700475793429 0 -0.090402339616340477 -0.45720097020156669 0 -0.096819875954107348 -0.44093415033708072 0 -0.058143625840113067 -0.49007101660018798 0 -0.073004925123740905 -0.50000000000000266 0 -0.073975258185815768 -0.48177629870131627 0 -0.073004925123740905 -0.50000000000000266 0 -0.073975258185815768 -0.48177629870131627 0 -0.085485426652525134 -0.49088814935065878 0 -0.073004925123740905 -0.50000000000000266 0 -0.073975258185815768 -0.48177629870131627 0 -0.050980105637671601 -0.47343453653750278 0 -0.074945591247892296 -0.46355259740263011 0 -0.073975258185815768 -0.48177629870131627 0 -0.074945591247892296 -0.46355259740263011 0 -0.073975258185815768 -0.48177629870131627 0 -0.074945591247892296 -0.46355259740263011 0 -0.097965928181309878 -0.48177629870131611 0 -0.074945591247892296 -0.46355259740263011 0 -0.097965928181309878 -0.48177629870131611 0 -0.1010499717879187 -0.46737552442943681 0 -0.074945591247892296 -0.46355259740263011 0 -0.073975258185815768 -0.48177629870131627 0 -0.097965928181309878 -0.48177629870131611 0 -0.085485426652525134 -0.49088814935065878 0 -0.096995595119233835 -0.5 0 -0.097965928181309878 -0.48177629870131611 0 -0.073975258185815768 -0.48177629870131627 0 -0.085485426652525134 -0.49088814935065878 0 -0.097965928181309878 -0.48177629870131611 0 -0.073004925123740905 -0.50000000000000266 0 -0.085485426652525134 -0.49088814935065878 0 -0.096995595119233835 -0.5 0 -0.096995595119233835 -0.5 0 -0.097965928181309878 -0.48177629870131611 0 -0.1209862651147269 -0.50000000000000289 0 -0.097965928181309878 -0.48177629870131611 0 -0.119492304694676 -0.47511782682322767 0 -0.1010499717879187 -0.46737552442943681 0 -0.097965928181309878 -0.48177629870131611 0 -0.119492304694676 -0.47511782682322767 0 -0.1209862651147269 -0.50000000000000289 0 -0.097965928181309878 -0.48177629870131611 0 -0.1209862651147269 -0.50000000000000289 0 -0.090402339616340477 -0.45720097020156669 0 -0.096819875954107348 -0.44093415033708072 0 -0.1037609612720625 -0.45049485165087189 0 -0.096819875954107348 -0.44093415033708072 0 -0.1037609612720625 -0.45049485165087189 0 -0.1142402623095774 -0.44420554090180692 0 -0.090402339616340477 -0.45720097020156669 0 -0.1037609612720625 -0.45049485165087189 0 -0.1135813672082245 -0.45963874516303299 0 -0.090402339616340477 -0.45720097020156669 0 -0.1135813672082245 -0.45963874516303299 0 -0.090402339616340477 -0.45720097020156669 0 -0.1010499717879187 -0.46737552442943681 0 -0.1135813672082245 -0.45963874516303299 0 -0.119492304694676 -0.47511782682322767 0 -0.1010499717879187 -0.46737552442943681 0 -0.1135813672082245 -0.45963874516303299 0 -0.13676039480010871 -0.4620765201244994 0 -0.119492304694676 -0.47511782682322767 0 -0.1135813672082245 -0.45963874516303299 0 -0.13070341277012409 -0.44586269453286981 0 -0.1135813672082245 -0.45963874516303299 0 -0.1142402623095774 -0.44420554090180692 0 -0.13070341277012409 -0.44586269453286981 0 -0.1142402623095774 -0.44420554090180692 0 -0.1229075344292966 -0.42992744480411849 0 -0.1037609612720625 -0.45049485165087189 0 -0.1135813672082245 -0.45963874516303299 0 -0.1142402623095774 -0.44420554090180692 0 -0.1142402623095774 -0.44420554090180692 0 -0.1229075344292966 -0.42992744480411849 0 -0.1043195078960229 -0.42495686117609149 0 -0.1229075344292966 -0.42992744480411849 0 -0.1043195078960229 -0.42495686117609149 0 -0.1249760016650604 -0.41140088444285461 0 -0.096819875954107348 -0.44093415033708072 0 -0.1043195078960229 -0.42495686117609149 0 -0.08903106963660111 -0.42759730499394771 0 -0.1142402623095774 -0.44420554090180692 0 -0.1043195078960229 -0.42495686117609149 0 -0.096819875954107348 -0.44093415033708072 0 -0.1142402623095774 -0.44420554090180692 0 -0.1043195078960229 -0.42495686117609149 0 -0.1043195078960229 -0.42495686117609149 0 -0.094398753482468359 -0.40570818145037613 0 -0.1043195078960229 -0.42495686117609149 0 -0.094398753482468359 -0.40570818145037613 0 -0.08903106963660111 -0.42759730499394771 0 -0.1043195078960229 -0.42495686117609149 0 -0.1097150107003516 -0.40415120268397431 0 -0.094398753482468359 -0.40570818145037613 0 -0.1043195078960229 -0.42495686117609149 0 -0.1249760016650604 -0.41140088444285461 0 -0.1097150107003516 -0.40415120268397431 0 -0.127807152278333 -0.39453815029550032 0 -0.1097150107003516 -0.40415120268397431 0 -0.1096784415666318 -0.38875605472294961 0 -0.127807152278333 -0.39453815029550032 0 -0.1249760016650604 -0.41140088444285461 0 -0.1097150107003516 -0.40415120268397431 0 -0.1327962299645537 -0.37329777386170088 0 -0.11233298765165051 -0.36805868823744797 0 -0.1096784415666318 -0.38875605472294961 0 -0.127807152278333 -0.39453815029550032 0 -0.1327962299645537 -0.37329777386170088 0 -0.1096784415666318 -0.38875605472294961 0 -0.11233298765165051 -0.36805868823744797 0 -0.1096784415666318 -0.38875605472294961 0 -0.097775674146993077 -0.37739671169266148 0 -0.1096784415666318 -0.38875605472294961 0 -0.084477999068914705 -0.38645950172466009 0 -0.1096784415666318 -0.38875605472294961 0 -0.097775674146993077 -0.37739671169266148 0 -0.084477999068914705 -0.38645950172466009 0 -0.1096784415666318 -0.38875605472294961 0 -0.094398753482468359 -0.40570818145037613 0 -0.084477999068914705 -0.38645950172466009 0 -0.1097150107003516 -0.40415120268397431 0 -0.1096784415666318 -0.38875605472294961 0 -0.094398753482468359 -0.40570818145037613 0 -0.094398753482468359 -0.40570818145037613 0 -0.084477999068914705 -0.38645950172466009 0 -0.094398753482468359 -0.40570818145037613 0 -0.078638006431552818 -0.39420581946854311 0 -0.077407201370332024 -0.4173214121132387 0 -0.094398753482468359 -0.40570818145037613 0 -0.078638006431552818 -0.39420581946854311 0 -0.084477999068914705 -0.38645950172466009 0 -0.097775674146993077 -0.37739671169266148 0 -0.087607745564597259 -0.37649639105237848 0 -0.084477999068914705 -0.38645950172466009 0 -0.07767730157411025 -0.37326449229976272 0 -0.084477999068914705 -0.38645950172466009 0 -0.07767730157411025 -0.37326449229976272 0 -0.087607745564597259 -0.37649639105237848 0 -0.084477999068914705 -0.38645950172466009 0 -0.057815094546309002 -0.38402967243376029 0 -0.084477999068914705 -0.38645950172466009 0 -0.066810750270456687 -0.39396889409250868 0 -0.057815094546309002 -0.38402967243376029 0 -0.084477999068914705 -0.38645950172466009 0 -0.064518030230317755 -0.37429216689033978 0 -0.057815094546309002 -0.38402967243376029 0 -0.084477999068914705 -0.38645950172466009 0 -0.064518030230317755 -0.37429216689033978 0 -0.07767730157411025 -0.37326449229976272 0 -0.084477999068914705 -0.38645950172466009 0 -0.078638006431552818 -0.39420581946854311 0 -0.084477999068914705 -0.38645950172466009 0 -0.066810750270456687 -0.39396889409250868 0 -0.078638006431552818 -0.39420581946854311 0 -0.070732099631278453 -0.40293230366098293 0 -0.077407201370332024 -0.4173214121132387 0 -0.078638006431552818 -0.39420581946854311 0 -0.077407201370332024 -0.4173214121132387 0 -0.078638006431552818 -0.39420581946854311 0 -0.070732099631278453 -0.40293230366098293 0 -0.066810750270456687 -0.39396889409250868 0 -0.060072440452772297 -0.406233088969641 0 -0.070732099631278453 -0.40293230366098293 0 -0.066810750270456687 -0.39396889409250868 0 -0.060072440452772297 -0.406233088969641 0 -0.070732099631278453 -0.40293230366098293 0 -0.077407201370332024 -0.4173214121132387 0 -0.060072440452772297 -0.406233088969641 0 -0.058174836954660553 -0.42566123946691642 0 -0.077407201370332024 -0.4173214121132387 0 -0.058174836954660553 -0.42566123946691642 0 -0.076176396309111258 -0.44043700475793429 0 -0.077407201370332024 -0.4173214121132387 0 -0.076176396309111258 -0.44043700475793429 0 -0.077407201370332024 -0.4173214121132387 0 -0.076176396309111258 -0.44043700475793429 0 -0.077407201370332024 -0.4173214121132387 0 -0.08903106963660111 -0.42759730499394771 0 -0.076176396309111258 -0.44043700475793429 0 -0.096819875954107348 -0.44093415033708072 0 -0.08903106963660111 -0.42759730499394771 0 -0.094398753482468359 -0.40570818145037613 0 -0.077407201370332024 -0.4173214121132387 0 -0.08903106963660111 -0.42759730499394771 0 -0.07653504331631733 -0.085578219536940614 0 -0.09644711738255822 -0.077548340156376808 0 -0.0886414084658734 -0.090532514252049931 0 -0.07653504331631733 -0.085578219536940614 0 -0.09644711738255822 -0.077548340156376808 0 -0.081745695855381981 -0.093496140569666014 0 -0.0886414084658734 -0.090532514252049931 0 -0.07653504331631733 -0.085578219536940614 0 -0.081228641460904139 -0.070541741075636821 0 -0.07653504331631733 -0.085578219536940614 0 -0.09644711738255822 -0.077548340156376808 0 -0.081228641460904139 -0.070541741075636821 0 -0.1025665981138344 -0.064019709211088516 0 -0.085284461728681205 -0.054438345278225893 0 -0.081228641460904139 -0.070541741075636821 0 -0.09644711738255822 -0.077548340156376808 0 -0.1025665981138344 -0.064019709211088516 0 -0.081228641460904139 -0.070541741075636821 0 -0.065840234237801123 -0.070426946955235978 0 -0.069068511188442427 -0.0794054252226645 0 -0.081228641460904139 -0.070541741075636821 0 -0.065840234237801123 -0.070426946955235978 0 -0.072742915364380906 -0.061651547774139788 0 -0.065840234237801123 -0.070426946955235978 0 -0.072742915364380906 -0.061651547774139788 0 -0.061384853019164652 -0.061137459306390321 0 -0.065840234237801123 -0.070426946955235978 0 -0.069068511188442427 -0.0794054252226645 0 -0.058132652399341539 -0.078446803886493555 0 -0.069068511188442427 -0.0794054252226645 0 -0.066400936617283648 -0.089537352379941787 0 -0.058132652399341539 -0.078446803886493555 0 -0.081228641460904139 -0.070541741075636821 0 -0.069068511188442427 -0.0794054252226645 0 -0.07653504331631733 -0.085578219536940614 0 -0.069068511188442427 -0.0794054252226645 0 -0.07653504331631733 -0.085578219536940614 0 -0.066400936617283648 -0.089537352379941787 0 -0.081745695855381981 -0.093496140569666014 0 -0.066400936617283648 -0.089537352379941787 0 -0.081745695855381981 -0.093496140569666014 0 -0.07653504331631733 -0.085578219536940614 0 -0.066400936617283648 -0.089537352379941787 0 -0.081745695855381981 -0.093496140569666014 0 -0.066400936617283648 -0.089537352379941787 0 -0.072055692477342254 -0.098262799938959186 0 -0.066400936617283648 -0.089537352379941787 0 -0.063966464614082827 -0.096786751794741693 0 -0.072055692477342254 -0.098262799938959186 0 -0.063966464614082827 -0.096786751794741693 0 -0.070142793887981503 -0.10553876120799981 0 -0.072055692477342254 -0.098262799938959186 0 -0.063966464614082827 -0.096786751794741693 0 -0.070142793887981503 -0.10553876120799981 0 -0.060176722708621087 -0.1050162812565914 0 -0.070142793887981503 -0.10553876120799981 0 -0.06971620021084976 -0.1152394530907878 0 -0.060176722708621087 -0.1050162812565914 0 -0.070142793887981503 -0.10553876120799981 0 -0.077477782632976361 -0.1106119230091379 0 -0.078477564096818483 -0.10443296631338141 0 -0.070142793887981503 -0.10553876120799981 0 -0.072055692477342254 -0.098262799938959186 0 -0.078477564096818483 -0.10443296631338141 0 -0.081745695855381981 -0.093496140569666014 0 -0.072055692477342254 -0.098262799938959186 0 -0.078477564096818483 -0.10443296631338141 0 -0.069297268038055776 -0.1244539983229668 0 -0.060176722708621087 -0.1050162812565914 0 -0.069297268038055776 -0.1244539983229668 0 -0.059623887476762109 -0.1209109438392692 0 -0.060176722708621087 -0.1050162812565914 0 -0.069297268038055776 -0.1244539983229668 0 -0.06971620021084976 -0.1152394530907878 0 -0.060176722708621087 -0.1050162812565914 0 -0.06971620021084976 -0.1152394530907878 0 -0.077477782632976361 -0.1106119230091379 0 -0.085153285822730712 -0.1182407707218109 0 -0.070142793887981503 -0.10553876120799981 0 -0.06971620021084976 -0.1152394530907878 0 -0.077477782632976361 -0.1106119230091379 0 -0.06971620021084976 -0.1152394530907878 0 -0.085153285822730712 -0.1182407707218109 0 -0.069297268038055776 -0.1244539983229668 0 -0.06971620021084976 -0.1152394530907878 0 -0.076375423297769807 -0.1218339098422855 0 -0.06971620021084976 -0.1152394530907878 0 -0.076375423297769807 -0.1218339098422855 0 -0.085153285822730712 -0.1182407707218109 0 -0.076375423297769807 -0.1218339098422855 0 -0.085153285822730712 -0.1182407707218109 0 -0.081334939119443048 -0.1294014172335764 0 -0.077477782632976361 -0.1106119230091379 0 -0.085153285822730712 -0.1182407707218109 0 -0.083899069146501359 -0.1096076637117098 0 -0.085153285822730712 -0.1182407707218109 0 -0.083899069146501359 -0.1096076637117098 0 -0.090471290666007453 -0.11070274300169559 0 -0.085153285822730712 -0.1182407707218109 0 -0.090471290666007453 -0.11070274300169559 0 -0.10059037143461121 -0.12124208835283649 0 -0.085153285822730712 -0.1182407707218109 0 -0.10059037143461121 -0.12124208835283649 0 -0.085153285822730712 -0.1182407707218109 0 -0.091834790721980877 -0.12507536779925801 0 -0.081334939119443048 -0.1294014172335764 0 -0.085153285822730712 -0.1182407707218109 0 -0.10059037143461121 -0.12124208835283649 0 -0.091834790721980877 -0.12507536779925801 0 -0.081745695855381981 -0.093496140569666014 0 -0.078477564096818483 -0.10443296631338141 0 -0.089045749964930684 -0.10197698332522701 0 -0.083899069146501359 -0.1096076637117098 0 -0.078477564096818483 -0.10443296631338141 0 -0.089045749964930684 -0.10197698332522701 0 -0.077477782632976361 -0.1106119230091379 0 -0.083899069146501359 -0.1096076637117098 0 -0.078477564096818483 -0.10443296631338141 0 -0.090471290666007453 -0.11070274300169559 0 -0.089045749964930684 -0.10197698332522701 0 -0.099527232704977264 -0.1039823783425067 0 -0.083899069146501359 -0.1096076637117098 0 -0.090471290666007453 -0.11070274300169559 0 -0.089045749964930684 -0.10197698332522701 0 -0.081745695855381981 -0.093496140569666014 0 -0.0886414084658734 -0.090532514252049931 0 -0.089045749964930684 -0.10197698332522701 0 -0.0886414084658734 -0.090532514252049931 0 -0.089045749964930684 -0.10197698332522701 0 -0.099433435810178855 -0.094062887672039158 0 -0.099527232704977264 -0.1039823783425067 0 -0.1039571591472538 -0.1156038503490926 0 -0.11472852793651581 -0.097565427364478777 0 -0.089045749964930684 -0.10197698332522701 0 -0.099433435810178855 -0.094062887672039158 0 -0.099527232704977264 -0.1039823783425067 0 -0.1039571591472538 -0.1156038503490926 0 -0.11472852793651581 -0.097565427364478777 0 -0.099433435810178855 -0.094062887672039158 0 -0.099527232704977264 -0.1039823783425067 0 -0.11472852793651581 -0.097565427364478777 0 -0.10059037143461121 -0.12124208835283649 0 -0.1039571591472538 -0.1156038503490926 0 -0.12089125345270731 -0.12518903770960499 0 -0.090471290666007453 -0.11070274300169559 0 -0.1039571591472538 -0.1156038503490926 0 -0.090471290666007453 -0.11070274300169559 0 -0.099527232704977264 -0.1039823783425067 0 -0.1039571591472538 -0.1156038503490926 0 -0.090471290666007453 -0.11070274300169559 0 -0.10059037143461121 -0.12124208835283649 0 -0.1039571591472538 -0.1156038503490926 0 -0.10059037143461121 -0.12124208835283649 0 -0.1039571591472538 -0.1156038503490926 0 -0.1225746473090282 -0.12236991870773441 0 -0.11626992195512589 -0.11072103793584059 0 -0.1279141590416612 -0.10667456835646449 0 -0.1039571591472538 -0.1156038503490926 0 -0.1225746473090282 -0.12236991870773441 0 -0.10059037143461121 -0.12124208835283649 0 -0.12089125345270731 -0.12518903770960499 0 -0.1039571591472538 -0.1156038503490926 0 -0.1225746473090282 -0.12236991870773441 0 -0.11626992195512589 -0.11072103793584059 0 -0.1039571591472538 -0.1156038503490926 0 -0.1225746473090282 -0.12236991870773441 0 -0.12089125345270731 -0.12518903770960499 0 -0.11472852793651581 -0.097565427364478777 0 -0.1316888914507503 -0.09232194246104844 0 -0.1279141590416612 -0.10667456835646449 0 -0.1039571591472538 -0.1156038503490926 0 -0.11626992195512589 -0.11072103793584059 0 -0.11472852793651581 -0.097565427364478777 0 -0.11626992195512589 -0.11072103793584059 0 -0.11472852793651581 -0.097565427364478777 0 -0.1279141590416612 -0.10667456835646449 0 -0.11472852793651581 -0.097565427364478777 0 -0.12549989672577999 -0.079527004379866317 0 -0.11472852793651581 -0.097565427364478777 0 -0.12549989672577999 -0.079527004379866317 0 -0.1316888914507503 -0.09232194246104844 0 -0.11472852793651581 -0.097565427364478777 0 -0.110899730111442 -0.083474025329999063 0 -0.12549989672577999 -0.079527004379866317 0 -0.0886414084658734 -0.090532514252049931 0 -0.099433435810178855 -0.094062887672039158 0 -0.09644711738255822 -0.077548340156376808 0 -0.099433435810178855 -0.094062887672039158 0 -0.11472852793651581 -0.097565427364478777 0 -0.110899730111442 -0.083474025329999063 0 -0.099433435810178855 -0.094062887672039158 0 -0.110899730111442 -0.083474025329999063 0 -0.09644711738255822 -0.077548340156376808 0 -0.09644711738255822 -0.077548340156376808 0 -0.1025665981138344 -0.064019709211088516 0 -0.1163591914487991 -0.069518460775813015 0 -0.110899730111442 -0.083474025329999063 0 -0.09644711738255822 -0.077548340156376808 0 -0.1163591914487991 -0.069518460775813015 0 -0.09644711738255822 -0.077548340156376808 0 -0.1163591914487991 -0.069518460775813015 0 -0.1025665981138344 -0.064019709211088516 0 -0.1163591914487991 -0.069518460775813015 0 -0.11857618052259131 -0.060561139696039983 0 -0.110899730111442 -0.083474025329999063 0 -0.1163591914487991 -0.069518460775813015 0 -0.12549989672577999 -0.079527004379866317 0 -0.1163591914487991 -0.069518460775813015 0 -0.11857618052259131 -0.060561139696039983 0 -0.12755736622911809 -0.0612864245434133 0 -0.11857618052259131 -0.060561139696039983 0 -0.11270842506085491 -0.053553394954762593 0 -0.1241597025088316 -0.052896041674259459 0 -0.1025665981138344 -0.064019709211088516 0 -0.11857618052259131 -0.060561139696039983 0 -0.11270842506085491 -0.053553394954762593 0 -0.11857618052259131 -0.060561139696039983 0 -0.1241597025088316 -0.052896041674259459 0 -0.12755736622911809 -0.0612864245434133 0 -0.11270842506085491 -0.053553394954762593 0 -0.117165295199898 -0.04387806241611332 0 -0.10147086937802439 -0.045750758284930727 0 -0.11270842506085491 -0.053553394954762593 0 -0.1241597025088316 -0.052896041674259459 0 -0.117165295199898 -0.04387806241611332 0 -0.1122254319001845 -0.033698486233809437 0 -0.117165295199898 -0.04387806241611332 0 -0.10147086937802439 -0.045750758284930727 0 -0.1241597025088316 -0.052896041674259459 0 -0.117165295199898 -0.04387806241611332 0 -0.12837680609682481 -0.041963049052672043 0 -0.1235419344184987 -0.034850153341615647 0 -0.117165295199898 -0.04387806241611332 0 -0.12837680609682481 -0.041963049052672043 0 -0.1235419344184987 -0.034850153341615647 0 -0.1122254319001845 -0.033698486233809437 0 -0.117165295199898 -0.04387806241611332 0 -0.099000362187643187 -0.03258904046497018 0 -0.10147086937802439 -0.045750758284930727 0 -0.083730059591562322 -0.033916983385304973 0 -0.1122254319001845 -0.033698486233809437 0 -0.099000362187643187 -0.03258904046497018 0 -0.10147086937802439 -0.045750758284930727 0 -0.1025665981138344 -0.064019709211088516 0 -0.10147086937802439 -0.045750758284930727 0 -0.085284461728681205 -0.054438345278225893 0 -0.1025665981138344 -0.064019709211088516 0 -0.11270842506085491 -0.053553394954762593 0 -0.10147086937802439 -0.045750758284930727 0 -0.1201415431010609 -0.01606667565510073 0 -0.11080627435813829 0.00234838994996916 0 -0.1201415431010609 -0.01606667565510073 0 -0.1263847071420727 -0.00049017928581041167 0 -0.11080627435813829 0.00234838994996916 0 -0.1201415431010609 -0.01606667565510073 0 -0.1079132501032553 -0.0095502169956382596 0 -0.11080627435813829 0.00234838994996916 0 -0.097925632898937631 -0.01842713650890726 0 -0.12650633931083369 -0.023455557937210041 0 -0.1201415431010609 -0.01606667565510073 0 -0.097925632898937631 -0.01842713650890726 0 -0.12650633931083369 -0.023455557937210041 0 -0.1122254319001845 -0.033698486233809437 0 -0.097925632898937631 -0.01842713650890726 0 -0.12650633931083369 -0.023455557937210041 0 -0.1235419344184987 -0.034850153341615647 0 -0.1122254319001845 -0.033698486233809437 0 -0.12650633931083369 -0.023455557937210041 0 -0.1122254319001845 -0.033698486233809437 0 -0.099000362187643187 -0.03258904046497018 0 -0.097925632898937631 -0.01842713650890726 0 -0.097925632898937631 -0.01842713650890726 0 -0.1003169503325788 -0.0030229177658489211 0 -0.08584508395003515 0.0017893316119406929 0 -0.1201415431010609 -0.01606667565510073 0 -0.097925632898937631 -0.01842713650890726 0 -0.1079132501032553 -0.0095502169956382596 0 -0.097925632898937631 -0.01842713650890726 0 -0.1079132501032553 -0.0095502169956382596 0 -0.1003169503325788 -0.0030229177658489211 0 -0.1079132501032553 -0.0095502169956382596 0 -0.1003169503325788 -0.0030229177658489211 0 -0.11080627435813829 0.00234838994996916 0 -0.097925632898937631 -0.01842713650890726 0 -0.069344926487041575 -0.01339871508060447 0 -0.08584508395003515 0.0017893316119406929 0 -0.097925632898937631 -0.01842713650890726 0 -0.069344926487041575 -0.01339871508060447 0 -0.097925632898937631 -0.01842713650890726 0 -0.069344926487041575 -0.01339871508060447 0 -0.083730059591562322 -0.033916983385304973 0 -0.099000362187643187 -0.03258904046497018 0 -0.097925632898937631 -0.01842713650890726 0 -0.083730059591562322 -0.033916983385304973 0 -0.069344926487041575 -0.01339871508060447 0 -0.066521290273321529 -0.032304190792859601 0 -0.054534999500817687 -0.02528921427805823 0 -0.069344926487041575 -0.01339871508060447 0 -0.083730059591562322 -0.033916983385304973 0 -0.066521290273321529 -0.032304190792859601 0 -0.069344926487041575 -0.01339871508060447 0 -0.08584508395003515 0.0017893316119406929 0 -0.060541425960350281 0.0027902607275900118 0 -0.081228641460904139 -0.070541741075636821 0 -0.085284461728681205 -0.054438345278225893 0 -0.072742915364380906 -0.061651547774139788 0 -0.085284461728681205 -0.054438345278225893 0 -0.083730059591562322 -0.033916983385304973 0 -0.069958986551408781 -0.049785417621299143 0 -0.10147086937802439 -0.045750758284930727 0 -0.085284461728681205 -0.054438345278225893 0 -0.083730059591562322 -0.033916983385304973 0 -0.083730059591562322 -0.033916983385304973 0 -0.066521290273321529 -0.032304190792859601 0 -0.069958986551408781 -0.049785417621299143 0 -0.066521290273321529 -0.032304190792859601 0 -0.069958986551408781 -0.049785417621299143 0 -0.055037479235777252 -0.039130623599031161 0 -0.085284461728681205 -0.054438345278225893 0 -0.069958986551408781 -0.049785417621299143 0 -0.072742915364380906 -0.061651547774139788 0 -0.069958986551408781 -0.049785417621299143 0 -0.072742915364380906 -0.061651547774139788 0 -0.061384853019164652 -0.061137459306390321 0 -0.061384853019164652 -0.061137459306390321 0 -0.050639851822833662 -0.061477229590209938 0 -0.055990917754684788 -0.051741501913319887 0 -0.050639851822833662 -0.061477229590209938 0 -0.055990917754684788 -0.051741501913319887 0 -0.043756721477700662 -0.050649273402337443 0 -0.055990917754684788 -0.051741501913319887 0 -0.055037479235777252 -0.039130623599031161 0 -0.043756721477700662 -0.050649273402337443 0 -0.069958986551408781 -0.049785417621299143 0 -0.061384853019164652 -0.061137459306390321 0 -0.055990917754684788 -0.051741501913319887 0 -0.069958986551408781 -0.049785417621299143 0 -0.055990917754684788 -0.051741501913319887 0 -0.055037479235777252 -0.039130623599031161 0 -0.055037479235777252 -0.039130623599031161 0 -0.054534999500817687 -0.02528921427805823 0 -0.038048179185209668 -0.030086211501438101 0 -0.066521290273321529 -0.032304190792859601 0 -0.055037479235777252 -0.039130623599031161 0 -0.054534999500817687 -0.02528921427805823 0 -0.055037479235777252 -0.039130623599031161 0 -0.043756721477700662 -0.050649273402337443 0 -0.038048179185209668 -0.030086211501438101 0 -0.043756721477700662 -0.050649273402337443 0 -0.038048179185209668 -0.030086211501438101 0 -0.0280014113649222 -0.050908728532664892 0 -0.043756721477700662 -0.050649273402337443 0 -0.0280014113649222 -0.050908728532664892 0 -0.038079618984174543 -0.068515563983061509 0 -0.050639851822833662 -0.061477229590209938 0 -0.043756721477700662 -0.050649273402337443 0 -0.038079618984174543 -0.068515563983061509 0 -0.069344926487041575 -0.01339871508060447 0 -0.040764220075145519 -0.0083702936523016892 0 -0.060541425960350281 0.0027902607275900118 0 -0.069344926487041575 -0.01339871508060447 0 -0.040764220075145519 -0.0083702936523016892 0 -0.069344926487041575 -0.01339871508060447 0 -0.054534999500817687 -0.02528921427805823 0 -0.040764220075145519 -0.0083702936523016892 0 -0.054534999500817687 -0.02528921427805823 0 -0.038048179185209668 -0.030086211501438101 0 -0.040764220075145519 -0.0083702936523016892 0 -0.038048179185209668 -0.030086211501438101 0 -0.040764220075145519 -0.0083702936523016892 0 -0.024661971629593989 -0.025282258286790451 0 -0.040764220075145519 -0.0083702936523016892 0 -0.020443904501618999 -0.001123202528514524 0 -0.027098612542354999 0.0088100697805568503 0 -0.040764220075145519 -0.0083702936523016892 0 -0.020443904501618999 -0.001123202528514524 0 -0.01659975244833755 -0.01356606687985591 0 -0.040764220075145519 -0.0083702936523016892 0 -0.01659975244833755 -0.01356606687985591 0 -0.024661971629593989 -0.025282258286790451 0 -0.01659975244833755 -0.01356606687985591 0 -0.024661971629593989 -0.025282258286790451 0 -0.01022069436267959 -0.028224222438621591 0 -0.024661971629593989 -0.025282258286790451 0 -0.01022069436267959 -0.028224222438621591 0 -0.01789629169821956 -0.038621983104400313 0 -0.01022069436267959 -0.028224222438621591 0 -0.0042138432274254111 -0.01568410281411094 0 0.0067198478298647838 -0.03104786934797488 0 -0.01659975244833755 -0.01356606687985591 0 -0.01022069436267959 -0.028224222438621591 0 -0.0042138432274254111 -0.01568410281411094 0 -0.01659975244833755 -0.01356606687985591 0 -0.0042138432274254111 -0.01568410281411094 0 -0.0071981610143054264 -0.0025996853953654721 0 -0.0042138432274254111 -0.01568410281411094 0 -0.0071981610143054264 -0.0025996853953654721 0 0.0064962241320766084 -0.0047630321238083806 0 -0.020443904501618999 -0.001123202528514524 0 -0.01659975244833755 -0.01356606687985591 0 -0.0071981610143054264 -0.0025996853953654721 0 -0.01789629169821956 -0.038621983104400313 0 -0.01371803322723979 -0.056744873740630211 0 -0.0280014113649222 -0.050908728532664892 0 -0.01371803322723979 -0.056744873740630211 0 -0.02337214807971923 -0.066747664323743655 0 -0.0280014113649222 -0.050908728532664892 0 -0.02337214807971923 -0.066747664323743655 0 -0.038079618984174543 -0.068515563983061509 0 -0.0280014113649222 -0.050908728532664892 0 -0.01789629169821956 -0.038621983104400313 0 -0.01371803322723979 -0.056744873740630211 0 -0.038048179185209668 -0.030086211501438101 0 -0.0280014113649222 -0.050908728532664892 0 -0.01789629169821956 -0.038621983104400313 0 -0.038048179185209668 -0.030086211501438101 0 -0.024661971629593989 -0.025282258286790451 0 -0.01789629169821956 -0.038621983104400313 0 -0.01022069436267959 -0.028224222438621591 0 -0.0046721550023658262 -0.04514305419859705 0 0.0067198478298647838 -0.03104786934797488 0 -0.01022069436267959 -0.028224222438621591 0 -0.01789629169821956 -0.038621983104400313 0 -0.0046721550023658262 -0.04514305419859705 0 -0.01789629169821956 -0.038621983104400313 0 -0.0046721550023658262 -0.04514305419859705 0 -0.01371803322723979 -0.056744873740630211 0 -0.0046721550023658262 -0.04514305419859705 0 -0.0035180734766415999 -0.061635968702166158 0 0.0069434715276529601 -0.057332706572141401 0 -0.0046721550023658262 -0.04514305419859705 0 -0.01371803322723979 -0.056744873740630211 0 -0.0035180734766415999 -0.061635968702166158 0 -0.01371803322723979 -0.056744873740630211 0 -0.0095397747562600572 -0.074867764376860185 0 -0.01371803322723979 -0.056744873740630211 0 -0.0095397747562600572 -0.074867764376860185 0 -0.02337214807971923 -0.066747664323743655 0 -0.0035180734766415999 -0.061635968702166158 0 -0.00098556646883425636 -0.072660867662791256 0 -0.0095397747562600572 -0.074867764376860185 0 -0.01371803322723979 -0.056744873740630211 0 -0.0035180734766415999 -0.061635968702166158 0 -0.0095397747562600572 -0.074867764376860185 0 -0.00098556646883425636 -0.072660867662791256 0 -0.0095397747562600572 -0.074867764376860185 0 -0.00124953766244034 -0.083680151025063834 0 -0.00098556646883425636 -0.072660867662791256 0 -0.0095397747562600572 -0.074867764376860185 0 -0.0095397747562600572 -0.074867764376860185 0 -0.00124953766244034 -0.083680151025063834 0 -0.0043397721180612678 -0.097422395636444323 0 -0.0095397747562600572 -0.074867764376860185 0 -0.0043397721180612678 -0.097422395636444323 0 -0.0095397747562600572 -0.074867764376860185 0 -0.01324624165081782 -0.092620331695506278 0 -0.020237531848942902 -0.087128948066728135 0 -0.0095397747562600572 -0.074867764376860185 0 -0.01324624165081782 -0.092620331695506278 0 -0.0043397721180612678 -0.097422395636444323 0 -0.00124953766244034 -0.083680151025063834 0 -0.0043397721180612678 -0.097422395636444323 0 0.001450329805512745 -0.089832183652915371 0 -0.0095397747562600572 -0.074867764376860185 0 -0.020237531848942902 -0.087128948066728135 0 -0.030297976067722991 -0.080223164283537776 0 -0.020237531848942902 -0.087128948066728135 0 -0.029036345012228681 -0.093163274517251107 0 -0.020284941711452731 -0.094832033961453566 0 -0.01324624165081782 -0.092620331695506278 0 -0.020237531848942902 -0.087128948066728135 0 -0.020284941711452731 -0.094832033961453566 0 -0.020237531848942902 -0.087128948066728135 0 -0.030297976067722991 -0.080223164283537776 0 -0.029036345012228681 -0.093163274517251107 0 -0.0095397747562600572 -0.074867764376860185 0 -0.030297976067722991 -0.080223164283537776 0 -0.02337214807971923 -0.066747664323743655 0 -0.0095397747562600572 -0.074867764376860185 0 -0.030297976067722991 -0.080223164283537776 0 -0.030297976067722991 -0.080223164283537776 0 -0.02337214807971923 -0.066747664323743655 0 -0.038079618984174543 -0.068515563983061509 0 -0.030297976067722991 -0.080223164283537776 0 -0.038079618984174543 -0.068515563983061509 0 -0.047810410560132258 -0.078661182080552783 0 -0.038079618984174543 -0.068515563983061509 0 -0.047810410560132258 -0.078661182080552783 0 -0.053127512471906307 -0.070778197667181797 0 -0.030297976067722991 -0.080223164283537776 0 -0.038352664943383068 -0.08914493726315495 0 -0.051056177379185629 -0.085578564190216283 0 -0.030297976067722991 -0.080223164283537776 0 -0.047810410560132258 -0.078661182080552783 0 -0.051056177379185629 -0.085578564190216283 0 -0.030297976067722991 -0.080223164283537776 0 -0.051056177379185629 -0.085578564190216283 0 -0.030297976067722991 -0.080223164283537776 0 -0.029036345012228681 -0.093163274517251107 0 -0.038352664943383068 -0.08914493726315495 0 -0.029036345012228681 -0.093163274517251107 0 -0.038352664943383068 -0.08914493726315495 0 -0.039090375083883903 -0.096227495530088192 0 -0.038352664943383068 -0.08914493726315495 0 -0.044953693390309253 -0.091652030052896696 0 -0.051056177379185629 -0.085578564190216283 0 -0.038352664943383068 -0.08914493726315495 0 -0.044953693390309253 -0.091652030052896696 0 -0.039090375083883903 -0.096227495530088192 0 -0.047810410560132258 -0.078661182080552783 0 -0.051056177379185629 -0.085578564190216283 0 -0.058132652399341539 -0.078446803886493555 0 -0.047810410560132258 -0.078661182080552783 0 -0.051056177379185629 -0.085578564190216283 0 -0.044953693390309253 -0.091652030052896696 0 -0.051056177379185629 -0.085578564190216283 0 -0.049115243539235569 -0.097978891030565229 0 -0.066400936617283648 -0.089537352379941787 0 -0.051056177379185629 -0.085578564190216283 0 -0.066400936617283648 -0.089537352379941787 0 -0.063966464614082827 -0.096786751794741693 0 -0.051056177379185629 -0.085578564190216283 0 -0.066400936617283648 -0.089537352379941787 0 -0.051056177379185629 -0.085578564190216283 0 -0.058132652399341539 -0.078446803886493555 0 -0.065840234237801123 -0.070426946955235978 0 -0.058132652399341539 -0.078446803886493555 0 -0.053127512471906307 -0.070778197667181797 0 -0.065840234237801123 -0.070426946955235978 0 -0.061384853019164652 -0.061137459306390321 0 -0.053127512471906307 -0.070778197667181797 0 -0.061384853019164652 -0.061137459306390321 0 -0.050639851822833662 -0.061477229590209938 0 -0.053127512471906307 -0.070778197667181797 0 -0.050639851822833662 -0.061477229590209938 0 -0.038079618984174543 -0.068515563983061509 0 -0.053127512471906307 -0.070778197667181797 0 -0.047810410560132258 -0.078661182080552783 0 -0.058132652399341539 -0.078446803886493555 0 -0.053127512471906307 -0.070778197667181797 0 -0.052192501530536999 -0.1148027939369464 0 -0.059623887476762109 -0.1209109438392692 0 -0.060176722708621087 -0.1050162812565914 0 -0.052192501530536999 -0.1148027939369464 0 -0.048222034734225407 -0.10793762823495941 0 -0.043466122023944828 -0.11546538767852579 0 -0.052192501530536999 -0.1148027939369464 0 -0.050309071670416393 -0.1233943631983347 0 -0.059623887476762109 -0.1209109438392692 0 -0.052192501530536999 -0.1148027939369464 0 -0.050309071670416393 -0.1233943631983347 0 -0.043466122023944828 -0.11546538767852579 0 -0.051056177379185629 -0.085578564190216283 0 -0.060176722708621087 -0.1050162812565914 0 -0.063966464614082827 -0.096786751794741693 0 -0.051056177379185629 -0.085578564190216283 0 -0.060176722708621087 -0.1050162812565914 0 -0.051056177379185629 -0.085578564190216283 0 -0.060176722708621087 -0.1050162812565914 0 -0.049115243539235569 -0.097978891030565229 0 -0.060176722708621087 -0.1050162812565914 0 -0.049115243539235569 -0.097978891030565229 0 -0.048222034734225407 -0.10793762823495941 0 -0.052192501530536999 -0.1148027939369464 0 -0.060176722708621087 -0.1050162812565914 0 -0.048222034734225407 -0.10793762823495941 0 -0.049115243539235569 -0.097978891030565229 0 -0.048222034734225407 -0.10793762823495941 0 -0.040188767590047129 -0.1049350544676621 0 -0.049115243539235569 -0.097978891030565229 0 -0.040188767590047129 -0.1049350544676621 0 -0.039090375083883903 -0.096227495530088192 0 -0.044953693390309253 -0.091652030052896696 0 -0.049115243539235569 -0.097978891030565229 0 -0.039090375083883903 -0.096227495530088192 0 -0.029036345012228681 -0.093163274517251107 0 -0.039090375083883903 -0.096227495530088192 0 -0.031554603048052077 -0.1034798613655116 0 -0.040188767590047129 -0.1049350544676621 0 -0.039090375083883903 -0.096227495530088192 0 -0.031554603048052077 -0.1034798613655116 0 -0.040188767590047129 -0.1049350544676621 0 -0.031554603048052077 -0.1034798613655116 0 -0.033746497046771337 -0.1138967071624629 0 -0.048222034734225407 -0.10793762823495941 0 -0.040188767590047129 -0.1049350544676621 0 -0.043466122023944828 -0.11546538767852579 0 -0.040188767590047129 -0.1049350544676621 0 -0.033746497046771337 -0.1138967071624629 0 -0.043466122023944828 -0.11546538767852579 0 -0.050309071670416393 -0.1233943631983347 0 -0.043466122023944828 -0.11546538767852579 0 -0.038380915769698869 -0.12504659637242971 0 -0.033746497046771337 -0.1138967071624629 0 -0.043466122023944828 -0.11546538767852579 0 -0.038380915769698869 -0.12504659637242971 0 -0.033746497046771337 -0.1138967071624629 0 -0.025281894249509579 -0.12553639798702559 0 -0.038380915769698869 -0.12504659637242971 0 -0.033746497046771337 -0.1138967071624629 0 -0.02452737740936714 -0.1116921721369637 0 -0.025281894249509579 -0.12553639798702559 0 -0.031554603048052077 -0.1034798613655116 0 -0.033746497046771337 -0.1138967071624629 0 -0.02452737740936714 -0.1116921721369637 0 -0.02452737740936714 -0.1116921721369637 0 -0.01818921296646946 -0.11769191336589679 0 -0.015626827969140521 -0.10895424601184681 0 -0.01818921296646946 -0.11769191336589679 0 -0.01003575243589416 -0.12709576391022509 0 -0.025281894249509579 -0.12553639798702559 0 -0.02452737740936714 -0.1116921721369637 0 -0.01818921296646946 -0.11769191336589679 0 -0.025281894249509579 -0.12553639798702559 0 -0.029036345012228681 -0.093163274517251107 0 -0.02312743865174214 -0.1017696530367541 0 -0.020284941711452731 -0.094832033961453566 0 -0.029036345012228681 -0.093163274517251107 0 -0.031554603048052077 -0.1034798613655116 0 -0.02312743865174214 -0.1017696530367541 0 -0.031554603048052077 -0.1034798613655116 0 -0.02452737740936714 -0.1116921721369637 0 -0.02312743865174214 -0.1017696530367541 0 -0.02452737740936714 -0.1116921721369637 0 -0.015626827969140521 -0.10895424601184681 0 -0.02312743865174214 -0.1017696530367541 0 -0.015626827969140521 -0.10895424601184681 0 -0.02312743865174214 -0.1017696530367541 0 -0.015777151393532089 -0.099477962491028318 0 -0.02312743865174214 -0.1017696530367541 0 -0.015777151393532089 -0.099477962491028318 0 -0.020284941711452731 -0.094832033961453566 0 -0.01324624165081782 -0.092620331695506278 0 -0.015777151393532089 -0.099477962491028318 0 -0.020284941711452731 -0.094832033961453566 0 -0.0043397721180612678 -0.097422395636444323 0 0.00086023052013748129 -0.1199770268960285 0 -0.0043397721180612678 -0.097422395636444323 0 0.00086023052013748129 -0.1199770268960285 0 0.002709564413051732 -0.1056825328365129 0 -0.0084087465724206317 -0.1013383830319841 0 -0.0043397721180612678 -0.097422395636444323 0 0.00086023052013748129 -0.1199770268960285 0 -0.01324624165081782 -0.092620331695506278 0 -0.015777151393532089 -0.099477962491028318 0 -0.0084087465724206317 -0.1013383830319841 0 -0.01324624165081782 -0.092620331695506278 0 -0.0084087465724206317 -0.1013383830319841 0 -0.0043397721180612678 -0.097422395636444323 0 -0.015626827969140521 -0.10895424601184681 0 -0.015777151393532089 -0.099477962491028318 0 -0.0084087465724206317 -0.1013383830319841 0 -0.01818921296646946 -0.11769191336589679 0 -0.015626827969140521 -0.10895424601184681 0 -0.01003575243589416 -0.12709576391022509 0 -0.015626827969140521 -0.10895424601184681 0 -0.0084087465724206317 -0.1013383830319841 0 -0.01003575243589416 -0.12709576391022509 0 -0.0084087465724206317 -0.1013383830319841 0 -0.01003575243589416 -0.12709576391022509 0 0.00086023052013748129 -0.1199770268960285 0 -0.0084087465724206317 -0.1013383830319841 0 -0.01003575243589416 -0.12709576391022509 0 -0.0071603237416107534 -0.14020747157317989 0 -0.01003575243589416 -0.12709576391022509 0 -0.011662758299367691 -0.15285314478846629 0 -0.01003575243589416 -0.12709576391022509 0 -0.011662758299367691 -0.15285314478846629 0 -0.001050597315567052 -0.13813025709692589 0 -0.01003575243589416 -0.12709576391022509 0 0.00086023052013748129 -0.1199770268960285 0 -0.01003575243589416 -0.12709576391022509 0 -0.018905414265874661 -0.13358271994149151 0 -0.017534324833056541 -0.1441176227040217 0 -0.001050597315567052 -0.13813025709692589 0 -0.0071603237416107534 -0.14020747157317989 0 -0.01003575243589416 -0.12709576391022509 0 -0.01003575243589416 -0.12709576391022509 0 -0.018905414265874661 -0.13358271994149151 0 -0.025281894249509579 -0.12553639798702559 0 -0.023830959168816029 -0.14008298626708029 0 -0.025281894249509579 -0.12553639798702559 0 -0.036169737266186108 -0.14371450718847939 0 -0.018905414265874661 -0.13358271994149151 0 -0.023830959168816029 -0.14008298626708029 0 -0.025281894249509579 -0.12553639798702559 0 -0.018905414265874661 -0.13358271994149151 0 -0.023830959168816029 -0.14008298626708029 0 -0.017534324833056541 -0.1441176227040217 0 -0.027462970519975361 -0.14952242598328491 0 -0.014822257071545971 -0.15483687891537831 0 -0.041861964357539028 -0.16343261656967309 0 -0.023830959168816029 -0.14008298626708029 0 -0.027462970519975361 -0.14952242598328491 0 -0.036169737266186108 -0.14371450718847939 0 -0.023830959168816029 -0.14008298626708029 0 -0.027462970519975361 -0.14952242598328491 0 -0.017534324833056541 -0.1441176227040217 0 -0.027462970519975361 -0.14952242598328491 0 -0.017534324833056541 -0.1441176227040217 0 -0.014822257071545971 -0.15483687891537831 0 -0.017534324833056541 -0.1441176227040217 0 -0.011662758299367691 -0.15285314478846629 0 -0.014822257071545971 -0.15483687891537831 0 -0.01003575243589416 -0.12709576391022509 0 -0.017534324833056541 -0.1441176227040217 0 -0.011662758299367691 -0.15285314478846629 0 -0.001050597315567052 -0.13813025709692589 0 -0.0071603237416107534 -0.14020747157317989 0 -0.0025921059873258989 -0.14943225635359239 0 -0.0071603237416107534 -0.14020747157317989 0 -0.011662758299367691 -0.15285314478846629 0 -0.0025921059873258989 -0.14943225635359239 0 -0.011662758299367691 -0.15285314478846629 0 -0.0025921059873258989 -0.14943225635359239 0 -0.0035127006409058979 -0.1557142128403636 0 -0.0025921059873258989 -0.14943225635359239 0 -0.0035127006409058979 -0.1557142128403636 0 0.002067714751090347 -0.15592293470848509 0 -0.011662758299367691 -0.15285314478846629 0 -0.01328976416284122 -0.1786105256667074 0 -0.011662758299367691 -0.15285314478846629 0 -0.0035127006409058979 -0.1557142128403636 0 -0.0029138897130330508 -0.1646766099163092 0 -0.0035127006409058979 -0.1557142128403636 0 -0.0029138897130330508 -0.1646766099163092 0 0.002067714751090347 -0.15592293470848509 0 -0.011662758299367691 -0.15285314478846629 0 -0.0029138897130330508 -0.1646766099163092 0 -0.01328976416284122 -0.1786105256667074 0 -0.011662758299367691 -0.15285314478846629 0 -0.014822257071545971 -0.15483687891537831 0 -0.01328976416284122 -0.1786105256667074 0 -0.01328976416284122 -0.1786105256667074 0 -0.0065513521457199854 -0.19632683165197301 0 0.001144493214242684 -0.1794645347638037 0 -0.0029138897130330508 -0.1646766099163092 0 -0.01328976416284122 -0.1786105256667074 0 0.001144493214242684 -0.1794645347638037 0 -0.01328976416284122 -0.1786105256667074 0 -0.025804446403332262 -0.170320197416267 0 -0.033243800021402828 -0.18440076851330911 0 -0.014822257071545971 -0.15483687891537831 0 -0.041861964357539028 -0.16343261656967309 0 -0.014822257071545971 -0.15483687891537831 0 -0.01328976416284122 -0.1786105256667074 0 -0.025804446403332262 -0.170320197416267 0 -0.014822257071545971 -0.15483687891537831 0 -0.025804446403332262 -0.170320197416267 0 -0.041861964357539028 -0.16343261656967309 0 -0.041861964357539028 -0.16343261656967309 0 -0.033243800021402828 -0.18440076851330911 0 -0.051787648582053147 -0.18298262144503649 0 -0.025804446403332262 -0.170320197416267 0 -0.041861964357539028 -0.16343261656967309 0 -0.033243800021402828 -0.18440076851330911 0 -0.041861964357539028 -0.16343261656967309 0 -0.051787648582053147 -0.18298262144503649 0 -0.068901671643532225 -0.17202835422396801 0 -0.041861964357539028 -0.16343261656967309 0 -0.068901671643532225 -0.17202835422396801 0 -0.041861964357539028 -0.16343261656967309 0 -0.066825781422803099 -0.15734620160038301 0 -0.068901671643532225 -0.17202835422396801 0 -0.041861964357539028 -0.16343261656967309 0 -0.057293775316837978 -0.14380311128891121 0 -0.066825781422803099 -0.15734620160038301 0 -0.057293775316837978 -0.14380311128891121 0 -0.047777152354765373 -0.13319826579708741 0 -0.036169737266186108 -0.14371450718847939 0 -0.050309071670416393 -0.1233943631983347 0 -0.059623887476762109 -0.1209109438392692 0 -0.058566965902534157 -0.13119512912766959 0 -0.050309071670416393 -0.1233943631983347 0 -0.058566965902534157 -0.13119512912766959 0 -0.047777152354765373 -0.13319826579708741 0 -0.057293775316837978 -0.14380311128891121 0 -0.058566965902534157 -0.13119512912766959 0 -0.047777152354765373 -0.13319826579708741 0 -0.047777152354765373 -0.13319826579708741 0 -0.038380915769698869 -0.12504659637242971 0 -0.036169737266186108 -0.14371450718847939 0 -0.025281894249509579 -0.12553639798702559 0 -0.038380915769698869 -0.12504659637242971 0 -0.036169737266186108 -0.14371450718847939 0 -0.050309071670416393 -0.1233943631983347 0 -0.047777152354765373 -0.13319826579708741 0 -0.038380915769698869 -0.12504659637242971 0 -0.027462970519975361 -0.14952242598328491 0 -0.041861964357539028 -0.16343261656967309 0 -0.036169737266186108 -0.14371450718847939 0 -0.057293775316837978 -0.14380311128891121 0 -0.036169737266186108 -0.14371450718847939 0 -0.041861964357539028 -0.16343261656967309 0 -0.057293775316837978 -0.14380311128891121 0 -0.036169737266186108 -0.14371450718847939 0 -0.033515532645534807 -0.25565753410287012 0 -0.018248806879461149 -0.25297125270079762 0 -0.033944937979744773 -0.2327745636842011 0 -0.018248806879461149 -0.25297125270079762 0 -0.0070936043338453089 -0.2410739498827342 0 -0.033944937979744773 -0.2327745636842011 0 -0.0070936043338453089 -0.2410739498827342 0 -0.016816132170242651 -0.2248337616365815 0 0.0065026017270185072 -0.22838774414485091 0 -0.016816132170242651 -0.2248337616365815 0 -0.0041227302505375974 -0.21312671679935091 0 0.0065026017270185072 -0.22838774414485091 0 -0.0070936043338453089 -0.2410739498827342 0 -0.016816132170242651 -0.2248337616365815 0 -0.033944937979744773 -0.2327745636842011 0 -0.016816132170242651 -0.2248337616365815 0 -0.034801408921347893 -0.2156378147897986 0 -0.033944937979744773 -0.2327745636842011 0 -0.016816132170242651 -0.2248337616365815 0 -0.02251032601436171 -0.20019490525072209 0 -0.034801408921347893 -0.2156378147897986 0 -0.0041227302505375974 -0.21312671679935091 0 -0.0065513521457199854 -0.19632683165197301 0 -0.02251032601436171 -0.20019490525072209 0 -0.016816132170242651 -0.2248337616365815 0 -0.0041227302505375974 -0.21312671679935091 0 -0.02251032601436171 -0.20019490525072209 0 -0.0041227302505375974 -0.21312671679935091 0 -0.0065513521457199854 -0.19632683165197301 0 0.0085513850884246061 -0.19558393661854651 0 -0.01328976416284122 -0.1786105256667074 0 -0.0065513521457199854 -0.19632683165197301 0 -0.02251032601436171 -0.20019490525072209 0 -0.01328976416284122 -0.1786105256667074 0 -0.033243800021402828 -0.18440076851330911 0 -0.02251032601436171 -0.20019490525072209 0 -0.033243800021402828 -0.18440076851330911 0 -0.02251032601436171 -0.20019490525072209 0 -0.047686483279059617 -0.20079070867758891 0 -0.033243800021402828 -0.18440076851330911 0 -0.051787648582053147 -0.18298262144503649 0 -0.047686483279059617 -0.20079070867758891 0 -0.051787648582053147 -0.18298262144503649 0 -0.047686483279059617 -0.20079070867758891 0 -0.067244323608732046 -0.19426065924064309 0 -0.047686483279059617 -0.20079070867758891 0 -0.068242849967375951 -0.21108397220336081 0 -0.067244323608732046 -0.19426065924064309 0 -0.047686483279059617 -0.20079070867758891 0 -0.053595613839245382 -0.22170437839412499 0 -0.068242849967375951 -0.21108397220336081 0 -0.047686483279059617 -0.20079070867758891 0 -0.034801408921347893 -0.2156378147897986 0 -0.053595613839245382 -0.22170437839412499 0 -0.02251032601436171 -0.20019490525072209 0 -0.047686483279059617 -0.20079070867758891 0 -0.034801408921347893 -0.2156378147897986 0 -0.033944937979744773 -0.2327745636842011 0 -0.053595613839245382 -0.22170437839412499 0 -0.052778720187395052 -0.24295676583674891 0 -0.034801408921347893 -0.2156378147897986 0 -0.033944937979744773 -0.2327745636842011 0 -0.053595613839245382 -0.22170437839412499 0 -0.053595613839245382 -0.22170437839412499 0 -0.052778720187395052 -0.24295676583674891 0 -0.077271287911671843 -0.23000014631135121 0 -0.033515532645534807 -0.25565753410287012 0 -0.033944937979744773 -0.2327745636842011 0 -0.052778720187395052 -0.24295676583674891 0 -0.033515532645534807 -0.25565753410287012 0 -0.033944937979744773 -0.2327745636842011 0 -0.081749283819169183 -0.25142364739293283 0 -0.092655494495095608 -0.23750377238773079 0 -0.099162486762250313 -0.24921486017549499 0 -0.081749283819169183 -0.25142364739293283 0 -0.092655494495095608 -0.23750377238773079 0 -0.077271287911671843 -0.23000014631135121 0 -0.067936242402746733 -0.25468817352789619 0 -0.077271287911671843 -0.23000014631135121 0 -0.067936242402746733 -0.25468817352789619 0 -0.081749283819169183 -0.25142364739293283 0 -0.077271287911671843 -0.23000014631135121 0 -0.067936242402746733 -0.25468817352789619 0 -0.052778720187395052 -0.24295676583674891 0 -0.077271287911671843 -0.23000014631135121 0 -0.053595613839245382 -0.22170437839412499 0 -0.077271287911671843 -0.23000014631135121 0 -0.068242849967375951 -0.21108397220336081 0 -0.092655494495095608 -0.23750377238773079 0 -0.077271287911671843 -0.23000014631135121 0 -0.094857990952019189 -0.22254113768338421 0 -0.077271287911671843 -0.23000014631135121 0 -0.086606333420596954 -0.20531211909480629 0 -0.094857990952019189 -0.22254113768338421 0 -0.077271287911671843 -0.23000014631135121 0 -0.086606333420596954 -0.20531211909480629 0 -0.086606333420596954 -0.20531211909480629 0 -0.068242849967375951 -0.21108397220336081 0 -0.067244323608732046 -0.19426065924064309 0 -0.077271287911671843 -0.23000014631135121 0 -0.086606333420596954 -0.20531211909480629 0 -0.068242849967375951 -0.21108397220336081 0 -0.086606333420596954 -0.20531211909480629 0 -0.067244323608732046 -0.19426065924064309 0 -0.079673426900596617 -0.18805630610942009 0 -0.086606333420596954 -0.20531211909480629 0 -0.079673426900596617 -0.18805630610942009 0 -0.095941378929525326 -0.18062409187826259 0 -0.086606333420596954 -0.20531211909480629 0 -0.095941378929525326 -0.18062409187826259 0 -0.086606333420596954 -0.20531211909480629 0 -0.10444596152872369 -0.20047246209630709 0 -0.095941378929525326 -0.18062409187826259 0 -0.10444596152872369 -0.20047246209630709 0 -0.12237950921916051 -0.18902859232777369 0 -0.095941378929525326 -0.18062409187826259 0 -0.10444596152872369 -0.20047246209630709 0 -0.12237950921916051 -0.18902859232777369 0 -0.1184827943907336 -0.21249802065054599 0 -0.10444596152872369 -0.20047246209630709 0 -0.1184827943907336 -0.21249802065054599 0 -0.094857990952019189 -0.22254113768338421 0 -0.086606333420596954 -0.20531211909480629 0 -0.10444596152872369 -0.20047246209630709 0 -0.094857990952019189 -0.22254113768338421 0 -0.092655494495095608 -0.23750377238773079 0 -0.094857990952019189 -0.22254113768338421 0 -0.1102364230303675 -0.23433907037549101 0 -0.1184827943907336 -0.21249802065054599 0 -0.094857990952019189 -0.22254113768338421 0 -0.1102364230303675 -0.23433907037549101 0 -0.1102364230303675 -0.23433907037549101 0 -0.1278027162143065 -0.24043015051396341 0 -0.12985542753853191 -0.22448873655032189 0 -0.1184827943907336 -0.21249802065054599 0 -0.1102364230303675 -0.23433907037549101 0 -0.12985542753853191 -0.22448873655032189 0 -0.11840662886325649 -0.25645158738316548 0 -0.1102364230303675 -0.23433907037549101 0 -0.1278027162143065 -0.24043015051396341 0 -0.11840662886325649 -0.25645158738316548 0 -0.1102364230303675 -0.23433907037549101 0 -0.099162486762250313 -0.24921486017549499 0 -0.092655494495095608 -0.23750377238773079 0 -0.1102364230303675 -0.23433907037549101 0 -0.099162486762250313 -0.24921486017549499 0 -0.078417813367489764 -0.14389171538934259 0 -0.096084813514846046 -0.1439658190551113 0 -0.094246240932195219 -0.15344271195687309 0 -0.078417813367489764 -0.14389171538934259 0 -0.096084813514846046 -0.1439658190551113 0 -0.078417813367489764 -0.14389171538934259 0 -0.087653682428616472 -0.1635752105300198 0 -0.078417813367489764 -0.14389171538934259 0 -0.087653682428616472 -0.1635752105300198 0 -0.094246240932195219 -0.15344271195687309 0 -0.078417813367489764 -0.14389171538934259 0 -0.092612956142481911 -0.13460157814273069 0 -0.096084813514846046 -0.1439658190551113 0 -0.092612956142481911 -0.13460157814273069 0 -0.091834790721980877 -0.12507536779925801 0 -0.081334939119443048 -0.1294014172335764 0 -0.078417813367489764 -0.14389171538934259 0 -0.092612956142481911 -0.13460157814273069 0 -0.081334939119443048 -0.1294014172335764 0 -0.069297268038055776 -0.1244539983229668 0 -0.078417813367489764 -0.14389171538934259 0 -0.069297268038055776 -0.1244539983229668 0 -0.078417813367489764 -0.14389171538934259 0 -0.081334939119443048 -0.1294014172335764 0 -0.057293775316837978 -0.14380311128891121 0 -0.058566965902534157 -0.13119512912766959 0 -0.078417813367489764 -0.14389171538934259 0 -0.069297268038055776 -0.1244539983229668 0 -0.058566965902534157 -0.13119512912766959 0 -0.078417813367489764 -0.14389171538934259 0 -0.069297268038055776 -0.1244539983229668 0 -0.076375423297769807 -0.1218339098422855 0 -0.081334939119443048 -0.1294014172335764 0 -0.069297268038055776 -0.1244539983229668 0 -0.059623887476762109 -0.1209109438392692 0 -0.058566965902534157 -0.13119512912766959 0 -0.057293775316837978 -0.14380311128891121 0 -0.078417813367489764 -0.14389171538934259 0 -0.066825781422803099 -0.15734620160038301 0 -0.078417813367489764 -0.14389171538934259 0 -0.066825781422803099 -0.15734620160038301 0 -0.087653682428616472 -0.1635752105300198 0 -0.057293775316837978 -0.14380311128891121 0 -0.078417813367489764 -0.14389171538934259 0 -0.066825781422803099 -0.15734620160038301 0 -0.068901671643532225 -0.17202835422396801 0 -0.087653682428616472 -0.1635752105300198 0 -0.051787648582053147 -0.18298262144503649 0 -0.067244323608732046 -0.19426065924064309 0 -0.068901671643532225 -0.17202835422396801 0 -0.067244323608732046 -0.19426065924064309 0 -0.079673426900596617 -0.18805630610942009 0 -0.068901671643532225 -0.17202835422396801 0 -0.068901671643532225 -0.17202835422396801 0 -0.095941378929525326 -0.18062409187826259 0 -0.068901671643532225 -0.17202835422396801 0 -0.087653682428616472 -0.1635752105300198 0 -0.095941378929525326 -0.18062409187826259 0 -0.079673426900596617 -0.18805630610942009 0 -0.068901671643532225 -0.17202835422396801 0 -0.095941378929525326 -0.18062409187826259 0 -0.087653682428616472 -0.1635752105300198 0 -0.1016720914265153 -0.16546830222938441 0 -0.095941378929525326 -0.18062409187826259 0 -0.087653682428616472 -0.1635752105300198 0 -0.1016720914265153 -0.16546830222938441 0 -0.094246240932195219 -0.15344271195687309 0 -0.1016720914265153 -0.16546830222938441 0 -0.1074028039235085 -0.1503125125805074 0 -0.094246240932195219 -0.15344271195687309 0 -0.1016720914265153 -0.16546830222938441 0 -0.1074028039235085 -0.1503125125805074 0 -0.1016720914265153 -0.16546830222938441 0 -0.1121031402664244 -0.16067719446946349 0 -0.1074028039235085 -0.1503125125805074 0 -0.12237950921916051 -0.18902859232777369 0 -0.095941378929525326 -0.18062409187826259 0 -0.1016720914265153 -0.16546830222938441 0 -0.095941378929525326 -0.18062409187826259 0 -0.11474257868292299 -0.1715369550345931 0 -0.1016720914265153 -0.16546830222938441 0 -0.095941378929525326 -0.18062409187826259 0 -0.12237950921916051 -0.18902859232777369 0 -0.11474257868292299 -0.1715369550345931 0 -0.13413754388435301 -0.1761490996563099 0 -0.12237950921916051 -0.18902859232777369 0 -0.095941378929525326 -0.18062409187826259 0 -0.11474257868292299 -0.1715369550345931 0 -0.11474257868292299 -0.1715369550345931 0 -0.12582871684134331 -0.15879657116794241 0 -0.13413754388435301 -0.1761490996563099 0 -0.1016720914265153 -0.16546830222938441 0 -0.1121031402664244 -0.16067719446946349 0 -0.11474257868292299 -0.1715369550345931 0 -0.1121031402664244 -0.16067719446946349 0 -0.1162039049853336 -0.15236770183881371 0 -0.12582871684134331 -0.15879657116794241 0 -0.1121031402664244 -0.16067719446946349 0 -0.11474257868292299 -0.1715369550345931 0 -0.12582871684134331 -0.15879657116794241 0 -0.12264556861092819 -0.14752091340497511 0 -0.1162039049853336 -0.15236770183881371 0 -0.12582871684134331 -0.15879657116794241 0 -0.12264556861092819 -0.14752091340497511 0 -0.1137518136622023 -0.14403992272087959 0 -0.1162039049853336 -0.15236770183881371 0 -0.12264556861092819 -0.14752091340497511 0 -0.1137518136622023 -0.14403992272087959 0 -0.12623140781342659 -0.13766358983023469 0 -0.1137518136622023 -0.14403992272087959 0 -0.1162039049853336 -0.15236770183881371 0 -0.1074028039235085 -0.1503125125805074 0 -0.1121031402664244 -0.16067719446946349 0 -0.1162039049853336 -0.15236770183881371 0 -0.1074028039235085 -0.1503125125805074 0 -0.1137518136622023 -0.14403992272087959 0 -0.096084813514846046 -0.1439658190551113 0 -0.1137518136622023 -0.14403992272087959 0 -0.1074028039235085 -0.1503125125805074 0 -0.096084813514846046 -0.1439658190551113 0 -0.1137518136622023 -0.14403992272087959 0 -0.096084813514846046 -0.1439658190551113 0 -0.1004116680395897 -0.1366566568641196 0 -0.1074028039235085 -0.1503125125805074 0 -0.096084813514846046 -0.1439658190551113 0 -0.094246240932195219 -0.15344271195687309 0 -0.10059037143461121 -0.12124208835283649 0 -0.092612956142481911 -0.13460157814273069 0 -0.10059037143461121 -0.12124208835283649 0 -0.092612956142481911 -0.13460157814273069 0 -0.091834790721980877 -0.12507536779925801 0 -0.10059037143461121 -0.12124208835283649 0 -0.092612956142481911 -0.13460157814273069 0 -0.1004116680395897 -0.1366566568641196 0 -0.092612956142481911 -0.13460157814273069 0 -0.096084813514846046 -0.1439658190551113 0 -0.1004116680395897 -0.1366566568641196 0 -0.1137518136622023 -0.14403992272087959 0 -0.1004116680395897 -0.1366566568641196 0 -0.10684944056031929 -0.1332236356624775 0 -0.10059037143461121 -0.12124208835283649 0 -0.1004116680395897 -0.1366566568641196 0 -0.10684944056031929 -0.1332236356624775 0 -0.10059037143461121 -0.12124208835283649 0 -0.10684944056031929 -0.1332236356624775 0 -0.12089125345270731 -0.12518903770960499 0 -0.10684944056031929 -0.1332236356624775 0 -0.1169309788721639 -0.13502904648079919 0 -0.12089125345270731 -0.12518903770960499 0 -0.1137518136622023 -0.14403992272087959 0 -0.10684944056031929 -0.1332236356624775 0 -0.1169309788721639 -0.13502904648079919 0 -0.1137518136622023 -0.14403992272087959 0 -0.1169309788721639 -0.13502904648079919 0 -0.12623140781342659 -0.13766358983023469 0 -0.1169309788721639 -0.13502904648079919 0 -0.12089125345270731 -0.12518903770960499 0 -0.12623140781342659 -0.13766358983023469 0 -0.1225746473090282 -0.12236991870773441 0 -0.12089125345270731 -0.12518903770960499 0 -0.14119213547080281 -0.1291359870663758 0 -0.1225746473090282 -0.12236991870773441 0 -0.14119213547080281 -0.1291359870663758 0 -0.12089125345270731 -0.12518903770960499 0 -0.14119213547080281 -0.1291359870663758 0 -0.12089125345270731 -0.12518903770960499 0 -0.12623140781342659 -0.13766358983023469 0 -0.14119213547080281 -0.1291359870663758 0 -0.12623140781342659 -0.13766358983023469 0 -0.13812898399764051 -0.14059603891032149 0 -0.14119213547080281 -0.1291359870663758 0 -0.14119213547080281 -0.1291359870663758 0 -0.16269669944505119 -0.13695129214986609 0 -0.14119213547080281 -0.1291359870663758 0 -0.14899208015316209 -0.14378147017618689 0 -0.16269669944505119 -0.13695129214986609 0 -0.14119213547080281 -0.1291359870663758 0 -0.15453810922200911 -0.1317307453860318 0 -0.16269669944505119 -0.13695129214986609 0 -0.14119213547080281 -0.1291359870663758 0 -0.15453810922200911 -0.1317307453860318 0 -0.14119213547080281 -0.1291359870663758 0 -0.15453810922200911 -0.1317307453860318 0 -0.14842756872799071 -0.1223078998278221 0 -0.13812898399764051 -0.14059603891032149 0 -0.14119213547080281 -0.1291359870663758 0 -0.14899208015316209 -0.14378147017618689 0 -0.15453810922200911 -0.1317307453860318 0 -0.15812849855799191 -0.1216807865201372 0 -0.14842756872799071 -0.1223078998278221 0 -0.14899208015316209 -0.14378147017618689 0 -0.14024534363005681 -0.1517470636450968 0 -0.1562249343197539 -0.15833346758539041 0 -0.14899208015316209 -0.14378147017618689 0 -0.1562249343197539 -0.15833346758539041 0 -0.16006608083217899 -0.14686157616277629 0 -0.13812898399764051 -0.14059603891032149 0 -0.14899208015316209 -0.14378147017618689 0 -0.14024534363005681 -0.1517470636450968 0 -0.13812898399764051 -0.14059603891032149 0 -0.14024534363005681 -0.1517470636450968 0 -0.13121199975233519 -0.14473678146700489 0 -0.12264556861092819 -0.14752091340497511 0 -0.12623140781342659 -0.13766358983023469 0 -0.13121199975233519 -0.14473678146700489 0 -0.12623140781342659 -0.13766358983023469 0 -0.13812898399764051 -0.14059603891032149 0 -0.13121199975233519 -0.14473678146700489 0 -0.12264556861092819 -0.14752091340497511 0 -0.13121199975233519 -0.14473678146700489 0 -0.12582871684134331 -0.15879657116794241 0 -0.14024534363005681 -0.1517470636450968 0 -0.13121199975233519 -0.14473678146700489 0 -0.12582871684134331 -0.15879657116794241 0 -0.12582871684134331 -0.15879657116794241 0 -0.13413754388435301 -0.1761490996563099 0 -0.14108534671610601 -0.1642380525637348 0 -0.14024534363005681 -0.1517470636450968 0 -0.12582871684134331 -0.15879657116794241 0 -0.14108534671610601 -0.1642380525637348 0 -0.13413754388435301 -0.1761490996563099 0 -0.1519714723377899 -0.17586133406653121 0 -0.14108534671610601 -0.1642380525637348 0 -0.13413754388435301 -0.1761490996563099 0 -0.1519714723377899 -0.17586133406653121 0 -0.14881763950879559 -0.19743309277728449 0 -0.14024534363005681 -0.1517470636450968 0 -0.14108534671610601 -0.1642380525637348 0 -0.1562249343197539 -0.15833346758539041 0 -0.1519714723377899 -0.17586133406653121 0 -0.14108534671610601 -0.1642380525637348 0 -0.1562249343197539 -0.15833346758539041 0 -0.1519714723377899 -0.17586133406653121 0 -0.1562249343197539 -0.15833346758539041 0 -0.1738031896045911 -0.17710883398322819 0 -0.1562249343197539 -0.15833346758539041 0 -0.1738031896045911 -0.17710883398322819 0 -0.17235060941074881 -0.14838007473966189 0 -0.1519714723377899 -0.17586133406653121 0 -0.1738031896045911 -0.17710883398322819 0 -0.14881763950879559 -0.19743309277728449 0 -0.1738031896045911 -0.17710883398322819 0 -0.187861851224147 -0.16958558328473469 0 -0.19140783645189949 -0.18120326779743831 0 -0.1738031896045911 -0.17710883398322819 0 -0.1857685038246468 -0.1563687324005629 0 -0.17235060941074881 -0.14838007473966189 0 -0.1738031896045911 -0.17710883398322819 0 -0.1857685038246468 -0.1563687324005629 0 -0.187861851224147 -0.16958558328473469 0 -0.1738031896045911 -0.17710883398322819 0 -0.17235060941074881 -0.14838007473966189 0 -0.1857685038246468 -0.1563687324005629 0 -0.17235060941074881 -0.14838007473966189 0 -0.18647837356359659 -0.13767088797027019 0 -0.18647837356359659 -0.13767088797027019 0 -0.1915316175508146 -0.1209350109372955 0 -0.17089802921690639 -0.1196513154960956 0 -0.17235060941074881 -0.14838007473966189 0 -0.18647837356359659 -0.13767088797027019 0 -0.17089802921690639 -0.1196513154960956 0 -0.17235060941074881 -0.14838007473966189 0 -0.16269669944505119 -0.13695129214986609 0 -0.17089802921690639 -0.1196513154960956 0 -0.16269669944505119 -0.13695129214986609 0 -0.17089802921690639 -0.1196513154960956 0 -0.15812849855799191 -0.1216807865201372 0 -0.17235060941074881 -0.14838007473966189 0 -0.17089802921690639 -0.1196513154960956 0 -0.15453810922200911 -0.1317307453860318 0 -0.16269669944505119 -0.13695129214986609 0 -0.15812849855799191 -0.1216807865201372 0 -0.1562249343197539 -0.15833346758539041 0 -0.17235060941074881 -0.14838007473966189 0 -0.16006608083217899 -0.14686157616277629 0 -0.14899208015316209 -0.14378147017618689 0 -0.16269669944505119 -0.13695129214986609 0 -0.16006608083217899 -0.14686157616277629 0 -0.17235060941074881 -0.14838007473966189 0 -0.16269669944505119 -0.13695129214986609 0 -0.16006608083217899 -0.14686157616277629 0 -0.14450485775431851 -0.25736513103136011 0 -0.14370017977517291 -0.2330331291106765 0 -0.14370017977517291 -0.2330331291106765 0 -0.1610244584904883 -0.23864371099585899 0 -0.1563410501836712 -0.2498212514116096 0 -0.14450485775431851 -0.25736513103136011 0 -0.14370017977517291 -0.2330331291106765 0 -0.1563410501836712 -0.2498212514116096 0 -0.14450485775431851 -0.25736513103136011 0 -0.1278027162143065 -0.24043015051396341 0 -0.14370017977517291 -0.2330331291106765 0 -0.1278027162143065 -0.24043015051396341 0 -0.12985542753853191 -0.22448873655032189 0 -0.14370017977517291 -0.2330331291106765 0 -0.12985542753853191 -0.22448873655032189 0 -0.14370017977517291 -0.2330331291106765 0 -0.14289550179602731 -0.2087011271899929 0 -0.14370017977517291 -0.2330331291106765 0 -0.1638418242071101 -0.22850675689943109 0 -0.1610244584904883 -0.23864371099585899 0 -0.14370017977517291 -0.2330331291106765 0 -0.14289550179602731 -0.2087011271899929 0 -0.14370017977517291 -0.2330331291106765 0 -0.15996466448097429 -0.2173161090291062 0 -0.1638418242071101 -0.22850675689943109 0 -0.14370017977517291 -0.2330331291106765 0 -0.14289550179602731 -0.2087011271899929 0 -0.15996466448097429 -0.2173161090291062 0 -0.14289550179602731 -0.2087011271899929 0 -0.15996466448097429 -0.2173161090291062 0 -0.15673339389605701 -0.2073219805557947 0 -0.14289550179602731 -0.2087011271899929 0 -0.14881763950879559 -0.19743309277728449 0 -0.15673339389605701 -0.2073219805557947 0 -0.12237950921916051 -0.18902859232777369 0 -0.1184827943907336 -0.21249802065054599 0 -0.14289550179602731 -0.2087011271899929 0 -0.1184827943907336 -0.21249802065054599 0 -0.12985542753853191 -0.22448873655032189 0 -0.14289550179602731 -0.2087011271899929 0 -0.12237950921916051 -0.18902859232777369 0 -0.14881763950879559 -0.19743309277728449 0 -0.12237950921916051 -0.18902859232777369 0 -0.13413754388435301 -0.1761490996563099 0 -0.14881763950879559 -0.19743309277728449 0 -0.12237950921916051 -0.18902859232777369 0 -0.14289550179602731 -0.2087011271899929 0 -0.14881763950879559 -0.19743309277728449 0 -0.14881763950879559 -0.19743309277728449 0 -0.17525576979843099 -0.20583759322679451 0 -0.1738031896045911 -0.17710883398322819 0 -0.14881763950879559 -0.19743309277728449 0 -0.17525576979843099 -0.20583759322679451 0 -0.1738031896045911 -0.17710883398322819 0 -0.17525576979843099 -0.20583759322679451 0 -0.1738031896045911 -0.17710883398322819 0 -0.17525576979843099 -0.20583759322679451 0 -0.19140783645189949 -0.18120326779743831 0 -0.17525576979843099 -0.20583759322679451 0 -0.17633557649090231 -0.22719373358244099 0 -0.14881763950879559 -0.19743309277728449 0 -0.17525576979843099 -0.20583759322679451 0 -0.15673339389605701 -0.2073219805557947 0 -0.17525576979843099 -0.20583759322679451 0 -0.15996466448097429 -0.2173161090291062 0 -0.15673339389605701 -0.2073219805557947 0 -0.17525576979843099 -0.20583759322679451 0 -0.15996466448097429 -0.2173161090291062 0 -0.17633557649090231 -0.22719373358244099 0 -0.15996466448097429 -0.2173161090291062 0 -0.1638418242071101 -0.22850675689943109 0 -0.17633557649090231 -0.22719373358244099 0 -0.1638418242071101 -0.22850675689943109 0 -0.17633557649090231 -0.22719373358244099 0 -0.16982622716200571 -0.23637398350957151 0 -0.17525576979843099 -0.20583759322679451 0 -0.17633557649090231 -0.22719373358244099 0 -0.1904291251902562 -0.22720723047234789 0 -0.17633557649090231 -0.22719373358244099 0 -0.17903974941589451 -0.23888174255345829 0 -0.1904291251902562 -0.22720723047234789 0 -0.17633557649090231 -0.22719373358244099 0 -0.17903974941589451 -0.23888174255345829 0 -0.16982622716200571 -0.23637398350957151 0 -0.17903974941589451 -0.23888174255345829 0 -0.16888952720563299 -0.248643973516668 0 -0.16982622716200571 -0.23637398350957151 0 -0.18936100069649531 -0.25130593984176219 0 -0.1791349909606712 -0.2525987561777624 0 -0.17903974941589451 -0.23888174255345829 0 -0.1791349909606712 -0.2525987561777624 0 -0.17903974941589451 -0.23888174255345829 0 -0.16888952720563299 -0.248643973516668 0 -0.1638418242071101 -0.22850675689943109 0 -0.16982622716200571 -0.23637398350957151 0 -0.1610244584904883 -0.23864371099585899 0 -0.16888952720563299 -0.248643973516668 0 -0.16982622716200571 -0.23637398350957151 0 -0.1610244584904883 -0.23864371099585899 0 -0.16888952720563299 -0.248643973516668 0 -0.1610244584904883 -0.23864371099585899 0 -0.1563410501836712 -0.2498212514116096 0 -0.2248525589425418 -0.25190033394045769 0 -0.21705716657709401 -0.23686746357677099 0 -0.20551371595048259 -0.2464048295736154 0 -0.21705716657709401 -0.23686746357677099 0 -0.20551371595048259 -0.2464048295736154 0 -0.20398121847876979 -0.23044343782379759 0 -0.2248525589425418 -0.25190033394045769 0 -0.20551371595048259 -0.2464048295736154 0 -0.20551371595048259 -0.2464048295736154 0 -0.20398121847876979 -0.23044343782379759 0 -0.17903974941589451 -0.23888174255345829 0 -0.20551371595048259 -0.2464048295736154 0 -0.1904291251902562 -0.22720723047234789 0 -0.20551371595048259 -0.2464048295736154 0 -0.1904291251902562 -0.22720723047234789 0 -0.20398121847876979 -0.23044343782379759 0 -0.18936100069649531 -0.25130593984176219 0 -0.17903974941589451 -0.23888174255345829 0 -0.20551371595048259 -0.2464048295736154 0 -0.17903974941589451 -0.23888174255345829 0 -0.20551371595048259 -0.2464048295736154 0 -0.1904291251902562 -0.22720723047234789 0 -0.20398121847876979 -0.23044343782379759 0 -0.2024487210070551 -0.21448204607397989 0 -0.20398121847876979 -0.23044343782379759 0 -0.2024487210070551 -0.21448204607397989 0 -0.22027640787121369 -0.2201493455623342 0 -0.21705716657709401 -0.23686746357677099 0 -0.20398121847876979 -0.23044343782379759 0 -0.22027640787121369 -0.2201493455623342 0 -0.20398121847876979 -0.23044343782379759 0 -0.2024487210070551 -0.21448204607397989 0 -0.21470917340859469 -0.20477581989821131 0 -0.2024487210070551 -0.21448204607397989 0 -0.20046803519637499 -0.1938526468475241 0 -0.2024487210070551 -0.21448204607397989 0 -0.22027640787121369 -0.2201493455623342 0 -0.21470917340859469 -0.20477581989821131 0 -0.2024487210070551 -0.21448204607397989 0 -0.22027640787121369 -0.2201493455623342 0 -0.17525576979843099 -0.20583759322679451 0 -0.2024487210070551 -0.21448204607397989 0 -0.20046803519637499 -0.1938526468475241 0 -0.17525576979843099 -0.20583759322679451 0 -0.2024487210070551 -0.21448204607397989 0 -0.2024487210070551 -0.21448204607397989 0 -0.20046803519637499 -0.1938526468475241 0 -0.17525576979843099 -0.20583759322679451 0 -0.1904291251902562 -0.22720723047234789 0 -0.2024487210070551 -0.21448204607397989 0 -0.17525576979843099 -0.20583759322679451 0 -0.20046803519637499 -0.1938526468475241 0 -0.19140783645189949 -0.18120326779743831 0 -0.21470917340859469 -0.20477581989821131 0 -0.20046803519637499 -0.1938526468475241 0 -0.21747383963602071 -0.19056619200720801 0 -0.21470917340859469 -0.20477581989821131 0 -0.21747383963602071 -0.19056619200720801 0 -0.23313018801803029 -0.20001345222240249 0 -0.21747383963602071 -0.19056619200720801 0 -0.23313018801803029 -0.20001345222240249 0 -0.22815628130069671 -0.17421025939410989 0 -0.23313018801803029 -0.20001345222240249 0 -0.24903603404399791 -0.1906553931807439 0 -0.22815628130069671 -0.17421025939410989 0 -0.23313018801803029 -0.20001345222240249 0 -0.24903603404399791 -0.1906553931807439 0 -0.2563036130072725 -0.21092518831798779 0 -0.23313018801803029 -0.20001345222240249 0 -0.2381040947353705 -0.22581664505069379 0 -0.2563036130072725 -0.21092518831798779 0 -0.23313018801803029 -0.20001345222240249 0 -0.2381040947353705 -0.22581664505069379 0 -0.21470917340859469 -0.20477581989821131 0 -0.23313018801803029 -0.20001345222240249 0 -0.22027640787121369 -0.2201493455623342 0 -0.23313018801803029 -0.20001345222240249 0 -0.22027640787121369 -0.2201493455623342 0 -0.2381040947353705 -0.22581664505069379 0 -0.22027640787121369 -0.2201493455623342 0 -0.2381040947353705 -0.22581664505069379 0 -0.22945053554541051 -0.2353519398500781 0 -0.22027640787121369 -0.2201493455623342 0 -0.2381040947353705 -0.22581664505069379 0 -0.21705716657709401 -0.23686746357677099 0 -0.22027640787121369 -0.2201493455623342 0 -0.22945053554541051 -0.2353519398500781 0 -0.2381040947353705 -0.22581664505069379 0 -0.2411477483349829 -0.24160624167899691 0 -0.25573605463006283 -0.23142172427668981 0 -0.2381040947353705 -0.22581664505069379 0 -0.25573605463006283 -0.23142172427668981 0 -0.2381040947353705 -0.22581664505069379 0 -0.2411477483349829 -0.24160624167899691 0 -0.22945053554541051 -0.2353519398500781 0 -0.2381040947353705 -0.22581664505069379 0 -0.2411477483349829 -0.24160624167899691 0 -0.24454988477764869 -0.25749770810531208 0 -0.2411477483349829 -0.24160624167899691 0 -0.2589589496512007 -0.24726225580399791 0 -0.24454988477764869 -0.25749770810531208 0 -0.2411477483349829 -0.24160624167899691 0 -0.2248525589425418 -0.25190033394045769 0 -0.21705716657709401 -0.23686746357677099 0 -0.22945053554541051 -0.2353519398500781 0 -0.2248525589425418 -0.25190033394045769 0 -0.2411477483349829 -0.24160624167899691 0 -0.22945053554541051 -0.2353519398500781 0 -0.20917460420777331 -0.15306305583523491 0 -0.2109850864099069 -0.1410119066218736 0 -0.19791412525785729 -0.14677914268999809 0 -0.20917460420777331 -0.15306305583523491 0 -0.21710677859131511 -0.16298906992540241 0 -0.22318237458336279 -0.1484070665658174 0 -0.20917460420777331 -0.15306305583523491 0 -0.2109850864099069 -0.1410119066218736 0 -0.22318237458336279 -0.1484070665658174 0 -0.2109850864099069 -0.1410119066218736 0 -0.21955951631954629 -0.1296127232692153 0 -0.20719559133418991 -0.1236302886587301 0 -0.2109850864099069 -0.1410119066218736 0 -0.199395157736204 -0.13390446849283999 0 -0.20719559133418991 -0.1236302886587301 0 -0.2109850864099069 -0.1410119066218736 0 -0.22318237458336279 -0.1484070665658174 0 -0.21955951631954629 -0.1296127232692153 0 -0.2109850864099069 -0.1410119066218736 0 -0.199395157736204 -0.13390446849283999 0 -0.19791412525785729 -0.14677914268999809 0 -0.18647837356359659 -0.13767088797027019 0 -0.199395157736204 -0.13390446849283999 0 -0.1915316175508146 -0.1209350109372955 0 -0.199395157736204 -0.13390446849283999 0 -0.20719559133418991 -0.1236302886587301 0 -0.1915316175508146 -0.1209350109372955 0 -0.18647837356359659 -0.13767088797027019 0 -0.199395157736204 -0.13390446849283999 0 -0.19791412525785729 -0.14677914268999809 0 -0.20917460420777331 -0.15306305583523491 0 -0.19791412525785729 -0.14677914268999809 0 -0.2004678750154508 -0.16366149895770951 0 -0.1857685038246468 -0.1563687324005629 0 -0.18647837356359659 -0.13767088797027019 0 -0.19791412525785729 -0.14677914268999809 0 -0.1857685038246468 -0.1563687324005629 0 -0.19791412525785729 -0.14677914268999809 0 -0.2004678750154508 -0.16366149895770951 0 -0.1857685038246468 -0.1563687324005629 0 -0.187861851224147 -0.16958558328473469 0 -0.2004678750154508 -0.16366149895770951 0 -0.187861851224147 -0.16958558328473469 0 -0.2004678750154508 -0.16366149895770951 0 -0.19140783645189949 -0.18120326779743831 0 -0.20046803519637499 -0.1938526468475241 0 -0.19140783645189949 -0.18120326779743831 0 -0.21103118259926759 -0.1775710732849875 0 -0.2004678750154508 -0.16366149895770951 0 -0.19140783645189949 -0.18120326779743831 0 -0.21103118259926759 -0.1775710732849875 0 -0.20046803519637499 -0.1938526468475241 0 -0.21747383963602071 -0.19056619200720801 0 -0.21103118259926759 -0.1775710732849875 0 -0.2004678750154508 -0.16366149895770951 0 -0.21103118259926759 -0.1775710732849875 0 -0.21710677859131511 -0.16298906992540241 0 -0.20917460420777331 -0.15306305583523491 0 -0.2004678750154508 -0.16366149895770951 0 -0.21710677859131511 -0.16298906992540241 0 -0.21103118259926759 -0.1775710732849875 0 -0.21710677859131511 -0.16298906992540241 0 -0.21710677859131511 -0.16298906992540241 0 -0.22815628130069671 -0.17421025939410989 0 -0.22318237458336279 -0.1484070665658174 0 -0.21103118259926759 -0.1775710732849875 0 -0.21710677859131511 -0.16298906992540241 0 -0.22815628130069671 -0.17421025939410989 0 -0.22815628130069671 -0.17421025939410989 0 -0.24079364746494719 -0.1570518795833743 0 -0.22318237458336279 -0.1484070665658174 0 -0.22815628130069671 -0.17421025939410989 0 -0.22318237458336279 -0.1484070665658174 0 -0.23313018801803029 -0.20001345222240249 0 -0.22815628130069671 -0.17421025939410989 0 -0.21747383963602071 -0.19056619200720801 0 -0.21103118259926759 -0.1775710732849875 0 -0.22815628130069671 -0.17421025939410989 0 -0.24903603404399791 -0.1906553931807439 0 -0.22815628130069671 -0.17421025939410989 0 -0.2472159042494245 -0.17300239474267201 0 -0.22815628130069671 -0.17421025939410989 0 -0.2472159042494245 -0.17300239474267201 0 -0.24079364746494719 -0.1570518795833743 0 -0.2472159042494245 -0.17300239474267201 0 -0.24079364746494719 -0.1570518795833743 0 -0.25757496885849102 -0.1629027281717142 0 -0.24079364746494719 -0.1570518795833743 0 -0.24000508148060901 -0.13814944628348519 0 -0.25304542354951343 -0.14448752822611621 0 -0.24079364746494719 -0.1570518795833743 0 -0.22318237458336279 -0.1484070665658174 0 -0.24000508148060901 -0.13814944628348519 0 -0.21710677859131511 -0.16298906992540241 0 -0.22318237458336279 -0.1484070665658174 0 -0.22318237458336279 -0.1484070665658174 0 -0.2347571680667645 -0.12062647060742911 0 -0.22318237458336279 -0.1484070665658174 0 -0.21955951631954629 -0.1296127232692153 0 -0.2347571680667645 -0.12062647060742911 0 -0.22318237458336279 -0.1484070665658174 0 -0.24000508148060901 -0.13814944628348519 0 -0.2347571680667645 -0.12062647060742911 0 -0.22318237458336279 -0.1484070665658174 0 -0.21955951631954629 -0.1296127232692153 0 -0.24000508148060901 -0.13814944628348519 0 -0.2347571680667645 -0.12062647060742911 0 -0.25486108899419019 -0.12099975944446199 0 -0.24000508148060901 -0.13814944628348519 0 -0.25486108899419019 -0.12099975944446199 0 -0.25304542354951343 -0.14448752822611621 0 -0.2347571680667645 -0.12062647060742911 0 -0.24633196155016651 -0.092845874649040872 0 -0.25486108899419019 -0.12099975944446199 0 -0.2347571680667645 -0.12062647060742911 0 -0.2295017933673231 -0.10428468376490339 0 -0.24633196155016651 -0.092845874649040872 0 -0.2347571680667645 -0.12062647060742911 0 -0.24633196155016651 -0.092845874649040872 0 -0.2295017933673231 -0.10428468376490339 0 -0.2209813857966321 -0.092848009830530598 0 -0.2159366580557294 -0.11081837997261321 0 -0.2295017933673231 -0.10428468376490339 0 -0.24633196155016651 -0.092845874649040872 0 -0.2209813857966321 -0.092848009830530598 0 -0.2347571680667645 -0.12062647060742911 0 -0.2295017933673231 -0.10428468376490339 0 -0.2159366580557294 -0.11081837997261321 0 -0.21955951631954629 -0.1296127232692153 0 -0.2347571680667645 -0.12062647060742911 0 -0.2159366580557294 -0.11081837997261321 0 -0.24072698681413221 -0.06579334866134455 0 -0.22743700800558181 -0.075524162926393787 0 -0.25064243141425341 -0.076653782063124593 0 -0.24072698681413221 -0.06579334866134455 0 -0.25115992304814089 -0.061119750346517357 0 -0.25064243141425341 -0.076653782063124593 0 -0.24633196155016651 -0.092845874649040872 0 -0.22743700800558181 -0.075524162926393787 0 -0.25064243141425341 -0.076653782063124593 0 -0.24633196155016651 -0.092845874649040872 0 -0.2209813857966321 -0.092848009830530598 0 -0.22743700800558181 -0.075524162926393787 0 -0.22743700800558181 -0.075524162926393787 0 -0.21217567641734161 -0.067282685836976802 0 -0.22541814218389769 -0.062223396027771119 0 -0.24072698681413221 -0.06579334866134455 0 -0.22743700800558181 -0.075524162926393787 0 -0.22541814218389769 -0.062223396027771119 0 -0.21217567641734161 -0.067282685836976802 0 -0.2075239656510475 -0.079660208671455485 0 -0.1958912386187483 -0.067162211370313349 0 -0.22743700800558181 -0.075524162926393787 0 -0.21217567641734161 -0.067282685836976802 0 -0.2075239656510475 -0.079660208671455485 0 -0.2209813857966321 -0.092848009830530598 0 -0.22743700800558181 -0.075524162926393787 0 -0.2075239656510475 -0.079660208671455485 0 -0.2209813857966321 -0.092848009830530598 0 -0.2075239656510475 -0.079660208671455485 0 -0.20270495895453211 -0.093364271313537278 0 -0.20270495895453211 -0.093364271313537278 0 -0.18690378158126761 -0.1025227226906933 0 -0.18595352611344909 -0.081779910750981233 0 -0.20270495895453211 -0.093364271313537278 0 -0.18595352611344909 -0.081779910750981233 0 -0.2075239656510475 -0.079660208671455485 0 -0.20270495895453211 -0.093364271313537278 0 -0.18595352611344909 -0.081779910750981233 0 -0.2075239656510475 -0.079660208671455485 0 -0.1958912386187483 -0.067162211370313349 0 -0.18595352611344909 -0.081779910750981233 0 -0.1958912386187483 -0.067162211370313349 0 -0.18595352611344909 -0.081779910750981233 0 -0.18298201223974489 -0.06867337174186175 0 -0.21955951631954629 -0.1296127232692153 0 -0.2159366580557294 -0.11081837997261321 0 -0.21955951631954629 -0.1296127232692153 0 -0.20719559133418991 -0.1236302886587301 0 -0.2159366580557294 -0.11081837997261321 0 -0.20719559133418991 -0.1236302886587301 0 -0.2159366580557294 -0.11081837997261321 0 -0.20088910862883949 -0.10848327139372101 0 -0.2209813857966321 -0.092848009830530598 0 -0.20270495895453211 -0.093364271313537278 0 -0.2159366580557294 -0.11081837997261321 0 -0.20270495895453211 -0.093364271313537278 0 -0.2159366580557294 -0.11081837997261321 0 -0.20088910862883949 -0.10848327139372101 0 -0.20270495895453211 -0.093364271313537278 0 -0.20088910862883949 -0.10848327139372101 0 -0.18690378158126761 -0.1025227226906933 0 -0.20719559133418991 -0.1236302886587301 0 -0.20088910862883949 -0.10848327139372101 0 -0.1915316175508146 -0.1209350109372955 0 -0.20088910862883949 -0.10848327139372101 0 -0.1915316175508146 -0.1209350109372955 0 -0.18690378158126761 -0.1025227226906933 0 -0.1915316175508146 -0.1209350109372955 0 -0.17089802921690639 -0.1196513154960956 0 -0.18690378158126761 -0.1025227226906933 0 -0.17089802921690639 -0.1196513154960956 0 -0.15812849855799191 -0.1216807865201372 0 -0.15778566885557291 -0.10326223317719641 0 -0.17089802921690639 -0.1196513154960956 0 -0.15778566885557291 -0.10326223317719641 0 -0.1694454490230641 -0.090922556252529346 0 -0.17089802921690639 -0.1196513154960956 0 -0.1694454490230641 -0.090922556252529346 0 -0.17089802921690639 -0.1196513154960956 0 -0.18690378158126761 -0.1025227226906933 0 -0.1694454490230641 -0.090922556252529346 0 -0.18690378158126761 -0.1025227226906933 0 -0.18595352611344909 -0.081779910750981233 0 -0.1694454490230641 -0.090922556252529346 0 -0.18595352611344909 -0.081779910750981233 0 -0.1692020932723661 -0.070195550188425132 0 -0.1694454490230641 -0.090922556252529346 0 -0.18595352611344909 -0.081779910750981233 0 -0.18298201223974489 -0.06867337174186175 0 -0.1692020932723661 -0.070195550188425132 0 -0.18595352611344909 -0.081779910750981233 0 -0.1692020932723661 -0.070195550188425132 0 -0.1958912386187483 -0.067162211370313349 0 -0.18298201223974489 -0.06867337174186175 0 -0.18088119095441629 -0.055555814657727277 0 -0.18298201223974489 -0.06867337174186175 0 -0.1692020932723661 -0.070195550188425132 0 -0.18088119095441629 -0.055555814657727277 0 -0.1692020932723661 -0.070195550188425132 0 -0.15275849391032981 -0.069655631388488348 0 -0.1514735402897476 -0.058716198866508737 0 -0.1692020932723661 -0.070195550188425132 0 -0.15742702139899661 -0.084794025279486263 0 -0.15275849391032981 -0.069655631388488348 0 -0.1692020932723661 -0.070195550188425132 0 -0.1514735402897476 -0.058716198866508737 0 -0.15778566885557291 -0.10326223317719641 0 -0.1694454490230641 -0.090922556252529346 0 -0.15742702139899661 -0.084794025279486263 0 -0.1692020932723661 -0.070195550188425132 0 -0.1694454490230641 -0.090922556252529346 0 -0.15742702139899661 -0.084794025279486263 0 -0.15742702139899661 -0.084794025279486263 0 -0.14403108800287531 -0.086452388180919409 0 -0.15064535941305021 -0.093919900197493786 0 -0.15742702139899661 -0.084794025279486263 0 -0.14403108800287531 -0.086452388180919409 0 -0.14619274241006269 -0.077662092553018036 0 -0.14403108800287531 -0.086452388180919409 0 -0.14619274241006269 -0.077662092553018036 0 -0.137443504849798 -0.080783631878495035 0 -0.15742702139899661 -0.084794025279486263 0 -0.15275849391032981 -0.069655631388488348 0 -0.14619274241006269 -0.077662092553018036 0 -0.15275849391032981 -0.069655631388488348 0 -0.14619274241006269 -0.077662092553018036 0 -0.14030620743073011 -0.06928467759754478 0 -0.14619274241006269 -0.077662092553018036 0 -0.14030620743073011 -0.06928467759754478 0 -0.137443504849798 -0.080783631878495035 0 -0.14030620743073011 -0.06928467759754478 0 -0.14012058196952909 -0.059936279674980553 0 -0.1514735402897476 -0.058716198866508737 0 -0.15275849391032981 -0.069655631388488348 0 -0.14030620743073011 -0.06928467759754478 0 -0.1514735402897476 -0.058716198866508737 0 -0.14030620743073011 -0.06928467759754478 0 -0.1514735402897476 -0.058716198866508737 0 -0.14030620743073011 -0.06928467759754478 0 -0.12549989672577999 -0.079527004379866317 0 -0.13627126551504101 -0.061488581395251957 0 -0.12549989672577999 -0.079527004379866317 0 -0.13627126551504101 -0.061488581395251957 0 -0.1163591914487991 -0.069518460775813015 0 -0.13627126551504101 -0.061488581395251957 0 -0.1163591914487991 -0.069518460775813015 0 -0.12755736622911809 -0.0612864245434133 0 -0.13627126551504101 -0.061488581395251957 0 -0.1163591914487991 -0.069518460775813015 0 -0.12549989672577999 -0.079527004379866317 0 -0.13627126551504101 -0.061488581395251957 0 -0.14030620743073011 -0.06928467759754478 0 -0.14012058196952909 -0.059936279674980553 0 -0.13627126551504101 -0.061488581395251957 0 -0.14030620743073011 -0.06928467759754478 0 -0.137443504849798 -0.080783631878495035 0 -0.12549989672577999 -0.079527004379866317 0 -0.14403108800287531 -0.086452388180919409 0 -0.1316888914507503 -0.09232194246104844 0 -0.1433376593947561 -0.101170954152373 0 -0.14403108800287531 -0.086452388180919409 0 -0.137443504849798 -0.080783631878495035 0 -0.1316888914507503 -0.09232194246104844 0 -0.137443504849798 -0.080783631878495035 0 -0.12549989672577999 -0.079527004379866317 0 -0.1316888914507503 -0.09232194246104844 0 -0.1316888914507503 -0.09232194246104844 0 -0.1279141590416612 -0.10667456835646449 0 -0.1433376593947561 -0.101170954152373 0 -0.1279141590416612 -0.10667456835646449 0 -0.13888530620379111 -0.1158981295173116 0 -0.1433376593947561 -0.101170954152373 0 -0.1225746473090282 -0.12236991870773441 0 -0.1279141590416612 -0.10667456835646449 0 -0.13888530620379111 -0.1158981295173116 0 -0.1225746473090282 -0.12236991870773441 0 -0.14119213547080281 -0.1291359870663758 0 -0.13888530620379111 -0.1158981295173116 0 -0.13888530620379111 -0.1158981295173116 0 -0.14842756872799071 -0.1223078998278221 0 -0.14939379418535861 -0.1130938506492544 0 -0.13888530620379111 -0.1158981295173116 0 -0.14939379418535861 -0.1130938506492544 0 -0.1433376593947561 -0.101170954152373 0 -0.15812849855799191 -0.1216807865201372 0 -0.15778566885557291 -0.10326223317719641 0 -0.14939379418535861 -0.1130938506492544 0 -0.14119213547080281 -0.1291359870663758 0 -0.13888530620379111 -0.1158981295173116 0 -0.14842756872799071 -0.1223078998278221 0 -0.15812849855799191 -0.1216807865201372 0 -0.14842756872799071 -0.1223078998278221 0 -0.14939379418535861 -0.1130938506492544 0 -0.15778566885557291 -0.10326223317719641 0 -0.14939379418535861 -0.1130938506492544 0 -0.1433376593947561 -0.101170954152373 0 -0.15778566885557291 -0.10326223317719641 0 -0.15742702139899661 -0.084794025279486263 0 -0.15064535941305021 -0.093919900197493786 0 -0.15778566885557291 -0.10326223317719641 0 -0.15064535941305021 -0.093919900197493786 0 -0.1433376593947561 -0.101170954152373 0 -0.14403108800287531 -0.086452388180919409 0 -0.15064535941305021 -0.093919900197493786 0 -0.1433376593947561 -0.101170954152373 0 -0.15508704572272969 -0.028483979365512831 0 -0.14880516952357351 -0.014267683319556031 0 -0.12650633931083369 -0.023455557937210041 0 -0.15508704572272969 -0.028483979365512831 0 -0.12650633931083369 -0.023455557937210041 0 -0.14880516952357351 -0.014267683319556031 0 -0.14316050255274121 -0.00029168652766420469 0 -0.1643647403796791 -0.002180185179673185 0 -0.14880516952357351 -0.014267683319556031 0 -0.14316050255274121 -0.00029168652766420469 0 -0.13255944309022311 -0.01125437117064511 0 -0.14316050255274121 -0.00029168652766420469 0 -0.1263847071420727 -0.00049017928581041167 0 -0.13255944309022311 -0.01125437117064511 0 -0.1201415431010609 -0.01606667565510073 0 -0.1263847071420727 -0.00049017928581041167 0 -0.13255944309022311 -0.01125437117064511 0 -0.1201415431010609 -0.01606667565510073 0 -0.13255944309022311 -0.01125437117064511 0 -0.12650633931083369 -0.023455557937210041 0 -0.14880516952357351 -0.014267683319556031 0 -0.13255944309022311 -0.01125437117064511 0 -0.12650633931083369 -0.023455557937210041 0 -0.15508704572272969 -0.028483979365512831 0 -0.12650633931083369 -0.023455557937210041 0 -0.1353449389456417 -0.033348999094338631 0 -0.1235419344184987 -0.034850153341615647 0 -0.12650633931083369 -0.023455557937210041 0 -0.1353449389456417 -0.033348999094338631 0 -0.1235419344184987 -0.034850153341615647 0 -0.12837680609682481 -0.041963049052672043 0 -0.1353449389456417 -0.033348999094338631 0 -0.12837680609682481 -0.041963049052672043 0 -0.142215865589674 -0.051533373963544717 0 -0.12837680609682481 -0.041963049052672043 0 -0.142215865589674 -0.051533373963544717 0 -0.1432125691793216 -0.037992255774682612 0 -0.12837680609682481 -0.041963049052672043 0 -0.1353449389456417 -0.033348999094338631 0 -0.1432125691793216 -0.037992255774682612 0 -0.1241597025088316 -0.052896041674259459 0 -0.12755736622911809 -0.0612864245434133 0 -0.13019762401881729 -0.056464956686300978 0 -0.12755736622911809 -0.0612864245434133 0 -0.13627126551504101 -0.061488581395251957 0 -0.12755736622911809 -0.0612864245434133 0 -0.13019762401881729 -0.056464956686300978 0 -0.13627126551504101 -0.061488581395251957 0 -0.1241597025088316 -0.052896041674259459 0 -0.13019762401881729 -0.056464956686300978 0 -0.1320756265841477 -0.051405481502697858 0 -0.1241597025088316 -0.052896041674259459 0 -0.12837680609682481 -0.041963049052672043 0 -0.1320756265841477 -0.051405481502697858 0 -0.12837680609682481 -0.041963049052672043 0 -0.1320756265841477 -0.051405481502697858 0 -0.142215865589674 -0.051533373963544717 0 -0.13019762401881729 -0.056464956686300978 0 -0.1320756265841477 -0.051405481502697858 0 -0.13627126551504101 -0.061488581395251957 0 -0.14012058196952909 -0.059936279674980553 0 -0.13627126551504101 -0.061488581395251957 0 -0.142215865589674 -0.051533373963544717 0 -0.1320756265841477 -0.051405481502697858 0 -0.13627126551504101 -0.061488581395251957 0 -0.142215865589674 -0.051533373963544717 0 -0.13627126551504101 -0.061488581395251957 0 -0.142215865589674 -0.051533373963544717 0 -0.14012058196952909 -0.059936279674980553 0 -0.13627126551504101 -0.061488581395251957 0 -0.14012058196952909 -0.059936279674980553 0 -0.142215865589674 -0.051533373963544717 0 -0.14911929015777009 -0.056307398972142708 0 -0.14012058196952909 -0.059936279674980553 0 -0.14911929015777009 -0.056307398972142708 0 -0.1514735402897476 -0.058716198866508737 0 -0.14012058196952909 -0.059936279674980553 0 -0.1514735402897476 -0.058716198866508737 0 -0.14012058196952909 -0.059936279674980553 0 -0.14911929015777009 -0.056307398972142708 0 -0.14622609152179669 -0.05163213859109448 0 -0.142215865589674 -0.051533373963544717 0 -0.15077902516842881 -0.048116199763287883 0 -0.142215865589674 -0.051533373963544717 0 -0.14911929015777009 -0.056307398972142708 0 -0.14622609152179669 -0.05163213859109448 0 -0.142215865589674 -0.051533373963544717 0 -0.14911929015777009 -0.056307398972142708 0 -0.15077902516842881 -0.048116199763287883 0 -0.14911929015777009 -0.056307398972142708 0 -0.15765682845381229 -0.052864492798926188 0 -0.14622609152179669 -0.05163213859109448 0 -0.15077902516842881 -0.048116199763287883 0 -0.14911929015777009 -0.056307398972142708 0 -0.14911929015777009 -0.056307398972142708 0 -0.15765682845381229 -0.052864492798926188 0 -0.15077902516842881 -0.048116199763287883 0 -0.15551462572742489 -0.045292654355780497 0 -0.15765682845381229 -0.052864492798926188 0 -0.14911929015777009 -0.056307398972142708 0 -0.1514735402897476 -0.058716198866508737 0 -0.15765682845381229 -0.052864492798926188 0 -0.14911929015777009 -0.056307398972142708 0 -0.1514735402897476 -0.058716198866508737 0 -0.1514735402897476 -0.058716198866508737 0 -0.15765682845381229 -0.052864492798926188 0 -0.15508704572272969 -0.028483979365512831 0 -0.1353449389456417 -0.033348999094338631 0 -0.1432125691793216 -0.037992255774682612 0 -0.142215865589674 -0.051533373963544717 0 -0.15077902516842881 -0.048116199763287883 0 -0.1432125691793216 -0.037992255774682612 0 -0.15077902516842881 -0.048116199763287883 0 -0.1432125691793216 -0.037992255774682612 0 -0.15262348827795411 -0.039522054677744833 0 -0.15077902516842881 -0.048116199763287883 0 -0.15262348827795411 -0.039522054677744833 0 -0.15551462572742489 -0.045292654355780497 0 -0.15508704572272969 -0.028483979365512831 0 -0.1432125691793216 -0.037992255774682612 0 -0.15262348827795411 -0.039522054677744833 0 -0.15508704572272969 -0.028483979365512831 0 -0.15262348827795411 -0.039522054677744833 0 -0.1609991610095042 -0.040667870183162723 0 -0.15765682845381229 -0.052864492798926188 0 -0.1733613139533394 -0.038002168636210087 0 -0.18086565913365429 -0.043505140764422988 0 -0.15508704572272969 -0.028483979365512831 0 -0.1609991610095042 -0.040667870183162723 0 -0.16538572406947649 -0.031012989029507151 0 -0.1609991610095042 -0.040667870183162723 0 -0.15765682845381229 -0.052864492798926188 0 -0.1733613139533394 -0.038002168636210087 0 -0.15765682845381229 -0.052864492798926188 0 -0.1733613139533394 -0.038002168636210087 0 -0.15262348827795411 -0.039522054677744833 0 -0.15551462572742489 -0.045292654355780497 0 -0.1609991610095042 -0.040667870183162723 0 -0.15551462572742489 -0.045292654355780497 0 -0.1609991610095042 -0.040667870183162723 0 -0.15765682845381229 -0.052864492798926188 0 -0.1609991610095042 -0.040667870183162723 0 -0.1733613139533394 -0.038002168636210087 0 -0.16538572406947649 -0.031012989029507151 0 -0.1514735402897476 -0.058716198866508737 0 -0.18088119095441629 -0.055555814657727277 0 -0.15765682845381229 -0.052864492798926188 0 -0.18086565913365429 -0.043505140764422988 0 -0.1514735402897476 -0.058716198866508737 0 -0.15765682845381229 -0.052864492798926188 0 -0.18088119095441629 -0.055555814657727277 0 -0.1692020932723661 -0.070195550188425132 0 -0.1514735402897476 -0.058716198866508737 0 -0.18088119095441629 -0.055555814657727277 0 -0.15765682845381229 -0.052864492798926188 0 -0.18088119095441629 -0.055555814657727277 0 -0.18086565913365429 -0.043505140764422988 0 -0.18088119095441629 -0.055555814657727277 0 -0.18086565913365429 -0.043505140764422988 0 -0.1920288292455633 -0.049025095406126921 0 -0.1733613139533394 -0.038002168636210087 0 -0.18906579945286681 -0.023139844473494379 0 -0.18889423328211599 -0.033330416231643033 0 -0.1733613139533394 -0.038002168636210087 0 -0.18086565913365429 -0.043505140764422988 0 -0.18889423328211599 -0.033330416231643033 0 -0.1733613139533394 -0.038002168636210087 0 -0.17115294608523429 -0.019940319736630852 0 -0.18906579945286681 -0.023139844473494379 0 -0.17115294608523429 -0.019940319736630852 0 -0.18844860492981441 -0.0067593314437991887 0 -0.18906579945286681 -0.023139844473494379 0 -0.1733613139533394 -0.038002168636210087 0 -0.18906579945286681 -0.023139844473494379 0 -0.15508704572272969 -0.028483979365512831 0 -0.14880516952357351 -0.014267683319556031 0 -0.17115294608523429 -0.019940319736630852 0 -0.1733613139533394 -0.038002168636210087 0 -0.17115294608523429 -0.019940319736630852 0 -0.16538572406947649 -0.031012989029507151 0 -0.15508704572272969 -0.028483979365512831 0 -0.17115294608523429 -0.019940319736630852 0 -0.16538572406947649 -0.031012989029507151 0 -0.14880516952357351 -0.014267683319556031 0 -0.17115294608523429 -0.019940319736630852 0 -0.1643647403796791 -0.002180185179673185 0 -0.17115294608523429 -0.019940319736630852 0 -0.1643647403796791 -0.002180185179673185 0 -0.18844860492981441 -0.0067593314437991887 0 -0.18844860492981441 -0.0067593314437991887 0 -0.20474847440626631 -0.005022555336773038 0 -0.2047702849523943 -0.0082775203107786355 0 -0.18844860492981441 -0.0067593314437991887 0 -0.18906579945286681 -0.023139844473494379 0 -0.2047702849523943 -0.0082775203107786355 0 -0.18906579945286681 -0.023139844473494379 0 -0.20170682052871 -0.021486575298620591 0 -0.2047702849523943 -0.0082775203107786355 0 -0.18906579945286681 -0.023139844473494379 0 -0.2047702849523943 -0.0082775203107786355 0 -0.18906579945286681 -0.023139844473494379 0 -0.19710390405722339 -0.027859138554168359 0 -0.18889423328211599 -0.033330416231643033 0 -0.18906579945286681 -0.023139844473494379 0 -0.19710390405722339 -0.027859138554168359 0 -0.20170682052871 -0.021486575298620591 0 -0.19710390405722339 -0.027859138554168359 0 -0.20170682052871 -0.021486575298620591 0 -0.2037162492346361 -0.026399538964826001 0 -0.19710390405722339 -0.027859138554168359 0 -0.2037162492346361 -0.026399538964826001 0 -0.20407448981349621 -0.034145788729919337 0 -0.21243709067068081 -0.021427231052065811 0 -0.20407448981349621 -0.034145788729919337 0 -0.22728332049333819 -0.024786436695415939 0 -0.21243709067068081 -0.021427231052065811 0 -0.20474847440626631 -0.005022555336773038 0 -0.22728332049333819 -0.024786436695415939 0 -0.20170682052871 -0.021486575298620591 0 -0.2037162492346361 -0.026399538964826001 0 -0.21243709067068081 -0.021427231052065811 0 -0.20170682052871 -0.021486575298620591 0 -0.21243709067068081 -0.021427231052065811 0 -0.2047702849523943 -0.0082775203107786355 0 -0.20407448981349621 -0.034145788729919337 0 -0.22728332049333819 -0.024786436695415939 0 -0.2037162492346361 -0.026399538964826001 0 -0.21243709067068081 -0.021427231052065811 0 -0.20407448981349621 -0.034145788729919337 0 -0.21243709067068081 -0.021427231052065811 0 -0.20474847440626631 -0.005022555336773038 0 -0.2047702849523943 -0.0082775203107786355 0 -0.20474847440626631 -0.005022555336773038 0 -0.22728332049333819 -0.024786436695415939 0 -0.1958912386187483 -0.067162211370313349 0 -0.18088119095441629 -0.055555814657727277 0 -0.2093117214775489 -0.052500439689587258 0 -0.18088119095441629 -0.055555814657727277 0 -0.1920288292455633 -0.049025095406126921 0 -0.2093117214775489 -0.052500439689587258 0 -0.1920288292455633 -0.049025095406126921 0 -0.19705674541663359 -0.044538986512770162 0 -0.2093117214775489 -0.052500439689587258 0 -0.18088119095441629 -0.055555814657727277 0 -0.2093117214775489 -0.052500439689587258 0 -0.18086565913365429 -0.043505140764422988 0 -0.20407448981349621 -0.034145788729919337 0 -0.18086565913365429 -0.043505140764422988 0 -0.1920288292455633 -0.049025095406126921 0 -0.19705674541663359 -0.044538986512770162 0 -0.18086565913365429 -0.043505140764422988 0 -0.18889423328211599 -0.033330416231643033 0 -0.20407448981349621 -0.034145788729919337 0 -0.18086565913365429 -0.043505140764422988 0 -0.19705674541663359 -0.044538986512770162 0 -0.20407448981349621 -0.034145788729919337 0 -0.19705674541663359 -0.044538986512770162 0 -0.20407448981349621 -0.034145788729919337 0 -0.20501463975278911 -0.04268283443856824 0 -0.19710390405722339 -0.027859138554168359 0 -0.18889423328211599 -0.033330416231643033 0 -0.20407448981349621 -0.034145788729919337 0 -0.20407448981349621 -0.034145788729919337 0 -0.2116591617638319 -0.039004479426073248 0 -0.22728332049333819 -0.024786436695415939 0 -0.20407448981349621 -0.034145788729919337 0 -0.2116591617638319 -0.039004479426073248 0 -0.20501463975278911 -0.04268283443856824 0 -0.19705674541663359 -0.044538986512770162 0 -0.20501463975278911 -0.04268283443856824 0 -0.2093117214775489 -0.052500439689587258 0 -0.2116591617638319 -0.039004479426073248 0 -0.20501463975278911 -0.04268283443856824 0 -0.2093117214775489 -0.052500439689587258 0 -0.21217567641734161 -0.067282685836976802 0 -0.2093117214775489 -0.052500439689587258 0 -0.22541814218389769 -0.062223396027771119 0 -0.21217567641734161 -0.067282685836976802 0 -0.1958912386187483 -0.067162211370313349 0 -0.2093117214775489 -0.052500439689587258 0 -0.2093117214775489 -0.052500439689587258 0 -0.22541814218389769 -0.062223396027771119 0 -0.2377422520006815 -0.049445064721447239 0 -0.2093117214775489 -0.052500439689587258 0 -0.2377422520006815 -0.049445064721447239 0 -0.2116591617638319 -0.039004479426073248 0 -0.2093117214775489 -0.052500439689587258 0 -0.2377422520006815 -0.049445064721447239 0 -0.2116591617638319 -0.039004479426073248 0 -0.23853540948456561 -0.034654928851979488 0 -0.2377422520006815 -0.049445064721447239 0 -0.2116591617638319 -0.039004479426073248 0 -0.23853540948456561 -0.034654928851979488 0 -0.22728332049333819 -0.024786436695415939 0 -0.2116591617638319 -0.039004479426073248 0 -0.23853540948456561 -0.034654928851979488 0 -0.23853540948456561 -0.034654928851979488 0 -0.2377422520006815 -0.049445064721447239 0 -0.25597622017961519 -0.04995115550662587 0 -0.23853540948456561 -0.034654928851979488 0 -0.25597622017961519 -0.04995115550662587 0 -0.2377422520006815 -0.049445064721447239 0 -0.25597622017961519 -0.04995115550662587 0 -0.25115992304814089 -0.061119750346517357 0 -0.24072698681413221 -0.06579334866134455 0 -0.2377422520006815 -0.049445064721447239 0 -0.25115992304814089 -0.061119750346517357 0 -0.24072698681413221 -0.06579334866134455 0 -0.22541814218389769 -0.062223396027771119 0 -0.2377422520006815 -0.049445064721447239 0 -0.22551239567807371 -0.01052536391300136 0 -0.23330032490817609 -0.022359978280147741 0 -0.24177990985366549 -0.011629590456526629 0 -0.20474847440626631 -0.005022555336773038 0 -0.22551239567807371 -0.01052536391300136 0 -0.22728332049333819 -0.024786436695415939 0 -0.20474847440626631 -0.005022555336773038 0 -0.22551239567807371 -0.01052536391300136 0 -0.22612747791280821 0.0075226402915801599 0 -0.22551239567807371 -0.01052536391300136 0 -0.24177990985366549 -0.011629590456526629 0 -0.22612747791280821 0.0075226402915801599 0 -0.23853540948456561 -0.034654928851979488 0 -0.22728332049333819 -0.024786436695415939 0 -0.23853540948456561 -0.034654928851979488 0 -0.22728332049333819 -0.024786436695415939 0 -0.23330032490817609 -0.022359978280147741 0 -0.22728332049333819 -0.024786436695415939 0 -0.23330032490817609 -0.022359978280147741 0 -0.22551239567807371 -0.01052536391300136 0 -0.22728332049333819 -0.024786436695415939 0 -0.23330032490817609 -0.022359978280147741 0 -0.23330032490817609 -0.022359978280147741 0 -0.24094002449554741 -0.022773598134729671 0 -0.24177990985366549 -0.011629590456526629 0 -0.23853540948456561 -0.034654928851979488 0 -0.23330032490817609 -0.022359978280147741 0 -0.24094002449554741 -0.022773598134729671 0 -0.23853540948456561 -0.034654928851979488 0 -0.24094002449554741 -0.022773598134729671 0 -0.25014445373578031 -0.022449894950267349 0 -0.24094002449554741 -0.022773598134729671 0 -0.24177990985366549 -0.011629590456526629 0 -0.25014445373578031 -0.022449894950267349 0 -0.24177990985366549 -0.011629590456526629 0 -0.25430018986547698 -0.00612621221049231 0 -0.25014445373578031 -0.022449894950267349 0 -0.24177990985366549 -0.011629590456526629 0 -0.25430018986547698 -0.00612621221049231 0 -0.24726539525988339 0.0072649071471831209 0 -0.25430018986547698 -0.00612621221049231 0 -0.26120824905860612 -0.017048507516713201 0 -0.27394587021700112 -0.010760545891949269 0 -0.25430018986547698 -0.00612621221049231 0 -0.25014445373578031 -0.022449894950267349 0 -0.26120824905860612 -0.017048507516713201 0 -0.25430018986547698 -0.00612621221049231 0 -0.27394587021700112 -0.010760545891949269 0 -0.26559975475773162 0.0065156817321890652 0 -0.23853540948456561 -0.034654928851979488 0 -0.25014445373578031 -0.022449894950267349 0 -0.2651593357470784 -0.030346213031121391 0 -0.25014445373578031 -0.022449894950267349 0 -0.26120824905860612 -0.017048507516713201 0 -0.2651593357470784 -0.030346213031121391 0 -0.2651593357470784 -0.030346213031121391 0 -0.29178326200959093 -0.026037497210261169 0 -0.2651593357470784 -0.030346213031121391 0 -0.27394587021700112 -0.010760545891949269 0 -0.29178326200959093 -0.026037497210261169 0 -0.26120824905860612 -0.017048507516713201 0 -0.2651593357470784 -0.030346213031121391 0 -0.27394587021700112 -0.010760545891949269 0 -0.27394587021700112 -0.010760545891949269 0 -0.29541564460709341 -0.00836752224641313 0 -0.28323680260587852 0.0054691074990878058 0 -0.27394587021700112 -0.010760545891949269 0 -0.29541564460709341 -0.00836752224641313 0 -0.29178326200959093 -0.026037497210261169 0 -0.29178326200959093 -0.026037497210261169 0 -0.31840718827210329 -0.021728781389400969 0 -0.29541564460709341 -0.00836752224641313 0 -0.29178326200959093 -0.026037497210261169 0 -0.31840718827210329 -0.021728781389400969 0 -0.29178326200959093 -0.026037497210261169 0 -0.30662227587362728 -0.041258304735719058 0 -0.31840718827210329 -0.021728781389400969 0 -0.29541564460709341 -0.00836752224641313 0 -0.31840718827210329 -0.021728781389400969 0 -0.30767681351208442 0.0074333571717676034 0 -0.29716587965107888 -0.060543441596536067 0 -0.32091472842749569 -0.055839501031796017 0 -0.29716587965107888 -0.060543441596536067 0 -0.30662227587362728 -0.041258304735719058 0 -0.32091472842749569 -0.055839501031796017 0 -0.29178326200959093 -0.026037497210261169 0 -0.30662227587362728 -0.041258304735719058 0 -0.28173236189955569 -0.045356676553380187 0 -0.29716587965107888 -0.060543441596536067 0 -0.30662227587362728 -0.041258304735719058 0 -0.28173236189955569 -0.045356676553380187 0 -0.29716587965107888 -0.060543441596536067 0 -0.28173236189955569 -0.045356676553380187 0 -0.27341703087466213 -0.065247382161275527 0 -0.28173236189955569 -0.045356676553380187 0 -0.25597622017961519 -0.04995115550662587 0 -0.27341703087466213 -0.065247382161275527 0 -0.2651593357470784 -0.030346213031121391 0 -0.28173236189955569 -0.045356676553380187 0 -0.25597622017961519 -0.04995115550662587 0 -0.2651593357470784 -0.030346213031121391 0 -0.29178326200959093 -0.026037497210261169 0 -0.28173236189955569 -0.045356676553380187 0 -0.23853540948456561 -0.034654928851979488 0 -0.2651593357470784 -0.030346213031121391 0 -0.23853540948456561 -0.034654928851979488 0 -0.2651593357470784 -0.030346213031121391 0 -0.25597622017961519 -0.04995115550662587 0 -0.25597622017961519 -0.04995115550662587 0 -0.26118471259482468 -0.067670240578500823 0 -0.27341703087466213 -0.065247382161275527 0 -0.25597622017961519 -0.04995115550662587 0 -0.25115992304814089 -0.061119750346517357 0 -0.26118471259482468 -0.067670240578500823 0 -0.25597622017961519 -0.04995115550662587 0 -0.27341703087466213 -0.065247382161275527 0 -0.25115992304814089 -0.061119750346517357 0 -0.26118471259482468 -0.067670240578500823 0 -0.25064243141425341 -0.076653782063124593 0 -0.26118471259482468 -0.067670240578500823 0 -0.25064243141425341 -0.076653782063124593 0 -0.27024609911804598 -0.083897849219719059 0 -0.24633196155016651 -0.092845874649040872 0 -0.27024609911804598 -0.083897849219719059 0 -0.26929917699652528 -0.1008556319114474 0 -0.24633196155016651 -0.092845874649040872 0 -0.25064243141425341 -0.076653782063124593 0 -0.27024609911804598 -0.083897849219719059 0 -0.27024609911804598 -0.083897849219719059 0 -0.28299435831094288 -0.091706363135657193 0 -0.28974526839286679 -0.079567841589248289 0 -0.27024609911804598 -0.083897849219719059 0 -0.26929917699652528 -0.1008556319114474 0 -0.28299435831094288 -0.091706363135657193 0 -0.26118471259482468 -0.067670240578500823 0 -0.27024609911804598 -0.083897849219719059 0 -0.27341703087466213 -0.065247382161275527 0 -0.27024609911804598 -0.083897849219719059 0 -0.27341703087466213 -0.065247382161275527 0 -0.28974526839286679 -0.079567841589248289 0 -0.26118471259482468 -0.067670240578500823 0 -0.27341703087466213 -0.065247382161275527 0 -0.24633196155016651 -0.092845874649040872 0 -0.25486108899419019 -0.12099975944446199 0 -0.26929917699652528 -0.1008556319114474 0 -0.26929917699652528 -0.1008556319114474 0 -0.28756478359343252 -0.10418104198269 0 -0.28299435831094288 -0.091706363135657193 0 -0.26929917699652528 -0.1008556319114474 0 -0.27321492624102739 -0.1162814793594084 0 -0.28756478359343252 -0.10418104198269 0 -0.27321492624102739 -0.1162814793594084 0 -0.2887073393948465 -0.1209195385343899 0 -0.27166984226218072 -0.13547092093432969 0 -0.25486108899419019 -0.12099975944446199 0 -0.27321492624102739 -0.1162814793594084 0 -0.27166984226218072 -0.13547092093432969 0 -0.25486108899419019 -0.12099975944446199 0 -0.26929917699652528 -0.1008556319114474 0 -0.27321492624102739 -0.1162814793594084 0 -0.27321492624102739 -0.1162814793594084 0 -0.2887073393948465 -0.1209195385343899 0 -0.28756478359343252 -0.10418104198269 0 -0.2887073393948465 -0.1209195385343899 0 -0.28756478359343252 -0.10418104198269 0 -0.29771167523855008 -0.10996915358668451 0 -0.28756478359343252 -0.10418104198269 0 -0.2993250967517237 -0.1012465425160002 0 -0.29771167523855008 -0.10996915358668451 0 -0.28756478359343252 -0.10418104198269 0 -0.28299435831094288 -0.091706363135657193 0 -0.29787402838244981 -0.092020524442803342 0 -0.28756478359343252 -0.10418104198269 0 -0.2993250967517237 -0.1012465425160002 0 -0.29787402838244981 -0.092020524442803342 0 -0.2993250967517237 -0.1012465425160002 0 -0.30607350591107352 -0.093888301017219011 0 -0.30740149063311489 -0.1061736915506014 0 -0.2993250967517237 -0.1012465425160002 0 -0.30607350591107352 -0.093888301017219011 0 -0.29787402838244981 -0.092020524442803342 0 -0.30607350591107352 -0.093888301017219011 0 -0.30740149063311489 -0.1061736915506014 0 -0.32098247445222661 -0.10696400982342311 0 -0.2993250967517237 -0.1012465425160002 0 -0.30740149063311489 -0.1061736915506014 0 -0.29771167523855008 -0.10996915358668451 0 -0.30740149063311489 -0.1061736915506014 0 -0.29771167523855008 -0.10996915358668451 0 -0.30768842782870498 -0.12219288172221671 0 -0.2887073393948465 -0.1209195385343899 0 -0.29771167523855008 -0.10996915358668451 0 -0.30768842782870498 -0.12219288172221671 0 -0.30740149063311489 -0.1061736915506014 0 -0.30768842782870498 -0.12219288172221671 0 -0.32098247445222661 -0.10696400982342311 0 -0.29716587965107888 -0.060543441596536067 0 -0.27341703087466213 -0.065247382161275527 0 -0.27341703087466213 -0.065247382161275527 0 -0.28974526839286679 -0.079567841589248289 0 -0.29716587965107888 -0.060543441596536067 0 -0.27341703087466213 -0.065247382161275527 0 -0.28974526839286679 -0.079567841589248289 0 -0.28299435831094288 -0.091706363135657193 0 -0.28974526839286679 -0.079567841589248289 0 -0.29787402838244981 -0.092020524442803342 0 -0.30607350591107352 -0.093888301017219011 0 -0.28974526839286679 -0.079567841589248289 0 -0.29787402838244981 -0.092020524442803342 0 -0.30607350591107352 -0.093888301017219011 0 -0.28974526839286679 -0.079567841589248289 0 -0.30671278274277303 -0.07415609460817893 0 -0.30607350591107352 -0.093888301017219011 0 -0.28974526839286679 -0.079567841589248289 0 -0.30607350591107352 -0.093888301017219011 0 -0.30671278274277303 -0.07415609460817893 0 -0.32219395598949591 -0.079786765801874354 0 -0.30607350591107352 -0.093888301017219011 0 -0.29787402838244981 -0.092020524442803342 0 -0.29716587965107888 -0.060543441596536067 0 -0.30671278274277303 -0.07415609460817893 0 -0.32091472842749569 -0.055839501031796017 0 -0.29716587965107888 -0.060543441596536067 0 -0.28974526839286679 -0.079567841589248289 0 -0.30671278274277303 -0.07415609460817893 0 -0.30671278274277303 -0.07415609460817893 0 -0.32219395598949591 -0.079786765801874354 0 -0.32091472842749569 -0.055839501031796017 0 -0.32219395598949591 -0.079786765801874354 0 -0.33606817353421881 -0.06874759710721616 0 -0.32091472842749569 -0.055839501031796017 0 -0.30607350591107352 -0.093888301017219011 0 -0.32219395598949591 -0.079786765801874354 0 -0.32803070219413027 -0.098889977857487529 0 -0.32219395598949591 -0.079786765801874354 0 -0.33882645628649671 -0.086523001813289341 0 -0.33606817353421881 -0.06874759710721616 0 -0.32219395598949591 -0.079786765801874354 0 -0.33882645628649671 -0.086523001813289341 0 -0.32803070219413027 -0.098889977857487529 0 -0.33882645628649671 -0.086523001813289341 0 -0.32803070219413027 -0.098889977857487529 0 -0.33882645628649671 -0.086523001813289341 0 -0.33606817353421881 -0.06874759710721616 0 -0.35374214976369289 -0.070453156422065052 0 -0.30768842782870498 -0.12219288172221671 0 -0.3238099705802196 -0.1228492293216347 0 -0.32098247445222661 -0.10696400982342311 0 -0.30768842782870498 -0.12219288172221671 0 -0.32098247445222661 -0.10696400982342311 0 -0.30607350591107352 -0.093888301017219011 0 -0.32803070219413027 -0.098889977857487529 0 -0.30607350591107352 -0.093888301017219011 0 -0.32098247445222661 -0.10696400982342311 0 -0.32803070219413027 -0.098889977857487529 0 -0.32098247445222661 -0.10696400982342311 0 -0.32803070219413027 -0.098889977857487529 0 -0.30607350591107352 -0.093888301017219011 0 -0.32098247445222661 -0.10696400982342311 0 -0.33882645628649671 -0.086523001813289341 0 -0.32803070219413027 -0.098889977857487529 0 -0.35353323879944332 -0.1046992553746502 0 -0.32803070219413027 -0.098889977857487529 0 -0.35353323879944332 -0.1046992553746502 0 -0.32803070219413027 -0.098889977857487529 0 -0.33992830259558032 -0.1235801916344603 0 -0.35353323879944332 -0.1046992553746502 0 -0.32098247445222661 -0.10696400982342311 0 -0.33992830259558032 -0.1235801916344603 0 -0.3238099705802196 -0.1228492293216347 0 -0.32098247445222661 -0.10696400982342311 0 -0.33992830259558032 -0.1235801916344603 0 -0.32098247445222661 -0.10696400982342311 0 -0.32803070219413027 -0.098889977857487529 0 -0.33992830259558032 -0.1235801916344603 0 -0.33992830259558032 -0.1235801916344603 0 -0.35353323879944332 -0.1046992553746502 0 -0.36537790335604847 -0.12386360089438039 0 -0.35353323879944332 -0.1046992553746502 0 -0.37903577540475702 -0.1105085328918107 0 -0.35353323879944332 -0.1046992553746502 0 -0.36417685103600822 -0.08942548607038682 0 -0.37903577540475702 -0.1105085328918107 0 -0.35353323879944332 -0.1046992553746502 0 -0.36537790335604847 -0.12386360089438039 0 -0.37903577540475702 -0.1105085328918107 0 -0.33606817353421881 -0.06874759710721616 0 -0.35374214976369289 -0.070453156422065052 0 -0.34466357720391239 -0.051135560467055988 0 -0.33882645628649671 -0.086523001813289341 0 -0.35374214976369289 -0.070453156422065052 0 -0.36417685103600822 -0.08942548607038682 0 -0.33882645628649671 -0.086523001813289341 0 -0.35353323879944332 -0.1046992553746502 0 -0.36417685103600822 -0.08942548607038682 0 -0.36417685103600822 -0.08942548607038682 0 -0.37292365156696161 -0.073972163885322448 0 -0.38699983439469787 -0.090396806035183172 0 -0.35374214976369289 -0.070453156422065052 0 -0.37292365156696161 -0.073972163885322448 0 -0.3709610569287099 -0.05534374506564109 0 -0.35374214976369289 -0.070453156422065052 0 -0.36417685103600822 -0.08942548607038682 0 -0.37292365156696161 -0.073972163885322448 0 -0.34466357720391239 -0.051135560467055988 0 -0.36950599403787288 -0.033040856872608187 0 -0.34503111453461582 -0.017420065568540751 0 -0.35374214976369289 -0.070453156422065052 0 -0.3709610569287099 -0.05534374506564109 0 -0.34466357720391239 -0.051135560467055988 0 -0.3709610569287099 -0.05534374506564109 0 -0.34466357720391239 -0.051135560467055988 0 -0.36950599403787288 -0.033040856872608187 0 -0.36950599403787288 -0.033040856872608187 0 -0.37165504079712819 -0.01311134974768053 0 -0.34503111453461582 -0.017420065568540751 0 -0.37165504079712819 -0.01311134974768053 0 -0.34503111453461582 -0.017420065568540751 0 -0.34503111453461582 -0.017420065568540751 0 -0.33587161933075749 0.001795895336300262 0 -0.35899168621924421 0.00086553536704151541 0 -0.37165504079712819 -0.01311134974768053 0 -0.34503111453461582 -0.017420065568540751 0 -0.35899168621924421 0.00086553536704151541 0 -0.34503111453461582 -0.017420065568540751 0 -0.31840718827210329 -0.021728781389400969 0 -0.34503111453461582 -0.017420065568540751 0 -0.31840718827210329 -0.021728781389400969 0 -0.32787133632509052 -0.037638582065484677 0 -0.34503111453461582 -0.017420065568540751 0 -0.31840718827210329 -0.021728781389400969 0 -0.33587161933075749 0.001795895336300262 0 -0.31840718827210329 -0.021728781389400969 0 -0.30767681351208442 0.0074333571717676034 0 -0.33587161933075749 0.001795895336300262 0 -0.30662227587362728 -0.041258304735719058 0 -0.31840718827210329 -0.021728781389400969 0 -0.32787133632509052 -0.037638582065484677 0 -0.30662227587362728 -0.041258304735719058 0 -0.32787133632509052 -0.037638582065484677 0 -0.32091472842749569 -0.055839501031796017 0 -0.34466357720391239 -0.051135560467055988 0 -0.34503111453461582 -0.017420065568540751 0 -0.32787133632509052 -0.037638582065484677 0 -0.33606817353421881 -0.06874759710721616 0 -0.34466357720391239 -0.051135560467055988 0 -0.32091472842749569 -0.055839501031796017 0 -0.34466357720391239 -0.051135560467055988 0 -0.32091472842749569 -0.055839501031796017 0 -0.34466357720391239 -0.051135560467055988 0 -0.32787133632509052 -0.037638582065484677 0 -0.32091472842749569 -0.055839501031796017 0 -0.32430591068617282 -0.25321961163608447 0 -0.29883696260546339 -0.2451232075693866 0 -0.29883696260546339 -0.2451232075693866 0 -0.29726720115739641 -0.22005006094754101 0 -0.32519780166612922 -0.23004945422981371 0 -0.29726720115739641 -0.22005006094754101 0 -0.27336801452475479 -0.23702680350268659 0 -0.29883696260546339 -0.2451232075693866 0 -0.29726720115739641 -0.22005006094754101 0 -0.27336801452475479 -0.23702680350268659 0 -0.27810165793155861 -0.25747132149105112 0 -0.29883696260546339 -0.2451232075693866 0 -0.27336801452475479 -0.23702680350268659 0 -0.29883696260546339 -0.2451232075693866 0 -0.27336801452475479 -0.23702680350268659 0 -0.26725718232416801 -0.25389859205194781 0 -0.27336801452475479 -0.23702680350268659 0 -0.2589589496512007 -0.24726225580399791 0 -0.26725718232416801 -0.25389859205194781 0 -0.27810165793155861 -0.25747132149105112 0 -0.27336801452475479 -0.23702680350268659 0 -0.27336801452475479 -0.23702680350268659 0 -0.2589589496512007 -0.24726225580399791 0 -0.2411477483349829 -0.24160624167899691 0 -0.2589589496512007 -0.24726225580399791 0 -0.25573605463006283 -0.23142172427668981 0 -0.27336801452475479 -0.23702680350268659 0 -0.2589589496512007 -0.24726225580399791 0 -0.25573605463006283 -0.23142172427668981 0 -0.27336801452475479 -0.23702680350268659 0 -0.25573605463006283 -0.23142172427668981 0 -0.25573605463006283 -0.23142172427668981 0 -0.26986488877673831 -0.22286948300605289 0 -0.2563036130072725 -0.21092518831798779 0 -0.2381040947353705 -0.22581664505069379 0 -0.25573605463006283 -0.23142172427668981 0 -0.2563036130072725 -0.21092518831798779 0 -0.29726720115739641 -0.22005006094754101 0 -0.27336801452475479 -0.23702680350268659 0 -0.26986488877673831 -0.22286948300605289 0 -0.27336801452475479 -0.23702680350268659 0 -0.25573605463006283 -0.23142172427668981 0 -0.26986488877673831 -0.22286948300605289 0 -0.26986488877673831 -0.22286948300605289 0 -0.27620469639138789 -0.21058397404029941 0 -0.2563036130072725 -0.21092518831798779 0 -0.29726720115739641 -0.22005006094754101 0 -0.26986488877673831 -0.22286948300605289 0 -0.27620469639138789 -0.21058397404029941 0 -0.27620469639138789 -0.21058397404029941 0 -0.2563036130072725 -0.21092518831798779 0 -0.27330572764080913 -0.19297119590194381 0 -0.24903603404399791 -0.1906553931807439 0 -0.2563036130072725 -0.21092518831798779 0 -0.27330572764080913 -0.19297119590194381 0 -0.27620469639138789 -0.21058397404029941 0 -0.27330572764080913 -0.19297119590194381 0 -0.29466728440124312 -0.19982289239664219 0 -0.27330572764080913 -0.19297119590194381 0 -0.29466728440124312 -0.19982289239664219 0 -0.29002716147511087 -0.18590611311965921 0 -0.29726720115739641 -0.22005006094754101 0 -0.27620469639138789 -0.21058397404029941 0 -0.29466728440124312 -0.19982289239664219 0 -0.29726720115739641 -0.22005006094754101 0 -0.32116638779004009 -0.20307331839239851 0 -0.29726720115739641 -0.22005006094754101 0 -0.29466728440124312 -0.19982289239664219 0 -0.32116638779004009 -0.20307331839239851 0 -0.29466728440124312 -0.19982289239664219 0 -0.31003253195271407 -0.18635269197801169 0 -0.29002716147511087 -0.18590611311965921 0 -0.29466728440124312 -0.19982289239664219 0 -0.31003253195271407 -0.18635269197801169 0 -0.32116638779004009 -0.20307331839239851 0 -0.31003253195271407 -0.18635269197801169 0 -0.29521968983309649 -0.17118225177376289 0 -0.29002716147511087 -0.18590611311965921 0 -0.31003253195271407 -0.18635269197801169 0 -0.29521968983309649 -0.17118225177376289 0 -0.31977327242176312 -0.16735374708015421 0 -0.29521968983309649 -0.17118225177376289 0 -0.30209216641229258 -0.1544849138528917 0 -0.31977327242176312 -0.16735374708015421 0 -0.29521968983309649 -0.17118225177376289 0 -0.28110033458166178 -0.1526506255198038 0 -0.30209216641229258 -0.1544849138528917 0 -0.29521968983309649 -0.17118225177376289 0 -0.27510907434207232 -0.1706445653276058 0 -0.28110033458166178 -0.1526506255198038 0 -0.29521968983309649 -0.17118225177376289 0 -0.29002716147511087 -0.18590611311965921 0 -0.27510907434207232 -0.1706445653276058 0 -0.27330572764080913 -0.19297119590194381 0 -0.29002716147511087 -0.18590611311965921 0 -0.27510907434207232 -0.1706445653276058 0 -0.27330572764080913 -0.19297119590194381 0 -0.26112685513228318 -0.1788474552040632 0 -0.27510907434207232 -0.1706445653276058 0 -0.24903603404399791 -0.1906553931807439 0 -0.2472159042494245 -0.17300239474267201 0 -0.26112685513228318 -0.1788474552040632 0 -0.24903603404399791 -0.1906553931807439 0 -0.27330572764080913 -0.19297119590194381 0 -0.26112685513228318 -0.1788474552040632 0 -0.26112685513228318 -0.1788474552040632 0 -0.25757496885849102 -0.1629027281717142 0 -0.27510907434207232 -0.1706445653276058 0 -0.2472159042494245 -0.17300239474267201 0 -0.26112685513228318 -0.1788474552040632 0 -0.25757496885849102 -0.1629027281717142 0 -0.25757496885849102 -0.1629027281717142 0 -0.27510907434207232 -0.1706445653276058 0 -0.26606625720792049 -0.1501554918897767 0 -0.27510907434207232 -0.1706445653276058 0 -0.26606625720792049 -0.1501554918897767 0 -0.28110033458166178 -0.1526506255198038 0 -0.26606625720792049 -0.1501554918897767 0 -0.28110033458166178 -0.1526506255198038 0 -0.27166984226218072 -0.13547092093432969 0 -0.24079364746494719 -0.1570518795833743 0 -0.25757496885849102 -0.1629027281717142 0 -0.25304542354951343 -0.14448752822611621 0 -0.26606625720792049 -0.1501554918897767 0 -0.25304542354951343 -0.14448752822611621 0 -0.27166984226218072 -0.13547092093432969 0 -0.25757496885849102 -0.1629027281717142 0 -0.26606625720792049 -0.1501554918897767 0 -0.25304542354951343 -0.14448752822611621 0 -0.25486108899419019 -0.12099975944446199 0 -0.25304542354951343 -0.14448752822611621 0 -0.27166984226218072 -0.13547092093432969 0 -0.2887073393948465 -0.1209195385343899 0 -0.27166984226218072 -0.13547092093432969 0 -0.29439438120518352 -0.1374217536210102 0 -0.28110033458166178 -0.1526506255198038 0 -0.29439438120518352 -0.1374217536210102 0 -0.30209216641229258 -0.1544849138528917 0 -0.28110033458166178 -0.1526506255198038 0 -0.29439438120518352 -0.1374217536210102 0 -0.28110033458166178 -0.1526506255198038 0 -0.27166984226218072 -0.13547092093432969 0 -0.29439438120518352 -0.1374217536210102 0 -0.29439438120518352 -0.1374217536210102 0 -0.30209216641229258 -0.1544849138528917 0 -0.31997315401975812 -0.1438161912697275 0 -0.30768842782870498 -0.12219288172221671 0 -0.29439438120518352 -0.1374217536210102 0 -0.31997315401975812 -0.1438161912697275 0 -0.2887073393948465 -0.1209195385343899 0 -0.30768842782870498 -0.12219288172221671 0 -0.29439438120518352 -0.1374217536210102 0 -0.30768842782870498 -0.12219288172221671 0 -0.29439438120518352 -0.1374217536210102 0 -0.30768842782870498 -0.12219288172221671 0 -0.3238099705802196 -0.1228492293216347 0 -0.31997315401975812 -0.1438161912697275 0 -0.3238099705802196 -0.1228492293216347 0 -0.31997315401975812 -0.1438161912697275 0 -0.34002522902931442 -0.14074427561982331 0 -0.30209216641229258 -0.1544849138528917 0 -0.31997315401975812 -0.1438161912697275 0 -0.31977327242176312 -0.16735374708015421 0 -0.31997315401975812 -0.1438161912697275 0 -0.34002522902931442 -0.14074427561982331 0 -0.34532156445787821 -0.1611464124157545 0 -0.3238099705802196 -0.1228492293216347 0 -0.33992830259558032 -0.1235801916344603 0 -0.34002522902931442 -0.14074427561982331 0 -0.33992830259558032 -0.1235801916344603 0 -0.36537790335604847 -0.12386360089438039 0 -0.35887413073893482 -0.14019637344549671 0 -0.33992830259558032 -0.1235801916344603 0 -0.35887413073893482 -0.14019637344549671 0 -0.33992830259558032 -0.1235801916344603 0 -0.34002522902931442 -0.14074427561982331 0 -0.35887413073893482 -0.14019637344549671 0 -0.36537790335604847 -0.12386360089438039 0 -0.35887413073893482 -0.14019637344549671 0 -0.37873696785195698 -0.1386550822919306 0 -0.35887413073893482 -0.14019637344549671 0 -0.3778199588822892 -0.15681255525653309 0 -0.35887413073893482 -0.14019637344549671 0 -0.3778199588822892 -0.15681255525653309 0 -0.37873696785195698 -0.1386550822919306 0 -0.35887413073893482 -0.14019637344549671 0 -0.36260376012634521 -0.15575522843990039 0 -0.3778199588822892 -0.15681255525653309 0 -0.34002522902931442 -0.14074427561982331 0 -0.35887413073893482 -0.14019637344549671 0 -0.34532156445787821 -0.1611464124157545 0 -0.35887413073893482 -0.14019637344549671 0 -0.36260376012634521 -0.15575522843990039 0 -0.34532156445787821 -0.1611464124157545 0 -0.36260376012634521 -0.15575522843990039 0 -0.34532156445787821 -0.1611464124157545 0 -0.36896476105532777 -0.16911983328211361 0 -0.36260376012634521 -0.15575522843990039 0 -0.36896476105532777 -0.16911983328211361 0 -0.3778199588822892 -0.15681255525653309 0 -0.36896476105532777 -0.16911983328211361 0 -0.36593258741712642 -0.18302175734974979 0 -0.34506557442268398 -0.186096575837256 0 -0.36593258741712642 -0.18302175734974979 0 -0.37555005897381838 -0.18807042558473769 0 -0.38067374274451887 -0.1779428610084684 0 -0.36896476105532777 -0.16911983328211361 0 -0.36593258741712642 -0.18302175734974979 0 -0.38067374274451887 -0.1779428610084684 0 -0.34532156445787821 -0.1611464124157545 0 -0.36896476105532777 -0.16911983328211361 0 -0.34506557442268398 -0.186096575837256 0 -0.36896476105532777 -0.16911983328211361 0 -0.34506557442268398 -0.186096575837256 0 -0.31003253195271407 -0.18635269197801169 0 -0.34506557442268398 -0.186096575837256 0 -0.31977327242176312 -0.16735374708015421 0 -0.34532156445787821 -0.1611464124157545 0 -0.34506557442268398 -0.186096575837256 0 -0.31977327242176312 -0.16735374708015421 0 -0.31997315401975812 -0.1438161912697275 0 -0.34532156445787821 -0.1611464124157545 0 -0.31977327242176312 -0.16735374708015421 0 -0.31003253195271407 -0.18635269197801169 0 -0.34506557442268398 -0.186096575837256 0 -0.32116638779004009 -0.20307331839239851 0 -0.29726720115739641 -0.22005006094754101 0 -0.32116638779004009 -0.20307331839239851 0 -0.32519780166612922 -0.23004945422981371 0 -0.32116638779004009 -0.20307331839239851 0 -0.34851368292871032 -0.21027746599299671 0 -0.32519780166612922 -0.23004945422981371 0 -0.34506557442268398 -0.186096575837256 0 -0.32116638779004009 -0.20307331839239851 0 -0.34506557442268398 -0.186096575837256 0 -0.32116638779004009 -0.20307331839239851 0 -0.34851368292871032 -0.21027746599299671 0 -0.36593258741712642 -0.18302175734974979 0 -0.34506557442268398 -0.186096575837256 0 -0.36203034746216722 -0.19515932767125321 0 -0.34506557442268398 -0.186096575837256 0 -0.36203034746216722 -0.19515932767125321 0 -0.34851368292871032 -0.21027746599299671 0 -0.36203034746216722 -0.19515932767125321 0 -0.37179715794766588 -0.21260307556950361 0 -0.38042313710281239 -0.1982608287113353 0 -0.36203034746216722 -0.19515932767125321 0 -0.37555005897381838 -0.18807042558473769 0 -0.38042313710281239 -0.1982608287113353 0 -0.36593258741712642 -0.18302175734974979 0 -0.36203034746216722 -0.19515932767125321 0 -0.37555005897381838 -0.18807042558473769 0 -0.37179715794766588 -0.21260307556950361 0 -0.34851368292871032 -0.21027746599299671 0 -0.36194839204802598 -0.22934084371866439 0 -0.36203034746216722 -0.19515932767125321 0 -0.37179715794766588 -0.21260307556950361 0 -0.34851368292871032 -0.21027746599299671 0 -0.34851368292871032 -0.21027746599299671 0 -0.34553826338372701 -0.231191003860547 0 -0.36194839204802598 -0.22934084371866439 0 -0.37179715794766588 -0.21260307556950361 0 -0.36194839204802598 -0.22934084371866439 0 -0.37780692922792158 -0.23807922274995119 0 -0.36194839204802598 -0.22934084371866439 0 -0.35471287504477877 -0.24494242047594239 0 -0.37780692922792158 -0.23807922274995119 0 -0.36015300461917221 -0.26088545089158299 0 -0.35471287504477877 -0.24494242047594239 0 -0.37780692922792158 -0.23807922274995119 0 -0.36015300461917221 -0.26088545089158299 0 -0.37780692922792158 -0.23807922274995119 0 -0.34553826338372701 -0.231191003860547 0 -0.36194839204802598 -0.22934084371866439 0 -0.35471287504477877 -0.24494242047594239 0 -0.34553826338372701 -0.231191003860547 0 -0.35471287504477877 -0.24494242047594239 0 -0.33990594190953799 -0.24414370118103401 0 -0.34553826338372701 -0.231191003860547 0 -0.33990594190953799 -0.24414370118103401 0 -0.32519780166612922 -0.23004945422981371 0 -0.32430591068617282 -0.25321961163608447 0 -0.33990594190953799 -0.24414370118103401 0 -0.32519780166612922 -0.23004945422981371 0 -0.34851368292871032 -0.21027746599299671 0 -0.34553826338372701 -0.231191003860547 0 -0.32519780166612922 -0.23004945422981371 0 -0.32430591068617282 -0.25321961163608447 0 -0.29883696260546339 -0.2451232075693866 0 -0.32519780166612922 -0.23004945422981371 0 -0.43236564191033428 -0.24645372493203599 0 -0.43393409033962238 -0.22800363522299691 0 -0.40764792715735171 -0.2429427266549983 0 -0.43393409033962238 -0.22800363522299691 0 -0.40711406042337239 -0.22665911610037709 0 -0.4172554354124508 -0.21390790048322439 0 -0.43393409033962238 -0.22800363522299691 0 -0.40711406042337239 -0.22665911610037709 0 -0.40764792715735171 -0.2429427266549983 0 -0.39194677310835552 -0.25566444093544283 0 -0.40764792715735171 -0.2429427266549983 0 -0.37780692922792158 -0.23807922274995119 0 -0.40711406042337239 -0.22665911610037709 0 -0.40764792715735171 -0.2429427266549983 0 -0.37780692922792158 -0.23807922274995119 0 -0.37780692922792158 -0.23807922274995119 0 -0.39546085383667101 -0.21527299460831931 0 -0.37179715794766588 -0.21260307556950361 0 -0.37780692922792158 -0.23807922274995119 0 -0.39546085383667101 -0.21527299460831931 0 -0.40711406042337239 -0.22665911610037709 0 -0.37780692922792158 -0.23807922274995119 0 -0.39546085383667101 -0.21527299460831931 0 -0.39546085383667101 -0.21527299460831931 0 -0.39245596819654338 -0.20253492101809589 0 -0.41311477844542083 -0.19246676646668781 0 -0.39546085383667101 -0.21527299460831931 0 -0.41311477844542083 -0.19246676646668781 0 -0.37179715794766588 -0.21260307556950361 0 -0.39245596819654338 -0.20253492101809589 0 -0.37179715794766588 -0.21260307556950361 0 -0.38042313710281239 -0.1982608287113353 0 -0.39245596819654338 -0.20253492101809589 0 -0.37179715794766588 -0.21260307556950361 0 -0.39546085383667101 -0.21527299460831931 0 -0.39245596819654338 -0.20253492101809589 0 -0.37555005897381838 -0.18807042558473769 0 -0.38042313710281239 -0.1982608287113353 0 -0.39176124494789599 -0.18796226483790041 0 -0.38042313710281239 -0.1982608287113353 0 -0.39176124494789599 -0.18796226483790041 0 -0.39245596819654338 -0.20253492101809589 0 -0.39176124494789599 -0.18796226483790041 0 -0.39245596819654338 -0.20253492101809589 0 -0.41311477844542083 -0.19246676646668781 0 -0.39245596819654338 -0.20253492101809589 0 -0.41311477844542083 -0.19246676646668781 0 -0.41311477844542083 -0.19246676646668781 0 -0.4172554354124508 -0.21390790048322439 0 -0.42720161295005138 -0.20008731353445641 0 -0.39546085383667101 -0.21527299460831931 0 -0.41311477844542083 -0.19246676646668781 0 -0.4172554354124508 -0.21390790048322439 0 -0.40711406042337239 -0.22665911610037709 0 -0.39546085383667101 -0.21527299460831931 0 -0.4172554354124508 -0.21390790048322439 0 -0.43393409033962238 -0.22800363522299691 0 -0.4172554354124508 -0.21390790048322439 0 -0.43255441623373903 -0.21204089354513461 0 -0.4172554354124508 -0.21390790048322439 0 -0.43255441623373903 -0.21204089354513461 0 -0.42720161295005138 -0.20008731353445641 0 -0.43255441623373903 -0.21204089354513461 0 -0.42720161295005138 -0.20008731353445641 0 -0.43752597980690738 -0.20049176963326429 0 -0.42720161295005138 -0.20008731353445641 0 -0.43555745485173891 -0.18152923754397021 0 -0.43752597980690738 -0.20049176963326429 0 -0.41311477844542083 -0.19246676646668781 0 -0.42720161295005138 -0.20008731353445641 0 -0.43555745485173891 -0.18152923754397021 0 -0.41311477844542083 -0.19246676646668781 0 -0.42873256851039238 -0.1722909193854478 0 -0.43555745485173891 -0.18152923754397021 0 -0.41311477844542083 -0.19246676646668781 0 -0.43555745485173891 -0.18152923754397021 0 -0.42873256851039238 -0.1722909193854478 0 -0.43555745485173891 -0.18152923754397021 0 -0.44320929929011371 -0.16873624161648759 0 -0.42873256851039238 -0.1722909193854478 0 -0.42224906627601888 -0.15095784075825311 0 -0.4443503585753647 -0.1521150723042082 0 -0.42873256851039238 -0.1722909193854478 0 -0.4443503585753647 -0.1521150723042082 0 -0.42873256851039238 -0.1722909193854478 0 -0.40935045607677661 -0.16479448686071871 0 -0.42224906627601888 -0.15095784075825311 0 -0.42873256851039238 -0.1722909193854478 0 -0.40935045607677661 -0.16479448686071871 0 -0.40714845677852862 -0.17897088829988569 0 -0.41311477844542083 -0.19246676646668781 0 -0.42873256851039238 -0.1722909193854478 0 -0.40714845677852862 -0.17897088829988569 0 -0.41311477844542083 -0.19246676646668781 0 -0.42873256851039238 -0.1722909193854478 0 -0.39176124494789599 -0.18796226483790041 0 -0.41311477844542083 -0.19246676646668781 0 -0.40714845677852862 -0.17897088829988569 0 -0.40935045607677661 -0.16479448686071871 0 -0.40714845677852862 -0.17897088829988569 0 -0.39278323591215653 -0.1773400039486735 0 -0.39176124494789599 -0.18796226483790041 0 -0.40714845677852862 -0.17897088829988569 0 -0.39278323591215653 -0.1773400039486735 0 -0.39176124494789599 -0.18796226483790041 0 -0.39278323591215653 -0.1773400039486735 0 -0.38067374274451887 -0.1779428610084684 0 -0.37555005897381838 -0.18807042558473769 0 -0.39176124494789599 -0.18796226483790041 0 -0.38067374274451887 -0.1779428610084684 0 -0.39278323591215653 -0.1773400039486735 0 -0.38067374274451887 -0.1779428610084684 0 -0.38817999892682881 -0.16725452194689791 0 -0.36896476105532777 -0.16911983328211361 0 -0.3778199588822892 -0.15681255525653309 0 -0.39286394768797139 -0.15214309072697119 0 -0.36896476105532777 -0.16911983328211361 0 -0.39286394768797139 -0.15214309072697119 0 -0.36896476105532777 -0.16911983328211361 0 -0.38067374274451887 -0.1779428610084684 0 -0.38817999892682881 -0.16725452194689791 0 -0.36896476105532777 -0.16911983328211361 0 -0.38817999892682881 -0.16725452194689791 0 -0.39286394768797139 -0.15214309072697119 0 -0.40935045607677661 -0.16479448686071871 0 -0.39278323591215653 -0.1773400039486735 0 -0.38817999892682881 -0.16725452194689791 0 -0.40935045607677661 -0.16479448686071871 0 -0.38817999892682881 -0.16725452194689791 0 -0.39286394768797139 -0.15214309072697119 0 -0.39286394768797139 -0.15214309072697119 0 -0.40595835273280828 -0.15146854693124739 0 -0.39756382172565929 -0.13583226923904521 0 -0.40935045607677661 -0.16479448686071871 0 -0.39286394768797139 -0.15214309072697119 0 -0.40595835273280828 -0.15146854693124739 0 -0.40595835273280828 -0.15146854693124739 0 -0.39756382172565929 -0.13583226923904521 0 -0.4122254059239468 -0.14188509527303589 0 -0.3778199588822892 -0.15681255525653309 0 -0.39286394768797139 -0.15214309072697119 0 -0.37873696785195698 -0.1386550822919306 0 -0.39286394768797139 -0.15214309072697119 0 -0.37873696785195698 -0.1386550822919306 0 -0.39756382172565929 -0.13583226923904521 0 -0.38505055606969851 -0.1250354591452276 0 -0.37873696785195698 -0.1386550822919306 0 -0.39756382172565929 -0.13583226923904521 0 -0.36537790335604847 -0.12386360089438039 0 -0.38505055606969851 -0.1250354591452276 0 -0.37873696785195698 -0.1386550822919306 0 -0.38505055606969851 -0.1250354591452276 0 -0.39756382172565929 -0.13583226923904521 0 -0.40453831201007068 -0.1163178104089712 0 -0.39756382172565929 -0.13583226923904521 0 -0.41080558721789978 -0.12915370794194569 0 -0.40453831201007068 -0.1163178104089712 0 -0.41080558721789978 -0.12915370794194569 0 -0.42139064099799622 -0.13566441627099399 0 -0.42299669359258091 -0.12321027578527741 0 -0.41080558721789978 -0.12915370794194569 0 -0.42139064099799622 -0.13566441627099399 0 -0.4122254059239468 -0.14188509527303589 0 -0.39756382172565929 -0.13583226923904521 0 -0.41080558721789978 -0.12915370794194569 0 -0.4122254059239468 -0.14188509527303589 0 -0.40935045607677661 -0.16479448686071871 0 -0.40595835273280828 -0.15146854693124739 0 -0.42224906627601888 -0.15095784075825311 0 -0.40595835273280828 -0.15146854693124739 0 -0.4122254059239468 -0.14188509527303589 0 -0.42224906627601888 -0.15095784075825311 0 -0.42139064099799622 -0.13566441627099399 0 -0.4122254059239468 -0.14188509527303589 0 -0.42224906627601888 -0.15095784075825311 0 -0.42224906627601888 -0.15095784075825311 0 -0.4336735260839728 -0.13766267404474281 0 -0.4443503585753647 -0.1521150723042082 0 -0.42139064099799622 -0.13566441627099399 0 -0.42224906627601888 -0.15095784075825311 0 -0.4336735260839728 -0.13766267404474281 0 -0.4336735260839728 -0.13766267404474281 0 -0.44495261903863392 -0.137598772940799 0 -0.4300408486153845 -0.12212708792613181 0 -0.4336735260839728 -0.13766267404474281 0 -0.42299669359258091 -0.12321027578527741 0 -0.4336735260839728 -0.13766267404474281 0 -0.4300408486153845 -0.12212708792613181 0 -0.42299669359258091 -0.12321027578527741 0 -0.42139064099799622 -0.13566441627099399 0 -0.4336735260839728 -0.13766267404474281 0 -0.42299669359258091 -0.12321027578527741 0 -0.44495261903863392 -0.137598772940799 0 -0.45554338522069832 -0.12793636544329229 0 -0.4300408486153845 -0.12212708792613181 0 -0.45554338522069832 -0.12793636544329229 0 -0.4300408486153845 -0.12212708792613181 0 -0.44495261903863392 -0.137598772940799 0 -0.45549992572847908 -0.14088969888477049 0 -0.45554338522069832 -0.12793636544329229 0 -0.4336735260839728 -0.13766267404474281 0 -0.4443503585753647 -0.1521150723042082 0 -0.44612245326357869 -0.14982579121551701 0 -0.4336735260839728 -0.13766267404474281 0 -0.44495261903863392 -0.137598772940799 0 -0.44612245326357869 -0.14982579121551701 0 -0.4336735260839728 -0.13766267404474281 0 -0.4443503585753647 -0.1521150723042082 0 -0.4443503585753647 -0.1521150723042082 0 -0.44612245326357869 -0.14982579121551701 0 -0.4443503585753647 -0.1521150723042082 0 -0.44612245326357869 -0.14982579121551701 0 -0.45293586003260539 -0.15164820374360249 0 -0.44612245326357869 -0.14982579121551701 0 -0.45293586003260539 -0.15164820374360249 0 -0.44957538064363289 -0.14406089592904089 0 -0.44495261903863392 -0.137598772940799 0 -0.44957538064363289 -0.14406089592904089 0 -0.45549992572847908 -0.14088969888477049 0 -0.44495261903863392 -0.137598772940799 0 -0.44612245326357869 -0.14982579121551701 0 -0.44957538064363289 -0.14406089592904089 0 -0.45293586003260539 -0.15164820374360249 0 -0.44957538064363289 -0.14406089592904089 0 -0.45549992572847908 -0.14088969888477049 0 -0.45293586003260539 -0.15164820374360249 0 -0.45549992572847908 -0.14088969888477049 0 -0.46406691072652101 -0.15240605550682759 0 -0.45549992572847908 -0.14088969888477049 0 -0.46406691072652101 -0.15240605550682759 0 -0.46717116980166068 -0.14198865642698191 0 -0.45554338522069832 -0.12793636544329229 0 -0.48104592182601202 -0.13374564296045269 0 -0.46717116980166068 -0.14198865642698191 0 -0.45554338522069832 -0.12793636544329229 0 -0.48104592182601202 -0.13374564296045269 0 -0.45549992572847908 -0.14088969888477049 0 -0.46717116980166068 -0.14198865642698191 0 -0.45554338522069832 -0.12793636544329229 0 -0.45554338522069832 -0.12793636544329229 0 -0.48104592182601202 -0.13374564296045269 0 -0.47882977516266201 -0.1233247422603225 0 -0.48104592182601202 -0.13374564296045269 0 -0.4843612456543559 -0.1219984172751141 0 -0.47882977516266201 -0.1233247422603225 0 -0.48104592182601202 -0.13374564296045269 0 -0.4843612456543559 -0.1219984172751141 0 -0.48104592182601202 -0.13374564296045269 0 -0.49999999999999573 -0.13806323308486651 0 -0.48802127954457791 -0.1494243762145917 0 -0.48104592182601202 -0.13374564296045269 0 -0.49999999999999573 -0.13806323308486651 0 -0.4843612456543559 -0.1219984172751141 0 -0.48104592182601202 -0.13374564296045269 0 -0.49999999999999573 -0.13806323308486651 0 -0.49999999999999573 -0.13806323308486651 0 -0.48802127954457791 -0.1494243762145917 0 -0.5 -0.15690344214396221 0 -0.48802127954457791 -0.1494243762145917 0 -0.48198474540104541 -0.156214820069556 0 -0.48824201778472409 -0.163023706319394 0 -0.48802127954457791 -0.1494243762145917 0 -0.48198474540104541 -0.156214820069556 0 -0.47685499225569028 -0.1485954127093177 0 -0.48104592182601202 -0.13374564296045269 0 -0.48802127954457791 -0.1494243762145917 0 -0.47685499225569028 -0.1485954127093177 0 -0.48198474540104541 -0.156214820069556 0 -0.47685499225569028 -0.1485954127093177 0 -0.47559239561864491 -0.16201804758473409 0 -0.48104592182601202 -0.13374564296045269 0 -0.47685499225569028 -0.1485954127093177 0 -0.46406691072652101 -0.15240605550682759 0 -0.46717116980166068 -0.14198865642698191 0 -0.47685499225569028 -0.1485954127093177 0 -0.46717116980166068 -0.14198865642698191 0 -0.48104592182601202 -0.13374564296045269 0 -0.47685499225569028 -0.1485954127093177 0 -0.47685499225569028 -0.1485954127093177 0 -0.47266406268537248 -0.16344518245818379 0 -0.46406691072652101 -0.15240605550682759 0 -0.47685499225569028 -0.1485954127093177 0 -0.47266406268537248 -0.16344518245818379 0 -0.47685499225569028 -0.1485954127093177 0 -0.47266406268537248 -0.16344518245818379 0 -0.47559239561864491 -0.16201804758473409 0 -0.47266406268537248 -0.16344518245818379 0 -0.47927771162617439 -0.16439530288727769 0 -0.46788584882714618 -0.18037588349120071 0 -0.47266406268537248 -0.16344518245818379 0 -0.47559239561864491 -0.16201804758473409 0 -0.47927771162617439 -0.16439530288727769 0 -0.47266406268537248 -0.16344518245818379 0 -0.47559239561864491 -0.16201804758473409 0 -0.48281605536510602 -0.1687800988527326 0 -0.47927771162617439 -0.16439530288727769 0 -0.48824201778472409 -0.163023706319394 0 -0.48281605536510602 -0.1687800988527326 0 -0.47927771162617439 -0.16439530288727769 0 -0.47735254683038131 -0.17510120923130501 0 -0.48198474540104541 -0.156214820069556 0 -0.47559239561864491 -0.16201804758473409 0 -0.47927771162617439 -0.16439530288727769 0 -0.48198474540104541 -0.156214820069556 0 -0.47927771162617439 -0.16439530288727769 0 -0.48824201778472409 -0.163023706319394 0 -0.48824201778472409 -0.163023706319394 0 -0.5 -0.15690344214396221 0 -0.50000000000000389 -0.17574365120305779 0 -0.48802127954457791 -0.1494243762145917 0 -0.48824201778472409 -0.163023706319394 0 -0.5 -0.15690344214396221 0 -0.48281605536510602 -0.1687800988527326 0 -0.48824201778472409 -0.163023706319394 0 -0.48639194521914442 -0.17260017697295371 0 -0.48824201778472409 -0.163023706319394 0 -0.50000000000000389 -0.17574365120305779 0 -0.48639194521914442 -0.17260017697295371 0 -0.50000000000000389 -0.17574365120305779 0 -0.48522651426139929 -0.1815959394591356 0 -0.49999999999999828 -0.20328420558383731 0 -0.50000000000000389 -0.17574365120305779 0 -0.48522651426139929 -0.1815959394591356 0 -0.50000000000000389 -0.17574365120305779 0 -0.48639194521914442 -0.17260017697295371 0 -0.48522651426139929 -0.1815959394591356 0 -0.48522651426139929 -0.1815959394591356 0 -0.47735254683038131 -0.17510120923130501 0 -0.47045302852279491 -0.18744822771521419 0 -0.47266406268537248 -0.16344518245818379 0 -0.46788584882714618 -0.18037588349120071 0 -0.48522651426139929 -0.1815959394591356 0 -0.47045302852279491 -0.18744822771521419 0 -0.47927771162617439 -0.16439530288727769 0 -0.47735254683038131 -0.17510120923130501 0 -0.46788584882714618 -0.18037588349120071 0 -0.47927771162617439 -0.16439530288727769 0 -0.46788584882714618 -0.18037588349120071 0 -0.48639194521914442 -0.17260017697295371 0 -0.48522651426139929 -0.1815959394591356 0 -0.47735254683038131 -0.17510120923130501 0 -0.48281605536510602 -0.1687800988527326 0 -0.48639194521914442 -0.17260017697295371 0 -0.47735254683038131 -0.17510120923130501 0 -0.47735254683038131 -0.17510120923130501 0 -0.47045302852279491 -0.18744822771521419 0 -0.46788584882714618 -0.18037588349120071 0 -0.47045302852279491 -0.18744822771521419 0 -0.46715123556987193 -0.18297884723515159 0 -0.46715123556987193 -0.18297884723515159 0 -0.45985017058232419 -0.19164838616824931 0 -0.46715123556987193 -0.18297884723515159 0 -0.46531551596157228 -0.1894833739873549 0 -0.47045302852279491 -0.18744822771521419 0 -0.46715123556987193 -0.18297884723515159 0 -0.46531551596157228 -0.1894833739873549 0 -0.47045302852279491 -0.18744822771521419 0 -0.46788584882714618 -0.18037588349120071 0 -0.46715123556987193 -0.18297884723515159 0 -0.46788584882714618 -0.18037588349120071 0 -0.46715123556987193 -0.18297884723515159 0 -0.46715123556987193 -0.18297884723515159 0 -0.4535946190001649 -0.1825497680322293 0 -0.45985017058232419 -0.19164838616824931 0 -0.46715123556987193 -0.18297884723515159 0 -0.4535946190001649 -0.1825497680322293 0 -0.45800013125805622 -0.17059170862125089 0 -0.46715123556987193 -0.18297884723515159 0 -0.45800013125805622 -0.17059170862125089 0 -0.46788584882714618 -0.18037588349120071 0 -0.46715123556987193 -0.18297884723515159 0 -0.45800013125805622 -0.17059170862125089 0 -0.47266406268537248 -0.16344518245818379 0 -0.46788584882714618 -0.18037588349120071 0 -0.45800013125805622 -0.17059170862125089 0 -0.46406691072652101 -0.15240605550682759 0 -0.47266406268537248 -0.16344518245818379 0 -0.45800013125805622 -0.17059170862125089 0 -0.45293586003260539 -0.15164820374360249 0 -0.46406691072652101 -0.15240605550682759 0 -0.45800013125805622 -0.17059170862125089 0 -0.47266406268537248 -0.16344518245818379 0 -0.45800013125805622 -0.17059170862125089 0 -0.4443503585753647 -0.1521150723042082 0 -0.45293586003260539 -0.15164820374360249 0 -0.45800013125805622 -0.17059170862125089 0 -0.4443503585753647 -0.1521150723042082 0 -0.45800013125805622 -0.17059170862125089 0 -0.44320929929011371 -0.16873624161648759 0 -0.4443503585753647 -0.1521150723042082 0 -0.45800013125805622 -0.17059170862125089 0 -0.42873256851039238 -0.1722909193854478 0 -0.4443503585753647 -0.1521150723042082 0 -0.44320929929011371 -0.16873624161648759 0 -0.43555745485173891 -0.18152923754397021 0 -0.4535946190001649 -0.1825497680322293 0 -0.44678233502236919 -0.18880124178857799 0 -0.43555745485173891 -0.18152923754397021 0 -0.4535946190001649 -0.1825497680322293 0 -0.45800013125805622 -0.17059170862125089 0 -0.43555745485173891 -0.18152923754397021 0 -0.45800013125805622 -0.17059170862125089 0 -0.43555745485173891 -0.18152923754397021 0 -0.45800013125805622 -0.17059170862125089 0 -0.44320929929011371 -0.16873624161648759 0 -0.5 -0.27408063401246119 0 -0.49999999999999828 -0.20328420558383731 0 -0.48953722681377398 -0.2293897766599379 0 -0.43555745485173891 -0.18152923754397021 0 -0.44678233502236919 -0.18880124178857799 0 -0.43752597980690738 -0.20049176963326429 0 -0.44678233502236919 -0.18880124178857799 0 -0.43752597980690738 -0.20049176963326429 0 -0.45985017058232419 -0.19164838616824931 0 -0.43752597980690738 -0.20049176963326429 0 -0.45985017058232419 -0.19164838616824931 0 -0.43752597980690738 -0.20049176963326429 0 -0.44689213046097243 -0.20982601069562229 0 -0.45985017058232419 -0.19164838616824931 0 -0.43255441623373903 -0.21204089354513461 0 -0.43752597980690738 -0.20049176963326429 0 -0.44689213046097243 -0.20982601069562229 0 -0.43393409033962238 -0.22800363522299691 0 -0.43255441623373903 -0.21204089354513461 0 -0.44689213046097243 -0.20982601069562229 0 -0.45728873866980307 -0.2179247478182042 0 -0.46531551596157228 -0.1894833739873549 0 -0.44689213046097243 -0.20982601069562229 0 -0.45728873866980307 -0.2179247478182042 0 -0.45985017058232419 -0.19164838616824931 0 -0.45728873866980307 -0.2179247478182042 0 -0.46720727451353761 -0.20721279817847199 0 -0.46531551596157228 -0.1894833739873549 0 -0.45728873866980307 -0.2179247478182042 0 -0.46720727451353761 -0.20721279817847199 0 -0.47274206190495988 -0.21645169862203509 0 -0.44689213046097243 -0.20982601069562229 0 -0.45985017058232419 -0.19164838616824931 0 -0.45728873866980307 -0.2179247478182042 0 -0.45985017058232419 -0.19164838616824931 0 -0.46531551596157228 -0.1894833739873549 0 -0.46720727451353761 -0.20721279817847199 0 -0.46531551596157228 -0.1894833739873549 0 -0.47198270393925751 -0.2004055451021213 0 -0.4535946190001649 -0.1825497680322293 0 -0.44678233502236919 -0.18880124178857799 0 -0.45985017058232419 -0.19164838616824931 0 -0.46715123556987193 -0.18297884723515159 0 -0.45985017058232419 -0.19164838616824931 0 -0.46531551596157228 -0.1894833739873549 0 -0.45985017058232419 -0.19164838616824931 0 -0.46531551596157228 -0.1894833739873549 0 -0.47045302852279491 -0.18744822771521419 0 -0.46531551596157228 -0.1894833739873549 0 -0.48522651426139929 -0.1815959394591356 0 -0.47045302852279491 -0.18744822771521419 0 -0.48583266175667311 -0.2082664418025601 0 -0.47045302852279491 -0.18744822771521419 0 -0.46531551596157228 -0.1894833739873549 0 -0.47198270393925751 -0.2004055451021213 0 -0.47045302852279491 -0.18744822771521419 0 -0.47198270393925751 -0.2004055451021213 0 -0.48583266175667311 -0.2082664418025601 0 -0.47045302852279491 -0.18744822771521419 0 -0.48583266175667311 -0.2082664418025601 0 -0.48522651426139929 -0.1815959394591356 0 -0.49999999999999828 -0.20328420558383731 0 -0.48583266175667311 -0.2082664418025601 0 -0.49999999999999828 -0.20328420558383731 0 -0.48953722681377398 -0.2293897766599379 0 -0.49999999999999828 -0.20328420558383731 0 -0.48583266175667311 -0.2082664418025601 0 -0.48953722681377398 -0.2293897766599379 0 -0.48583266175667311 -0.2082664418025601 0 -0.47274206190495988 -0.21645169862203509 0 -0.48953722681377398 -0.2293897766599379 0 -0.48583266175667311 -0.2082664418025601 0 -0.47350272579132607 -0.20743514229136961 0 -0.47274206190495988 -0.21645169862203509 0 -0.47198270393925751 -0.2004055451021213 0 -0.48583266175667311 -0.2082664418025601 0 -0.47350272579132607 -0.20743514229136961 0 -0.46720727451353761 -0.20721279817847199 0 -0.47350272579132607 -0.20743514229136961 0 -0.47274206190495988 -0.21645169862203509 0 -0.46720727451353761 -0.20721279817847199 0 -0.47198270393925751 -0.2004055451021213 0 -0.47350272579132607 -0.20743514229136961 0 -0.48953722681377398 -0.2293897766599379 0 -0.46631009223088599 -0.24029623575425851 0 -0.46634271519697101 -0.22679596265772889 0 -0.47274206190495988 -0.21645169862203509 0 -0.48953722681377398 -0.2293897766599379 0 -0.46634271519697101 -0.22679596265772889 0 -0.47907445362755119 -0.25549534773603921 0 -0.48953722681377398 -0.2293897766599379 0 -0.47907445362755119 -0.25549534773603921 0 -0.48953722681377398 -0.2293897766599379 0 -0.46631009223088599 -0.24029623575425851 0 -0.44751522815918809 -0.25729726868341207 0 -0.46631009223088599 -0.24029623575425851 0 -0.44996962178643818 -0.2323001666503656 0 -0.46631009223088599 -0.24029623575425851 0 -0.46634271519697101 -0.22679596265772889 0 -0.44996962178643818 -0.2323001666503656 0 -0.45728873866980307 -0.2179247478182042 0 -0.46634271519697101 -0.22679596265772889 0 -0.44996962178643818 -0.2323001666503656 0 -0.45728873866980307 -0.2179247478182042 0 -0.47274206190495988 -0.21645169862203509 0 -0.46634271519697101 -0.22679596265772889 0 -0.43393409033962238 -0.22800363522299691 0 -0.44689213046097243 -0.20982601069562229 0 -0.44996962178643818 -0.2323001666503656 0 -0.43393409033962238 -0.22800363522299691 0 -0.44689213046097243 -0.20982601069562229 0 -0.44689213046097243 -0.20982601069562229 0 -0.45728873866980307 -0.2179247478182042 0 -0.44996962178643818 -0.2323001666503656 0 -0.44751522815918809 -0.25729726868341207 0 -0.43236564191033428 -0.24645372493203599 0 -0.44996962178643818 -0.2323001666503656 0 -0.43236564191033428 -0.24645372493203599 0 -0.43393409033962238 -0.22800363522299691 0 -0.44996962178643818 -0.2323001666503656 0 -0.40812536208672651 -0.046423740149372388 0 -0.42484809942147572 -0.037521298812863979 0 -0.40985202323820902 -0.02943766478405976 0 -0.41660518012472642 -0.062259454704445993 0 -0.42484809942147572 -0.037521298812863979 0 -0.40812536208672651 -0.046423740149372388 0 -0.41660518012472642 -0.062259454704445993 0 -0.42484809942147572 -0.037521298812863979 0 -0.41660518012472642 -0.062259454704445993 0 -0.42632493142515793 -0.043347987604394532 0 -0.42484809942147572 -0.037521298812863979 0 -0.41660518012472642 -0.062259454704445993 0 -0.42632493142515793 -0.043347987604394532 0 -0.43945114235953392 -0.063342176268376488 0 -0.42632493142515793 -0.043347987604394532 0 -0.43945114235953392 -0.063342176268376488 0 -0.42632493142515793 -0.043347987604394532 0 -0.43945114235953392 -0.063342176268376488 0 -0.44132059079266178 -0.047443494017649017 0 -0.42632493142515793 -0.043347987604394532 0 -0.43088060437312781 -0.036433383666498731 0 -0.44132059079266178 -0.047443494017649017 0 -0.42632493142515793 -0.043347987604394532 0 -0.42484809942147572 -0.037521298812863979 0 -0.43088060437312781 -0.036433383666498731 0 -0.42484809942147572 -0.037521298812863979 0 -0.43088060437312781 -0.036433383666498731 0 -0.43309101871822542 -0.012783142921282079 0 -0.42484809942147572 -0.037521298812863979 0 -0.43309101871822542 -0.012783142921282079 0 -0.40985202323820902 -0.02943766478405976 0 -0.43088060437312781 -0.036433383666498731 0 -0.43309101871822542 -0.012783142921282079 0 -0.44531905202557509 -0.023853635415533609 0 -0.43088060437312781 -0.036433383666498731 0 -0.43309101871822542 -0.012783142921282079 0 -0.42484809942147572 -0.037521298812863979 0 -0.43309101871822542 -0.012783142921282079 0 -0.43309101871822542 -0.012783142921282079 0 -0.43529999880527948 0.01085175203679207 0 -0.43309101871822542 -0.012783142921282079 0 -0.42687895349466509 0.0033889345185197238 0 -0.41687937476910147 0.00065271645433373114 0 -0.43309101871822542 -0.012783142921282079 0 -0.44020242259853742 0.0085591766460757848 0 -0.43309101871822542 -0.012783142921282079 0 -0.40945424005836101 -0.0131650957956016 0 -0.41687937476910147 0.00065271645433373114 0 -0.40945424005836101 -0.0131650957956016 0 -0.39697086863403802 -0.0013839557650866629 0 -0.41687937476910147 0.00065271645433373114 0 -0.43309101871822542 -0.012783142921282079 0 -0.40945424005836101 -0.0131650957956016 0 -0.40985202323820902 -0.02943766478405976 0 -0.40945424005836101 -0.0131650957956016 0 -0.40985202323820902 -0.02943766478405976 0 -0.39055724483924908 -0.021714677848960529 0 -0.40985202323820902 -0.02943766478405976 0 -0.39055724483924908 -0.021714677848960529 0 -0.39145111228946261 -0.040135574845569857 0 -0.40945424005836101 -0.0131650957956016 0 -0.39697086863403802 -0.0013839557650866629 0 -0.39055724483924908 -0.021714677848960529 0 -0.37165504079712819 -0.01311134974768053 0 -0.39697086863403802 -0.0013839557650866629 0 -0.38477151518221098 0.013979796897134951 0 -0.37165504079712819 -0.01311134974768053 0 -0.39697086863403802 -0.0013839557650866629 0 -0.39055724483924908 -0.021714677848960529 0 -0.36950599403787288 -0.033040856872608187 0 -0.37165504079712819 -0.01311134974768053 0 -0.39055724483924908 -0.021714677848960529 0 -0.36950599403787288 -0.033040856872608187 0 -0.39055724483924908 -0.021714677848960529 0 -0.39145111228946261 -0.040135574845569857 0 -0.3709610569287099 -0.05534374506564109 0 -0.36950599403787288 -0.033040856872608187 0 -0.39145111228946261 -0.040135574845569857 0 -0.40812536208672651 -0.046423740149372388 0 -0.40985202323820902 -0.02943766478405976 0 -0.39145111228946261 -0.040135574845569857 0 -0.40812536208672651 -0.046423740149372388 0 -0.41660518012472642 -0.062259454704445993 0 -0.3934798567103574 -0.063325157901225046 0 -0.40812536208672651 -0.046423740149372388 0 -0.39145111228946261 -0.040135574845569857 0 -0.3934798567103574 -0.063325157901225046 0 -0.3709610569287099 -0.05534374506564109 0 -0.39145111228946261 -0.040135574845569857 0 -0.3934798567103574 -0.063325157901225046 0 -0.37292365156696161 -0.073972163885322448 0 -0.3709610569287099 -0.05534374506564109 0 -0.3934798567103574 -0.063325157901225046 0 -0.37292365156696161 -0.073972163885322448 0 -0.38699983439469787 -0.090396806035183172 0 -0.3934798567103574 -0.063325157901225046 0 -0.38699983439469787 -0.090396806035183172 0 -0.3934798567103574 -0.063325157901225046 0 -0.408362260827977 -0.08699761059602798 0 -0.41660518012472642 -0.062259454704445993 0 -0.3934798567103574 -0.063325157901225046 0 -0.408362260827977 -0.08699761059602798 0 -0.38505055606969851 -0.1250354591452276 0 -0.37903577540475702 -0.1105085328918107 0 -0.40453831201007068 -0.1163178104089712 0 -0.36537790335604847 -0.12386360089438039 0 -0.38505055606969851 -0.1250354591452276 0 -0.37903577540475702 -0.1105085328918107 0 -0.38699983439469787 -0.090396806035183172 0 -0.37903577540475702 -0.1105085328918107 0 -0.40453831201007068 -0.1163178104089712 0 -0.36417685103600822 -0.08942548607038682 0 -0.38699983439469787 -0.090396806035183172 0 -0.37903577540475702 -0.1105085328918107 0 -0.38699983439469787 -0.090396806035183172 0 -0.40453831201007068 -0.1163178104089712 0 -0.408362260827977 -0.08699761059602798 0 -0.37903577540475702 -0.1105085328918107 0 -0.40453831201007068 -0.1163178104089712 0 -0.40453831201007068 -0.1163178104089712 0 -0.4300408486153845 -0.12212708792613181 0 -0.42299669359258091 -0.12321027578527741 0 -0.40453831201007068 -0.1163178104089712 0 -0.43062095932428818 -0.097650514213204337 0 -0.4300408486153845 -0.12212708792613181 0 -0.41080558721789978 -0.12915370794194569 0 -0.40453831201007068 -0.1163178104089712 0 -0.42299669359258091 -0.12321027578527741 0 -0.40453831201007068 -0.1163178104089712 0 -0.4300408486153845 -0.12212708792613181 0 -0.40453831201007068 -0.1163178104089712 0 -0.43062095932428818 -0.097650514213204337 0 -0.408362260827977 -0.08699761059602798 0 -0.43062095932428818 -0.097650514213204337 0 -0.4300408486153845 -0.12212708792613181 0 -0.44795717950667763 -0.10946507071292121 0 -0.41660518012472642 -0.062259454704445993 0 -0.408362260827977 -0.08699761059602798 0 -0.42729670709380652 -0.078234860956448493 0 -0.41660518012472642 -0.062259454704445993 0 -0.408362260827977 -0.08699761059602798 0 -0.43062095932428818 -0.097650514213204337 0 -0.42729670709380652 -0.078234860956448493 0 -0.45257735329390991 -0.083336364932358464 0 -0.43062095932428818 -0.097650514213204337 0 -0.408362260827977 -0.08699761059602798 0 -0.42729670709380652 -0.078234860956448493 0 -0.41660518012472642 -0.062259454704445993 0 -0.42729670709380652 -0.078234860956448493 0 -0.43945114235953392 -0.063342176268376488 0 -0.43945114235953392 -0.063342176268376488 0 -0.45257735329390991 -0.083336364932358464 0 -0.42729670709380652 -0.078234860956448493 0 -0.43945114235953392 -0.063342176268376488 0 -0.45257735329390991 -0.083336364932358464 0 -0.43945114235953392 -0.063342176268376488 0 -0.45257735329390991 -0.083336364932358464 0 -0.45770866765466139 -0.058197002599428442 0 -0.45257735329390991 -0.083336364932358464 0 -0.4657035642282859 -0.1033305535963405 0 -0.4799229302115412 -0.090236590882390597 0 -0.45257735329390991 -0.083336364932358464 0 -0.4657035642282859 -0.1033305535963405 0 -0.45257735329390991 -0.083336364932358464 0 -0.47628021905693518 -0.067875433292304277 0 -0.45770866765466139 -0.058197002599428442 0 -0.45554338522069832 -0.12793636544329229 0 -0.4300408486153845 -0.12212708792613181 0 -0.44795717950667763 -0.10946507071292121 0 -0.43062095932428818 -0.097650514213204337 0 -0.45257735329390991 -0.083336364932358464 0 -0.44795717950667763 -0.10946507071292121 0 -0.45257735329390991 -0.083336364932358464 0 -0.44795717950667763 -0.10946507071292121 0 -0.4657035642282859 -0.1033305535963405 0 -0.44795717950667763 -0.10946507071292121 0 -0.4657035642282859 -0.1033305535963405 0 -0.46561493298890511 -0.11769452175140591 0 -0.45554338522069832 -0.12793636544329229 0 -0.46561493298890511 -0.11769452175140591 0 -0.47882977516266201 -0.1233247422603225 0 -0.45554338522069832 -0.12793636544329229 0 -0.44795717950667763 -0.10946507071292121 0 -0.46561493298890511 -0.11769452175140591 0 -0.4657035642282859 -0.1033305535963405 0 -0.46561493298890511 -0.11769452175140591 0 -0.47882977516266201 -0.1233247422603225 0 -0.4657035642282859 -0.1033305535963405 0 -0.47882977516266201 -0.1233247422603225 0 -0.48085676120359572 -0.10947627112675 0 -0.4657035642282859 -0.1033305535963405 0 -0.47882977516266201 -0.1233247422603225 0 -0.4843612456543559 -0.1219984172751141 0 -0.47882977516266201 -0.1233247422603225 0 -0.48085676120359572 -0.10947627112675 0 -0.4657035642282859 -0.1033305535963405 0 -0.48085676120359572 -0.10947627112675 0 -0.4799229302115412 -0.090236590882390597 0 -0.48085676120359572 -0.10947627112675 0 -0.5 -0.1103103709303124 0 -0.4799229302115412 -0.090236590882390597 0 -0.5 -0.1103103709303124 0 -0.4799229302115412 -0.090236590882390597 0 -0.5 -0.082557508775758293 0 -0.49999999999999573 -0.13806323308486651 0 -0.4843612456543559 -0.1219984172751141 0 -0.5 -0.1103103709303124 0 -0.4843612456543559 -0.1219984172751141 0 -0.48085676120359572 -0.10947627112675 0 -0.5 -0.1103103709303124 0 -0.45257735329390991 -0.083336364932358464 0 -0.47628021905693518 -0.067875433292304277 0 -0.4799229302115412 -0.090236590882390597 0 -0.47628021905693518 -0.067875433292304277 0 -0.4799229302115412 -0.090236590882390597 0 -0.5 -0.082557508775758293 0 -0.47628021905693518 -0.067875433292304277 0 -0.5 -0.082557508775758293 0 -0.5 -0.054804646621204323 0 -0.5 -0.054804646621204323 0 -0.48088147048937269 -0.032334653584909188 0 -0.47466756939388421 -0.050197909335259999 0 -0.5 -0.054804646621204323 0 -0.48088147048937269 -0.032334653584909188 0 -0.49999999999999889 -0.027051784466650231 0 -0.48088147048937269 -0.032334653584909188 0 -0.47466756939388421 -0.050197909335259999 0 -0.45846748976845147 -0.037777810578453787 0 -0.47628021905693518 -0.067875433292304277 0 -0.5 -0.054804646621204323 0 -0.47466756939388421 -0.050197909335259999 0 -0.47628021905693518 -0.067875433292304277 0 -0.47466756939388421 -0.050197909335259999 0 -0.45770866765466139 -0.058197002599428442 0 -0.47466756939388421 -0.050197909335259999 0 -0.45770866765466139 -0.058197002599428442 0 -0.45846748976845147 -0.037777810578453787 0 -0.45846748976845147 -0.037777810578453787 0 -0.44399693423995412 -0.036377080919533802 0 -0.44132059079266178 -0.047443494017649017 0 -0.45846748976845147 -0.037777810578453787 0 -0.44399693423995412 -0.036377080919533802 0 -0.44531905202557509 -0.023853635415533609 0 -0.43088060437312781 -0.036433383666498731 0 -0.44399693423995412 -0.036377080919533802 0 -0.44531905202557509 -0.023853635415533609 0 -0.43088060437312781 -0.036433383666498731 0 -0.44399693423995412 -0.036377080919533802 0 -0.44132059079266178 -0.047443494017649017 0 -0.45770866765466139 -0.058197002599428442 0 -0.45846748976845147 -0.037777810578453787 0 -0.44132059079266178 -0.047443494017649017 0 -0.43945114235953392 -0.063342176268376488 0 -0.45770866765466139 -0.058197002599428442 0 -0.44132059079266178 -0.047443494017649017 0 -0.43309101871822542 -0.012783142921282079 0 -0.44727723845421241 -0.0047854449167336697 0 -0.44020242259853742 0.0085591766460757848 0 -0.44727723845421241 -0.0047854449167336697 0 -0.44531905202557509 -0.023853635415533609 0 -0.46174760831026901 -0.014883627051564031 0 -0.43309101871822542 -0.012783142921282079 0 -0.44727723845421241 -0.0047854449167336697 0 -0.44531905202557509 -0.023853635415533609 0 -0.45846748976845147 -0.037777810578453787 0 -0.44531905202557509 -0.023853635415533609 0 -0.46174760831026901 -0.014883627051564031 0 -0.48088147048937269 -0.032334653584909188 0 -0.45846748976845147 -0.037777810578453787 0 -0.46174760831026901 -0.014883627051564031 0 -0.44727723845421241 -0.0047854449167336697 0 -0.46174760831026901 -0.014883627051564031 0 -0.45763199243228309 0.001836789750403772 0 -0.47881599621614079 -0.012607497358123471 0 -0.45763199243228309 0.001836789750403772 0 -0.46174760831026901 -0.014883627051564031 0 -0.47881599621614079 -0.012607497358123471 0 -0.45763199243228309 0.001836789750403772 0 -0.48088147048937269 -0.032334653584909188 0 -0.46174760831026901 -0.014883627051564031 0 -0.47881599621614079 -0.012607497358123471 0 -0.48088147048937269 -0.032334653584909188 0 -0.47881599621614079 -0.012607497358123471 0 -0.49999999999999889 -0.027051784466650231 0 -0.47881599621614079 -0.012607497358123471 0 -0.49999999999999889 -0.027051784466650231 0 -0.47881599621614079 -0.012607497358123471 0 -0.5 -0.0040069193672711556 0 -0.47775097267246908 0.013474204748758069 0 -0.47881599621614079 -0.012607497358123471 0 -0.49999999999999889 -0.027051784466650231 0 -0.5 -0.0040069193672711556 0 -0.5 -0.0040069193672711556 0 -0.49999999999999889 0.01903794573210792 0 -0.47775097267246908 0.013474204748758069 0 -0.49999999999999889 0.01903794573210792 0 -0.47775097267246908 0.013474204748758069 0 -0.4806423130221445 0.039944109458409219 0 -0.49999999999999889 0.01903794573210792 0 -0.4806423130221445 0.039944109458409219 0 -0.47775097267246908 0.013474204748758069 0 -0.4806423130221445 0.039944109458409219 0 -0.45747161957522098 0.02384943145660871 0 -0.47881599621614079 -0.012607497358123471 0 -0.47775097267246908 0.013474204748758069 0 -0.45763199243228309 0.001836789750403772 0 -0.5 0.047174046864672643 0 -0.4806423130221445 0.039944109458409219 0 -0.48300989969222008 0.062501640771811751 0 -0.5 0.047174046864672643 0 -0.48300989969222008 0.062501640771811751 0 -0.5 0.075310147997237231 0 -0.49999999999999889 0.01903794573210792 0 -0.5 0.047174046864672643 0 -0.4806423130221445 0.039944109458409219 0 -0.4806423130221445 0.039944109458409219 0 -0.46128462604429082 0.060850273184711083 0 -0.48300989969222008 0.062501640771811751 0 -0.4806423130221445 0.039944109458409219 0 -0.46128462604429082 0.060850273184711083 0 -0.4806423130221445 0.039944109458409219 0 -0.46128462604429082 0.060850273184711083 0 -0.45511238625408229 0.042807647713116147 0 -0.4806423130221445 0.039944109458409219 0 -0.45511238625408229 0.042807647713116147 0 -0.45747161957522098 0.02384943145660871 0 -0.45511238625408229 0.042807647713116147 0 -0.43750897889233331 0.034486646994866213 0 -0.43971795897938698 0.058121541952940468 0 -0.43750897889233331 0.034486646994866213 0 -0.43971795897938698 0.058121541952940468 0 -0.45511238625408229 0.042807647713116147 0 -0.43750897889233331 0.034486646994866213 0 -0.45747161957522098 0.02384943145660871 0 -0.46128462604429082 0.060850273184711083 0 -0.45511238625408229 0.042807647713116147 0 -0.43971795897938698 0.058121541952940468 0 -0.45763199243228309 0.001836789750403772 0 -0.45747161957522098 0.02384943145660871 0 -0.45108498147595061 0.01269278190717388 0 -0.47775097267246908 0.013474204748758069 0 -0.45763199243228309 0.001836789750403772 0 -0.45747161957522098 0.02384943145660871 0 -0.45747161957522098 0.02384943145660871 0 -0.44431360026946443 0.018087957808303329 0 -0.45108498147595061 0.01269278190717388 0 -0.43750897889233331 0.034486646994866213 0 -0.45747161957522098 0.02384943145660871 0 -0.44431360026946443 0.018087957808303329 0 -0.43750897889233331 0.034486646994866213 0 -0.44431360026946443 0.018087957808303329 0 -0.43529999880527948 0.01085175203679207 0 -0.44727723845421241 -0.0047854449167336697 0 -0.44020242259853742 0.0085591766460757848 0 -0.45108498147595061 0.01269278190717388 0 -0.44431360026946443 0.018087957808303329 0 -0.44020242259853742 0.0085591766460757848 0 -0.43529999880527948 0.01085175203679207 0 -0.44431360026946443 0.018087957808303329 0 -0.44020242259853742 0.0085591766460757848 0 -0.45108498147595061 0.01269278190717388 0 -0.44727723845421241 -0.0047854449167336697 0 -0.45763199243228309 0.001836789750403772 0 -0.45108498147595061 0.01269278190717388 0 -0.43309101871822542 -0.012783142921282079 0 -0.43529999880527948 0.01085175203679207 0 -0.42687895349466509 0.0033889345185197238 0 -0.43309101871822542 -0.012783142921282079 0 -0.44020242259853742 0.0085591766460757848 0 -0.43529999880527948 0.01085175203679207 0 -0.43529999880527948 0.01085175203679207 0 -0.42224542168605422 0.01483441250423518 0 -0.42687895349466509 0.0033889345185197238 0 -0.42224542168605422 0.01483441250423518 0 -0.42687895349466509 0.0033889345185197238 0 -0.41687937476910147 0.00065271645433373114 0 -0.39697086863403802 -0.0013839557650866629 0 -0.41687937476910147 0.00065271645433373114 0 -0.41081855033300091 0.025060529318235901 0 -0.42224542168605422 0.01483441250423518 0 -0.41687937476910147 0.00065271645433373114 0 -0.41081855033300091 0.025060529318235901 0 -0.43750897889233331 0.034486646994866213 0 -0.42224542168605422 0.01483441250423518 0 -0.41081855033300091 0.025060529318235901 0 -0.43750897889233331 0.034486646994866213 0 -0.43529999880527948 0.01085175203679207 0 -0.42224542168605422 0.01483441250423518 0 -0.43750897889233331 0.034486646994866213 0 -0.43529999880527948 0.01085175203679207 0 -0.43750897889233331 0.034486646994866213 0 -0.41081855033300091 0.025060529318235901 0 -0.41913126794802941 0.052115785886590792 0 -0.43971795897938698 0.058121541952940468 0 -0.41913126794802941 0.052115785886590792 0 -0.42685111483214461 0.068911131057969921 0 -0.43750897889233331 0.034486646994866213 0 -0.43971795897938698 0.058121541952940468 0 -0.41913126794802941 0.052115785886590792 0 -0.41081855033300091 0.025060529318235901 0 -0.41913126794802941 0.052115785886590792 0 -0.4006588763320682 0.044054105292646882 0 -0.4006588763320682 0.044054105292646882 0 -0.38719491227297392 0.048538692389980882 0 -0.3903673529800058 0.032490181149013302 0 -0.41081855033300091 0.025060529318235901 0 -0.4006588763320682 0.044054105292646882 0 -0.3903673529800058 0.032490181149013302 0 -0.41913126794802941 0.052115785886590792 0 -0.4006588763320682 0.044054105292646882 0 -0.39607554369056902 0.063583142763957601 0 -0.4006588763320682 0.044054105292646882 0 -0.38719491227297392 0.048538692389980882 0 -0.39607554369056902 0.063583142763957601 0 -0.38719491227297392 0.048538692389980882 0 -0.39607554369056902 0.063583142763957601 0 -0.37387060686406048 0.058432376402733743 0 -0.38719491227297392 0.048538692389980882 0 -0.36980048948811522 0.038103246060879649 0 -0.37387060686406048 0.058432376402733743 0 -0.38719491227297392 0.048538692389980882 0 -0.3903673529800058 0.032490181149013302 0 -0.36980048948811522 0.038103246060879649 0 -0.3903673529800058 0.032490181149013302 0 -0.38477151518221098 0.013979796897134951 0 -0.36980048948811522 0.038103246060879649 0 -0.39697086863403802 -0.0013839557650866629 0 -0.41081855033300091 0.025060529318235901 0 -0.38477151518221098 0.013979796897134951 0 -0.41081855033300091 0.025060529318235901 0 -0.3903673529800058 0.032490181149013302 0 -0.38477151518221098 0.013979796897134951 0 -0.405497862122634 0.10463525111446351 0 -0.38909295680209299 0.1138408871445845 0 -0.3898647542866609 0.095950060648990296 0 -0.405497862122634 0.10463525111446351 0 -0.3898647542866609 0.095950060648990296 0 -0.40480037535211377 0.085923817887024759 0 -0.405497862122634 0.10463525111446351 0 -0.38909295680209299 0.1138408871445845 0 -0.40754496010928237 0.12123071753263551 0 -0.38909295680209299 0.1138408871445845 0 -0.37942854020962169 0.12909692076765031 0 -0.36677967939422651 0.1100567331138379 0 -0.38909295680209299 0.1138408871445845 0 -0.3898647542866609 0.095950060648990296 0 -0.37375598061089299 0.094714931940517666 0 -0.38909295680209299 0.1138408871445845 0 -0.37375598061089299 0.094714931940517666 0 -0.36677967939422651 0.1100567331138379 0 -0.3898647542866609 0.095950060648990296 0 -0.38261101992331892 0.078710495489690821 0 -0.37375598061089299 0.094714931940517666 0 -0.38261101992331892 0.078710495489690821 0 -0.39607554369056902 0.063583142763957601 0 -0.37387060686406048 0.058432376402733743 0 -0.38261101992331892 0.078710495489690821 0 -0.39607554369056902 0.063583142763957601 0 -0.40480037535211377 0.085923817887024759 0 -0.39607554369056902 0.063583142763957601 0 -0.40480037535211377 0.085923817887024759 0 -0.41385234454780062 0.071929274976868546 0 -0.3898647542866609 0.095950060648990296 0 -0.38261101992331892 0.078710495489690821 0 -0.40480037535211377 0.085923817887024759 0 -0.40480037535211377 0.085923817887024759 0 -0.4268485809086322 0.083870423005604294 0 -0.42109116684587927 0.097310472281470009 0 -0.40480037535211377 0.085923817887024759 0 -0.41385234454780062 0.071929274976868546 0 -0.4268485809086322 0.083870423005604294 0 -0.41913126794802941 0.052115785886590792 0 -0.39607554369056902 0.063583142763957601 0 -0.41385234454780062 0.071929274976868546 0 -0.41913126794802941 0.052115785886590792 0 -0.41385234454780062 0.071929274976868546 0 -0.42685111483214461 0.068911131057969921 0 -0.43971795897938698 0.058121541952940468 0 -0.42685111483214461 0.068911131057969921 0 -0.43512855616081031 0.076740080273831501 0 -0.42685111483214461 0.068911131057969921 0 -0.43512855616081031 0.076740080273831501 0 -0.4268485809086322 0.083870423005604294 0 -0.41385234454780062 0.071929274976868546 0 -0.42685111483214461 0.068911131057969921 0 -0.4268485809086322 0.083870423005604294 0 -0.4268485809086322 0.083870423005604294 0 -0.43523417079297239 0.092165075322982529 0 -0.42109116684587927 0.097310472281470009 0 -0.43512855616081031 0.076740080273831501 0 -0.43450414944878002 0.08467848207419143 0 -0.44192693906643887 0.081756436911014793 0 -0.43512855616081031 0.076740080273831501 0 -0.4268485809086322 0.083870423005604294 0 -0.43450414944878002 0.08467848207419143 0 -0.4268485809086322 0.083870423005604294 0 -0.43450414944878002 0.08467848207419143 0 -0.43523417079297239 0.092165075322982529 0 -0.43450414944878002 0.08467848207419143 0 -0.43523417079297239 0.092165075322982529 0 -0.44192693906643887 0.081756436911014793 0 -0.43523417079297239 0.092165075322982529 0 -0.43161463604474182 0.1039212648120658 0 -0.44356254797460087 0.099256569648012702 0 -0.43161463604474182 0.1039212648120658 0 -0.42109116684587927 0.097310472281470009 0 -0.42079518517337072 0.1120863694994795 0 -0.43523417079297239 0.092165075322982529 0 -0.43161463604474182 0.1039212648120658 0 -0.42109116684587927 0.097310472281470009 0 -0.405497862122634 0.10463525111446351 0 -0.40480037535211377 0.085923817887024759 0 -0.42109116684587927 0.097310472281470009 0 -0.405497862122634 0.10463525111446351 0 -0.42109116684587927 0.097310472281470009 0 -0.42079518517337072 0.1120863694994795 0 -0.405497862122634 0.10463525111446351 0 -0.40754496010928237 0.12123071753263551 0 -0.42079518517337072 0.1120863694994795 0 -0.40754496010928237 0.12123071753263551 0 -0.42079518517337072 0.1120863694994795 0 -0.42225570663011269 0.1264240119052959 0 -0.43161463604474182 0.1039212648120658 0 -0.42079518517337072 0.1120863694994795 0 -0.43739010943688628 0.1187878373083841 0 -0.42079518517337072 0.1120863694994795 0 -0.43739010943688628 0.1187878373083841 0 -0.42225570663011269 0.1264240119052959 0 -0.43739010943688628 0.1187878373083841 0 -0.4383903128495083 0.1228793927855118 0 -0.44190260392207609 0.1248777748948318 0 -0.44590527586449658 0.124322493925726 0 -0.45173341364778308 0.11537440782104 0 -0.44356254797460087 0.099256569648012702 0 -0.44590527586449658 0.124322493925726 0 -0.44356254797460087 0.099256569648012702 0 -0.43739010943688628 0.1187878373083841 0 -0.44190260392207609 0.1248777748948318 0 -0.44590527586449658 0.124322493925726 0 -0.43739010943688628 0.1187878373083841 0 -0.44590527586449658 0.124322493925726 0 -0.44356254797460087 0.099256569648012702 0 -0.44590527586449658 0.124322493925726 0 -0.45252020252842878 0.12227293068149681 0 -0.45389997760751277 0.1279227448572712 0 -0.44590527586449658 0.124322493925726 0 -0.45252020252842878 0.12227293068149681 0 -0.45173341364778308 0.11537440782104 0 -0.43161463604474182 0.1039212648120658 0 -0.43739010943688628 0.1187878373083841 0 -0.44356254797460087 0.099256569648012702 0 -0.43739010943688628 0.1187878373083841 0 -0.44356254797460087 0.099256569648012702 0 -0.45173341364778308 0.11537440782104 0 -0.44356254797460087 0.099256569648012702 0 -0.45932183496424878 0.1088158955143517 0 -0.44356254797460087 0.099256569648012702 0 -0.45775996791876677 0.095727011115660565 0 -0.4476602404910367 0.086290360452190434 0 -0.45932183496424878 0.1088158955143517 0 -0.47111983781386391 0.11689200283102801 0 -0.47464186755803017 0.10120896639026219 0 -0.44356254797460087 0.099256569648012702 0 -0.45932183496424878 0.1088158955143517 0 -0.45775996791876677 0.095727011115660565 0 -0.45932183496424878 0.1088158955143517 0 -0.45775996791876677 0.095727011115660565 0 -0.47464186755803017 0.10120896639026219 0 -0.45932183496424878 0.1088158955143517 0 -0.45854214299392271 0.12147207612195 0 -0.47111983781386391 0.11689200283102801 0 -0.45854214299392271 0.12147207612195 0 -0.47111983781386391 0.11689200283102801 0 -0.46670045356141671 0.13201057763429661 0 -0.45252020252842878 0.12227293068149681 0 -0.45854214299392271 0.12147207612195 0 -0.45389997760751277 0.1279227448572712 0 -0.45252020252842878 0.12227293068149681 0 -0.45173341364778308 0.11537440782104 0 -0.45854214299392271 0.12147207612195 0 -0.45173341364778308 0.11537440782104 0 -0.45932183496424878 0.1088158955143517 0 -0.45854214299392271 0.12147207612195 0 -0.43971795897938698 0.058121541952940468 0 -0.44192693906643887 0.081756436911014793 0 -0.43971795897938698 0.058121541952940468 0 -0.43512855616081031 0.076740080273831501 0 -0.44192693906643887 0.081756436911014793 0 -0.46128462604429082 0.060850273184711083 0 -0.43971795897938698 0.058121541952940468 0 -0.44192693906643887 0.081756436911014793 0 -0.46128462604429082 0.060850273184711083 0 -0.44192693906643887 0.081756436911014793 0 -0.44356254797460087 0.099256569648012702 0 -0.44192693906643887 0.081756436911014793 0 -0.4476602404910367 0.086290360452190434 0 -0.44356254797460087 0.099256569648012702 0 -0.44192693906643887 0.081756436911014793 0 -0.43523417079297239 0.092165075322982529 0 -0.44356254797460087 0.099256569648012702 0 -0.44192693906643887 0.081756436911014793 0 -0.44192693906643887 0.081756436911014793 0 -0.4476602404910367 0.086290360452190434 0 -0.46518927966344648 0.079309701502000896 0 -0.44356254797460087 0.099256569648012702 0 -0.4476602404910367 0.086290360452190434 0 -0.45775996791876677 0.095727011115660565 0 -0.46518927966344648 0.079309701502000896 0 -0.47464186755803017 0.10120896639026219 0 -0.45775996791876677 0.095727011115660565 0 -0.4476602404910367 0.086290360452190434 0 -0.46518927966344648 0.079309701502000896 0 -0.46128462604429082 0.060850273184711083 0 -0.44192693906643887 0.081756436911014793 0 -0.46518927966344648 0.079309701502000896 0 -0.46518927966344648 0.079309701502000896 0 -0.48300989969222008 0.062501640771811751 0 -0.48354728623302867 0.085601427142565273 0 -0.46128462604429082 0.060850273184711083 0 -0.46518927966344648 0.079309701502000896 0 -0.48300989969222008 0.062501640771811751 0 -0.46518927966344648 0.079309701502000896 0 -0.48354728623302867 0.085601427142565273 0 -0.47464186755803017 0.10120896639026219 0 -0.48354728623302867 0.085601427142565273 0 -0.5 0.075310147997237231 0 -0.5 0.1034462491298017 0 -0.48300989969222008 0.062501640771811751 0 -0.48354728623302867 0.085601427142565273 0 -0.5 0.075310147997237231 0 -0.47111983781386391 0.11689200283102801 0 -0.47464186755803017 0.10120896639026219 0 -0.4866263181884728 0.11752248394676371 0 -0.47111983781386391 0.11689200283102801 0 -0.4866263181884728 0.11752248394676371 0 -0.48338727032833828 0.13467702090337169 0 -0.47464186755803017 0.10120896639026219 0 -0.5 0.1034462491298017 0 -0.4866263181884728 0.11752248394676371 0 -0.48354728623302867 0.085601427142565273 0 -0.47464186755803017 0.10120896639026219 0 -0.5 0.1034462491298017 0 -0.5 0.1034462491298017 0 -0.4866263181884728 0.11752248394676371 0 -0.5 0.13158235026236609 0 -0.4866263181884728 0.11752248394676371 0 -0.5 0.13158235026236609 0 -0.48338727032833828 0.13467702090337169 0 -0.47111983781386391 0.11689200283102801 0 -0.48338727032833828 0.13467702090337169 0 -0.46670045356141671 0.13201057763429661 0 -0.48338727032833828 0.13467702090337169 0 -0.47780030237427762 0.15062523593202951 0 -0.46670045356141671 0.13201057763429661 0 -0.47780030237427762 0.15062523593202951 0 -0.46670045356141671 0.13201057763429661 0 -0.48338727032833828 0.13467702090337169 0 -0.47780030237427762 0.15062523593202951 0 -0.5 0.15971845139493071 0 -0.5 0.13158235026236609 0 -0.48338727032833828 0.13467702090337169 0 -0.5 0.15971845139493071 0 -0.47780030237427762 0.15062523593202951 0 -0.48890015118713859 0.16923989422976241 0 -0.5 0.15971845139493071 0 -0.48890015118713859 0.16923989422976241 0 -0.5 0.15971845139493071 0 -0.49999999999999978 0.18785455252749519 0 -0.48890015118713859 0.16923989422976241 0 -0.48460647859778438 0.18497160000197771 0 -0.49999999999999978 0.18785455252749519 0 -0.48890015118713859 0.16923989422976241 0 -0.49999999999999978 0.18785455252749519 0 -0.47892834534892781 0.17510410458052469 0 -0.47217195426650849 0.18302762704864711 0 -0.47097765588107438 0.1664326687731103 0 -0.48890015118713859 0.16923989422976241 0 -0.48460647859778438 0.18497160000197771 0 -0.47892834534892781 0.17510410458052469 0 -0.48460647859778438 0.18497160000197771 0 -0.47217195426650849 0.18302762704864711 0 -0.47696477462648368 0.19404324920352159 0 -0.48460647859778438 0.18497160000197771 0 -0.47892834534892781 0.17510410458052469 0 -0.47217195426650849 0.18302762704864711 0 -0.47780030237427762 0.15062523593202951 0 -0.48890015118713859 0.16923989422976241 0 -0.47097765588107438 0.1664326687731103 0 -0.47780030237427762 0.15062523593202951 0 -0.48890015118713859 0.16923989422976241 0 -0.47780030237427762 0.15062523593202951 0 -0.47097765588107438 0.1664326687731103 0 -0.45984628043234632 0.15329813723156119 0 -0.48890015118713859 0.16923989422976241 0 -0.47892834534892781 0.17510410458052469 0 -0.47097765588107438 0.1664326687731103 0 -0.47097765588107438 0.1664326687731103 0 -0.4575180098643607 0.16467322463258471 0 -0.45984628043234632 0.15329813723156119 0 -0.47097765588107438 0.1664326687731103 0 -0.4575180098643607 0.16467322463258471 0 -0.46097995079085718 0.17787986957600729 0 -0.4575180098643607 0.16467322463258471 0 -0.44678216916891222 0.15500701995285401 0 -0.45984628043234632 0.15329813723156119 0 -0.47217195426650849 0.18302762704864711 0 -0.46097995079085718 0.17787986957600729 0 -0.46525488432422879 0.19437157521637949 0 -0.46097995079085718 0.17787986957600729 0 -0.44854964376868622 0.17330819237939971 0 -0.45031711836846078 0.19160936480594529 0 -0.47217195426650849 0.18302762704864711 0 -0.47097765588107438 0.1664326687731103 0 -0.46097995079085718 0.17787986957600729 0 -0.4575180098643607 0.16467322463258471 0 -0.46097995079085718 0.17787986957600729 0 -0.44854964376868622 0.17330819237939971 0 -0.44854964376868622 0.17330819237939971 0 -0.45031711836846078 0.19160936480594529 0 -0.4427643242345744 0.17417605560603061 0 -0.45031711836846078 0.19160936480594529 0 -0.44854964376868622 0.17330819237939971 0 -0.4427643242345744 0.17417605560603061 0 -0.45031711836846078 0.19160936480594529 0 -0.4427643242345744 0.17417605560603061 0 -0.45031711836846078 0.19160936480594529 0 -0.43536651813670701 0.1774903283182232 0 -0.4427643242345744 0.17417605560603061 0 -0.44237755444746901 0.1657503625861593 0 -0.43536651813670701 0.1774903283182232 0 -0.44854964376868622 0.17330819237939971 0 -0.44678216916891222 0.15500701995285401 0 -0.44854964376868622 0.17330819237939971 0 -0.44237755444746901 0.1657503625861593 0 -0.44678216916891222 0.15500701995285401 0 -0.44237755444746901 0.1657503625861593 0 -0.43653721172069038 0.15634713643001391 0 -0.43536651813670701 0.1774903283182232 0 -0.4575180098643607 0.16467322463258471 0 -0.44854964376868622 0.17330819237939971 0 -0.44678216916891222 0.15500701995285401 0 -0.44854964376868622 0.17330819237939971 0 -0.4427643242345744 0.17417605560603061 0 -0.44237755444746901 0.1657503625861593 0 -0.44237755444746901 0.1657503625861593 0 -0.44678216916891222 0.15500701995285401 0 -0.43653721172069038 0.15634713643001391 0 -0.44678216916891222 0.15500701995285401 0 -0.44124424706966447 0.14479346232220719 0 -0.43653721172069038 0.15634713643001391 0 -0.44678216916891222 0.15500701995285401 0 -0.44419384510395721 0.12820642829819739 0 -0.44678216916891222 0.15500701995285401 0 -0.43653721172069038 0.15634713643001391 0 -0.44824800375439361 0.14938841820343909 0 -0.44678216916891222 0.15500701995285401 0 -0.44419384510395721 0.12820642829819739 0 -0.44678216916891222 0.15500701995285401 0 -0.44124424706966447 0.14479346232220719 0 -0.44419384510395721 0.12820642829819739 0 -0.44124424706966447 0.14479346232220719 0 -0.43746376228509792 0.1396132646077628 0 -0.43653721172069038 0.15634713643001391 0 -0.44824800375439361 0.14938841820343909 0 -0.44678216916891222 0.15500701995285401 0 -0.45984628043234632 0.15329813723156119 0 -0.44124424706966447 0.14479346232220719 0 -0.44419384510395721 0.12820642829819739 0 -0.43746376228509792 0.1396132646077628 0 -0.44590527586449658 0.124322493925726 0 -0.44824800375439361 0.14938841820343909 0 -0.44419384510395721 0.12820642829819739 0 -0.44590527586449658 0.124322493925726 0 -0.44824800375439361 0.14938841820343909 0 -0.44590527586449658 0.124322493925726 0 -0.44824800375439361 0.14938841820343909 0 -0.45330576523076582 0.13627326545024421 0 -0.4383903128495083 0.1228793927855118 0 -0.44190260392207609 0.1248777748948318 0 -0.43746376228509792 0.1396132646077628 0 -0.4383903128495083 0.1228793927855118 0 -0.43746376228509792 0.1396132646077628 0 -0.44190260392207609 0.1248777748948318 0 -0.44419384510395721 0.12820642829819739 0 -0.43746376228509792 0.1396132646077628 0 -0.44190260392207609 0.1248777748948318 0 -0.44590527586449658 0.124322493925726 0 -0.44419384510395721 0.12820642829819739 0 -0.44590527586449658 0.124322493925726 0 -0.45330576523076582 0.13627326545024421 0 -0.45389997760751277 0.1279227448572712 0 -0.45330576523076582 0.13627326545024421 0 -0.46670045356141671 0.13201057763429661 0 -0.46118016107064003 0.14431912689031409 0 -0.45330576523076582 0.13627326545024421 0 -0.45389997760751277 0.1279227448572712 0 -0.46670045356141671 0.13201057763429661 0 -0.45854214299392271 0.12147207612195 0 -0.45389997760751277 0.1279227448572712 0 -0.46670045356141671 0.13201057763429661 0 -0.47780030237427762 0.15062523593202951 0 -0.46670045356141671 0.13201057763429661 0 -0.46118016107064003 0.14431912689031409 0 -0.47780030237427762 0.15062523593202951 0 -0.46118016107064003 0.14431912689031409 0 -0.45984628043234632 0.15329813723156119 0 -0.44678216916891222 0.15500701995285401 0 -0.45984628043234632 0.15329813723156119 0 -0.44824800375439361 0.14938841820343909 0 -0.46118016107064003 0.14431912689031409 0 -0.45984628043234632 0.15329813723156119 0 -0.44824800375439361 0.14938841820343909 0 -0.45330576523076582 0.13627326545024421 0 -0.46118016107064003 0.14431912689031409 0 -0.4697365897889314 0.23643325961502171 0 -0.48062243783764003 0.26155990169903698 0 -0.4697365897889314 0.23643325961502171 0 -0.49031121891882018 0.2481922865444724 0 -0.48612746505593768 0.23563308980592679 0 -0.4697365897889314 0.23643325961502171 0 -0.49031121891882018 0.2481922865444724 0 -0.48062243783764003 0.26155990169903698 0 -0.49031121891882018 0.2481922865444724 0 -0.50000000000000044 0.23482467138990781 0 -0.50000000000000155 0.25678152655825781 0 -0.49031121891882018 0.2481922865444724 0 -0.50000000000000044 0.23482467138990781 0 -0.49031121891882018 0.2481922865444724 0 -0.50000000000000044 0.23482467138990781 0 -0.48612746505593768 0.23563308980592679 0 -0.50000000000000044 0.23482467138990781 0 -0.48446205151599858 0.22308214167430529 0 -0.5 0.21133961195870149 0 -0.50000000000000044 0.23482467138990781 0 -0.48612746505593768 0.23563308980592679 0 -0.48446205151599858 0.22308214167430529 0 -0.4697365897889314 0.23643325961502171 0 -0.48612746505593768 0.23563308980592679 0 -0.48446205151599858 0.22308214167430529 0 -0.4697365897889314 0.23643325961502171 0 -0.48446205151599858 0.22308214167430529 0 -0.45885074174022261 0.21130661753100641 0 -0.48446205151599858 0.22308214167430529 0 -0.47522332285416408 0.20593685836004311 0 -0.48792932920033999 0.21070227577839229 0 -0.47522332285416408 0.20593685836004311 0 -0.49159590396810549 0.2005670991890795 0 -0.48446205151599858 0.22308214167430529 0 -0.47522332285416408 0.20593685836004311 0 -0.45885074174022261 0.21130661753100641 0 -0.47522332285416408 0.20593685836004311 0 -0.48792932920033999 0.21070227577839229 0 -0.49159590396810549 0.2005670991890795 0 -0.48446205151599858 0.22308214167430529 0 -0.5 0.21133961195870149 0 -0.48792932920033999 0.21070227577839229 0 -0.5 0.21133961195870149 0 -0.48792932920033999 0.21070227577839229 0 -0.49159590396810549 0.2005670991890795 0 -0.5 0.21133961195870149 0 -0.49159590396810549 0.2005670991890795 0 -0.49999999999999978 0.18785455252749519 0 -0.48460647859778438 0.18497160000197771 0 -0.49159590396810549 0.2005670991890795 0 -0.47696477462648368 0.19404324920352159 0 -0.48460647859778438 0.18497160000197771 0 -0.49159590396810549 0.2005670991890795 0 -0.49999999999999978 0.18785455252749519 0 -0.47522332285416408 0.20593685836004311 0 -0.49159590396810549 0.2005670991890795 0 -0.47696477462648368 0.19404324920352159 0 -0.47522332285416408 0.20593685836004311 0 -0.47696477462648368 0.19404324920352159 0 -0.46525488432422879 0.19437157521637949 0 -0.47217195426650849 0.18302762704864711 0 -0.47696477462648368 0.19404324920352159 0 -0.46525488432422879 0.19437157521637949 0 -0.46097995079085718 0.17787986957600729 0 -0.46525488432422879 0.19437157521637949 0 -0.45031711836846078 0.19160936480594529 0 -0.46525488432422879 0.19437157521637949 0 -0.45031711836846078 0.19160936480594529 0 -0.45885074174022261 0.21130661753100641 0 -0.45031711836846078 0.19160936480594529 0 -0.45885074174022261 0.21130661753100641 0 -0.44458297458665968 0.20302514772602559 0 -0.45031711836846078 0.19160936480594529 0 -0.43419582455272671 0.19863352020643271 0 -0.44458297458665968 0.20302514772602559 0 -0.45031711836846078 0.19160936480594529 0 -0.45224915515475189 0.2116144830491582 0 -0.45031711836846078 0.19160936480594529 0 -0.43419582455272671 0.19863352020643271 0 -0.43536651813670701 0.1774903283182232 0 -0.45031711836846078 0.19160936480594529 0 -0.45224915515475189 0.2116144830491582 0 -0.45885074174022261 0.21130661753100641 0 -0.43302513096874617 0.21977671209464211 0 -0.45224915515475189 0.2116144830491582 0 -0.45885074174022261 0.21130661753100641 0 -0.43302513096874617 0.21977671209464211 0 -0.44458297458665968 0.20302514772602559 0 -0.45224915515475189 0.2116144830491582 0 -0.43302513096874617 0.21977671209464211 0 -0.47522332285416408 0.20593685836004311 0 -0.45885074174022261 0.21130661753100641 0 -0.45031711836846078 0.19160936480594529 0 -0.45224915515475189 0.2116144830491582 0 -0.45885074174022261 0.21130661753100641 0 -0.47522332285416408 0.20593685836004311 0 -0.46525488432422879 0.19437157521637949 0 -0.45885074174022261 0.21130661753100641 0 -0.4697365897889314 0.23643325961502171 0 -0.45885074174022261 0.21130661753100641 0 -0.44879083695949729 0.23430571940343839 0 -0.4697365897889314 0.23643325961502171 0 -0.45885074174022261 0.21130661753100641 0 -0.44879083695949729 0.23430571940343839 0 -0.43201259650787383 0.23806348729576859 0 -0.43302513096874617 0.21977671209464211 0 -0.45885074174022261 0.21130661753100641 0 -0.44879083695949729 0.23430571940343839 0 -0.43302513096874617 0.21977671209464211 0 -0.44879083695949729 0.23430571940343839 0 -0.44230676710507749 0.24892234785503201 0 -0.43201259650787383 0.23806348729576859 0 -0.44879083695949729 0.23430571940343839 0 -0.44230676710507749 0.24892234785503201 0 -0.4554628298288993 0.2523745778352644 0 -0.4697365897889314 0.23643325961502171 0 -0.46741984697533462 0.25942055182262658 0 -0.4554628298288993 0.2523745778352644 0 -0.4697365897889314 0.23643325961502171 0 -0.44879083695949729 0.23430571940343839 0 -0.4554628298288993 0.2523745778352644 0 -0.41576896288443632 0.2432695896099219 0 -0.40717224716406619 0.22825575146784269 0 -0.39855375553480937 0.2441149483090749 0 -0.41576896288443632 0.2432695896099219 0 -0.39855375553480937 0.2441149483090749 0 -0.40886652545920688 0.25038766517731692 0 -0.41576896288443632 0.2432695896099219 0 -0.41450278511812078 0.25474354136917932 0 -0.40886652545920688 0.25038766517731692 0 -0.41576896288443632 0.2432695896099219 0 -0.4219947343812806 0.23234138511704369 0 -0.40717224716406619 0.22825575146784269 0 -0.43201259650787383 0.23806348729576859 0 -0.43100006204700142 0.25635026249689502 0 -0.41576896288443632 0.2432695896099219 0 -0.43201259650787383 0.23806348729576859 0 -0.43100006204700142 0.25635026249689502 0 -0.41576896288443632 0.2432695896099219 0 -0.43201259650787383 0.23806348729576859 0 -0.4219947343812806 0.23234138511704369 0 -0.44230676710507749 0.24892234785503201 0 -0.43201259650787383 0.23806348729576859 0 -0.43100006204700142 0.25635026249689502 0 -0.43201259650787383 0.23806348729576859 0 -0.4219947343812806 0.23234138511704369 0 -0.43302513096874617 0.21977671209464211 0 -0.43201259650787383 0.23806348729576859 0 -0.43302513096874617 0.21977671209464211 0 -0.43302513096874617 0.21977671209464211 0 -0.40717224716406619 0.22825575146784269 0 -0.43302513096874617 0.21977671209464211 0 -0.40717224716406619 0.22825575146784269 0 -0.42051688788721081 0.21066859622728659 0 -0.4219947343812806 0.23234138511704369 0 -0.43302513096874617 0.21977671209464211 0 -0.40717224716406619 0.22825575146784269 0 -0.40717224716406619 0.22825575146784269 0 -0.4066448692943358 0.2092459981661903 0 -0.42051688788721081 0.21066859622728659 0 -0.4066448692943358 0.2092459981661903 0 -0.42051688788721081 0.21066859622728659 0 -0.42154636745617891 0.1974309992013252 0 -0.43302513096874617 0.21977671209464211 0 -0.43419582455272671 0.19863352020643271 0 -0.44458297458665968 0.20302514772602559 0 -0.43302513096874617 0.21977671209464211 0 -0.43419582455272671 0.19863352020643271 0 -0.43302513096874617 0.21977671209464211 0 -0.42051688788721081 0.21066859622728659 0 -0.43419582455272671 0.19863352020643271 0 -0.42051688788721081 0.21066859622728659 0 -0.43419582455272671 0.19863352020643271 0 -0.42154636745617891 0.1974309992013252 0 -0.43419582455272671 0.19863352020643271 0 -0.43536651813670701 0.1774903283182232 0 -0.43419582455272671 0.19863352020643271 0 -0.42154636745617891 0.1974309992013252 0 -0.42515529799588192 0.18622688850674421 0 -0.42154636745617891 0.1974309992013252 0 -0.42515529799588192 0.18622688850674421 0 -0.41218490035635041 0.18207679055558501 0 -0.4066448692943358 0.2092459981661903 0 -0.42154636745617891 0.1974309992013252 0 -0.393719202587831 0.19529694844230139 0 -0.42154636745617891 0.1974309992013252 0 -0.393719202587831 0.19529694844230139 0 -0.41218490035635041 0.18207679055558501 0 -0.42154636745617891 0.1974309992013252 0 -0.393719202587831 0.19529694844230139 0 -0.393719202587831 0.19529694844230139 0 -0.3797792264903237 0.18103179122971449 0 -0.36589203771948298 0.19316289768327849 0 -0.393719202587831 0.19529694844230139 0 -0.38082772306226442 0.20303477576094431 0 -0.36589203771948298 0.19316289768327849 0 -0.393719202587831 0.19529694844230139 0 -0.36589203771948298 0.19316289768327849 0 -0.38082772306226442 0.20303477576094431 0 -0.39018802207025283 0.21455856416722649 0 -0.37144472695363318 0.21478312032503671 0 -0.393719202587831 0.19529694844230139 0 -0.38082772306226442 0.20303477576094431 0 -0.39018802207025283 0.21455856416722649 0 -0.4066448692943358 0.2092459981661903 0 -0.393719202587831 0.19529694844230139 0 -0.39018802207025283 0.21455856416722649 0 -0.40717224716406619 0.22825575146784269 0 -0.4066448692943358 0.2092459981661903 0 -0.39018802207025283 0.21455856416722649 0 -0.40717224716406619 0.22825575146784269 0 -0.39018802207025283 0.21455856416722649 0 -0.38131936335938638 0.23673479084104379 0 -0.40717224716406619 0.22825575146784269 0 -0.38131936335938638 0.23673479084104379 0 -0.39018802207025283 0.21455856416722649 0 -0.38131936335938638 0.23673479084104379 0 -0.37144472695363318 0.21478312032503671 0 -0.38131936335938638 0.23673479084104379 0 -0.37144472695363318 0.21478312032503671 0 -0.38131936335938638 0.23673479084104379 0 -0.38950991029832149 0.25494267013518612 0 -0.38131936335938638 0.23673479084104379 0 -0.39855375553480937 0.2441149483090749 0 -0.38950991029832149 0.25494267013518612 0 -0.38131936335938638 0.23673479084104379 0 -0.37846566630958589 0.24350627134364061 0 -0.38950991029832149 0.25494267013518612 0 -0.37846566630958589 0.24350627134364061 0 -0.38950991029832149 0.25494267013518612 0 -0.40717224716406619 0.22825575146784269 0 -0.38131936335938638 0.23673479084104379 0 -0.39855375553480937 0.2441149483090749 0 -0.41433060753185419 0.14169603021722499 0 -0.42504523236145458 0.15785037262912621 0 -0.40212314273478611 0.160848752090921 0 -0.40754496010928237 0.12123071753263551 0 -0.41433060753185419 0.14169603021722499 0 -0.42225570663011269 0.1264240119052959 0 -0.40754496010928237 0.12123071753263551 0 -0.41433060753185419 0.14169603021722499 0 -0.39765346939520968 0.1400570559680121 0 -0.43739010943688628 0.1187878373083841 0 -0.4312176708991704 0.13831910496875521 0 -0.43739010943688628 0.1187878373083841 0 -0.4312176708991704 0.13831910496875521 0 -0.42225570663011269 0.1264240119052959 0 -0.43739010943688628 0.1187878373083841 0 -0.4383903128495083 0.1228793927855118 0 -0.4312176708991704 0.13831910496875521 0 -0.41433060753185419 0.14169603021722499 0 -0.4312176708991704 0.13831910496875521 0 -0.42225570663011269 0.1264240119052959 0 -0.4383903128495083 0.1228793927855118 0 -0.4312176708991704 0.13831910496875521 0 -0.43746376228509792 0.1396132646077628 0 -0.4312176708991704 0.13831910496875521 0 -0.43653721172069038 0.15634713643001391 0 -0.42504523236145458 0.15785037262912621 0 -0.4312176708991704 0.13831910496875521 0 -0.42504523236145458 0.15785037262912621 0 -0.43746376228509792 0.1396132646077628 0 -0.43653721172069038 0.15634713643001391 0 -0.4312176708991704 0.13831910496875521 0 -0.43746376228509792 0.1396132646077628 0 -0.43653721172069038 0.15634713643001391 0 -0.41433060753185419 0.14169603021722499 0 -0.4312176708991704 0.13831910496875521 0 -0.42504523236145458 0.15785037262912621 0 -0.43653721172069038 0.15634713643001391 0 -0.42504523236145458 0.15785037262912621 0 -0.43653721172069038 0.15634713643001391 0 -0.42351665148891032 0.16268721660574259 0 -0.43536651813670701 0.1774903283182232 0 -0.43653721172069038 0.15634713643001391 0 -0.43536651813670701 0.1774903283182232 0 -0.42351665148891032 0.16268721660574259 0 -0.42504523236145458 0.15785037262912621 0 -0.43653721172069038 0.15634713643001391 0 -0.42351665148891032 0.16268721660574259 0 -0.42504523236145458 0.15785037262912621 0 -0.43419582455272671 0.19863352020643271 0 -0.43536651813670701 0.1774903283182232 0 -0.42515529799588192 0.18622688850674421 0 -0.42351665148891032 0.16268721660574259 0 -0.43536651813670701 0.1774903283182232 0 -0.422482879477447 0.1755028042521547 0 -0.43536651813670701 0.1774903283182232 0 -0.422482879477447 0.1755028042521547 0 -0.42515529799588192 0.18622688850674421 0 -0.41218490035635041 0.18207679055558501 0 -0.41199528894772319 0.17056997004330129 0 -0.39650046903752201 0.1756118973190898 0 -0.422482879477447 0.1755028042521547 0 -0.42515529799588192 0.18622688850674421 0 -0.41218490035635041 0.18207679055558501 0 -0.422482879477447 0.1755028042521547 0 -0.41218490035635041 0.18207679055558501 0 -0.41199528894772319 0.17056997004330129 0 -0.42504523236145458 0.15785037262912621 0 -0.40212314273478611 0.160848752090921 0 -0.42351665148891032 0.16268721660574259 0 -0.41199528894772319 0.17056997004330129 0 -0.40212314273478611 0.160848752090921 0 -0.42351665148891032 0.16268721660574259 0 -0.42504523236145458 0.15785037262912621 0 -0.40212314273478611 0.160848752090921 0 -0.42351665148891032 0.16268721660574259 0 -0.422482879477447 0.1755028042521547 0 -0.41199528894772319 0.17056997004330129 0 -0.40212314273478611 0.160848752090921 0 -0.39650046903752201 0.1756118973190898 0 -0.37920105310811758 0.16384713155271549 0 -0.40212314273478611 0.160848752090921 0 -0.37920105310811758 0.16384713155271549 0 -0.41199528894772319 0.17056997004330129 0 -0.40212314273478611 0.160848752090921 0 -0.39650046903752201 0.1756118973190898 0 -0.393719202587831 0.19529694844230139 0 -0.41218490035635041 0.18207679055558501 0 -0.39650046903752201 0.1756118973190898 0 -0.39650046903752201 0.1756118973190898 0 -0.3797792264903237 0.18103179122971449 0 -0.37920105310811758 0.16384713155271549 0 -0.393719202587831 0.19529694844230139 0 -0.39650046903752201 0.1756118973190898 0 -0.3797792264903237 0.18103179122971449 0 -0.40212314273478611 0.160848752090921 0 -0.37920105310811758 0.16384713155271549 0 -0.38176044276497662 0.14614432012409839 0 -0.37920105310811758 0.16384713155271549 0 -0.38176044276497662 0.14614432012409839 0 -0.36748761140952052 0.15020939905325309 0 -0.40212314273478611 0.160848752090921 0 -0.38176044276497662 0.14614432012409839 0 -0.39765346939520968 0.1400570559680121 0 -0.41433060753185419 0.14169603021722499 0 -0.40212314273478611 0.160848752090921 0 -0.39765346939520968 0.1400570559680121 0 -0.38909295680209299 0.1138408871445845 0 -0.40754496010928237 0.12123071753263551 0 -0.39765346939520968 0.1400570559680121 0 -0.38176044276497662 0.14614432012409839 0 -0.39765346939520968 0.1400570559680121 0 -0.37942854020962169 0.12909692076765031 0 -0.38176044276497662 0.14614432012409839 0 -0.37942854020962169 0.12909692076765031 0 -0.36466883973260389 0.1328066613120388 0 -0.38909295680209299 0.1138408871445845 0 -0.39765346939520968 0.1400570559680121 0 -0.37942854020962169 0.12909692076765031 0 -0.36466883973260389 0.1328066613120388 0 -0.3524623415529396 0.13124526941364309 0 -0.35326190658380729 0.119425874385125 0 -0.3524623415529396 0.13124526941364309 0 -0.34750916333052911 0.14283672715778031 0 -0.33873936317960901 0.1188279433010534 0 -0.3524623415529396 0.13124526941364309 0 -0.34750916333052911 0.14283672715778031 0 -0.35813243493814872 0.14232914091221799 0 -0.36466883973260389 0.1328066613120388 0 -0.3524623415529396 0.13124526941364309 0 -0.35813243493814872 0.14232914091221799 0 -0.34750916333052911 0.14283672715778031 0 -0.35627896348144861 0.16684551101450729 0 -0.34750916333052911 0.14283672715778031 0 -0.35627896348144861 0.16684551101450729 0 -0.34247542659702468 0.15038332772738949 0 -0.34750916333052911 0.14283672715778031 0 -0.35813243493814872 0.14232914091221799 0 -0.35627896348144861 0.16684551101450729 0 -0.36466883973260389 0.1328066613120388 0 -0.35813243493814872 0.14232914091221799 0 -0.36748761140952052 0.15020939905325309 0 -0.38176044276497662 0.14614432012409839 0 -0.36466883973260389 0.1328066613120388 0 -0.36748761140952052 0.15020939905325309 0 -0.35813243493814872 0.14232914091221799 0 -0.36748761140952052 0.15020939905325309 0 -0.35627896348144861 0.16684551101450729 0 -0.37920105310811758 0.16384713155271549 0 -0.36748761140952052 0.15020939905325309 0 -0.35627896348144861 0.16684551101450729 0 -0.37920105310811758 0.16384713155271549 0 -0.35627896348144861 0.16684551101450729 0 -0.3797792264903237 0.18103179122971449 0 -0.37920105310811758 0.16384713155271549 0 -0.35627896348144861 0.16684551101450729 0 -0.3797792264903237 0.18103179122971449 0 -0.35627896348144861 0.16684551101450729 0 -0.36589203771948298 0.19316289768327849 0 -0.35627896348144861 0.16684551101450729 0 -0.36589203771948298 0.19316289768327849 0 -0.36157009054788308 0.19283144980902819 0 -0.35627896348144861 0.16684551101450729 0 -0.36589203771948298 0.19316289768327849 0 -0.35023626129416169 0.16763594131240761 0 -0.36157009054788308 0.19283144980902819 0 -0.35627896348144861 0.16684551101450729 0 -0.35023626129416169 0.16763594131240761 0 -0.36157009054788308 0.19283144980902819 0 -0.35023626129416169 0.16763594131240761 0 -0.36157009054788308 0.19283144980902819 0 -0.33167946679984339 0.19053915346482639 0 -0.35023626129416169 0.16763594131240761 0 -0.34247542659702468 0.15038332772738949 0 -0.35627896348144861 0.16684551101450729 0 -0.35023626129416169 0.16763594131240761 0 -0.34247542659702468 0.15038332772738949 0 -0.35627896348144861 0.16684551101450729 0 -0.35023626129416169 0.16763594131240761 0 -0.35023626129416169 0.16763594131240761 0 -0.3260996131898522 0.15337480904988651 0 -0.34247542659702468 0.15038332772738949 0 -0.35023626129416169 0.16763594131240761 0 -0.32148732869443131 0.17139651508467471 0 -0.3260996131898522 0.15337480904988651 0 -0.35023626129416169 0.16763594131240761 0 -0.32148732869443131 0.17139651508467471 0 -0.35023626129416169 0.16763594131240761 0 -0.32148732869443131 0.17139651508467471 0 -0.33167946679984339 0.19053915346482639 0 -0.32148732869443131 0.17139651508467471 0 -0.33167946679984339 0.19053915346482639 0 -0.30975566326764081 0.18992744529650321 0 -0.32148732869443131 0.17139651508467471 0 -0.3260996131898522 0.15337480904988651 0 -0.30882154103795439 0.15343685859886089 0 -0.3260996131898522 0.15337480904988651 0 -0.32157288655929073 0.13654814841481749 0 -0.30882154103795439 0.15343685859886089 0 -0.3260996131898522 0.15337480904988651 0 -0.32157288655929073 0.13654814841481749 0 -0.33527929057126121 0.14039419113018539 0 -0.32157288655929073 0.13654814841481749 0 -0.30308742685941698 0.13385559147552939 0 -0.31422211074626649 0.12037480233927041 0 -0.32157288655929073 0.13654814841481749 0 -0.33873936317960901 0.1188279433010534 0 -0.31422211074626649 0.12037480233927041 0 -0.34750916333052911 0.14283672715778031 0 -0.33873936317960901 0.1188279433010534 0 -0.34750916333052911 0.14283672715778031 0 -0.33527929057126121 0.14039419113018539 0 -0.33873936317960901 0.1188279433010534 0 -0.32157288655929073 0.13654814841481749 0 -0.33527929057126121 0.14039419113018539 0 -0.33873936317960901 0.1188279433010534 0 -0.3260996131898522 0.15337480904988651 0 -0.33527929057126121 0.14039419113018539 0 -0.34247542659702468 0.15038332772738949 0 -0.34750916333052911 0.14283672715778031 0 -0.33527929057126121 0.14039419113018539 0 -0.34247542659702468 0.15038332772738949 0 -0.34489530339443891 0.24868088710279659 0 -0.36248554374363001 0.24291176897920599 0 -0.35959237541122341 0.25823807042808739 0 -0.34489530339443891 0.24868088710279659 0 -0.36248554374363001 0.24291176897920599 0 -0.34489530339443891 0.24868088710279659 0 -0.36248554374363001 0.24291176897920599 0 -0.33717775683804913 0.22749781043162901 0 -0.36248554374363001 0.24291176897920599 0 -0.33717775683804913 0.22749781043162901 0 -0.37846566630958589 0.24350627134364061 0 -0.36248554374363001 0.24291176897920599 0 -0.37736966733706678 0.251977092033426 0 -0.38131936335938638 0.23673479084104379 0 -0.36248554374363001 0.24291176897920599 0 -0.36706985717971341 0.23018976971881239 0 -0.38131936335938638 0.23673479084104379 0 -0.37846566630958589 0.24350627134364061 0 -0.36248554374363001 0.24291176897920599 0 -0.38131936335938638 0.23673479084104379 0 -0.36248554374363001 0.24291176897920599 0 -0.36248554374363001 0.24291176897920599 0 -0.37736966733706678 0.251977092033426 0 -0.38131936335938638 0.23673479084104379 0 -0.36706985717971341 0.23018976971881239 0 -0.37199198282964929 0.21837259320825311 0 -0.38131936335938638 0.23673479084104379 0 -0.37199198282964929 0.21837259320825311 0 -0.37144472695363318 0.21478312032503671 0 -0.36248554374363001 0.24291176897920599 0 -0.36706985717971341 0.23018976971881239 0 -0.35458486983384901 0.22293520181994031 0 -0.35458486983384901 0.22293520181994031 0 -0.37199198282964929 0.21837259320825311 0 -0.36706985717971341 0.23018976971881239 0 -0.35458486983384901 0.22293520181994031 0 -0.37199198282964929 0.21837259320825311 0 -0.35458486983384901 0.22293520181994031 0 -0.34136513809815389 0.20798654419748749 0 -0.33717775683804913 0.22749781043162901 0 -0.36248554374363001 0.24291176897920599 0 -0.35458486983384901 0.22293520181994031 0 -0.33717775683804913 0.22749781043162901 0 -0.35458486983384901 0.22293520181994031 0 -0.33717775683804913 0.22749781043162901 0 -0.35458486983384901 0.22293520181994031 0 -0.35724120635837953 0.20963407903787329 0 -0.34136513809815389 0.20798654419748749 0 -0.35724120635837953 0.20963407903787329 0 -0.36157009054788308 0.19283144980902819 0 -0.34136513809815389 0.20798654419748749 0 -0.38082772306226442 0.20303477576094431 0 -0.37144472695363318 0.21478312032503671 0 -0.36718752151817718 0.19670949965567211 0 -0.37144472695363318 0.21478312032503671 0 -0.36157009054788308 0.19283144980902819 0 -0.35458486983384901 0.22293520181994031 0 -0.37199198282964929 0.21837259320825311 0 -0.37144472695363318 0.21478312032503671 0 -0.35458486983384901 0.22293520181994031 0 -0.35724120635837953 0.20963407903787329 0 -0.37144472695363318 0.21478312032503671 0 -0.35724120635837953 0.20963407903787329 0 -0.37144472695363318 0.21478312032503671 0 -0.36157009054788308 0.19283144980902819 0 -0.37144472695363318 0.21478312032503671 0 -0.36718752151817718 0.19670949965567211 0 -0.36157009054788308 0.19283144980902819 0 -0.38082772306226442 0.20303477576094431 0 -0.36718752151817718 0.19670949965567211 0 -0.36589203771948298 0.19316289768327849 0 -0.36718752151817718 0.19670949965567211 0 -0.36589203771948298 0.19316289768327849 0 -0.36157009054788308 0.19283144980902819 0 -0.36589203771948298 0.19316289768327849 0 -0.36157009054788308 0.19283144980902819 0 -0.36718752151817718 0.19670949965567211 0 -0.36589203771948298 0.19316289768327849 0 -0.36157009054788308 0.19283144980902819 0 -0.33167946679984339 0.19053915346482639 0 -0.36157009054788308 0.19283144980902819 0 -0.33167946679984339 0.19053915346482639 0 -0.34136513809815389 0.20798654419748749 0 -0.33167946679984339 0.19053915346482639 0 -0.31337310652876399 0.21299935213198051 0 -0.30975566326764081 0.18992744529650321 0 -0.33167946679984339 0.19053915346482639 0 -0.31337310652876399 0.21299935213198051 0 -0.34136513809815389 0.20798654419748749 0 -0.31337310652876399 0.21299935213198051 0 -0.34136513809815389 0.20798654419748749 0 -0.33717775683804913 0.22749781043162901 0 -0.31337310652876399 0.21299935213198051 0 -0.33717775683804913 0.22749781043162901 0 -0.3086989084840418 0.23496245082215511 0 -0.31337310652876399 0.21299935213198051 0 -0.33717775683804913 0.22749781043162901 0 -0.33717775683804913 0.22749781043162901 0 -0.3086989084840418 0.23496245082215511 0 -0.32281112578858923 0.24248600309469809 0 -0.3086989084840418 0.23496245082215511 0 -0.30672249530042373 0.26120052496061291 0 -0.33717775683804913 0.22749781043162901 0 -0.32281112578858923 0.24248600309469809 0 -0.3086989084840418 0.23496245082215511 0 -0.32281112578858923 0.24248600309469809 0 -0.33674762913257789 0.2432231596817393 0 -0.32730506304524992 0.25445000522639338 0 -0.34489530339443891 0.24868088710279659 0 -0.33717775683804913 0.22749781043162901 0 -0.33674762913257789 0.2432231596817393 0 -0.33717775683804913 0.22749781043162901 0 -0.32281112578858923 0.24248600309469809 0 -0.33674762913257789 0.2432231596817393 0 -0.34489530339443891 0.24868088710279659 0 -0.33674762913257789 0.2432231596817393 0 -0.32730506304524992 0.25445000522639338 0 -0.33674762913257789 0.2432231596817393 0 -0.32730506304524992 0.25445000522639338 0 -0.3086989084840418 0.23496245082215511 0 -0.28022006013003492 0.2424270912126826 0 -0.29464196701413958 0.25202419192521758 0 -0.3086989084840418 0.23496245082215511 0 -0.28022006013003492 0.2424270912126826 0 -0.3086989084840418 0.23496245082215511 0 -0.30672249530042373 0.26120052496061291 0 -0.29464196701413958 0.25202419192521758 0 -0.31337310652876399 0.21299935213198051 0 -0.3086989084840418 0.23496245082215511 0 -0.29495251041298148 0.22082307582945651 0 -0.29495251041298148 0.22082307582945651 0 -0.2765571970512265 0.21514763067515119 0 -0.28022006013003492 0.2424270912126826 0 -0.3086989084840418 0.23496245082215511 0 -0.29495251041298148 0.22082307582945651 0 -0.28022006013003492 0.2424270912126826 0 -0.29495251041298148 0.22082307582945651 0 -0.28956845621947969 0.1985008938323311 0 -0.2765571970512265 0.21514763067515119 0 -0.31337310652876399 0.21299935213198051 0 -0.28956845621947969 0.1985008938323311 0 -0.31337310652876399 0.21299935213198051 0 -0.29495251041298148 0.22082307582945651 0 -0.28956845621947969 0.1985008938323311 0 -0.31337310652876399 0.21299935213198051 0 -0.30975566326764081 0.18992744529650321 0 -0.28956845621947969 0.1985008938323311 0 -0.30975566326764081 0.18992744529650321 0 -0.28956845621947969 0.1985008938323311 0 -0.29273839609470059 0.17515708885693931 0 -0.28956845621947969 0.1985008938323311 0 -0.26576380591019277 0.18400243553268561 0 -0.28956845621947969 0.1985008938323311 0 -0.27026864743477858 0.1969120610492972 0 -0.26576380591019277 0.18400243553268561 0 -0.27026864743477858 0.1969120610492972 0 -0.26576380591019277 0.18400243553268561 0 -0.25616115666541911 0.1940366335829137 0 -0.26576380591019277 0.18400243553268561 0 -0.25501052529300627 0.18594619292738371 0 -0.27026864743477858 0.1969120610492972 0 -0.25616115666541911 0.1940366335829137 0 -0.26576380591019277 0.18400243553268561 0 -0.25616115666541911 0.1940366335829137 0 -0.25501052529300627 0.18594619292738371 0 -0.24335811083150821 0.18966417318239151 0 -0.25616115666541911 0.1940366335829137 0 -0.25888613326370691 0.2079192455447646 0 -0.2444599245728549 0.2000208166052404 0 -0.27026864743477858 0.1969120610492972 0 -0.25616115666541911 0.1940366335829137 0 -0.25888613326370691 0.2079192455447646 0 -0.25888613326370691 0.2079192455447646 0 -0.25880771652771423 0.22585694761766101 0 -0.24593220940753249 0.2120454216302779 0 -0.25888613326370691 0.2079192455447646 0 -0.2765571970512265 0.21514763067515119 0 -0.25880771652771423 0.22585694761766101 0 -0.28956845621947969 0.1985008938323311 0 -0.27026864743477858 0.1969120610492972 0 -0.2765571970512265 0.21514763067515119 0 -0.27026864743477858 0.1969120610492972 0 -0.25888613326370691 0.2079192455447646 0 -0.2765571970512265 0.21514763067515119 0 -0.2765571970512265 0.21514763067515119 0 -0.25880771652771423 0.22585694761766101 0 -0.28022006013003492 0.2424270912126826 0 -0.25880771652771423 0.22585694761766101 0 -0.25174121177602782 0.2498917316032101 0 -0.28022006013003492 0.2424270912126826 0 -0.25174121177602782 0.2498917316032101 0 -0.28022006013003492 0.2424270912126826 0 -0.28205656039087851 0.1329494398256803 0 -0.30308742685941698 0.13385559147552939 0 -0.29627674518641439 0.1163352043027806 0 -0.2879435948300349 0.15028899871131829 0 -0.28205656039087851 0.1329494398256803 0 -0.30308742685941698 0.13385559147552939 0 -0.2879435948300349 0.15028899871131829 0 -0.30308742685941698 0.13385559147552939 0 -0.30882154103795439 0.15343685859886089 0 -0.32157288655929073 0.13654814841481749 0 -0.30308742685941698 0.13385559147552939 0 -0.30882154103795439 0.15343685859886089 0 -0.32148732869443131 0.17139651508467471 0 -0.30882154103795439 0.15343685859886089 0 -0.29273839609470059 0.17515708885693931 0 -0.32148732869443131 0.17139651508467471 0 -0.29273839609470059 0.17515708885693931 0 -0.32148732869443131 0.17139651508467471 0 -0.30975566326764081 0.18992744529650321 0 -0.29273839609470059 0.17515708885693931 0 -0.28956845621947969 0.1985008938323311 0 -0.29273839609470059 0.17515708885693931 0 -0.26576380591019277 0.18400243553268561 0 -0.2879435948300349 0.15028899871131829 0 -0.30882154103795439 0.15343685859886089 0 -0.29273839609470059 0.17515708885693931 0 -0.2879435948300349 0.15028899871131829 0 -0.29273839609470059 0.17515708885693931 0 -0.27450002891978198 0.1624969790205075 0 -0.27450002891978198 0.1624969790205075 0 -0.25708097535247759 0.15911985302399939 0 -0.26690871603921562 0.1475665964140119 0 -0.29273839609470059 0.17515708885693931 0 -0.27450002891978198 0.1624969790205075 0 -0.26398946349496999 0.17891766262920439 0 -0.29273839609470059 0.17515708885693931 0 -0.26398946349496999 0.17891766262920439 0 -0.29273839609470059 0.17515708885693931 0 -0.26576380591019277 0.18400243553268561 0 -0.26398946349496999 0.17891766262920439 0 -0.26102458568641801 0.1811159664648925 0 -0.26398946349496999 0.17891766262920439 0 -0.24874496737149099 0.18091175587403899 0 -0.26576380591019277 0.18400243553268561 0 -0.26102458568641801 0.1811159664648925 0 -0.25501052529300627 0.18594619292738371 0 -0.26576380591019277 0.18400243553268561 0 -0.26398946349496999 0.17891766262920439 0 -0.26576380591019277 0.18400243553268561 0 -0.26102458568641801 0.1811159664648925 0 -0.26398946349496999 0.17891766262920439 0 -0.26576380591019277 0.18400243553268561 0 -0.26102458568641801 0.1811159664648925 0 -0.26398946349496999 0.17891766262920439 0 -0.25091590707393119 0.16862937619473481 0 -0.24874496737149099 0.18091175587403899 0 -0.26398946349496999 0.17891766262920439 0 -0.24874496737149099 0.18091175587403899 0 -0.26102458568641801 0.1811159664648925 0 -0.25501052529300627 0.18594619292738371 0 -0.24874496737149099 0.18091175587403899 0 -0.26398946349496999 0.17891766262920439 0 -0.25708097535247759 0.15911985302399939 0 -0.26398946349496999 0.17891766262920439 0 -0.25091590707393119 0.16862937619473481 0 -0.25708097535247759 0.15911985302399939 0 -0.27450002891978198 0.1624969790205075 0 -0.26398946349496999 0.17891766262920439 0 -0.25708097535247759 0.15911985302399939 0 -0.25091590707393119 0.16862937619473481 0 -0.25708097535247759 0.15911985302399939 0 -0.24738686583330791 0.15920414664019819 0 -0.26690871603921562 0.1475665964140119 0 -0.25017248720998547 0.13932204341879451 0 -0.25708097535247759 0.15911985302399939 0 -0.25017248720998547 0.13932204341879451 0 -0.26690871603921562 0.1475665964140119 0 -0.26965355027485838 0.13525360621275451 0 -0.25017248720998547 0.13932204341879451 0 -0.25708097535247759 0.15911985302399939 0 -0.26690871603921562 0.1475665964140119 0 -0.25017248720998547 0.13932204341879451 0 -0.2879435948300349 0.15028899871131829 0 -0.27450002891978198 0.1624969790205075 0 -0.26690871603921562 0.1475665964140119 0 -0.2879435948300349 0.15028899871131829 0 -0.28205656039087851 0.1329494398256803 0 -0.26690871603921562 0.1475665964140119 0 -0.28205656039087851 0.1329494398256803 0 -0.26965355027485838 0.13525360621275451 0 -0.2626695927740173 0.12474798008653699 0 -0.28205656039087851 0.1329494398256803 0 -0.26690871603921562 0.1475665964140119 0 -0.26965355027485838 0.13525360621275451 0 -0.26965355027485838 0.13525360621275451 0 -0.25017248720998547 0.13932204341879451 0 -0.2626695927740173 0.12474798008653699 0 -0.25017248720998547 0.13932204341879451 0 -0.2626695927740173 0.12474798008653699 0 -0.24359769406687889 0.1204805110666855 0 -0.2626695927740173 0.12474798008653699 0 -0.25580746141146998 0.10565197628936319 0 -0.24359769406687889 0.1204805110666855 0 -0.25580746141146998 0.10565197628936319 0 -0.26124107249611112 0.092657754098691036 0 -0.24494597820556269 0.089809247836881045 0 -0.25580746141146998 0.10565197628936319 0 -0.27886552314661839 0.1036862336175509 0 -0.26124107249611112 0.092657754098691036 0 -0.2626695927740173 0.12474798008653699 0 -0.25580746141146998 0.10565197628936319 0 -0.27886552314661839 0.1036862336175509 0 -0.28205656039087851 0.1329494398256803 0 -0.2626695927740173 0.12474798008653699 0 -0.27886552314661839 0.1036862336175509 0 -0.2626695927740173 0.12474798008653699 0 -0.27886552314661839 0.1036862336175509 0 -0.28205656039087851 0.1329494398256803 0 -0.27886552314661839 0.1036862336175509 0 -0.29627674518641439 0.1163352043027806 0 -0.27886552314661839 0.1036862336175509 0 -0.29627674518641439 0.1163352043027806 0 -0.29675438003372462 0.10067252645159951 0 -0.27886552314661839 0.1036862336175509 0 -0.29675438003372462 0.10067252645159951 0 -0.29506145351921942 0.08262448714856499 0 -0.30637790420260769 0.1077636754307314 0 -0.30719027411376298 0.092953031758369609 0 -0.32216942755927719 0.1044725849499384 0 -0.29627674518641439 0.1163352043027806 0 -0.29675438003372462 0.10067252645159951 0 -0.30637790420260769 0.1077636754307314 0 -0.29675438003372462 0.10067252645159951 0 -0.30637790420260769 0.1077636754307314 0 -0.30719027411376298 0.092953031758369609 0 -0.30308742685941698 0.13385559147552939 0 -0.29627674518641439 0.1163352043027806 0 -0.31422211074626649 0.12037480233927041 0 -0.29627674518641439 0.1163352043027806 0 -0.30637790420260769 0.1077636754307314 0 -0.31422211074626649 0.12037480233927041 0 -0.29506145351921942 0.08262448714856499 0 -0.31125738389182023 0.061562740679578828 0 -0.31055651192684891 0.073595079064825167 0 -0.29506145351921942 0.08262448714856499 0 -0.31125738389182023 0.061562740679578828 0 -0.29506145351921942 0.08262448714856499 0 -0.29290202345586208 0.066495089441865149 0 -0.31125738389182023 0.061562740679578828 0 -0.30719027411376298 0.092953031758369609 0 -0.29506145351921942 0.08262448714856499 0 -0.31265464133648069 0.080427248753396671 0 -0.31055651192684891 0.073595079064825167 0 -0.29506145351921942 0.08262448714856499 0 -0.31265464133648069 0.080427248753396671 0 -0.29675438003372462 0.10067252645159951 0 -0.30719027411376298 0.092953031758369609 0 -0.29506145351921942 0.08262448714856499 0 -0.27886552314661839 0.1036862336175509 0 -0.29506145351921942 0.08262448714856499 0 -0.29290202345586208 0.066495089441865149 0 -0.28133596540213768 0.065024048024287781 0 -0.31125738389182023 0.061562740679578828 0 -0.29506145351921942 0.08262448714856499 0 -0.29290202345586208 0.066495089441865149 0 -0.26892400083071238 0.078152168639373104 0 -0.28133596540213768 0.065024048024287781 0 -0.31125738389182023 0.061562740679578828 0 -0.28133596540213768 0.065024048024287781 0 -0.26892400083071238 0.078152168639373104 0 -0.25141454691245541 0.068485355368996928 0 -0.28133596540213768 0.065024048024287781 0 -0.25141454691245541 0.068485355368996928 0 -0.29290202345586208 0.066495089441865149 0 -0.26892400083071238 0.078152168639373104 0 -0.28133596540213768 0.065024048024287781 0 -0.25141454691245541 0.068485355368996928 0 -0.26862975897200131 0.05475102726905965 0 -0.29290202345586208 0.066495089441865149 0 -0.28133596540213768 0.065024048024287781 0 -0.26892400083071238 0.078152168639373104 0 -0.27886552314661839 0.1036862336175509 0 -0.29506145351921942 0.08262448714856499 0 -0.26892400083071238 0.078152168639373104 0 -0.27886552314661839 0.1036862336175509 0 -0.26892400083071238 0.078152168639373104 0 -0.26124107249611112 0.092657754098691036 0 -0.26892400083071238 0.078152168639373104 0 -0.25141454691245541 0.068485355368996928 0 -0.24494597820556269 0.089809247836881045 0 -0.26892400083071238 0.078152168639373104 0 -0.24494597820556269 0.089809247836881045 0 -0.26892400083071238 0.078152168639373104 0 -0.26124107249611112 0.092657754098691036 0 -0.24494597820556269 0.089809247836881045 0 -0.25141454691245541 0.068485355368996928 0 -0.25831488650504308 0.049396768163404943 0 -0.26862975897200131 0.05475102726905965 0 -0.25141454691245541 0.068485355368996928 0 -0.25831488650504308 0.049396768163404943 0 -0.24432076280216031 0.047166806547741247 0 -0.25831488650504308 0.049396768163404943 0 -0.25691003956320763 0.034789260552451219 0 -0.24432076280216031 0.047166806547741247 0 -0.25831488650504308 0.049396768163404943 0 -0.25691003956320763 0.034789260552451219 0 -0.27029932427539122 0.041791391078775678 0 -0.25691003956320763 0.034789260552451219 0 -0.27029932427539122 0.041791391078775678 0 -0.27250550689054442 0.02367887077947143 0 -0.27029932427539122 0.041791391078775678 0 -0.27250550689054442 0.02367887077947143 0 -0.2845133909026481 0.035556283978607862 0 -0.27029932427539122 0.041791391078775678 0 -0.28206476338735631 0.05050574821153804 0 -0.2845133909026481 0.035556283978607862 0 -0.27029932427539122 0.041791391078775678 0 -0.26862975897200131 0.05475102726905965 0 -0.28206476338735631 0.05050574821153804 0 -0.28133596540213768 0.065024048024287781 0 -0.26862975897200131 0.05475102726905965 0 -0.28206476338735631 0.05050574821153804 0 -0.25831488650504308 0.049396768163404943 0 -0.27029932427539122 0.041791391078775678 0 -0.26862975897200131 0.05475102726905965 0 -0.25430018986547698 -0.00612621221049231 0 -0.26559975475773162 0.0065156817321890652 0 -0.24726539525988339 0.0072649071471831209 0 -0.26559975475773162 0.0065156817321890652 0 -0.25647799655420422 0.01978384053654646 0 -0.24726539525988339 0.0072649071471831209 0 -0.25691003956320763 0.034789260552451219 0 -0.25647799655420422 0.01978384053654646 0 -0.2393070426154143 0.027523082989801981 0 -0.26559975475773162 0.0065156817321890652 0 -0.25647799655420422 0.01978384053654646 0 -0.27250550689054442 0.02367887077947143 0 -0.25691003956320763 0.034789260552451219 0 -0.25647799655420422 0.01978384053654646 0 -0.27250550689054442 0.02367887077947143 0 -0.26559975475773162 0.0065156817321890652 0 -0.27250550689054442 0.02367887077947143 0 -0.28323680260587852 0.0054691074990878058 0 -0.27394587021700112 -0.010760545891949269 0 -0.26559975475773162 0.0065156817321890652 0 -0.28323680260587852 0.0054691074990878058 0 -0.29541564460709341 -0.00836752224641313 0 -0.28323680260587852 0.0054691074990878058 0 -0.30767681351208442 0.0074333571717676034 0 -0.28323680260587852 0.0054691074990878058 0 -0.29025606444785468 0.02060122701397216 0 -0.30767681351208442 0.0074333571717676034 0 -0.29025606444785468 0.02060122701397216 0 -0.30334439339010377 0.029290605959711068 0 -0.2845133909026481 0.035556283978607862 0 -0.27250550689054442 0.02367887077947143 0 -0.28323680260587852 0.0054691074990878058 0 -0.29025606444785468 0.02060122701397216 0 -0.27250550689054442 0.02367887077947143 0 -0.29025606444785468 0.02060122701397216 0 -0.2845133909026481 0.035556283978607862 0 -0.29025606444785468 0.02060122701397216 0 -0.30334439339010377 0.029290605959711068 0 -0.30767681351208442 0.0074333571717676034 0 -0.28133596540213768 0.065024048024287781 0 -0.29361301396587453 0.059026254262775663 0 -0.31125738389182023 0.061562740679578828 0 -0.29361301396587453 0.059026254262775663 0 -0.28206476338735631 0.05050574821153804 0 -0.29510297401756652 0.04561825647331081 0 -0.28133596540213768 0.065024048024287781 0 -0.29361301396587453 0.059026254262775663 0 -0.28206476338735631 0.05050574821153804 0 -0.28206476338735631 0.05050574821153804 0 -0.2845133909026481 0.035556283978607862 0 -0.29510297401756652 0.04561825647331081 0 -0.30334439339010377 0.029290605959711068 0 -0.2845133909026481 0.035556283978607862 0 -0.29510297401756652 0.04561825647331081 0 -0.30334439339010377 0.029290605959711068 0 -0.29510297401756652 0.04561825647331081 0 -0.30643337412749611 0.042972084774278982 0 -0.30334439339010377 0.029290605959711068 0 -0.30643337412749611 0.042972084774278982 0 -0.32038008998278489 0.039822968651431923 0 -0.29361301396587453 0.059026254262775663 0 -0.30616363148391262 0.057568931414519998 0 -0.31125738389182023 0.061562740679578828 0 -0.30643337412749611 0.042972084774278982 0 -0.30460761822932131 0.052272067154587043 0 -0.3137467778328123 0.048212531167617811 0 -0.31212316015327879 0.054558334174799279 0 -0.30460761822932131 0.052272067154587043 0 -0.3137467778328123 0.048212531167617811 0 -0.29361301396587453 0.059026254262775663 0 -0.29510297401756652 0.04561825647331081 0 -0.30460761822932131 0.052272067154587043 0 -0.29510297401756652 0.04561825647331081 0 -0.30643337412749611 0.042972084774278982 0 -0.30460761822932131 0.052272067154587043 0 -0.29361301396587453 0.059026254262775663 0 -0.30460761822932131 0.052272067154587043 0 -0.30616363148391262 0.057568931414519998 0 -0.31212316015327879 0.054558334174799279 0 -0.30460761822932131 0.052272067154587043 0 -0.30616363148391262 0.057568931414519998 0 -0.31212316015327879 0.054558334174799279 0 -0.30616363148391262 0.057568931414519998 0 -0.31036158438828482 0.058603563806559317 0 -0.31212316015327879 0.054558334174799279 0 -0.31036158438828482 0.058603563806559317 0 -0.31125738389182023 0.061562740679578828 0 -0.30616363148391262 0.057568931414519998 0 -0.31036158438828482 0.058603563806559317 0 -0.31125738389182023 0.061562740679578828 0 -0.31125738389182023 0.061562740679578828 0 -0.33305815184862242 0.059040829551762292 0 -0.31125738389182023 0.061562740679578828 0 -0.32215634056565923 0.05056463961039482 0 -0.33305815184862242 0.059040829551762292 0 -0.31212316015327879 0.054558334174799279 0 -0.31125738389182023 0.061562740679578828 0 -0.32215634056565923 0.05056463961039482 0 -0.31212316015327879 0.054558334174799279 0 -0.32215634056565923 0.05056463961039482 0 -0.3137467778328123 0.048212531167617811 0 -0.32215634056565923 0.05056463961039482 0 -0.32038008998278489 0.039822968651431923 0 -0.34172770155232918 0.041028925159418431 0 -0.30643337412749611 0.042972084774278982 0 -0.3137467778328123 0.048212531167617811 0 -0.32038008998278489 0.039822968651431923 0 -0.32215634056565923 0.05056463961039482 0 -0.3137467778328123 0.048212531167617811 0 -0.32038008998278489 0.039822968651431923 0 -0.32038008998278489 0.039822968651431923 0 -0.34172770155232918 0.041028925159418431 0 -0.33048676732080629 0.024187002938852339 0 -0.34172770155232918 0.041028925159418431 0 -0.33305815184862242 0.059040829551762292 0 -0.35485891980542461 0.056518918423945949 0 -0.32215634056565923 0.05056463961039482 0 -0.34172770155232918 0.041028925159418431 0 -0.33305815184862242 0.059040829551762292 0 -0.30767681351208442 0.0074333571717676034 0 -0.33048676732080629 0.024187002938852339 0 -0.33587161933075749 0.001795895336300262 0 -0.30334439339010377 0.029290605959711068 0 -0.32038008998278489 0.039822968651431923 0 -0.33048676732080629 0.024187002938852339 0 -0.30334439339010377 0.029290605959711068 0 -0.33048676732080629 0.024187002938852339 0 -0.30334439339010377 0.029290605959711068 0 -0.30767681351208442 0.0074333571717676034 0 -0.33048676732080629 0.024187002938852339 0 -0.34172770155232918 0.041028925159418431 0 -0.33048676732080629 0.024187002938852339 0 -0.35762914125150858 0.019083399917993651 0 -0.33048676732080629 0.024187002938852339 0 -0.33587161933075749 0.001795895336300262 0 -0.35762914125150858 0.019083399917993651 0 -0.33587161933075749 0.001795895336300262 0 -0.35899168621924421 0.00086553536704151541 0 -0.35762914125150858 0.019083399917993651 0 -0.33048676732080629 0.024187002938852339 0 -0.35762914125150858 0.019083399917993651 0 -0.38477151518221098 0.013979796897134951 0 -0.35762914125150858 0.019083399917993651 0 -0.36980048948811522 0.038103246060879649 0 -0.38477151518221098 0.013979796897134951 0 -0.35762914125150858 0.019083399917993651 0 -0.38477151518221098 0.013979796897134951 0 -0.35899168621924421 0.00086553536704151541 0 -0.35762914125150858 0.019083399917993651 0 -0.37165504079712819 -0.01311134974768053 0 -0.38477151518221098 0.013979796897134951 0 -0.35899168621924421 0.00086553536704151541 0 -0.33305815184862242 0.059040829551762292 0 -0.35485891980542461 0.056518918423945949 0 -0.34172770155232918 0.041028925159418431 0 -0.35485891980542461 0.056518918423945949 0 -0.36980048948811522 0.038103246060879649 0 -0.34172770155232918 0.041028925159418431 0 -0.35762914125150858 0.019083399917993651 0 -0.36980048948811522 0.038103246060879649 0 -0.35485891980542461 0.056518918423945949 0 -0.36980048948811522 0.038103246060879649 0 -0.37387060686406048 0.058432376402733743 0 -0.38261101992331892 0.078710495489690821 0 -0.37387060686406048 0.058432376402733743 0 -0.36303312648867658 0.074713566469028825 0 -0.35485891980542461 0.056518918423945949 0 -0.37387060686406048 0.058432376402733743 0 -0.36303312648867658 0.074713566469028825 0 -0.35485891980542461 0.056518918423945949 0 -0.36303312648867658 0.074713566469028825 0 -0.34229222433897522 0.076467181869680517 0 -0.36303312648867658 0.074713566469028825 0 -0.35707152359327982 0.090788977974794363 0 -0.34229222433897522 0.076467181869680517 0 -0.35707152359327982 0.090788977974794363 0 -0.34368916637424479 0.1009821419135776 0 -0.34229222433897522 0.076467181869680517 0 -0.38261101992331892 0.078710495489690821 0 -0.36303312648867658 0.074713566469028825 0 -0.37375598061089299 0.094714931940517666 0 -0.36303312648867658 0.074713566469028825 0 -0.35707152359327982 0.090788977974794363 0 -0.37375598061089299 0.094714931940517666 0 -0.35707152359327982 0.090788977974794363 0 -0.37375598061089299 0.094714931940517666 0 -0.36677967939422651 0.1100567331138379 0 -0.36466883973260389 0.1328066613120388 0 -0.36677967939422651 0.1100567331138379 0 -0.35326190658380729 0.119425874385125 0 -0.37942854020962169 0.12909692076765031 0 -0.36466883973260389 0.1328066613120388 0 -0.36677967939422651 0.1100567331138379 0 -0.35326190658380729 0.119425874385125 0 -0.34368916637424479 0.1009821419135776 0 -0.33873936317960901 0.1188279433010534 0 -0.36677967939422651 0.1100567331138379 0 -0.35326190658380729 0.119425874385125 0 -0.34368916637424479 0.1009821419135776 0 -0.3524623415529396 0.13124526941364309 0 -0.35326190658380729 0.119425874385125 0 -0.33873936317960901 0.1188279433010534 0 -0.35707152359327982 0.090788977974794363 0 -0.36677967939422651 0.1100567331138379 0 -0.34368916637424479 0.1009821419135776 0 -0.34368916637424479 0.1009821419135776 0 -0.33873936317960901 0.1188279433010534 0 -0.32216942755927719 0.1044725849499384 0 -0.34368916637424479 0.1009821419135776 0 -0.32216942755927719 0.1044725849499384 0 -0.3245804420316436 0.08724138646484994 0 -0.33873936317960901 0.1188279433010534 0 -0.31422211074626649 0.12037480233927041 0 -0.32216942755927719 0.1044725849499384 0 -0.30637790420260769 0.1077636754307314 0 -0.31422211074626649 0.12037480233927041 0 -0.32216942755927719 0.1044725849499384 0 -0.30719027411376298 0.092953031758369609 0 -0.32216942755927719 0.1044725849499384 0 -0.3245804420316436 0.08724138646484994 0 -0.30719027411376298 0.092953031758369609 0 -0.3245804420316436 0.08724138646484994 0 -0.31265464133648069 0.080427248753396671 0 -0.3245804420316436 0.08724138646484994 0 -0.31265464133648069 0.080427248753396671 0 -0.32325256895987531 0.069765839677760191 0 -0.31125738389182023 0.061562740679578828 0 -0.33305815184862242 0.059040829551762292 0 -0.32325256895987531 0.069765839677760191 0 -0.31055651192684891 0.073595079064825167 0 -0.31265464133648069 0.080427248753396671 0 -0.32325256895987531 0.069765839677760191 0 -0.31055651192684891 0.073595079064825167 0 -0.31125738389182023 0.061562740679578828 0 -0.32325256895987531 0.069765839677760191 0 -0.33305815184862242 0.059040829551762292 0 -0.35485891980542461 0.056518918423945949 0 -0.34229222433897522 0.076467181869680517 0 -0.33305815184862242 0.059040829551762292 0 -0.32325256895987531 0.069765839677760191 0 -0.34229222433897522 0.076467181869680517 0 -0.3245804420316436 0.08724138646484994 0 -0.32325256895987531 0.069765839677760191 0 -0.34229222433897522 0.076467181869680517 0 -0.34368916637424479 0.1009821419135776 0 -0.3245804420316436 0.08724138646484994 0 -0.34229222433897522 0.076467181869680517 0 -0.40241568386225568 0.5 0 -0.39086688444112011 0.48982142911543458 0 -0.37931808501998387 0.5 0 -0.40241568386225568 0.5 0 -0.39086688444112011 0.48982142911543458 0 -0.41112826349235609 0.48722131872349089 0 -0.39999697554550279 0.47685321090741528 0 -0.39086688444112011 0.48982142911543458 0 -0.41112826349235609 0.48722131872349089 0 -0.39086688444112011 0.48982142911543458 0 -0.37931808501998387 0.5 0 -0.37675931517958722 0.4836607016541048 0 -0.39999697554550279 0.47685321090741528 0 -0.37675931517958722 0.4836607016541048 0 -0.39999697554550279 0.47685321090741528 0 -0.39086688444112011 0.48982142911543458 0 -0.37675931517958722 0.4836607016541048 0 -0.38512292233541201 0.4695355333618999 0 -0.37675931517958722 0.4836607016541048 0 -0.37122999671224072 0.46302722280341402 0 -0.39999697554550279 0.47685321090741528 0 -0.38512292233541201 0.4695355333618999 0 -0.37675931517958722 0.4836607016541048 0 -0.38512292233541201 0.4695355333618999 0 -0.39156604637086451 0.45517317899655158 0 -0.37122999671224072 0.46302722280341402 0 -0.37540822384494321 0.44069128622214743 0 -0.39156604637086451 0.45517317899655158 0 -0.37122999671224072 0.46302722280341402 0 -0.37540822384494321 0.44069128622214743 0 -0.39750880605519823 0.43960840544293289 0 -0.39156604637086451 0.45517317899655158 0 -0.39750880605519823 0.43960840544293289 0 -0.40631210271995322 0.45660020059294409 0 -0.41288742864083933 0.44246414379781218 0 -0.39750880605519823 0.43960840544293289 0 -0.39156604637086451 0.45517317899655158 0 -0.40631210271995322 0.45660020059294409 0 -0.39999697554550279 0.47685321090741528 0 -0.38512292233541201 0.4695355333618999 0 -0.39156604637086451 0.45517317899655158 0 -0.39999697554550279 0.47685321090741528 0 -0.39156604637086451 0.45517317899655158 0 -0.40631210271995322 0.45660020059294409 0 -0.39999697554550279 0.47685321090741528 0 -0.41300056109271321 0.46583561056334433 0 -0.40631210271995322 0.45660020059294409 0 -0.41300056109271321 0.46583561056334433 0 -0.40631210271995322 0.45660020059294409 0 -0.42245853019397761 0.45984331059229039 0 -0.41300056109271321 0.46583561056334433 0 -0.42245853019397761 0.45984331059229039 0 -0.42323463591141891 0.4700457201607271 0 -0.42245853019397761 0.45984331059229039 0 -0.42051294316752891 0.43426731591942358 0 -0.40631210271995322 0.45660020059294409 0 -0.41288742864083933 0.44246414379781218 0 -0.42245853019397761 0.45984331059229039 0 -0.41288742864083933 0.44246414379781218 0 -0.42245853019397761 0.45984331059229039 0 -0.41288742864083933 0.44246414379781218 0 -0.42245853019397761 0.45984331059229039 0 -0.42051294316752891 0.43426731591942358 0 -0.42922775237878191 0.44470602859230918 0 -0.42741703422537558 0.45287885104583908 0 -0.42051294316752891 0.43426731591942358 0 -0.42741703422537558 0.45287885104583908 0 -0.42245853019397761 0.45984331059229039 0 -0.42051294316752891 0.43426731591942358 0 -0.42922775237878191 0.44470602859230918 0 -0.43433239479241093 0.43998749689086469 0 -0.42051294316752891 0.43426731591942358 0 -0.43464863732981229 0.45169045051310958 0 -0.43433239479241093 0.43998749689086469 0 -0.4378162008392934 0.45199725620000031 0 -0.42922775237878191 0.44470602859230918 0 -0.43464863732981229 0.45169045051310958 0 -0.43433239479241093 0.43998749689086469 0 -0.43433239479241093 0.43998749689086469 0 -0.4378162008392934 0.45199725620000031 0 -0.42922775237878191 0.44470602859230918 0 -0.42741703422537558 0.45287885104583908 0 -0.43464863732981229 0.45169045051310958 0 -0.43464863732981229 0.45169045051310958 0 -0.43525474808763481 0.45560964969055773 0 -0.4378162008392934 0.45199725620000031 0 -0.43464863732981229 0.45169045051310958 0 -0.4378162008392934 0.45199725620000031 0 -0.42245853019397761 0.45984331059229039 0 -0.42740448720456348 0.46882415896884089 0 -0.42323463591141891 0.4700457201607271 0 -0.42245853019397761 0.45984331059229039 0 -0.42977549821711653 0.46393208031867161 0 -0.42740448720456348 0.46882415896884089 0 -0.42245853019397761 0.45984331059229039 0 -0.42323463591141891 0.4700457201607271 0 -0.42245853019397761 0.45984331059229039 0 -0.43202410459076213 0.4592645560980867 0 -0.42977549821711653 0.46393208031867161 0 -0.42245853019397761 0.45984331059229039 0 -0.42740448720456348 0.46882415896884089 0 -0.42741703422537558 0.45287885104583908 0 -0.42245853019397761 0.45984331059229039 0 -0.43202410459076213 0.4592645560980867 0 -0.43202410459076213 0.4592645560980867 0 -0.43525474808763481 0.45560964969055773 0 -0.4402038630498919 0.46022826793683791 0 -0.42741703422537558 0.45287885104583908 0 -0.43202410459076213 0.4592645560980867 0 -0.43212036064983 0.45486283137057121 0 -0.43202410459076213 0.4592645560980867 0 -0.43212036064983 0.45486283137057121 0 -0.43525474808763481 0.45560964969055773 0 -0.42741703422537558 0.45287885104583908 0 -0.43464863732981229 0.45169045051310958 0 -0.43212036064983 0.45486283137057121 0 -0.43464863732981229 0.45169045051310958 0 -0.43212036064983 0.45486283137057121 0 -0.43525474808763481 0.45560964969055773 0 -0.43202410459076213 0.4592645560980867 0 -0.43441144731253412 0.46677146453462098 0 -0.4402038630498919 0.46022826793683791 0 -0.43441144731253412 0.46677146453462098 0 -0.4402038630498919 0.46022826793683791 0 -0.43202410459076213 0.4592645560980867 0 -0.42977549821711653 0.46393208031867161 0 -0.43441144731253412 0.46677146453462098 0 -0.43441144731253412 0.46677146453462098 0 -0.42740448720456348 0.46882415896884089 0 -0.42977549821711653 0.46393208031867161 0 -0.43441144731253412 0.46677146453462098 0 -0.42740448720456348 0.46882415896884089 0 -0.42607692588275231 0.47618626049130158 0 -0.42323463591141891 0.4700457201607271 0 -0.42551328270452748 0.49999999999999439 0 -0.43441144731253412 0.46677146453462098 0 -0.42939486150271178 0.47243827242474051 0 -0.43833759496566199 0.4751403111646002 0 -0.43441144731253412 0.46677146453462098 0 -0.42939486150271178 0.47243827242474051 0 -0.43441144731253412 0.46677146453462098 0 -0.42740448720456348 0.46882415896884089 0 -0.42939486150271178 0.47243827242474051 0 -0.42939486150271178 0.47243827242474051 0 -0.42607692588275231 0.47618626049130158 0 -0.43698429593079291 0.48621913621236862 0 -0.42939486150271178 0.47243827242474051 0 -0.43698429593079291 0.48621913621236862 0 -0.42939486150271178 0.47243827242474051 0 -0.43698429593079291 0.48621913621236862 0 -0.43833759496566199 0.4751403111646002 0 -0.42740448720456348 0.46882415896884089 0 -0.42939486150271178 0.47243827242474051 0 -0.42323463591141891 0.4700457201607271 0 -0.42740448720456348 0.46882415896884089 0 -0.42939486150271178 0.47243827242474051 0 -0.42939486150271178 0.47243827242474051 0 -0.42607692588275231 0.47618626049130158 0 -0.42939486150271178 0.47243827242474051 0 -0.42607692588275231 0.47618626049130158 0 -0.42323463591141891 0.4700457201607271 0 -0.42740448720456348 0.46882415896884089 0 -0.42323463591141891 0.4700457201607271 0 -0.39999697554550279 0.47685321090741528 0 -0.41300056109271321 0.46583561056334433 0 -0.42323463591141891 0.4700457201607271 0 -0.39999697554550279 0.47685321090741528 0 -0.42323463591141891 0.4700457201607271 0 -0.39999697554550279 0.47685321090741528 0 -0.42323463591141891 0.4700457201607271 0 -0.41112826349235609 0.48722131872349089 0 -0.42323463591141891 0.4700457201607271 0 -0.41112826349235609 0.48722131872349089 0 -0.42551328270452748 0.49999999999999439 0 -0.40241568386225568 0.5 0 -0.41112826349235609 0.48722131872349089 0 -0.42551328270452748 0.49999999999999439 0 -0.42607692588275231 0.47618626049130158 0 -0.42551328270452748 0.49999999999999439 0 -0.43698429593079291 0.48621913621236862 0 -0.42323463591141891 0.4700457201607271 0 -0.42551328270452748 0.49999999999999439 0 -0.42551328270452748 0.49999999999999439 0 -0.43698429593079291 0.48621913621236862 0 -0.44457373035887188 0.49999999999999778 0 -0.444979789926923 0.49214165801974252 0 -0.45174089698123732 0.50000000000000089 0 -0.44662023643678911 0.48234749586660319 0 -0.45174089698123732 0.50000000000000089 0 -0.44662023643678911 0.48234749586660319 0 -0.45637898416887102 0.48036115820764269 0 -0.45174089698123732 0.50000000000000089 0 -0.44662023643678911 0.48234749586660319 0 -0.43698429593079291 0.48621913621236862 0 -0.44457373035887188 0.49999999999999778 0 -0.43698429593079291 0.48621913621236862 0 -0.44457373035887188 0.49999999999999778 0 -0.444979789926923 0.49214165801974252 0 -0.43698429593079291 0.48621913621236862 0 -0.444979789926923 0.49214165801974252 0 -0.44662023643678911 0.48234749586660319 0 -0.44457373035887188 0.49999999999999778 0 -0.444979789926923 0.49214165801974252 0 -0.45174089698123732 0.50000000000000089 0 -0.44662023643678911 0.48234749586660319 0 -0.44149957589233868 0.46469499173320622 0 -0.44662023643678911 0.48234749586660319 0 -0.44957933915045689 0.47192015975511359 0 -0.44149957589233868 0.46469499173320622 0 -0.43833759496566199 0.4751403111646002 0 -0.44662023643678911 0.48234749586660319 0 -0.44149957589233868 0.46469499173320622 0 -0.43441144731253412 0.46677146453462098 0 -0.43833759496566199 0.4751403111646002 0 -0.44149957589233868 0.46469499173320622 0 -0.43698429593079291 0.48621913621236862 0 -0.43833759496566199 0.4751403111646002 0 -0.44662023643678911 0.48234749586660319 0 -0.44662023643678911 0.48234749586660319 0 -0.44957933915045689 0.47192015975511359 0 -0.45637898416887102 0.48036115820764269 0 -0.45637898416887102 0.48036115820764269 0 -0.45506047273626388 0.4607223164152896 0 -0.44957933915045689 0.47192015975511359 0 -0.45637898416887102 0.48036115820764269 0 -0.45506047273626388 0.4607223164152896 0 -0.45637898416887102 0.48036115820764269 0 -0.47119458431486022 0.4718514551131095 0 -0.45506047273626388 0.4607223164152896 0 -0.45637898416887102 0.48036115820764269 0 -0.47174100035252781 0.48662923889743648 0 -0.47119458431486022 0.4718514551131095 0 -0.45174089698123732 0.50000000000000089 0 -0.45637898416887102 0.48036115820764269 0 -0.45769749560147732 0.49999999999999573 0 -0.45637898416887102 0.48036115820764269 0 -0.45769749560147732 0.49999999999999573 0 -0.47174100035252781 0.48662923889743648 0 -0.45637898416887102 0.48036115820764269 0 -0.45769749560147732 0.49999999999999573 0 -0.45769749560147732 0.49999999999999573 0 -0.47174100035252781 0.48662923889743648 0 -0.5 0.5 0 -0.47174100035252781 0.48662923889743648 0 -0.47119458431486022 0.4718514551131095 0 -0.48299048472039952 0.47888654630796162 0 -0.47119458431486022 0.4718514551131095 0 -0.48299048472039952 0.47888654630796162 0 -0.48363723662257219 0.46687873190582391 0 -0.48299048472039952 0.47888654630796162 0 -0.49999999999999961 0.47110187817444121 0 -0.5 0.5 0 -0.48299048472039952 0.47888654630796162 0 -0.49999999999999961 0.47110187817444121 0 -0.48363723662257219 0.46687873190582391 0 -0.47174100035252781 0.48662923889743648 0 -0.48299048472039952 0.47888654630796162 0 -0.5 0.5 0 -0.48705149562881911 0.45135052128234909 0 -0.50000000000000067 0.43807222344947888 0 -0.48523152003193532 0.43206064960988622 0 -0.48705149562881911 0.45135052128234909 0 -0.50000000000000067 0.43807222344947888 0 -0.49999999999999389 0.4475572468174418 0 -0.49999999999999389 0.4475572468174418 0 -0.500000000000004 0.45802029035794201 0 -0.49447351185859062 0.45351534285885048 0 -0.48705149562881911 0.45135052128234909 0 -0.49999999999999389 0.4475572468174418 0 -0.49447351185859062 0.45351534285885048 0 -0.48705149562881911 0.45135052128234909 0 -0.49999999999999389 0.4475572468174418 0 -0.500000000000004 0.45802029035794201 0 -0.49447351185859062 0.45351534285885048 0 -0.49084255180554548 0.45713331297767151 0 -0.49999999999999961 0.47110187817444121 0 -0.49084255180554548 0.45713331297767151 0 -0.48363723662257219 0.46687873190582391 0 -0.500000000000004 0.45802029035794201 0 -0.49084255180554548 0.45713331297767151 0 -0.49999999999999961 0.47110187817444121 0 -0.49084255180554548 0.45713331297767151 0 -0.49999999999999961 0.47110187817444121 0 -0.500000000000004 0.45802029035794201 0 -0.49084255180554548 0.45713331297767151 0 -0.48705149562881911 0.45135052128234909 0 -0.49447351185859062 0.45351534285885048 0 -0.49084255180554548 0.45713331297767151 0 -0.48705149562881911 0.45135052128234909 0 -0.49084255180554548 0.45713331297767151 0 -0.48705149562881911 0.45135052128234909 0 -0.47315856227205633 0.45542046695593541 0 -0.48705149562881911 0.45135052128234909 0 -0.49084255180554548 0.45713331297767151 0 -0.47315856227205633 0.45542046695593541 0 -0.49084255180554548 0.45713331297767151 0 -0.47315856227205633 0.45542046695593541 0 -0.47119458431486022 0.4718514551131095 0 -0.48363723662257219 0.46687873190582391 0 -0.47315856227205633 0.45542046695593541 0 -0.49084255180554548 0.45713331297767151 0 -0.48363723662257219 0.46687873190582391 0 -0.47315856227205633 0.45542046695593541 0 -0.48705149562881911 0.45135052128234909 0 -0.47315856227205633 0.45542046695593541 0 -0.47046328765258272 0.42604846752542402 0 -0.48705149562881911 0.45135052128234909 0 -0.47046328765258272 0.42604846752542402 0 -0.47315856227205633 0.45542046695593541 0 -0.46052331725354068 0.44432637442317718 0 -0.47046328765258272 0.42604846752542402 0 -0.45549521298930418 0.44295493787287338 0 -0.46052331725354068 0.44432637442317718 0 -0.47046328765258272 0.42604846752542402 0 -0.47315856227205633 0.45542046695593541 0 -0.46052331725354068 0.44432637442317718 0 -0.45458372744898001 0.45362133492914281 0 -0.45398234350404187 0.44466389712540583 0 -0.46052331725354068 0.44432637442317718 0 -0.45458372744898001 0.45362133492914281 0 -0.45398234350404187 0.44466389712540583 0 -0.45458372744898001 0.45362133492914281 0 -0.45398234350404187 0.44466389712540583 0 -0.45549521298930418 0.44295493787287338 0 -0.46052331725354068 0.44432637442317718 0 -0.45398234350404187 0.44466389712540583 0 -0.45549521298930418 0.44295493787287338 0 -0.47119458431486022 0.4718514551131095 0 -0.47315856227205633 0.45542046695593541 0 -0.45506047273626388 0.4607223164152896 0 -0.47315856227205633 0.45542046695593541 0 -0.45458372744898001 0.45362133492914281 0 -0.45506047273626388 0.4607223164152896 0 -0.47315856227205633 0.45542046695593541 0 -0.45506047273626388 0.4607223164152896 0 -0.47315856227205633 0.45542046695593541 0 -0.45458372744898001 0.45362133492914281 0 -0.45458372744898001 0.45362133492914281 0 -0.45506047273626388 0.4607223164152896 0 -0.45506047273626388 0.4607223164152896 0 -0.44761481279347742 0.45842543976233802 0 -0.44149957589233868 0.46469499173320622 0 -0.45506047273626388 0.4607223164152896 0 -0.44149957589233868 0.46469499173320622 0 -0.44957933915045689 0.47192015975511359 0 -0.45506047273626388 0.4607223164152896 0 -0.44149957589233868 0.46469499173320622 0 -0.45458372744898001 0.45362133492914281 0 -0.44761481279347742 0.45842543976233802 0 -0.44672642483991359 0.45286028779721499 0 -0.45458372744898001 0.45362133492914281 0 -0.44672642483991359 0.45286028779721499 0 -0.45458372744898001 0.45362133492914281 0 -0.45506047273626388 0.4607223164152896 0 -0.44761481279347742 0.45842543976233802 0 -0.4402038630498919 0.46022826793683791 0 -0.4378162008392934 0.45199725620000031 0 -0.43525474808763481 0.45560964969055773 0 -0.4402038630498919 0.46022826793683791 0 -0.4378162008392934 0.45199725620000031 0 -0.4402038630498919 0.46022826793683791 0 -0.44672642483991359 0.45286028779721499 0 -0.4378162008392934 0.45199725620000031 0 -0.4402038630498919 0.46022826793683791 0 -0.44672642483991359 0.45286028779721499 0 -0.44761481279347742 0.45842543976233802 0 -0.4402038630498919 0.46022826793683791 0 -0.44672642483991359 0.45286028779721499 0 -0.44761481279347742 0.45842543976233802 0 -0.4402038630498919 0.46022826793683791 0 -0.44149957589233868 0.46469499173320622 0 -0.4402038630498919 0.46022826793683791 0 -0.44149957589233868 0.46469499173320622 0 -0.43441144731253412 0.46677146453462098 0 -0.4402038630498919 0.46022826793683791 0 -0.44149957589233868 0.46469499173320622 0 -0.43441144731253412 0.46677146453462098 0 -0.44149957589233868 0.46469499173320622 0 -0.45398234350404187 0.44466389712540583 0 -0.44309190565253048 0.44395670006043703 0 -0.44347307696730559 0.43237620358290357 0 -0.45398234350404187 0.44466389712540583 0 -0.45458372744898001 0.45362133492914281 0 -0.44672642483991359 0.45286028779721499 0 -0.45398234350404187 0.44466389712540583 0 -0.44672642483991359 0.45286028779721499 0 -0.45398234350404187 0.44466389712540583 0 -0.44672642483991359 0.45286028779721499 0 -0.44309190565253048 0.44395670006043703 0 -0.44672642483991359 0.45286028779721499 0 -0.4378162008392934 0.45199725620000031 0 -0.43433239479241093 0.43998749689086469 0 -0.4378162008392934 0.45199725620000031 0 -0.44309190565253048 0.44395670006043703 0 -0.44672642483991359 0.45286028779721499 0 -0.4378162008392934 0.45199725620000031 0 -0.44309190565253048 0.44395670006043703 0 -0.43433239479241093 0.43998749689086469 0 -0.44309190565253048 0.44395670006043703 0 -0.44347307696730559 0.43237620358290357 0 -0.44347307696730559 0.43237620358290357 0 -0.45223441645586798 0.41862903545127578 0 -0.43277461268066131 0.42468235539065963 0 -0.45398234350404187 0.44466389712540583 0 -0.44347307696730559 0.43237620358290357 0 -0.45223441645586798 0.41862903545127578 0 -0.45398234350404187 0.44466389712540583 0 -0.45223441645586798 0.41862903545127578 0 -0.45223441645586798 0.41862903545127578 0 -0.43161238306822519 0.4102347472983715 0 -0.45183145026142951 0.41262697195407111 0 -0.43161238306822519 0.4102347472983715 0 -0.45183145026142951 0.41262697195407111 0 -0.44199866353467238 0.39989291193395199 0 -0.43161238306822519 0.4102347472983715 0 -0.45223441645586798 0.41862903545127578 0 -0.45183145026142951 0.41262697195407111 0 -0.43161238306822519 0.4102347472983715 0 -0.45223441645586798 0.41862903545127578 0 -0.43161238306822519 0.4102347472983715 0 -0.43277461268066131 0.42468235539065963 0 -0.45223441645586798 0.41862903545127578 0 -0.45183145026142951 0.41262697195407111 0 -0.45183145026142951 0.41262697195407111 0 -0.45924987534489758 0.41350861390642291 0 -0.46156557065170672 0.39534753635699349 0 -0.45183145026142951 0.41262697195407111 0 -0.45924987534489758 0.41350861390642291 0 -0.45924987534489758 0.41350861390642291 0 -0.4582830357802774 0.42109115218738541 0 -0.45223441645586798 0.41862903545127578 0 -0.45183145026142951 0.41262697195407111 0 -0.45924987534489758 0.41350861390642291 0 -0.45223441645586798 0.41862903545127578 0 -0.45924987534489758 0.41350861390642291 0 -0.4582830357802774 0.42109115218738541 0 -0.45223441645586798 0.41862903545127578 0 -0.4582830357802774 0.42109115218738541 0 -0.45924987534489758 0.41350861390642291 0 -0.4582830357802774 0.42109115218738541 0 -0.47017522805361017 0.40974581560838241 0 -0.4582830357802774 0.42109115218738541 0 -0.46642872852377398 0.41989301688509728 0 -0.47017522805361017 0.40974581560838241 0 -0.45549521298930418 0.44295493787287338 0 -0.4582830357802774 0.42109115218738541 0 -0.47046328765258272 0.42604846752542402 0 -0.45549521298930418 0.44295493787287338 0 -0.47046328765258272 0.42604846752542402 0 -0.45549521298930418 0.44295493787287338 0 -0.45223441645586798 0.41862903545127578 0 -0.4582830357802774 0.42109115218738541 0 -0.45398234350404187 0.44466389712540583 0 -0.45549521298930418 0.44295493787287338 0 -0.45223441645586798 0.41862903545127578 0 -0.45549521298930418 0.44295493787287338 0 -0.4582830357802774 0.42109115218738541 0 -0.4582830357802774 0.42109115218738541 0 -0.47046328765258272 0.42604846752542402 0 -0.4582830357802774 0.42109115218738541 0 -0.46642872852377398 0.41989301688509728 0 -0.47046328765258272 0.42604846752542402 0 -0.46642872852377398 0.41989301688509728 0 -0.47046328765258272 0.42604846752542402 0 -0.48705149562881911 0.45135052128234909 0 -0.47046328765258272 0.42604846752542402 0 -0.48523152003193532 0.43206064960988622 0 -0.47046328765258272 0.42604846752542402 0 -0.48523152003193532 0.43206064960988622 0 -0.48253452394279739 0.42278856272906479 0 -0.47046328765258272 0.42604846752542402 0 -0.48523152003193532 0.43206064960988622 0 -0.47046328765258272 0.42604846752542402 0 -0.47310822639329808 0.41585221972783981 0 -0.48259873776272799 0.41233840426641688 0 -0.48259873776272799 0.41233840426641688 0 -0.49184479791265651 0.42070612126966189 0 -0.47834645171789503 0.39515502089813209 0 -0.47046328765258272 0.42604846752542402 0 -0.48259873776272799 0.41233840426641688 0 -0.46642872852377398 0.41989301688509728 0 -0.47310822639329808 0.41585221972783981 0 -0.47017522805361017 0.40974581560838241 0 -0.46642872852377398 0.41989301688509728 0 -0.47046328765258272 0.42604846752542402 0 -0.47310822639329808 0.41585221972783981 0 -0.47310822639329808 0.41585221972783981 0 -0.47017522805361017 0.40974581560838241 0 -0.48259873776272799 0.41233840426641688 0 -0.48253452394279739 0.42278856272906479 0 -0.47046328765258272 0.42604846752542402 0 -0.48259873776272799 0.41233840426641688 0 -0.49406477637929819 0.41084019873899208 0 -0.5 0.41616275482818649 0 -0.50000000000000178 0.39425328620689409 0 -0.49184479791265651 0.42070612126966189 0 -0.48961064614273458 0.40520802051753851 0 -0.47834645171789503 0.39515502089813209 0 -0.48253452394279739 0.42278856272906479 0 -0.48259873776272799 0.41233840426641688 0 -0.49184479791265651 0.42070612126966189 0 -0.49184479791265651 0.42070612126966189 0 -0.47834645171789503 0.39515502089813209 0 -0.49184479791265651 0.42070612126966189 0 -0.49406477637929819 0.41084019873899208 0 -0.48961064614273458 0.40520802051753851 0 -0.49184479791265651 0.42070612126966189 0 -0.49406477637929819 0.41084019873899208 0 -0.5 0.41616275482818649 0 -0.50000000000000067 0.43807222344947888 0 -0.49184479791265651 0.42070612126966189 0 -0.48523152003193532 0.43206064960988622 0 -0.50000000000000067 0.43807222344947888 0 -0.49184479791265651 0.42070612126966189 0 -0.5 0.41616275482818649 0 -0.50000000000000067 0.43807222344947888 0 -0.48523152003193532 0.43206064960988622 0 -0.48253452394279739 0.42278856272906479 0 -0.49184479791265651 0.42070612126966189 0 -0.48523152003193532 0.43206064960988622 0 -0.48521753258708428 0.38050210387831462 0 -0.50000000000000178 0.39425328620689409 0 -0.5 0.36418318580067188 0 -0.48521753258708428 0.38050210387831462 0 -0.50000000000000178 0.39425328620689409 0 -0.47834645171789503 0.39515502089813209 0 -0.48521753258708428 0.38050210387831462 0 -0.50000000000000178 0.39425328620689409 0 -0.49406477637929819 0.41084019873899208 0 -0.50000000000000178 0.39425328620689409 0 -0.48961064614273458 0.40520802051753851 0 -0.50000000000000178 0.39425328620689409 0 -0.48961064614273458 0.40520802051753851 0 -0.47834645171789503 0.39515502089813209 0 -0.47017522805361017 0.40974581560838241 0 -0.47834645171789503 0.39515502089813209 0 -0.46156557065170672 0.39534753635699349 0 -0.47017522805361017 0.40974581560838241 0 -0.48259873776272799 0.41233840426641688 0 -0.47834645171789503 0.39515502089813209 0 -0.48521753258708428 0.38050210387831462 0 -0.47834645171789503 0.39515502089813209 0 -0.46488706187617601 0.36929840133910941 0 -0.47834645171789503 0.39515502089813209 0 -0.46488706187617601 0.36929840133910941 0 -0.46156557065170672 0.39534753635699349 0 -0.46488706187617601 0.36929840133910941 0 -0.47834645171789503 0.39515502089813209 0 -0.46156557065170672 0.39534753635699349 0 -0.46488706187617601 0.36929840133910941 0 -0.46156557065170672 0.39534753635699349 0 -0.45010281114608969 0.38687939839297231 0 -0.46488706187617601 0.36929840133910941 0 -0.45183145026142951 0.41262697195407111 0 -0.46156557065170672 0.39534753635699349 0 -0.45010281114608969 0.38687939839297231 0 -0.45924987534489758 0.41350861390642291 0 -0.47017522805361017 0.40974581560838241 0 -0.46156557065170672 0.39534753635699349 0 -0.45924987534489758 0.41350861390642291 0 -0.46156557065170672 0.39534753635699349 0 -0.45183145026142951 0.41262697195407111 0 -0.45010281114608969 0.38687939839297231 0 -0.45183145026142951 0.41262697195407111 0 -0.44199866353467238 0.39989291193395199 0 -0.45010281114608969 0.38687939839297231 0 -0.44199866353467238 0.39989291193395199 0 -0.4416095308026235 0.39016558755977621 0 -0.43384168556913028 0.3925858435927993 0 -0.44199866353467238 0.39989291193395199 0 -0.45010281114608969 0.38687939839297231 0 -0.4416095308026235 0.39016558755977621 0 -0.45010281114608969 0.38687939839297231 0 -0.44098048884084362 0.38027559590255661 0 -0.46488706187617601 0.36929840133910941 0 -0.4416095308026235 0.39016558755977621 0 -0.44098048884084362 0.38027559590255661 0 -0.43384168556913028 0.3925858435927993 0 -0.45010281114608969 0.38687939839297231 0 -0.4416095308026235 0.39016558755977621 0 -0.44098048884084362 0.38027559590255661 0 -0.44098048884084362 0.38027559590255661 0 -0.41723516051552478 0.39117875164196708 0 -0.41599930271150931 0.37493260475561468 0 -0.44098048884084362 0.38027559590255661 0 -0.41723516051552478 0.39117875164196708 0 -0.44098048884084362 0.38027559590255661 0 -0.41723516051552478 0.39117875164196708 0 -0.43384168556913028 0.3925858435927993 0 -0.41723516051552478 0.39117875164196708 0 -0.41599930271150931 0.37493260475561468 0 -0.41723516051552478 0.39117875164196708 0 -0.40589757753042321 0.38451988535499532 0 -0.41599930271150931 0.37493260475561468 0 -0.40589757753042321 0.38451988535499532 0 -0.39799048491698358 0.37322022787675768 0 -0.41599930271150931 0.37493260475561468 0 -0.41827167123306042 0.40480435267122011 0 -0.40287495883516811 0.40683467081933827 0 -0.40199236981515368 0.39817779240622569 0 -0.41723516051552478 0.39117875164196708 0 -0.41827167123306042 0.40480435267122011 0 -0.40199236981515368 0.39817779240622569 0 -0.41827167123306042 0.40480435267122011 0 -0.40199236981515368 0.39817779240622569 0 -0.41723516051552478 0.39117875164196708 0 -0.40589757753042321 0.38451988535499532 0 -0.40199236981515368 0.39817779240622569 0 -0.41723516051552478 0.39117875164196708 0 -0.40199236981515368 0.39817779240622569 0 -0.41723516051552478 0.39117875164196708 0 -0.41827167123306042 0.40480435267122011 0 -0.41723516051552478 0.39117875164196708 0 -0.41827167123306042 0.40480435267122011 0 -0.42768803782714038 0.40077349566522902 0 -0.41827167123306042 0.40480435267122011 0 -0.42768803782714038 0.40077349566522902 0 -0.43161238306822519 0.4102347472983715 0 -0.41723516051552478 0.39117875164196708 0 -0.42768803782714038 0.40077349566522902 0 -0.43384168556913028 0.3925858435927993 0 -0.44199866353467238 0.39989291193395199 0 -0.42768803782714038 0.40077349566522902 0 -0.43384168556913028 0.3925858435927993 0 -0.44199866353467238 0.39989291193395199 0 -0.42768803782714038 0.40077349566522902 0 -0.43161238306822519 0.4102347472983715 0 -0.43161238306822519 0.4102347472983715 0 -0.43277461268066131 0.42468235539065963 0 -0.41856735614107909 0.40869132124655683 0 -0.41827167123306042 0.40480435267122011 0 -0.43161238306822519 0.4102347472983715 0 -0.41827167123306042 0.40480435267122011 0 -0.43161238306822519 0.4102347472983715 0 -0.41856735614107909 0.40869132124655683 0 -0.43161238306822519 0.4102347472983715 0 -0.41856735614107909 0.40869132124655683 0 -0.43277461268066131 0.42468235539065963 0 -0.42051294316752891 0.43426731591942358 0 -0.41856735614107909 0.40869132124655683 0 -0.43433239479241093 0.43998749689086469 0 -0.44347307696730559 0.43237620358290357 0 -0.43277461268066131 0.42468235539065963 0 -0.43433239479241093 0.43998749689086469 0 -0.43277461268066131 0.42468235539065963 0 -0.42051294316752891 0.43426731591942358 0 -0.42051294316752891 0.43426731591942358 0 -0.41856735614107909 0.40869132124655683 0 -0.40331632708770121 0.42508497700333392 0 -0.41288742864083933 0.44246414379781218 0 -0.40331632708770121 0.42508497700333392 0 -0.41288742864083933 0.44246414379781218 0 -0.42051294316752891 0.43426731591942358 0 -0.40331632708770121 0.42508497700333392 0 -0.42051294316752891 0.43426731591942358 0 -0.41856735614107909 0.40869132124655683 0 -0.41856735614107909 0.40869132124655683 0 -0.40287495883516811 0.40683467081933827 0 -0.41856735614107909 0.40869132124655683 0 -0.40287495883516811 0.40683467081933827 0 -0.40331632708770121 0.42508497700333392 0 -0.41827167123306042 0.40480435267122011 0 -0.41856735614107909 0.40869132124655683 0 -0.40287495883516811 0.40683467081933827 0 -0.41827167123306042 0.40480435267122011 0 -0.41856735614107909 0.40869132124655683 0 -0.40287495883516811 0.40683467081933827 0 -0.40331632708770121 0.42508497700333392 0 -0.38848096371081342 0.41512690372330902 0 -0.40287495883516811 0.40683467081933827 0 -0.38848096371081342 0.41512690372330902 0 -0.38718256152925717 0.40497802039211939 0 -0.39750880605519823 0.43960840544293289 0 -0.41288742864083933 0.44246414379781218 0 -0.40331632708770121 0.42508497700333392 0 -0.39750880605519823 0.43960840544293289 0 -0.40331632708770121 0.42508497700333392 0 -0.38544620999635032 0.42683703415050261 0 -0.40331632708770121 0.42508497700333392 0 -0.38544620999635032 0.42683703415050261 0 -0.38848096371081342 0.41512690372330902 0 -0.38544620999635032 0.42683703415050261 0 -0.37891176172755592 0.41697357292417009 0 -0.3691173145196136 0.42358498303286118 0 -0.37540822384494321 0.44069128622214743 0 -0.38544620999635032 0.42683703415050261 0 -0.3691173145196136 0.42358498303286118 0 -0.37540822384494321 0.44069128622214743 0 -0.39750880605519823 0.43960840544293289 0 -0.38544620999635032 0.42683703415050261 0 -0.38848096371081342 0.41512690372330902 0 -0.38162993207116641 0.40752762437802342 0 -0.38718256152925717 0.40497802039211939 0 -0.38848096371081342 0.41512690372330902 0 -0.37891176172755592 0.41697357292417009 0 -0.38162993207116641 0.40752762437802342 0 -0.38162993207116641 0.40752762437802342 0 -0.38718256152925717 0.40497802039211939 0 -0.38544620999635032 0.42683703415050261 0 -0.38848096371081342 0.41512690372330902 0 -0.37891176172755592 0.41697357292417009 0 -0.37891176172755592 0.41697357292417009 0 -0.38162993207116641 0.40752762437802342 0 -0.37001666227528401 0.41188716622763172 0 -0.38718256152925717 0.40497802039211939 0 -0.36444456493596261 0.40228776789174941 0 -0.38160066567761758 0.38987726077378859 0 -0.38121752492647332 0.3877539978842538 0 -0.36444456493596261 0.40228776789174941 0 -0.38718256152925717 0.40497802039211939 0 -0.38160066567761758 0.38987726077378859 0 -0.40199236981515368 0.39817779240622569 0 -0.38162993207116641 0.40752762437802342 0 -0.38718256152925717 0.40497802039211939 0 -0.36444456493596261 0.40228776789174941 0 -0.38718256152925717 0.40497802039211939 0 -0.38160066567761758 0.38987726077378859 0 -0.36444456493596261 0.40228776789174941 0 -0.38121752492647332 0.3877539978842538 0 -0.39799048491698358 0.37322022787675768 0 -0.38121752492647332 0.3877539978842538 0 -0.39799048491698358 0.37322022787675768 0 -0.38609030369329911 0.36428115600637268 0 -0.38160066567761758 0.38987726077378859 0 -0.38121752492647332 0.3877539978842538 0 -0.39396980140238641 0.38656257988058668 0 -0.38121752492647332 0.3877539978842538 0 -0.39396980140238641 0.38656257988058668 0 -0.39799048491698358 0.37322022787675768 0 -0.39396980140238641 0.38656257988058668 0 -0.40589757753042321 0.38451988535499532 0 -0.39799048491698358 0.37322022787675768 0 -0.39396980140238641 0.38656257988058668 0 -0.40589757753042321 0.38451988535499532 0 -0.40199236981515368 0.39817779240622569 0 -0.40287495883516811 0.40683467081933827 0 -0.38718256152925717 0.40497802039211939 0 -0.38160066567761758 0.38987726077378859 0 -0.40199236981515368 0.39817779240622569 0 -0.38160066567761758 0.38987726077378859 0 -0.39396980140238641 0.38656257988058668 0 -0.40199236981515368 0.39817779240622569 0 -0.40287495883516811 0.40683467081933827 0 -0.38718256152925717 0.40497802039211939 0 -0.40199236981515368 0.39817779240622569 0 -0.38718256152925717 0.40497802039211939 0 -0.40199236981515368 0.39817779240622569 0 -0.39630596794106882 0.35676272185002378 0 -0.401253975524963 0.3452238429762714 0 -0.38748042427921309 0.34922993683042852 0 -0.39630596794106882 0.35676272185002378 0 -0.401253975524963 0.3452238429762714 0 -0.40487052423866099 0.35661061990319959 0 -0.39630596794106882 0.35676272185002378 0 -0.40487052423866099 0.35661061990319959 0 -0.39799048491698358 0.37322022787675768 0 -0.39630596794106882 0.35676272185002378 0 -0.39799048491698358 0.37322022787675768 0 -0.38609030369329911 0.36428115600637268 0 -0.40487052423866099 0.35661061990319959 0 -0.39799048491698358 0.37322022787675768 0 -0.41476344490749451 0.35868645786926229 0 -0.38121752492647332 0.3877539978842538 0 -0.38609030369329911 0.36428115600637268 0 -0.37152002063395262 0.36738923688210778 0 -0.38609030369329911 0.36428115600637268 0 -0.37747726966035172 0.35364443284564578 0 -0.37152002063395262 0.36738923688210778 0 -0.39630596794106882 0.35676272185002378 0 -0.38609030369329911 0.36428115600637268 0 -0.38748042427921309 0.34922993683042852 0 -0.38609030369329911 0.36428115600637268 0 -0.37747726966035172 0.35364443284564578 0 -0.38748042427921309 0.34922993683042852 0 -0.37747726966035172 0.35364443284564578 0 -0.38748042427921309 0.34922993683042852 0 -0.37484601571869303 0.34469356705824539 0 -0.38799654952662488 0.3352384451105857 0 -0.36990695184998529 0.33384226322567229 0 -0.38799654952662488 0.3352384451105857 0 -0.36990695184998529 0.33384226322567229 0 -0.37484601571869303 0.34469356705824539 0 -0.38799654952662488 0.3352384451105857 0 -0.38113662950125132 0.32451627236920882 0 -0.36990695184998529 0.33384226322567229 0 -0.38748042427921309 0.34922993683042852 0 -0.38799654952662488 0.3352384451105857 0 -0.37484601571869303 0.34469356705824539 0 -0.37664807892601448 0.31283338722814757 0 -0.38399633920924459 0.31277574571808647 0 -0.36528823441057068 0.32180602728869567 0 -0.38113662950125132 0.32451627236920882 0 -0.38399633920924459 0.31277574571808647 0 -0.39798386260752899 0.31988450885775238 0 -0.38799654952662488 0.3352384451105857 0 -0.38113662950125132 0.32451627236920882 0 -0.39798386260752899 0.31988450885775238 0 -0.38113662950125132 0.32451627236920882 0 -0.38399633920924459 0.31277574571808647 0 -0.36528823441057068 0.32180602728869567 0 -0.401253975524963 0.3452238429762714 0 -0.38799654952662488 0.3352384451105857 0 -0.40608836707912083 0.33271356244537542 0 -0.38799654952662488 0.3352384451105857 0 -0.39798386260752899 0.31988450885775238 0 -0.40608836707912083 0.33271356244537542 0 -0.401253975524963 0.3452238429762714 0 -0.38748042427921309 0.34922993683042852 0 -0.38799654952662488 0.3352384451105857 0 -0.401253975524963 0.3452238429762714 0 -0.40608836707912083 0.33271356244537542 0 -0.4140387479027956 0.34915984894368313 0 -0.40608836707912083 0.33271356244537542 0 -0.42063154590332508 0.32042189845987462 0 -0.42428213150912408 0.33434935909881519 0 -0.40608836707912083 0.33271356244537542 0 -0.42428213150912408 0.33434935909881519 0 -0.4140387479027956 0.34915984894368313 0 -0.39798386260752899 0.31988450885775238 0 -0.42063154590332508 0.32042189845987462 0 -0.40270444400791677 0.30374546414747372 0 -0.39798386260752899 0.31988450885775238 0 -0.40608836707912083 0.33271356244537542 0 -0.42063154590332508 0.32042189845987462 0 -0.42063154590332508 0.32042189845987462 0 -0.43569661669569248 0.31442289269827928 0 -0.43807194666911131 0.33848964084863292 0 -0.42063154590332508 0.32042189845987462 0 -0.43569661669569248 0.31442289269827928 0 -0.4212325785775452 0.30557034876373151 0 -0.42063154590332508 0.32042189845987462 0 -0.42428213150912408 0.33434935909881519 0 -0.43807194666911131 0.33848964084863292 0 -0.42063154590332508 0.32042189845987462 0 -0.43807194666911131 0.33848964084863292 0 -0.42428213150912408 0.33434935909881519 0 -0.43183260544131757 0.33963134551966789 0 -0.42641769578830258 0.34858804935894733 0 -0.42428213150912408 0.33434935909881519 0 -0.43183260544131757 0.33963134551966789 0 -0.43807194666911131 0.33848964084863292 0 -0.42641769578830258 0.34858804935894733 0 -0.43807194666911131 0.33848964084863292 0 -0.43183260544131757 0.33963134551966789 0 -0.42641769578830258 0.34858804935894733 0 -0.43807194666911131 0.33848964084863292 0 -0.42641769578830258 0.34858804935894733 0 -0.41476344490749451 0.35868645786926229 0 -0.43186121793089799 0.36143773323464939 0 -0.43518150285165808 0.34692797561440247 0 -0.42641769578830258 0.34858804935894733 0 -0.43807194666911131 0.33848964084863292 0 -0.43518150285165808 0.34692797561440247 0 -0.42641769578830258 0.34858804935894733 0 -0.43186121793089799 0.36143773323464939 0 -0.43518150285165808 0.34692797561440247 0 -0.43186121793089799 0.36143773323464939 0 -0.44102261255486291 0.35366901385166011 0 -0.42428213150912408 0.33434935909881519 0 -0.42641769578830258 0.34858804935894733 0 -0.4140387479027956 0.34915984894368313 0 -0.41476344490749451 0.35868645786926229 0 -0.4140387479027956 0.34915984894368313 0 -0.42641769578830258 0.34858804935894733 0 -0.41476344490749451 0.35868645786926229 0 -0.42641769578830258 0.34858804935894733 0 -0.41476344490749451 0.35868645786926229 0 -0.4140387479027956 0.34915984894368313 0 -0.40487052423866099 0.35661061990319959 0 -0.41476344490749451 0.35868645786926229 0 -0.4140387479027956 0.34915984894368313 0 -0.401253975524963 0.3452238429762714 0 -0.40487052423866099 0.35661061990319959 0 -0.4140387479027956 0.34915984894368313 0 -0.39799048491698358 0.37322022787675768 0 -0.41476344490749451 0.35868645786926229 0 -0.41476344490749451 0.35868645786926229 0 -0.41599930271150931 0.37493260475561468 0 -0.41476344490749451 0.35868645786926229 0 -0.41599930271150931 0.37493260475561468 0 -0.43186121793089799 0.36143773323464939 0 -0.39799048491698358 0.37322022787675768 0 -0.41476344490749451 0.35868645786926229 0 -0.41599930271150931 0.37493260475561468 0 -0.44098048884084362 0.38027559590255661 0 -0.41599930271150931 0.37493260475561468 0 -0.43186121793089799 0.36143773323464939 0 -0.44098048884084362 0.38027559590255661 0 -0.46488706187617601 0.36929840133910941 0 -0.44098048884084362 0.38027559590255661 0 -0.44701517723738088 0.36370591004733699 0 -0.46488706187617601 0.36929840133910941 0 -0.44098048884084362 0.38027559590255661 0 -0.43186121793089799 0.36143773323464939 0 -0.44701517723738088 0.36370591004733699 0 -0.43186121793089799 0.36143773323464939 0 -0.44701517723738088 0.36370591004733699 0 -0.44102261255486291 0.35366901385166011 0 -0.45648574969413952 0.35377476708467881 0 -0.44609118319491592 0.33409882989147921 0 -0.44102261255486291 0.35366901385166011 0 -0.45648574969413952 0.35377476708467881 0 -0.43807194666911131 0.33848964084863292 0 -0.45648574969413952 0.35377476708467881 0 -0.43807194666911131 0.33848964084863292 0 -0.43518150285165808 0.34692797561440247 0 -0.44102261255486291 0.35366901385166011 0 -0.43807194666911131 0.33848964084863292 0 -0.44701517723738088 0.36370591004733699 0 -0.44102261255486291 0.35366901385166011 0 -0.45648574969413952 0.35377476708467881 0 -0.45648574969413952 0.35377476708467881 0 -0.46299596762533679 0.34595274107585111 0 -0.45392980946013922 0.34034391045538592 0 -0.45648574969413952 0.35377476708467881 0 -0.46675707930341548 0.35463259819349691 0 -0.46576573209866312 0.36240734015154308 0 -0.45648574969413952 0.35377476708467881 0 -0.46576573209866312 0.36240734015154308 0 -0.46675707930341548 0.35463259819349691 0 -0.46576573209866312 0.36240734015154308 0 -0.46675707930341548 0.35463259819349691 0 -0.46576573209866312 0.36240734015154308 0 -0.47285959591950011 0.35886567852731571 0 -0.45648574969413952 0.35377476708467881 0 -0.46675707930341548 0.35463259819349691 0 -0.46299596762533679 0.34595274107585111 0 -0.46675707930341548 0.35463259819349691 0 -0.46299596762533679 0.34595274107585111 0 -0.47119212729776888 0.34687571183247379 0 -0.44701517723738088 0.36370591004733699 0 -0.45648574969413952 0.35377476708467881 0 -0.46488706187617601 0.36929840133910941 0 -0.45648574969413952 0.35377476708467881 0 -0.46488706187617601 0.36929840133910941 0 -0.45648574969413952 0.35377476708467881 0 -0.46576573209866312 0.36240734015154308 0 -0.46488706187617601 0.36929840133910941 0 -0.46576573209866312 0.36240734015154308 0 -0.46488706187617601 0.36929840133910941 0 -0.46576573209866312 0.36240734015154308 0 -0.46488706187617601 0.36929840133910941 0 -0.47043506517416639 0.36675092154973549 0 -0.46576573209866312 0.36240734015154308 0 -0.47043506517416639 0.36675092154973549 0 -0.46488706187617601 0.36929840133910941 0 -0.47043506517416639 0.36675092154973549 0 -0.48521753258708428 0.38050210387831462 0 -0.48328954548900349 0.3608485226061714 0 -0.47043506517416639 0.36675092154973549 0 -0.48521753258708428 0.38050210387831462 0 -0.46488706187617601 0.36929840133910941 0 -0.47043506517416639 0.36675092154973549 0 -0.48521753258708428 0.38050210387831462 0 -0.47043506517416639 0.36675092154973549 0 -0.48328954548900349 0.3608485226061714 0 -0.47043506517416639 0.36675092154973549 0 -0.48328954548900349 0.3608485226061714 0 -0.47043506517416639 0.36675092154973549 0 -0.47285959591950011 0.35886567852731571 0 -0.46576573209866312 0.36240734015154308 0 -0.47043506517416639 0.36675092154973549 0 -0.47285959591950011 0.35886567852731571 0 -0.46675707930341548 0.35463259819349691 0 -0.47285959591950011 0.35886567852731571 0 -0.47805055753225367 0.34968901013562959 0 -0.47119212729776888 0.34687571183247379 0 -0.47805055753225367 0.34968901013562959 0 -0.47696490473006992 0.33722849792491771 0 -0.46675707930341548 0.35463259819349691 0 -0.47119212729776888 0.34687571183247379 0 -0.47805055753225367 0.34968901013562959 0 -0.47805055753225367 0.34968901013562959 0 -0.48766100155026548 0.34921246037236803 0 -0.47696490473006992 0.33722849792491771 0 -0.48328954548900349 0.3608485226061714 0 -0.47285959591950011 0.35886567852731571 0 -0.47805055753225367 0.34968901013562959 0 -0.48328954548900349 0.3608485226061714 0 -0.47805055753225367 0.34968901013562959 0 -0.48766100155026548 0.34921246037236803 0 -0.48328954548900349 0.3608485226061714 0 -0.48766100155026548 0.34921246037236803 0 -0.5 0.36418318580067188 0 -0.48766100155026548 0.34921246037236803 0 -0.5 0.36418318580067188 0 -0.50000000000000056 0.3341130853944495 0 -0.48521753258708428 0.38050210387831462 0 -0.48328954548900349 0.3608485226061714 0 -0.5 0.36418318580067188 0 -0.50000000000000755 0.32666631205076191 0 -0.47517163521236871 0.31154435029769317 0 -0.50000000000000655 0.29974477158378898 0 -0.50000000000000755 0.32666631205076191 0 -0.47517163521236871 0.31154435029769317 0 -0.48766100155026548 0.34921246037236803 0 -0.50000000000000056 0.3341130853944495 0 -0.47696490473006992 0.33722849792491771 0 -0.50000000000000755 0.32666631205076191 0 -0.50000000000000056 0.3341130853944495 0 -0.47696490473006992 0.33722849792491771 0 -0.50000000000000056 0.3341130853944495 0 -0.47696490473006992 0.33722849792491771 0 -0.46299596762533679 0.34595274107585111 0 -0.47119212729776888 0.34687571183247379 0 -0.47696490473006992 0.33722849792491771 0 -0.47696490473006992 0.33722849792491771 0 -0.45918714963957757 0.32676441404630052 0 -0.47517163521236871 0.31154435029769317 0 -0.50000000000000755 0.32666631205076191 0 -0.47696490473006992 0.33722849792491771 0 -0.47517163521236871 0.31154435029769317 0 -0.45918714963957757 0.32676441404630052 0 -0.45519143335761852 0.31406751330861921 0 -0.47517163521236871 0.31154435029769317 0 -0.45918714963957757 0.32676441404630052 0 -0.45519143335761852 0.31406751330861921 0 -0.44817316110765743 0.32023777365078471 0 -0.46299596762533679 0.34595274107585111 0 -0.47696490473006992 0.33722849792491771 0 -0.45392980946013922 0.34034391045538592 0 -0.47696490473006992 0.33722849792491771 0 -0.45918714963957757 0.32676441404630052 0 -0.45392980946013922 0.34034391045538592 0 -0.47696490473006992 0.33722849792491771 0 -0.45392980946013922 0.34034391045538592 0 -0.43569661669569248 0.31442289269827928 0 -0.44609118319491592 0.33409882989147921 0 -0.43807194666911131 0.33848964084863292 0 -0.45648574969413952 0.35377476708467881 0 -0.44609118319491592 0.33409882989147921 0 -0.43807194666911131 0.33848964084863292 0 -0.45648574969413952 0.35377476708467881 0 -0.45392980946013922 0.34034391045538592 0 -0.44609118319491592 0.33409882989147921 0 -0.45918714963957757 0.32676441404630052 0 -0.45392980946013922 0.34034391045538592 0 -0.44609118319491592 0.33409882989147921 0 -0.43569661669569248 0.31442289269827928 0 -0.44609118319491592 0.33409882989147921 0 -0.43569661669569248 0.31442289269827928 0 -0.44609118319491592 0.33409882989147921 0 -0.44817316110765743 0.32023777365078471 0 -0.45519143335761852 0.31406751330861921 0 -0.44817316110765743 0.32023777365078471 0 -0.44549393950722782 0.31007452545233322 0 -0.45918714963957757 0.32676441404630052 0 -0.44609118319491592 0.33409882989147921 0 -0.44817316110765743 0.32023777365078471 0 -0.43569661669569248 0.31442289269827928 0 -0.44817316110765743 0.32023777365078471 0 -0.44549393950722782 0.31007452545233322 0 -0.43569661669569248 0.31442289269827928 0 -0.43806521595044262 0.30522205905935429 0 -0.44549393950722782 0.31007452545233322 0 -0.45519143335761852 0.31406751330861921 0 -0.44549393950722782 0.31007452545233322 0 -0.45034327042472772 0.29642238854462821 0 -0.43806521595044262 0.30522205905935429 0 -0.45034327042472772 0.29642238854462821 0 -0.42813216591358738 0.2949363100706745 0 -0.43806521595044262 0.30522205905935429 0 -0.44549393950722782 0.31007452545233322 0 -0.45034327042472772 0.29642238854462821 0 -0.45034327042472772 0.29642238854462821 0 -0.42813216591358738 0.2949363100706745 0 -0.45034327042472772 0.29642238854462821 0 -0.43598849232798098 0.28767946861375709 0 -0.42813216591358738 0.2949363100706745 0 -0.45034327042472772 0.29642238854462821 0 -0.45575528991639369 0.27813816285918791 0 -0.43598849232798098 0.28767946861375709 0 -0.45575528991639369 0.27813816285918791 0 -0.43598849232798098 0.28767946861375709 0 -0.45034327042472772 0.29642238854462821 0 -0.43598849232798098 0.28767946861375709 0 -0.45034327042472772 0.29642238854462821 0 -0.46559671492988869 0.28768840136391333 0 -0.45575528991639369 0.27813816285918791 0 -0.45034327042472772 0.29642238854462821 0 -0.46559671492988869 0.28768840136391333 0 -0.47517163521236699 0.29808358006420871 0 -0.46559671492988869 0.28768840136391333 0 -0.4697518506737815 0.27989689020938407 0 -0.45575528991639369 0.27813816285918791 0 -0.45519143335761852 0.31406751330861921 0 -0.45034327042472772 0.29642238854462821 0 -0.47517163521236871 0.31154435029769317 0 -0.45034327042472772 0.29642238854462821 0 -0.47517163521236699 0.29808358006420871 0 -0.45034327042472772 0.29642238854462821 0 -0.47517163521236871 0.31154435029769317 0 -0.47517163521236699 0.29808358006420871 0 -0.45034327042472772 0.29642238854462821 0 -0.47517163521236871 0.31154435029769317 0 -0.47517163521236871 0.31154435029769317 0 -0.47517163521236699 0.29808358006420871 0 -0.50000000000000655 0.29974477158378898 0 -0.46559671492988869 0.28768840136391333 0 -0.47517163521236699 0.29808358006420871 0 -0.4769615284221736 0.28590098514215678 0 -0.46559671492988869 0.28768840136391333 0 -0.4769615284221736 0.28590098514215678 0 -0.4697518506737815 0.27989689020938407 0 -0.48405861800905658 0.28314258118166202 0 -0.4769615284221736 0.28590098514215678 0 -0.48951003035239249 0.28968487738166021 0 -0.48405861800905658 0.28314258118166202 0 -0.4769615284221736 0.28590098514215678 0 -0.47861757801082522 0.27529556816306983 0 -0.47517163521236699 0.29808358006420871 0 -0.4769615284221736 0.28590098514215678 0 -0.48951003035239249 0.28968487738166021 0 -0.48405861800905658 0.28314258118166202 0 -0.48951003035239249 0.28968487738166021 0 -0.5 0.2782631490710234 0 -0.48951003035239249 0.28968487738166021 0 -0.50000000000000655 0.29974477158378898 0 -0.5 0.2782631490710234 0 -0.47517163521236699 0.29808358006420871 0 -0.48951003035239249 0.28968487738166021 0 -0.50000000000000655 0.29974477158378898 0 -0.47517163521236699 0.29808358006420871 0 -0.50000000000000655 0.29974477158378898 0 -0.49031121891882018 0.2481922865444724 0 -0.50000000000000155 0.25678152655825781 0 -0.48062243783764003 0.26155990169903698 0 -0.50000000000000155 0.25678152655825781 0 -0.48062243783764003 0.26155990169903698 0 -0.48226171930665102 0.26534368028592248 0 -0.50000000000000155 0.25678152655825781 0 -0.48226171930665102 0.26534368028592248 0 -0.49031121891882018 0.2481922865444724 0 -0.48062243783764003 0.26155990169903698 0 -0.48405861800905658 0.28314258118166202 0 -0.5 0.2782631490710234 0 -0.48663495436051651 0.27543795235880669 0 -0.50000000000000155 0.25678152655825781 0 -0.5 0.2782631490710234 0 -0.48663495436051651 0.27543795235880669 0 -0.50000000000000155 0.25678152655825781 0 -0.48663495436051651 0.27543795235880669 0 -0.48226171930665102 0.26534368028592248 0 -0.48663495436051651 0.27543795235880669 0 -0.48226171930665102 0.26534368028592248 0 -0.47861757801082522 0.27529556816306983 0 -0.47552208750480779 0.268596857104622 0 -0.48226171930665102 0.26534368028592248 0 -0.48663495436051651 0.27543795235880669 0 -0.47861757801082522 0.27529556816306983 0 -0.48226171930665102 0.26534368028592248 0 -0.47552208750480779 0.268596857104622 0 -0.48226171930665102 0.26534368028592248 0 -0.48405861800905658 0.28314258118166202 0 -0.48663495436051651 0.27543795235880669 0 -0.47861757801082522 0.27529556816306983 0 -0.4769615284221736 0.28590098514215678 0 -0.47861757801082522 0.27529556816306983 0 -0.4697518506737815 0.27989689020938407 0 -0.47861757801082522 0.27529556816306983 0 -0.4697518506737815 0.27989689020938407 0 -0.47406908638521139 0.27060156333373159 0 -0.47552208750480779 0.268596857104622 0 -0.47406908638521139 0.27060156333373159 0 -0.47861757801082522 0.27529556816306983 0 -0.47552208750480779 0.268596857104622 0 -0.47406908638521139 0.27060156333373159 0 -0.47552208750480779 0.268596857104622 0 -0.48062243783764003 0.26155990169903698 0 -0.46741984697533462 0.25942055182262658 0 -0.4697365897889314 0.23643325961502171 0 -0.48062243783764003 0.26155990169903698 0 -0.46741984697533462 0.25942055182262658 0 -0.47552208750480779 0.268596857104622 0 -0.48062243783764003 0.26155990169903698 0 -0.48226171930665102 0.26534368028592248 0 -0.47552208750480779 0.268596857104622 0 -0.48062243783764003 0.26155990169903698 0 -0.48062243783764003 0.26155990169903698 0 -0.48226171930665102 0.26534368028592248 0 -0.46741984697533462 0.25942055182262658 0 -0.4554628298288993 0.2523745778352644 0 -0.45575528991639369 0.27813816285918791 0 -0.47552208750480779 0.268596857104622 0 -0.46741984697533462 0.25942055182262658 0 -0.45575528991639369 0.27813816285918791 0 -0.4697518506737815 0.27989689020938407 0 -0.47406908638521139 0.27060156333373159 0 -0.45575528991639369 0.27813816285918791 0 -0.47552208750480779 0.268596857104622 0 -0.47406908638521139 0.27060156333373159 0 -0.45575528991639369 0.27813816285918791 0 -0.47552208750480779 0.268596857104622 0 -0.45575528991639369 0.27813816285918791 0 -0.45575528991639369 0.27813816285918791 0 -0.44426751018211558 0.2635176922437934 0 -0.43197792827469611 0.27225630802293671 0 -0.45575528991639369 0.27813816285918791 0 -0.43197792827469611 0.27225630802293671 0 -0.43598849232798098 0.28767946861375709 0 -0.4554628298288993 0.2523745778352644 0 -0.45575528991639369 0.27813816285918791 0 -0.44426751018211558 0.2635176922437934 0 -0.44230676710507749 0.24892234785503201 0 -0.4554628298288993 0.2523745778352644 0 -0.44426751018211558 0.2635176922437934 0 -0.44230676710507749 0.24892234785503201 0 -0.44426751018211558 0.2635176922437934 0 -0.43100006204700142 0.25635026249689502 0 -0.43100006204700142 0.25635026249689502 0 -0.41976976296067819 0.26350058156864259 0 -0.43197792827469611 0.27225630802293671 0 -0.44426751018211558 0.2635176922437934 0 -0.43100006204700142 0.25635026249689502 0 -0.43197792827469611 0.27225630802293671 0 -0.43100006204700142 0.25635026249689502 0 -0.41450278511812078 0.25474354136917932 0 -0.41976976296067819 0.26350058156864259 0 -0.41576896288443632 0.2432695896099219 0 -0.43100006204700142 0.25635026249689502 0 -0.41450278511812078 0.25474354136917932 0 -0.41450278511812078 0.25474354136917932 0 -0.41976976296067819 0.26350058156864259 0 -0.40664059829946109 0.25942258142109181 0 -0.41450278511812078 0.25474354136917932 0 -0.40664059829946109 0.25942258142109181 0 -0.40886652545920688 0.25038766517731692 0 -0.40664059829946109 0.25942258142109181 0 -0.41472744106411191 0.2747302145331092 0 -0.40664059829946109 0.25942258142109181 0 -0.41472744106411191 0.2747302145331092 0 -0.39989467075716051 0.26569616870721008 0 -0.41976976296067819 0.26350058156864259 0 -0.40664059829946109 0.25942258142109181 0 -0.41472744106411191 0.2747302145331092 0 -0.41099977345405508 0.27719558715471032 0 -0.41472744106411191 0.2747302145331092 0 -0.39989467075716051 0.26569616870721008 0 -0.41472744106411191 0.2747302145331092 0 -0.39989467075716051 0.26569616870721008 0 -0.41099977345405508 0.27719558715471032 0 -0.41472744106411191 0.2747302145331092 0 -0.42210487615095038 0.28869500560221001 0 -0.41472744106411191 0.2747302145331092 0 -0.43598849232798098 0.28767946861375709 0 -0.41976976296067819 0.26350058156864259 0 -0.41472744106411191 0.2747302145331092 0 -0.43197792827469611 0.27225630802293671 0 -0.41472744106411191 0.2747302145331092 0 -0.43197792827469611 0.27225630802293671 0 -0.43598849232798098 0.28767946861375709 0 -0.41472744106411191 0.2747302145331092 0 -0.43598849232798098 0.28767946861375709 0 -0.42210487615095038 0.28869500560221001 0 -0.43598849232798098 0.28767946861375709 0 -0.4258500945953676 0.29257320783456692 0 -0.43598849232798098 0.28767946861375709 0 -0.4258500945953676 0.29257320783456692 0 -0.42813216591358738 0.2949363100706745 0 -0.43598849232798098 0.28767946861375709 0 -0.4258500945953676 0.29257320783456692 0 -0.42210487615095038 0.28869500560221001 0 -0.4258500945953676 0.29257320783456692 0 -0.42813216591358738 0.2949363100706745 0 -0.42813216591358738 0.2949363100706745 0 -0.42530205019646672 0.29474695550508068 0 -0.4258500945953676 0.29257320783456692 0 -0.42813216591358738 0.2949363100706745 0 -0.42530205019646672 0.29474695550508068 0 -0.4258500945953676 0.29257320783456692 0 -0.42530205019646672 0.29474695550508068 0 -0.42182823608432451 0.29451453300794661 0 -0.4258500945953676 0.29257320783456692 0 -0.42182823608432451 0.29451453300794661 0 -0.4258500945953676 0.29257320783456692 0 -0.42530205019646672 0.29474695550508068 0 -0.42530205019646672 0.29474695550508068 0 -0.42182823608432451 0.29451453300794661 0 -0.4258500945953676 0.29257320783456692 0 -0.42210487615095038 0.28869500560221001 0 -0.42182823608432451 0.29451453300794661 0 -0.4258500945953676 0.29257320783456692 0 -0.42210487615095038 0.28869500560221001 0 -0.43569661669569248 0.31442289269827928 0 -0.42813216591358738 0.2949363100706745 0 -0.42530205019646672 0.29474695550508068 0 -0.43569661669569248 0.31442289269827928 0 -0.43806521595044262 0.30522205905935429 0 -0.42813216591358738 0.2949363100706745 0 -0.43569661669569248 0.31442289269827928 0 -0.42530205019646672 0.29474695550508068 0 -0.43569661669569248 0.31442289269827928 0 -0.42530205019646672 0.29474695550508068 0 -0.4212325785775452 0.30557034876373151 0 -0.43806521595044262 0.30522205905935429 0 -0.42813216591358738 0.2949363100706745 0 -0.42530205019646672 0.29474695550508068 0 -0.4212325785775452 0.30557034876373151 0 -0.42182823608432451 0.29451453300794661 0 -0.42063154590332508 0.32042189845987462 0 -0.40270444400791677 0.30374546414747372 0 -0.42182823608432451 0.29451453300794661 0 -0.40270444400791677 0.30374546414747372 0 -0.42063154590332508 0.32042189845987462 0 -0.4212325785775452 0.30557034876373151 0 -0.40270444400791677 0.30374546414747372 0 -0.42182823608432451 0.29451453300794661 0 -0.40617917762626549 0.29346750138011951 0 -0.40270444400791677 0.30374546414747372 0 -0.4212325785775452 0.30557034876373151 0 -0.42182823608432451 0.29451453300794661 0 -0.40270444400791677 0.30374546414747372 0 -0.42182823608432451 0.29451453300794661 0 -0.40617917762626549 0.29346750138011951 0 -0.42182823608432451 0.29451453300794661 0 -0.41318847192927238 0.28749385670168248 0 -0.40617917762626549 0.29346750138011951 0 -0.41472744106411191 0.2747302145331092 0 -0.42210487615095038 0.28869500560221001 0 -0.41099977345405508 0.27719558715471032 0 -0.42210487615095038 0.28869500560221001 0 -0.41318847192927238 0.28749385670168248 0 -0.41099977345405508 0.27719558715471032 0 -0.42210487615095038 0.28869500560221001 0 -0.42210487615095038 0.28869500560221001 0 -0.42182823608432451 0.29451453300794661 0 -0.41318847192927238 0.28749385670168248 0 -0.41099977345405508 0.27719558715471032 0 -0.41318847192927238 0.28749385670168248 0 -0.40483029633076689 0.28359665636342379 0 -0.41318847192927238 0.28749385670168248 0 -0.40483029633076689 0.28359665636342379 0 -0.40617917762626549 0.29346750138011951 0 -0.40483029633076689 0.28359665636342379 0 -0.40617917762626549 0.29346750138011951 0 -0.39556593582814448 0.28556112396911598 0 -0.40617917762626549 0.29346750138011951 0 -0.39556593582814448 0.28556112396911598 0 -0.3905301191682064 0.29242046975229152 0 -0.40617917762626549 0.29346750138011951 0 -0.3905301191682064 0.29242046975229152 0 -0.40483029633076689 0.28359665636342379 0 -0.39556593582814448 0.28556112396911598 0 -0.39861449440329561 0.2751824867973241 0 -0.40617917762626549 0.29346750138011951 0 -0.40270444400791677 0.30374546414747372 0 -0.3905301191682064 0.29242046975229152 0 -0.39556593582814448 0.28556112396911598 0 -0.3905301191682064 0.29242046975229152 0 -0.38693774423736471 0.28907871351588571 0 -0.38399633920924459 0.31277574571808647 0 -0.39798386260752899 0.31988450885775238 0 -0.40270444400791677 0.30374546414747372 0 -0.40270444400791677 0.30374546414747372 0 -0.38371724063200968 0.30419107011209101 0 -0.3905301191682064 0.29242046975229152 0 -0.38399633920924459 0.31277574571808647 0 -0.40270444400791677 0.30374546414747372 0 -0.40270444400791677 0.30374546414747372 0 -0.3905301191682064 0.29242046975229152 0 -0.38399633920924459 0.31277574571808647 0 -0.40270444400791677 0.30374546414747372 0 -0.38371724063200968 0.30419107011209101 0 -0.38371724063200968 0.30419107011209101 0 -0.37673304526526707 0.29871586455996751 0 -0.3905301191682064 0.29242046975229152 0 -0.38371724063200968 0.30419107011209101 0 -0.37673304526526707 0.29871586455996751 0 -0.37169141721540822 0.30465548926658131 0 -0.37664807892601448 0.31283338722814757 0 -0.38371724063200968 0.30419107011209101 0 -0.37169141721540822 0.30465548926658131 0 -0.37664807892601448 0.31283338722814757 0 -0.38399633920924459 0.31277574571808647 0 -0.38371724063200968 0.30419107011209101 0 -0.3905301191682064 0.29242046975229152 0 -0.36443308080077208 0.29067439508354209 0 -0.3905301191682064 0.29242046975229152 0 -0.38693774423736471 0.28907871351588571 0 -0.36443308080077208 0.29067439508354209 0 -0.37673304526526707 0.29871586455996751 0 -0.3905301191682064 0.29242046975229152 0 -0.36443308080077208 0.29067439508354209 0 -0.38693774423736471 0.28907871351588571 0 -0.37525666586104772 0.28047146640703069 0 -0.36443308080077208 0.29067439508354209 0 -0.38693774423736471 0.28907871351588571 0 -0.37525666586104772 0.28047146640703069 0 -0.38777837890217692 0.28012999487236168 0 -0.39556593582814448 0.28556112396911598 0 -0.38693774423736471 0.28907871351588571 0 -0.38777837890217692 0.28012999487236168 0 -0.3905301191682064 0.29242046975229152 0 -0.38693774423736471 0.28907871351588571 0 -0.38189551508356179 0.27346041218127531 0 -0.37525666586104772 0.28047146640703069 0 -0.37207647213159151 0.2665672382974883 0 -0.38189551508356179 0.27346041218127531 0 -0.37525666586104772 0.28047146640703069 0 -0.38777837890217692 0.28012999487236168 0 -0.38189551508356179 0.27346041218127531 0 -0.38777837890217692 0.28012999487236168 0 -0.38884027355026601 0.27087055384281528 0 -0.38189551508356179 0.27346041218127531 0 -0.38884027355026601 0.27087055384281528 0 -0.38253513582856707 0.26510726171892179 0 -0.38884027355026601 0.27087055384281528 0 -0.38253513582856707 0.26510726171892179 0 -0.39225379093050972 0.26104241508763598 0 -0.38189551508356179 0.27346041218127531 0 -0.38253513582856707 0.26510726171892179 0 -0.37207647213159151 0.2665672382974883 0 -0.38253513582856707 0.26510726171892179 0 -0.37736966733706678 0.251977092033426 0 -0.37207647213159151 0.2665672382974883 0 -0.37846566630958589 0.24350627134364061 0 -0.37736966733706678 0.251977092033426 0 -0.38950991029832149 0.25494267013518612 0 -0.37736966733706678 0.251977092033426 0 -0.38950991029832149 0.25494267013518612 0 -0.39225379093050972 0.26104241508763598 0 -0.37736966733706678 0.251977092033426 0 -0.39225379093050972 0.26104241508763598 0 -0.38253513582856707 0.26510726171892179 0 -0.37736966733706678 0.251977092033426 0 -0.39225379093050972 0.26104241508763598 0 -0.38950991029832149 0.25494267013518612 0 -0.39225379093050972 0.26104241508763598 0 -0.39989467075716051 0.26569616870721008 0 -0.38950991029832149 0.25494267013518612 0 -0.39811741784161192 0.25702139702844501 0 -0.39989467075716051 0.26569616870721008 0 -0.38950991029832149 0.25494267013518612 0 -0.39989467075716051 0.26569616870721008 0 -0.38950991029832149 0.25494267013518612 0 -0.39225379093050972 0.26104241508763598 0 -0.39225379093050972 0.26104241508763598 0 -0.39989467075716051 0.26569616870721008 0 -0.39855375553480937 0.2441149483090749 0 -0.38950991029832149 0.25494267013518612 0 -0.39811741784161192 0.25702139702844501 0 -0.39855375553480937 0.2441149483090749 0 -0.40664059829946109 0.25942258142109181 0 -0.40886652545920688 0.25038766517731692 0 -0.39855375553480937 0.2441149483090749 0 -0.40664059829946109 0.25942258142109181 0 -0.39811741784161192 0.25702139702844501 0 -0.39855375553480937 0.2441149483090749 0 -0.40664059829946109 0.25942258142109181 0 -0.40664059829946109 0.25942258142109181 0 -0.39811741784161192 0.25702139702844501 0 -0.39989467075716051 0.26569616870721008 0 -0.41099977345405508 0.27719558715471032 0 -0.39989467075716051 0.26569616870721008 0 -0.41099977345405508 0.27719558715471032 0 -0.39989467075716051 0.26569616870721008 0 -0.39861449440329561 0.2751824867973241 0 -0.41099977345405508 0.27719558715471032 0 -0.40483029633076689 0.28359665636342379 0 -0.39861449440329561 0.2751824867973241 0 -0.38777837890217692 0.28012999487236168 0 -0.38884027355026601 0.27087055384281528 0 -0.39861449440329561 0.2751824867973241 0 -0.39556593582814448 0.28556112396911598 0 -0.38777837890217692 0.28012999487236168 0 -0.39861449440329561 0.2751824867973241 0 -0.39225379093050972 0.26104241508763598 0 -0.39861449440329561 0.2751824867973241 0 -0.38884027355026601 0.27087055384281528 0 -0.39225379093050972 0.26104241508763598 0 -0.39861449440329561 0.2751824867973241 0 -0.39225379093050972 0.26104241508763598 0 -0.39989467075716051 0.26569616870721008 0 -0.39861449440329561 0.2751824867973241 0 -0.35870323351154509 0.2734187893549051 0 -0.33833604243333781 0.28892832041479399 0 -0.34202403234907031 0.26587264680069922 0 -0.35870323351154509 0.2734187893549051 0 -0.35959237541122341 0.25823807042808739 0 -0.34202403234907031 0.26587264680069922 0 -0.34489530339443891 0.24868088710279659 0 -0.35959237541122341 0.25823807042808739 0 -0.34202403234907031 0.26587264680069922 0 -0.36248554374363001 0.24291176897920599 0 -0.37736966733706678 0.251977092033426 0 -0.35959237541122341 0.25823807042808739 0 -0.37736966733706678 0.251977092033426 0 -0.35959237541122341 0.25823807042808739 0 -0.37207647213159151 0.2665672382974883 0 -0.37525666586104772 0.28047146640703069 0 -0.35870323351154509 0.2734187893549051 0 -0.37207647213159151 0.2665672382974883 0 -0.35870323351154509 0.2734187893549051 0 -0.35959237541122341 0.25823807042808739 0 -0.37207647213159151 0.2665672382974883 0 -0.37525666586104772 0.28047146640703069 0 -0.35870323351154509 0.2734187893549051 0 -0.36443308080077208 0.29067439508354209 0 -0.36443308080077208 0.29067439508354209 0 -0.37169141721540822 0.30465548926658131 0 -0.3622730926336486 0.30631128890899062 0 -0.37664807892601448 0.31283338722814757 0 -0.37169141721540822 0.30465548926658131 0 -0.3622730926336486 0.30631128890899062 0 -0.37673304526526707 0.29871586455996751 0 -0.36443308080077208 0.29067439508354209 0 -0.37169141721540822 0.30465548926658131 0 -0.3622730926336486 0.30631128890899062 0 -0.33813031461590309 0.31086307628954662 0 -0.35228611051670222 0.31734254440379922 0 -0.3622730926336486 0.30631128890899062 0 -0.33833604243333781 0.28892832041479399 0 -0.33813031461590309 0.31086307628954662 0 -0.35870323351154509 0.2734187893549051 0 -0.36443308080077208 0.29067439508354209 0 -0.33833604243333781 0.28892832041479399 0 -0.36443308080077208 0.29067439508354209 0 -0.33833604243333781 0.28892832041479399 0 -0.36443308080077208 0.29067439508354209 0 -0.3622730926336486 0.30631128890899062 0 -0.33833604243333781 0.28892832041479399 0 -0.33833604243333781 0.28892832041479399 0 -0.31963463618300492 0.28786686796775979 0 -0.32734729786941069 0.27456252387129421 0 -0.33833604243333781 0.28892832041479399 0 -0.33813031461590309 0.31086307628954662 0 -0.31813900368459491 0.30344643112691588 0 -0.33813031461590309 0.31086307628954662 0 -0.31813900368459491 0.30344643112691588 0 -0.31501136540368713 0.3167455420151275 0 -0.33833604243333781 0.28892832041479399 0 -0.31813900368459491 0.30344643112691588 0 -0.31963463618300492 0.28786686796775979 0 -0.31813900368459491 0.30344643112691588 0 -0.31963463618300492 0.28786686796775979 0 -0.30605548291861068 0.29647533873432808 0 -0.32734729786941069 0.27456252387129421 0 -0.32730506304524992 0.25445000522639338 0 -0.309436715336391 0.27569477894682509 0 -0.31963463618300492 0.28786686796775979 0 -0.32734729786941069 0.27456252387129421 0 -0.309436715336391 0.27569477894682509 0 -0.33833604243333781 0.28892832041479399 0 -0.32734729786941069 0.27456252387129421 0 -0.34202403234907031 0.26587264680069922 0 -0.32734729786941069 0.27456252387129421 0 -0.34202403234907031 0.26587264680069922 0 -0.32730506304524992 0.25445000522639338 0 -0.34489530339443891 0.24868088710279659 0 -0.34202403234907031 0.26587264680069922 0 -0.32730506304524992 0.25445000522639338 0 -0.34489530339443891 0.24868088710279659 0 -0.32730506304524992 0.25445000522639338 0 -0.32730506304524992 0.25445000522639338 0 -0.309436715336391 0.27569477894682509 0 -0.32730506304524992 0.25445000522639338 0 -0.30672249530042373 0.26120052496061291 0 -0.309436715336391 0.27569477894682509 0 -0.32281112578858923 0.24248600309469809 0 -0.32730506304524992 0.25445000522639338 0 -0.30672249530042373 0.26120052496061291 0 -0.32730506304524992 0.25445000522639338 0 -0.30672249530042373 0.26120052496061291 0 -0.30672249530042373 0.26120052496061291 0 -0.309436715336391 0.27569477894682509 0 -0.2949739843164278 0.27714499929669673 0 -0.2949739843164278 0.27714499929669673 0 -0.28613992755559742 0.26795104469483172 0 -0.2810024157621942 0.28393909521395638 0 -0.30672249530042373 0.26120052496061291 0 -0.2949739843164278 0.27714499929669673 0 -0.28613992755559742 0.26795104469483172 0 -0.30672249530042373 0.26120052496061291 0 -0.28613992755559742 0.26795104469483172 0 -0.30672249530042373 0.26120052496061291 0 -0.28613992755559742 0.26795104469483172 0 -0.29464196701413958 0.25202419192521758 0 -0.28022006013003492 0.2424270912126826 0 -0.28613992755559742 0.26795104469483172 0 -0.29464196701413958 0.25202419192521758 0 -0.25174121177602782 0.2498917316032101 0 -0.28022006013003492 0.2424270912126826 0 -0.26635440818287431 0.26616950301443332 0 -0.28022006013003492 0.2424270912126826 0 -0.28613992755559742 0.26795104469483172 0 -0.26635440818287431 0.26616950301443332 0 -0.26635440818287431 0.26616950301443332 0 -0.26428974193144439 0.28539926069844812 0 -0.2810024157621942 0.28393909521395638 0 -0.28613992755559742 0.26795104469483172 0 -0.26635440818287431 0.26616950301443332 0 -0.2810024157621942 0.28393909521395638 0 -0.26635440818287431 0.26616950301443332 0 -0.25054407516362542 0.2726922845681235 0 -0.26428974193144439 0.28539926069844812 0 -0.25174121177602782 0.2498917316032101 0 -0.26635440818287431 0.26616950301443332 0 -0.25054407516362542 0.2726922845681235 0 -0.25285694186177771 0.30306157520117899 0 -0.26428974193144439 0.28539926069844812 0 -0.27035635001288322 0.31073058921889629 0 -0.25054407516362542 0.2726922845681235 0 -0.26428974193144439 0.28539926069844812 0 -0.24851661436511269 0.28729547001918732 0 -0.25285694186177771 0.30306157520117899 0 -0.26428974193144439 0.28539926069844812 0 -0.24851661436511269 0.28729547001918732 0 -0.26428974193144439 0.28539926069844812 0 -0.2810024157621942 0.28393909521395638 0 -0.27035635001288322 0.31073058921889629 0 -0.2810024157621942 0.28393909521395638 0 -0.27035635001288322 0.31073058921889629 0 -0.29156836762753319 0.29693955266725791 0 -0.27035635001288322 0.31073058921889629 0 -0.29156836762753319 0.29693955266725791 0 -0.27235777459866722 0.31978020411323438 0 -0.27035635001288322 0.31073058921889629 0 -0.29156836762753319 0.29693955266725791 0 -0.29156836762753319 0.29693955266725791 0 -0.27235777459866722 0.31978020411323438 0 -0.29156836762753319 0.29693955266725791 0 -0.28882449948623712 0.31427578396411487 0 -0.27235777459866722 0.31978020411323438 0 -0.29604197520022418 0.30305882639943688 0 -0.29156836762753319 0.29693955266725791 0 -0.28882449948623712 0.31427578396411487 0 -0.29604197520022418 0.30305882639943688 0 -0.30139567070877282 0.31118239217634042 0 -0.28882449948623712 0.31427578396411487 0 -0.2949739843164278 0.27714499929669673 0 -0.2810024157621942 0.28393909521395638 0 -0.29156836762753319 0.29693955266725791 0 -0.309436715336391 0.27569477894682509 0 -0.2949739843164278 0.27714499929669673 0 -0.29156836762753319 0.29693955266725791 0 -0.309436715336391 0.27569477894682509 0 -0.29156836762753319 0.29693955266725791 0 -0.31963463618300492 0.28786686796775979 0 -0.309436715336391 0.27569477894682509 0 -0.30605548291861068 0.29647533873432808 0 -0.309436715336391 0.27569477894682509 0 -0.29156836762753319 0.29693955266725791 0 -0.30605548291861068 0.29647533873432808 0 -0.31813900368459491 0.30344643112691588 0 -0.30139567070877282 0.31118239217634042 0 -0.31501136540368713 0.3167455420151275 0 -0.31813900368459491 0.30344643112691588 0 -0.30605548291861068 0.29647533873432808 0 -0.30139567070877282 0.31118239217634042 0 -0.29604197520022418 0.30305882639943688 0 -0.29156836762753319 0.29693955266725791 0 -0.30605548291861068 0.29647533873432808 0 -0.29604197520022418 0.30305882639943688 0 -0.30605548291861068 0.29647533873432808 0 -0.30139567070877282 0.31118239217634042 0 -0.30139567070877282 0.31118239217634042 0 -0.29678560168331258 0.32819864934724108 0 -0.31501136540368713 0.3167455420151275 0 -0.29678560168331258 0.32819864934724108 0 -0.32060623632585228 0.33003716113559362 0 -0.31501136540368713 0.3167455420151275 0 -0.29678560168331258 0.32819864934724108 0 -0.31301113831277272 0.33966216808485311 0 -0.32060623632585228 0.33003716113559362 0 -0.29678560168331258 0.32819864934724108 0 -0.32060623632585228 0.33003716113559362 0 -0.29678560168331258 0.32819864934724108 0 -0.3001322027208112 0.34375261349654779 0 -0.31301113831277272 0.33966216808485311 0 -0.29678560168331258 0.32819864934724108 0 -0.27296496704077289 0.3263601375588886 0 -0.28123962808681141 0.34392964929720993 0 -0.29678560168331258 0.32819864934724108 0 -0.28123962808681141 0.34392964929720993 0 -0.3001322027208112 0.34375261349654779 0 -0.29678560168331258 0.32819864934724108 0 -0.27296496704077289 0.3263601375588886 0 -0.29678560168331258 0.32819864934724108 0 -0.28882449948623712 0.31427578396411487 0 -0.27296496704077289 0.3263601375588886 0 -0.30139567070877282 0.31118239217634042 0 -0.29678560168331258 0.32819864934724108 0 -0.28882449948623712 0.31427578396411487 0 -0.28882449948623712 0.31427578396411487 0 -0.27235777459866722 0.31978020411323438 0 -0.27296496704077289 0.3263601375588886 0 -0.27296496704077289 0.3263601375588886 0 -0.2602889594106963 0.34444789059950742 0 -0.28123962808681141 0.34392964929720993 0 -0.27296496704077289 0.3263601375588886 0 -0.2602889594106963 0.34444789059950742 0 -0.2491443323982333 0.32452162577053489 0 -0.2602889594106963 0.34444789059950742 0 -0.2491443323982333 0.32452162577053489 0 -0.2452349654202535 0.3403825380020008 0 -0.27035635001288322 0.31073058921889629 0 -0.27235777459866722 0.31978020411323438 0 -0.2491443323982333 0.32452162577053489 0 -0.27296496704077289 0.3263601375588886 0 -0.2491443323982333 0.32452162577053489 0 -0.27035635001288322 0.31073058921889629 0 -0.2491443323982333 0.32452162577053489 0 -0.27235777459866722 0.31978020411323438 0 -0.27296496704077289 0.3263601375588886 0 -0.2491443323982333 0.32452162577053489 0 -0.25285694186177771 0.30306157520117899 0 -0.27035635001288322 0.31073058921889629 0 -0.2491443323982333 0.32452162577053489 0 -0.25813422169331651 0.36974106450526412 0 -0.2602889594106963 0.34444789059950742 0 -0.24588572141265019 0.35751467364249551 0 -0.25813422169331651 0.36974106450526412 0 -0.2602889594106963 0.34444789059950742 0 -0.27735647815332531 0.36235763433781942 0 -0.2602889594106963 0.34444789059950742 0 -0.24588572141265019 0.35751467364249551 0 -0.2452349654202535 0.3403825380020008 0 -0.2602889594106963 0.34444789059950742 0 -0.28123962808681141 0.34392964929720993 0 -0.27735647815332531 0.36235763433781942 0 -0.27735647815332531 0.36235763433781942 0 -0.28929605554961652 0.37644323247135042 0 -0.27333495145172421 0.38202568583444391 0 -0.25813422169331651 0.36974106450526412 0 -0.27735647815332531 0.36235763433781942 0 -0.27333495145172421 0.38202568583444391 0 -0.27735647815332531 0.36235763433781942 0 -0.29563083522492628 0.3655188385579356 0 -0.28929605554961652 0.37644323247135042 0 -0.27735647815332531 0.36235763433781942 0 -0.29563083522492628 0.3655188385579356 0 -0.29106947125727289 0.35444575806889822 0 -0.28123962808681141 0.34392964929720993 0 -0.29106947125727289 0.35444575806889822 0 -0.3001322027208112 0.34375261349654779 0 -0.28123962808681141 0.34392964929720993 0 -0.27735647815332531 0.36235763433781942 0 -0.29106947125727289 0.35444575806889822 0 -0.29563083522492628 0.3655188385579356 0 -0.29106947125727289 0.35444575806889822 0 -0.30127591230758383 0.35630116371320281 0 -0.31028373276122972 0.35035550480454852 0 -0.30858670073025379 0.36659206744116962 0 -0.31780258503418291 0.34929008796637628 0 -0.30127591230758383 0.35630116371320281 0 -0.31028373276122972 0.35035550480454852 0 -0.30858670073025379 0.36659206744116962 0 -0.3001322027208112 0.34375261349654779 0 -0.30127591230758383 0.35630116371320281 0 -0.31028373276122972 0.35035550480454852 0 -0.29106947125727289 0.35444575806889822 0 -0.3001322027208112 0.34375261349654779 0 -0.30127591230758383 0.35630116371320281 0 -0.3001322027208112 0.34375261349654779 0 -0.31028373276122972 0.35035550480454852 0 -0.31301113831277272 0.33966216808485311 0 -0.29563083522492628 0.3655188385579356 0 -0.30620039335150567 0.37697317531517349 0 -0.28929605554961652 0.37644323247135042 0 -0.29563083522492628 0.3655188385579356 0 -0.30858670073025379 0.36659206744116962 0 -0.30620039335150567 0.37697317531517349 0 -0.29563083522492628 0.3655188385579356 0 -0.30127591230758383 0.35630116371320281 0 -0.30858670073025379 0.36659206744116962 0 -0.30858670073025379 0.36659206744116962 0 -0.31956128590582761 0.370526017894862 0 -0.30620039335150567 0.37697317531517349 0 -0.30858670073025379 0.36659206744116962 0 -0.32787567570861048 0.36269730519864518 0 -0.33020202745179977 0.34951907439096491 0 -0.30858670073025379 0.36659206744116962 0 -0.31956128590582761 0.370526017894862 0 -0.32787567570861048 0.36269730519864518 0 -0.31956128590582761 0.370526017894862 0 -0.32787567570861048 0.36269730519864518 0 -0.33152838589182931 0.37217334966736931 0 -0.32787567570861048 0.36269730519864518 0 -0.33152838589182931 0.37217334966736931 0 -0.33904843443025312 0.36502979575935401 0 -0.32787567570861048 0.36269730519864518 0 -0.33904843443025312 0.36502979575935401 0 -0.33993185095458373 0.35380491306876399 0 -0.33904843443025312 0.36502979575935401 0 -0.33993185095458373 0.35380491306876399 0 -0.34863075307060259 0.35976581052907403 0 -0.33152838589182931 0.37217334966736931 0 -0.33904843443025312 0.36502979575935401 0 -0.34099014648273829 0.37713836633591391 0 -0.33904843443025312 0.36502979575935401 0 -0.34925927733784051 0.36920378962632627 0 -0.34099014648273829 0.37713836633591391 0 -0.33993185095458373 0.35380491306876399 0 -0.33020202745179977 0.34951907439096491 0 -0.34882848466541311 0.34572779669569431 0 -0.32787567570861048 0.36269730519864518 0 -0.33993185095458373 0.35380491306876399 0 -0.33020202745179977 0.34951907439096491 0 -0.30858670073025379 0.36659206744116962 0 -0.33020202745179977 0.34951907439096491 0 -0.33020202745179977 0.34951907439096491 0 -0.31780258503418291 0.34929008796637628 0 -0.32692932591485829 0.34032162511034519 0 -0.30858670073025379 0.36659206744116962 0 -0.33020202745179977 0.34951907439096491 0 -0.31780258503418291 0.34929008796637628 0 -0.31028373276122972 0.35035550480454852 0 -0.31780258503418291 0.34929008796637628 0 -0.31301113831277272 0.33966216808485311 0 -0.31780258503418291 0.34929008796637628 0 -0.31301113831277272 0.33966216808485311 0 -0.32692932591485829 0.34032162511034519 0 -0.31301113831277272 0.33966216808485311 0 -0.32060623632585228 0.33003716113559362 0 -0.32692932591485829 0.34032162511034519 0 -0.33813031461590309 0.31086307628954662 0 -0.32060623632585228 0.33003716113559362 0 -0.31501136540368713 0.3167455420151275 0 -0.33813031461590309 0.31086307628954662 0 -0.32060623632585228 0.33003716113559362 0 -0.3444268709683922 0.3318756729239436 0 -0.32060623632585228 0.33003716113559362 0 -0.32692932591485829 0.34032162511034519 0 -0.3444268709683922 0.3318756729239436 0 -0.32692932591485829 0.34032162511034519 0 -0.3444268709683922 0.3318756729239436 0 -0.33020202745179977 0.34951907439096491 0 -0.32692932591485829 0.34032162511034519 0 -0.3444268709683922 0.3318756729239436 0 -0.33020202745179977 0.34951907439096491 0 -0.35181735417334559 0.33244608134075959 0 -0.33020202745179977 0.34951907439096491 0 -0.3444268709683922 0.3318756729239436 0 -0.35181735417334559 0.33244608134075959 0 -0.32060623632585228 0.33003716113559362 0 -0.3444268709683922 0.3318756729239436 0 -0.33020202745179977 0.34951907439096491 0 -0.35181735417334559 0.33244608134075959 0 -0.34882848466541311 0.34572779669569431 0 -0.3444268709683922 0.3318756729239436 0 -0.35181735417334559 0.33244608134075959 0 -0.36528823441057068 0.32180602728869567 0 -0.3444268709683922 0.3318756729239436 0 -0.35181735417334559 0.33244608134075959 0 -0.35181735417334559 0.33244608134075959 0 -0.36006708161898859 0.34344549603849311 0 -0.34882848466541311 0.34572779669569431 0 -0.3444268709683922 0.3318756729239436 0 -0.35228611051670222 0.31734254440379922 0 -0.36528823441057068 0.32180602728869567 0 -0.3444268709683922 0.3318756729239436 0 -0.36528823441057068 0.32180602728869567 0 -0.33813031461590309 0.31086307628954662 0 -0.3444268709683922 0.3318756729239436 0 -0.35228611051670222 0.31734254440379922 0 -0.35181735417334559 0.33244608134075959 0 -0.36528823441057068 0.32180602728869567 0 -0.38399633920924459 0.31277574571808647 0 -0.36528823441057068 0.32180602728869567 0 -0.38113662950125132 0.32451627236920882 0 -0.36528823441057068 0.32180602728869567 0 -0.36990695184998529 0.33384226322567229 0 -0.3622730926336486 0.30631128890899062 0 -0.35228611051670222 0.31734254440379922 0 -0.36528823441057068 0.32180602728869567 0 -0.37664807892601448 0.31283338722814757 0 -0.3622730926336486 0.30631128890899062 0 -0.36528823441057068 0.32180602728869567 0 -0.37664807892601448 0.31283338722814757 0 -0.36528823441057068 0.32180602728869567 0 -0.35181735417334559 0.33244608134075959 0 -0.36990695184998529 0.33384226322567229 0 -0.35181735417334559 0.33244608134075959 0 -0.36528823441057068 0.32180602728869567 0 -0.36990695184998529 0.33384226322567229 0 -0.35181735417334559 0.33244608134075959 0 -0.36006708161898859 0.34344549603849311 0 -0.36990695184998529 0.33384226322567229 0 -0.36006708161898859 0.34344549603849311 0 -0.36990695184998529 0.33384226322567229 0 -0.37484601571869303 0.34469356705824539 0 -0.37747726966035172 0.35364443284564578 0 -0.37484601571869303 0.34469356705824539 0 -0.36576762420604497 0.35462105532555288 0 -0.36006708161898859 0.34344549603849311 0 -0.36576762420604497 0.35462105532555288 0 -0.35511701972220189 0.35336402702334491 0 -0.36006708161898859 0.34344549603849311 0 -0.37484601571869303 0.34469356705824539 0 -0.36576762420604497 0.35462105532555288 0 -0.36576762420604497 0.35462105532555288 0 -0.35877890363496912 0.36489330840245621 0 -0.35511701972220189 0.35336402702334491 0 -0.37747726966035172 0.35364443284564578 0 -0.36576762420604497 0.35462105532555288 0 -0.37152002063395262 0.36738923688210778 0 -0.37152002063395262 0.36738923688210778 0 -0.35877890363496912 0.36489330840245621 0 -0.35946759354481661 0.37999947741353313 0 -0.36576762420604497 0.35462105532555288 0 -0.37152002063395262 0.36738923688210778 0 -0.35877890363496912 0.36489330840245621 0 -0.35877890363496912 0.36489330840245621 0 -0.34925927733784051 0.36920378962632627 0 -0.34863075307060259 0.35976581052907403 0 -0.35877890363496912 0.36489330840245621 0 -0.34925927733784051 0.36920378962632627 0 -0.35946759354481661 0.37999947741353313 0 -0.33904843443025312 0.36502979575935401 0 -0.34925927733784051 0.36920378962632627 0 -0.34863075307060259 0.35976581052907403 0 -0.34863075307060259 0.35976581052907403 0 -0.34862927113719328 0.35173069514879951 0 -0.35511701972220189 0.35336402702334491 0 -0.33993185095458373 0.35380491306876399 0 -0.34863075307060259 0.35976581052907403 0 -0.34862927113719328 0.35173069514879951 0 -0.33993185095458373 0.35380491306876399 0 -0.34862927113719328 0.35173069514879951 0 -0.34882848466541311 0.34572779669569431 0 -0.34862927113719328 0.35173069514879951 0 -0.34882848466541311 0.34572779669569431 0 -0.35511701972220189 0.35336402702334491 0 -0.36006708161898859 0.34344549603849311 0 -0.34882848466541311 0.34572779669569431 0 -0.35511701972220189 0.35336402702334491 0 -0.35877890363496912 0.36489330840245621 0 -0.34863075307060259 0.35976581052907403 0 -0.35511701972220189 0.35336402702334491 0 -0.36444456493596261 0.40228776789174941 0 -0.34139441332069997 0.39956058268163358 0 -0.36444456493596261 0.40228776789174941 0 -0.3500347405820361 0.41477388084538941 0 -0.34139441332069997 0.39956058268163358 0 -0.34795687649688861 0.38822751055866972 0 -0.36444456493596261 0.40228776789174941 0 -0.34139441332069997 0.39956058268163358 0 -0.34795687649688861 0.38822751055866972 0 -0.35946759354481661 0.37999947741353313 0 -0.34099014648273829 0.37713836633591391 0 -0.34795687649688861 0.38822751055866972 0 -0.35946759354481661 0.37999947741353313 0 -0.36444456493596261 0.40228776789174941 0 -0.34925927733784051 0.36920378962632627 0 -0.35946759354481661 0.37999947741353313 0 -0.34099014648273829 0.37713836633591391 0 -0.38121752492647332 0.3877539978842538 0 -0.35946759354481661 0.37999947741353313 0 -0.36444456493596261 0.40228776789174941 0 -0.38121752492647332 0.3877539978842538 0 -0.37152002063395262 0.36738923688210778 0 -0.35946759354481661 0.37999947741353313 0 -0.38121752492647332 0.3877539978842538 0 -0.36444456493596261 0.40228776789174941 0 -0.37001666227528401 0.41188716622763172 0 -0.3691173145196136 0.42358498303286118 0 -0.3500347405820361 0.41477388084538941 0 -0.36444456493596261 0.40228776789174941 0 -0.37001666227528401 0.41188716622763172 0 -0.3500347405820361 0.41477388084538941 0 -0.38162993207116641 0.40752762437802342 0 -0.36444456493596261 0.40228776789174941 0 -0.37001666227528401 0.41188716622763172 0 -0.37891176172755592 0.41697357292417009 0 -0.37001666227528401 0.41188716622763172 0 -0.3691173145196136 0.42358498303286118 0 -0.37540822384494321 0.44069128622214743 0 -0.3691173145196136 0.42358498303286118 0 -0.35523311191340301 0.43401431113530697 0 -0.3691173145196136 0.42358498303286118 0 -0.35523311191340301 0.43401431113530697 0 -0.3500347405820361 0.41477388084538941 0 -0.35523311191340301 0.43401431113530697 0 -0.33562491622810992 0.42725999379902979 0 -0.34159049575663158 0.44832939333294991 0 -0.35523311191340301 0.43401431113530697 0 -0.3500347405820361 0.41477388084538941 0 -0.33562491622810992 0.42725999379902979 0 -0.36444456493596261 0.40228776789174941 0 -0.3500347405820361 0.41477388084538941 0 -0.33562491622810992 0.42725999379902979 0 -0.32301886870039193 0.42169434411953949 0 -0.32759310106696993 0.39889300584694548 0 -0.3500347405820361 0.41477388084538941 0 -0.33562491622810992 0.42725999379902979 0 -0.34139441332069997 0.39956058268163358 0 -0.33562491622810992 0.42725999379902979 0 -0.32759310106696993 0.39889300584694548 0 -0.34139441332069997 0.39956058268163358 0 -0.33562491622810992 0.42725999379902979 0 -0.32759310106696993 0.39889300584694548 0 -0.3500347405820361 0.41477388084538941 0 -0.33562491622810992 0.42725999379902979 0 -0.33562491622810992 0.42725999379902979 0 -0.32529510572114301 0.43621077471153352 0 -0.34159049575663158 0.44832939333294991 0 -0.33562491622810992 0.42725999379902979 0 -0.32529510572114301 0.43621077471153352 0 -0.33562491622810992 0.42725999379902979 0 -0.32529510572114301 0.43621077471153352 0 -0.32301886870039193 0.42169434411953949 0 -0.32301886870039193 0.42169434411953949 0 -0.31459322571245579 0.41542946698109467 0 -0.31198799477328137 0.43067847925909492 0 -0.32529510572114301 0.43621077471153352 0 -0.32301886870039193 0.42169434411953949 0 -0.31198799477328137 0.43067847925909492 0 -0.32301886870039193 0.42169434411953949 0 -0.31459322571245579 0.41542946698109467 0 -0.32759310106696993 0.39889300584694548 0 -0.31459322571245579 0.41542946698109467 0 -0.32759310106696993 0.39889300584694548 0 -0.30986941372015558 0.40303133620121101 0 -0.32759310106696993 0.39889300584694548 0 -0.31373120800086363 0.38785015960031621 0 -0.30986941372015558 0.40303133620121101 0 -0.32759310106696993 0.39889300584694548 0 -0.34139441332069997 0.39956058268163358 0 -0.33483736819415888 0.3844198054975656 0 -0.34795687649688861 0.38822751055866972 0 -0.34139441332069997 0.39956058268163358 0 -0.33483736819415888 0.3844198054975656 0 -0.34795687649688861 0.38822751055866972 0 -0.34099014648273829 0.37713836633591391 0 -0.33483736819415888 0.3844198054975656 0 -0.33152838589182931 0.37217334966736931 0 -0.34099014648273829 0.37713836633591391 0 -0.33483736819415888 0.3844198054975656 0 -0.31956128590582761 0.370526017894862 0 -0.33152838589182931 0.37217334966736931 0 -0.33483736819415888 0.3844198054975656 0 -0.31956128590582761 0.370526017894862 0 -0.32759310106696993 0.39889300584694548 0 -0.31956128590582761 0.370526017894862 0 -0.32759310106696993 0.39889300584694548 0 -0.31373120800086363 0.38785015960031621 0 -0.31956128590582761 0.370526017894862 0 -0.32759310106696993 0.39889300584694548 0 -0.33483736819415888 0.3844198054975656 0 -0.31956128590582761 0.370526017894862 0 -0.31373120800086363 0.38785015960031621 0 -0.30620039335150567 0.37697317531517349 0 -0.30620039335150567 0.37697317531517349 0 -0.30543184595985889 0.38982726274338869 0 -0.28929605554961652 0.37644323247135042 0 -0.31373120800086363 0.38785015960031621 0 -0.30620039335150567 0.37697317531517349 0 -0.30543184595985889 0.38982726274338869 0 -0.31373120800086363 0.38785015960031621 0 -0.30543184595985889 0.38982726274338869 0 -0.30986941372015558 0.40303133620121101 0 -0.30543184595985889 0.38982726274338869 0 -0.30986941372015558 0.40303133620121101 0 -0.29681070249528918 0.40275786339330311 0 -0.30543184595985889 0.38982726274338869 0 -0.28758259683695692 0.39108747688376422 0 -0.29681070249528918 0.40275786339330311 0 -0.28758259683695692 0.39108747688376422 0 -0.29681070249528918 0.40275786339330311 0 -0.27303942872829567 0.4043833399763348 0 -0.30543184595985889 0.38982726274338869 0 -0.28758259683695692 0.39108747688376422 0 -0.28929605554961652 0.37644323247135042 0 -0.28758259683695692 0.39108747688376422 0 -0.28929605554961652 0.37644323247135042 0 -0.27333495145172421 0.38202568583444391 0 -0.28758259683695692 0.39108747688376422 0 -0.27333495145172421 0.38202568583444391 0 -0.27303942872829567 0.4043833399763348 0 -0.27333495145172421 0.38202568583444391 0 -0.27303942872829567 0.4043833399763348 0 -0.24931026826535799 0.38957685829555622 0 -0.27303942872829567 0.4043833399763348 0 -0.24831374600229081 0.41630343703640338 0 -0.24931026826535799 0.38957685829555622 0 -0.27303942872829567 0.4043833399763348 0 -0.24931026826535799 0.38957685829555622 0 -0.25813422169331651 0.36974106450526412 0 -0.27333495145172421 0.38202568583444391 0 -0.24931026826535799 0.38957685829555622 0 -0.26679603721513739 0.43546690496235008 0 -0.24714121616327059 0.44756089042196051 0 -0.24831374600229081 0.41630343703640338 0 -0.27303942872829567 0.4043833399763348 0 -0.26679603721513739 0.43546690496235008 0 -0.24831374600229081 0.41630343703640338 0 -0.27303942872829567 0.4043833399763348 0 -0.26679603721513739 0.43546690496235008 0 -0.2833591309930093 0.43014539565738957 0 -0.2833591309930093 0.43014539565738957 0 -0.29676858919123339 0.41918982165711338 0 -0.2976247755646636 0.43996015779412351 0 -0.27303942872829567 0.4043833399763348 0 -0.2833591309930093 0.43014539565738957 0 -0.29676858919123339 0.41918982165711338 0 -0.27303942872829567 0.4043833399763348 0 -0.29676858919123339 0.41918982165711338 0 -0.29681070249528918 0.40275786339330311 0 -0.27303942872829567 0.4043833399763348 0 -0.29676858919123339 0.41918982165711338 0 -0.31459322571245579 0.41542946698109467 0 -0.30986941372015558 0.40303133620121101 0 -0.29676858919123339 0.41918982165711338 0 -0.30986941372015558 0.40303133620121101 0 -0.29681070249528918 0.40275786339330311 0 -0.29676858919123339 0.41918982165711338 0 -0.31459322571245579 0.41542946698109467 0 -0.29676858919123339 0.41918982165711338 0 -0.31198799477328137 0.43067847925909492 0 -0.29676858919123339 0.41918982165711338 0 -0.31198799477328137 0.43067847925909492 0 -0.2976247755646636 0.43996015779412351 0 -0.31198799477328137 0.43067847925909492 0 -0.2976247755646636 0.43996015779412351 0 -0.3127793853734217 0.4480001158914092 0 -0.2976247755646636 0.43996015779412351 0 -0.30145939262527188 0.46152869426428089 0 -0.3127793853734217 0.4480001158914092 0 -0.30145939262527188 0.46152869426428089 0 -0.31435352455014498 0.46900688698580378 0 -0.3127793853734217 0.4480001158914092 0 -0.2976247755646636 0.43996015779412351 0 -0.30145939262527188 0.46152869426428089 0 -0.28559314826490911 0.45997343852941658 0 -0.30145939262527188 0.46152869426428089 0 -0.28559314826490911 0.45997343852941658 0 -0.29703886585751649 0.48159870574114788 0 -0.2976247755646636 0.43996015779412351 0 -0.28559314826490911 0.45997343852941658 0 -0.2833591309930093 0.43014539565738957 0 -0.2976247755646636 0.43996015779412351 0 -0.28559314826490911 0.45997343852941658 0 -0.26679603721513739 0.43546690496235008 0 -0.28559314826490911 0.45997343852941658 0 -0.26213955226542451 0.46150107751228869 0 -0.26679603721513739 0.43546690496235008 0 -0.2833591309930093 0.43014539565738957 0 -0.28559314826490911 0.45997343852941658 0 -0.28559314826490911 0.45997343852941658 0 -0.26213955226542451 0.46150107751228869 0 -0.27356152096515463 0.4799867192647097 0 -0.26213955226542451 0.46150107751228869 0 -0.24456503960329731 0.46881549659886551 0 -0.24714121616327059 0.44756089042196051 0 -0.26679603721513739 0.43546690496235008 0 -0.26213955226542451 0.46150107751228869 0 -0.24714121616327059 0.44756089042196051 0 -0.2528578460704462 0.48496417058977648 0 -0.26152989366539919 0.50000000000000222 0 -0.2441857984754934 0.5 0 -0.2528578460704462 0.48496417058977648 0 -0.26152989366539919 0.50000000000000222 0 -0.27356152096515463 0.4799867192647097 0 -0.26213955226542451 0.46150107751228869 0 -0.2528578460704462 0.48496417058977648 0 -0.24456503960329731 0.46881549659886551 0 -0.26213955226542451 0.46150107751228869 0 -0.2528578460704462 0.48496417058977648 0 -0.27356152096515463 0.4799867192647097 0 -0.28559314826490911 0.45997343852941658 0 -0.27356152096515463 0.4799867192647097 0 -0.26152989366539919 0.50000000000000222 0 -0.27356152096515463 0.4799867192647097 0 -0.28520254179347748 0.5 0 -0.26152989366539919 0.50000000000000222 0 -0.27356152096515463 0.4799867192647097 0 -0.27356152096515463 0.4799867192647097 0 -0.28520254179347748 0.5 0 -0.29703886585751649 0.48159870574114788 0 -0.28559314826490911 0.45997343852941658 0 -0.27356152096515463 0.4799867192647097 0 -0.29703886585751649 0.48159870574114788 0 -0.29703886585751649 0.48159870574114788 0 -0.31069956827544681 0.48459962179195792 0 -0.31435352455014498 0.46900688698580378 0 -0.30145939262527188 0.46152869426428089 0 -0.29703886585751649 0.48159870574114788 0 -0.31435352455014498 0.46900688698580378 0 -0.28520254179347748 0.5 0 -0.29703886585751649 0.48159870574114788 0 -0.3088751899215556 0.5 0 -0.29703886585751649 0.48159870574114788 0 -0.31069956827544681 0.48459962179195792 0 -0.3088751899215556 0.5 0 -0.3088751899215556 0.5 0 -0.32798688286451949 0.49794862377923221 0 -0.33254783804963378 0.5 0 -0.3088751899215556 0.5 0 -0.31830903897969037 0.49179065664437749 0 -0.32798688286451949 0.49794862377923221 0 -0.31069956827544681 0.48459962179195792 0 -0.3088751899215556 0.5 0 -0.31830903897969037 0.49179065664437749 0 -0.31069956827544681 0.48459962179195792 0 -0.31830903897969037 0.49179065664437749 0 -0.32108782619813392 0.48223398213182089 0 -0.31830903897969037 0.49179065664437749 0 -0.32589081577028689 0.48992424705444559 0 -0.32108782619813392 0.48223398213182089 0 -0.32589081577028689 0.48992424705444559 0 -0.33038164667094583 0.48252618059539931 0 -0.32108782619813392 0.48223398213182089 0 -0.31830903897969037 0.49179065664437749 0 -0.32589081577028689 0.48992424705444559 0 -0.32798688286451949 0.49794862377923221 0 -0.33525374362498689 0.4888777398969249 0 -0.33893516860736311 0.4814021432862301 0 -0.35352165481367059 0.49046819240079131 0 -0.32798688286451949 0.49794862377923221 0 -0.35352165481367059 0.49046819240079131 0 -0.32589081577028689 0.48992424705444559 0 -0.32798688286451949 0.49794862377923221 0 -0.33525374362498689 0.4888777398969249 0 -0.32798688286451949 0.49794862377923221 0 -0.33254783804963378 0.5 0 -0.35352165481367059 0.49046819240079131 0 -0.32798688286451949 0.49794862377923221 0 -0.33525374362498689 0.4888777398969249 0 -0.35352165481367059 0.49046819240079131 0 -0.32589081577028689 0.48992424705444559 0 -0.33525374362498689 0.4888777398969249 0 -0.33038164667094583 0.48252618059539931 0 -0.33893516860736311 0.4814021432862301 0 -0.33074067915395811 0.47019279060757491 0 -0.34755607528515109 0.46939879286687058 0 -0.33893516860736311 0.4814021432862301 0 -0.33038164667094583 0.48252618059539931 0 -0.33074067915395811 0.47019279060757491 0 -0.33525374362498689 0.4888777398969249 0 -0.33893516860736311 0.4814021432862301 0 -0.33038164667094583 0.48252618059539931 0 -0.33074067915395811 0.47019279060757491 0 -0.32108782619813392 0.48223398213182089 0 -0.31435352455014498 0.46900688698580378 0 -0.33038164667094583 0.48252618059539931 0 -0.33074067915395811 0.47019279060757491 0 -0.32108782619813392 0.48223398213182089 0 -0.31069956827544681 0.48459962179195792 0 -0.32108782619813392 0.48223398213182089 0 -0.31435352455014498 0.46900688698580378 0 -0.33074067915395811 0.47019279060757491 0 -0.31435352455014498 0.46900688698580378 0 -0.32495183811105988 0.45434799230585421 0 -0.31435352455014498 0.46900688698580378 0 -0.32495183811105988 0.45434799230585421 0 -0.3127793853734217 0.4480001158914092 0 -0.32529510572114301 0.43621077471153352 0 -0.31198799477328137 0.43067847925909492 0 -0.3127793853734217 0.4480001158914092 0 -0.32529510572114301 0.43621077471153352 0 -0.32495183811105988 0.45434799230585421 0 -0.3127793853734217 0.4480001158914092 0 -0.32529510572114301 0.43621077471153352 0 -0.32495183811105988 0.45434799230585421 0 -0.34159049575663158 0.44832939333294991 0 -0.33562491622810992 0.42725999379902979 0 -0.34159049575663158 0.44832939333294991 0 -0.33074067915395811 0.47019279060757491 0 -0.32495183811105988 0.45434799230585421 0 -0.34159049575663158 0.44832939333294991 0 -0.33074067915395811 0.47019279060757491 0 -0.34159049575663158 0.44832939333294991 0 -0.34755607528515109 0.46939879286687058 0 -0.35820358070247388 0.45109220127213778 0 -0.37122999671224072 0.46302722280341402 0 -0.34755607528515109 0.46939879286687058 0 -0.34159049575663158 0.44832939333294991 0 -0.34755607528515109 0.46939879286687058 0 -0.34159049575663158 0.44832939333294991 0 -0.35820358070247388 0.45109220127213778 0 -0.34755607528515109 0.46939879286687058 0 -0.35523311191340301 0.43401431113530697 0 -0.34159049575663158 0.44832939333294991 0 -0.35820358070247388 0.45109220127213778 0 -0.37540822384494321 0.44069128622214743 0 -0.35523311191340301 0.43401431113530697 0 -0.35820358070247388 0.45109220127213778 0 -0.37540822384494321 0.44069128622214743 0 -0.35820358070247388 0.45109220127213778 0 -0.37122999671224072 0.46302722280341402 0 -0.37122999671224072 0.46302722280341402 0 -0.36221714042755337 0.47664538671775403 0 -0.34755607528515109 0.46939879286687058 0 -0.37675931517958722 0.4836607016541048 0 -0.37122999671224072 0.46302722280341402 0 -0.36221714042755337 0.47664538671775403 0 -0.37675931517958722 0.4836607016541048 0 -0.36221714042755337 0.47664538671775403 0 -0.35352165481367059 0.49046819240079131 0 -0.37931808501998387 0.5 0 -0.37675931517958722 0.4836607016541048 0 -0.36729027674275722 0.49347269621394352 0 -0.37675931517958722 0.4836607016541048 0 -0.36729027674275722 0.49347269621394352 0 -0.35352165481367059 0.49046819240079131 0 -0.37675931517958722 0.4836607016541048 0 -0.35352165481367059 0.49046819240079131 0 -0.37931808501998387 0.5 0 -0.36729027674275722 0.49347269621394352 0 -0.35622048617771213 0.50000000000000333 0 -0.33254783804963378 0.5 0 -0.35352165481367059 0.49046819240079131 0 -0.35622048617771213 0.50000000000000333 0 -0.35352165481367059 0.49046819240079131 0 -0.35622048617771213 0.50000000000000333 0 -0.36729027674275722 0.49347269621394352 0 -0.35352165481367059 0.49046819240079131 0 -0.35622048617771213 0.50000000000000333 0 -0.35352165481367059 0.49046819240079131 0 -0.34755607528515109 0.46939879286687058 0 -0.33893516860736311 0.4814021432862301 0 -0.35352165481367059 0.49046819240079131 0 -0.34755607528515109 0.46939879286687058 0 -0.36221714042755337 0.47664538671775403 0 -0.35352165481367059 0.49046819240079131 0 -0.34755607528515109 0.46939879286687058 0 -0.15491225581548379 0.48193817945415368 0 -0.13761562375468361 0.47935159652930909 0 -0.1489239236336497 0.46387635890830792 0 -0.15491225581548379 0.48193817945415368 0 -0.1489239236336497 0.46387635890830792 0 -0.15491225581548379 0.48193817945415368 0 -0.13140634013213731 0.5 0 -0.13761562375468361 0.47935159652930909 0 -0.15491225581548379 0.48193817945415368 0 -0.13140634013213731 0.5 0 -0.16090058799731941 0.49999999999999922 0 -0.13140634013213731 0.5 0 -0.13761562375468361 0.47935159652930909 0 -0.1229361870542558 0.48388316375613249 0 -0.13761562375468361 0.47935159652930909 0 -0.12989941213789141 0.46706028052795168 0 -0.1229361870542558 0.48388316375613249 0 -0.13761562375468361 0.47935159652930909 0 -0.12989941213789141 0.46706028052795168 0 -0.1489239236336497 0.46387635890830792 0 -0.12989941213789141 0.46706028052795168 0 -0.1489239236336497 0.46387635890830792 0 -0.12989941213789141 0.46706028052795168 0 -0.12747559360914409 0.44888736527933948 0 -0.1459315942879808 0.45485098856906042 0 -0.12747559360914409 0.44888736527933948 0 -0.14504970932237241 0.4433212652195897 0 -0.1459315942879808 0.45485098856906042 0 -0.12747559360914409 0.44888736527933948 0 -0.14504970932237241 0.4433212652195897 0 -0.14040457642331541 0.43104711843710608 0 -0.14504970932237241 0.4433212652195897 0 -0.15584184971867271 0.43916892283553338 0 -0.14040457642331541 0.43104711843710608 0 -0.14504970932237241 0.4433212652195897 0 -0.15558764584037321 0.45119457431348498 0 -0.1459315942879808 0.45485098856906042 0 -0.14504970932237241 0.4433212652195897 0 -0.15558764584037321 0.45119457431348498 0 -0.15584184971867271 0.43916892283553338 0 -0.12989941213789141 0.46706028052795168 0 -0.1459315942879808 0.45485098856906042 0 -0.1489239236336497 0.46387635890830792 0 -0.1459315942879808 0.45485098856906042 0 -0.1489239236336497 0.46387635890830792 0 -0.15558764584037321 0.45119457431348498 0 -0.1459315942879808 0.45485098856906042 0 -0.1489239236336497 0.46387635890830792 0 -0.15558764584037321 0.45119457431348498 0 -0.1489239236336497 0.46387635890830792 0 -0.1705594998223636 0.46025545233227999 0 -0.1489239236336497 0.46387635890830792 0 -0.1705594998223636 0.46025545233227999 0 -0.15491225581548379 0.48193817945415368 0 -0.1489239236336497 0.46387635890830792 0 -0.1705594998223636 0.46025545233227999 0 -0.15558764584037321 0.45119457431348498 0 -0.15584184971867271 0.43916892283553338 0 -0.16676819039987931 0.44500032349213742 0 -0.15558764584037321 0.45119457431348498 0 -0.1705594998223636 0.46025545233227999 0 -0.16676819039987931 0.44500032349213742 0 -0.1792125640640842 0.44038498347287519 0 -0.19219507601107769 0.45663454575625301 0 -0.1908113195008545 0.44653755969868358 0 -0.1705594998223636 0.46025545233227999 0 -0.1792125640640842 0.44038498347287519 0 -0.19219507601107769 0.45663454575625301 0 -0.1705594998223636 0.46025545233227999 0 -0.16676819039987931 0.44500032349213742 0 -0.1792125640640842 0.44038498347287519 0 -0.1792125640640842 0.44038498347287519 0 -0.19219507601107769 0.45663454575625301 0 -0.1792125640640842 0.44038498347287519 0 -0.1908113195008545 0.44653755969868358 0 -0.1900094668747063 0.43637778893885371 0 -0.1705594998223636 0.46025545233227999 0 -0.18845978083780049 0.48032004950359453 0 -0.19219507601107769 0.45663454575625301 0 -0.1705594998223636 0.46025545233227999 0 -0.19219507601107769 0.45663454575625301 0 -0.1705594998223636 0.46025545233227999 0 -0.1715426168466086 0.4845027362580055 0 -0.18845978083780049 0.48032004950359453 0 -0.15491225581548379 0.48193817945415368 0 -0.1705594998223636 0.46025545233227999 0 -0.1715426168466086 0.4845027362580055 0 -0.15491225581548379 0.48193817945415368 0 -0.1715426168466086 0.4845027362580055 0 -0.16090058799731941 0.49999999999999922 0 -0.15491225581548379 0.48193817945415368 0 -0.16090058799731941 0.49999999999999922 0 -0.1715426168466086 0.4845027362580055 0 -0.16090058799731941 0.49999999999999922 0 -0.1828809597600756 0.5 0 -0.1715426168466086 0.4845027362580055 0 -0.1828809597600756 0.5 0 -0.18845978083780049 0.48032004950359453 0 -0.18845978083780049 0.48032004950359453 0 -0.20951838964833239 0.47831727287812609 0 -0.20486133152283159 0.5 0 -0.1828809597600756 0.5 0 -0.18845978083780049 0.48032004950359453 0 -0.20486133152283159 0.5 0 -0.18845978083780049 0.48032004950359453 0 -0.20951838964833239 0.47831727287812609 0 -0.19219507601107769 0.45663454575625301 0 -0.20951838964833239 0.47831727287812609 0 -0.20486133152283159 0.5 0 -0.22684170328558759 0.49999999999999889 0 -0.20951838964833239 0.47831727287812609 0 -0.22684170328558759 0.49999999999999889 0 -0.20951838964833239 0.47831727287812609 0 -0.22684170328558759 0.49999999999999889 0 -0.23551375088054219 0.48428377542076961 0 -0.20951838964833239 0.47831727287812609 0 -0.23551375088054219 0.48428377542076961 0 -0.22999388822988329 0.46317747209507693 0 -0.2528578460704462 0.48496417058977648 0 -0.23551375088054219 0.48428377542076961 0 -0.24456503960329731 0.46881549659886551 0 -0.23551375088054219 0.48428377542076961 0 -0.24456503960329731 0.46881549659886551 0 -0.22999388822988329 0.46317747209507693 0 -0.22684170328558759 0.49999999999999889 0 -0.23551375088054219 0.48428377542076961 0 -0.2441857984754934 0.5 0 -0.2528578460704462 0.48496417058977648 0 -0.23551375088054219 0.48428377542076961 0 -0.2441857984754934 0.5 0 -0.24714121616327059 0.44756089042196051 0 -0.22999388822988329 0.46317747209507693 0 -0.23103903366359041 0.44010095432677881 0 -0.24456503960329731 0.46881549659886551 0 -0.24714121616327059 0.44756089042196051 0 -0.22999388822988329 0.46317747209507693 0 -0.22999388822988329 0.46317747209507693 0 -0.23103903366359041 0.44010095432677881 0 -0.2130018931162348 0.45719517610839477 0 -0.23103903366359041 0.44010095432677881 0 -0.21168048483946519 0.44376366997851668 0 -0.2130018931162348 0.45719517610839477 0 -0.23103903366359041 0.44010095432677881 0 -0.21168048483946519 0.44376366997851668 0 -0.21239711190930419 0.43090878827088408 0 -0.21168048483946519 0.44376366997851668 0 -0.2130018931162348 0.45719517610839477 0 -0.19955833648725901 0.45176762694164457 0 -0.21168048483946519 0.44376366997851668 0 -0.20240604902093801 0.43884580424488112 0 -0.19955833648725901 0.45176762694164457 0 -0.21168048483946519 0.44376366997851668 0 -0.20240604902093801 0.43884580424488112 0 -0.21239711190930419 0.43090878827088408 0 -0.20951838964833239 0.47831727287812609 0 -0.2130018931162348 0.45719517610839477 0 -0.1975208198221125 0.45574323504562408 0 -0.20951838964833239 0.47831727287812609 0 -0.22999388822988329 0.46317747209507693 0 -0.2130018931162348 0.45719517610839477 0 -0.2130018931162348 0.45719517610839477 0 -0.1975208198221125 0.45574323504562408 0 -0.19955833648725901 0.45176762694164457 0 -0.20951838964833239 0.47831727287812609 0 -0.1975208198221125 0.45574323504562408 0 -0.19219507601107769 0.45663454575625301 0 -0.20951838964833239 0.47831727287812609 0 -0.19219507601107769 0.45663454575625301 0 -0.1975208198221125 0.45574323504562408 0 -0.19219507601107769 0.45663454575625301 0 -0.19955833648725901 0.45176762694164457 0 -0.1975208198221125 0.45574323504562408 0 -0.19219507601107769 0.45663454575625301 0 -0.20240604902093801 0.43884580424488112 0 -0.19955833648725901 0.45176762694164457 0 -0.1900094668747063 0.43637778893885371 0 -0.19219507601107769 0.45663454575625301 0 -0.19955833648725901 0.45176762694164457 0 -0.1908113195008545 0.44653755969868358 0 -0.19955833648725901 0.45176762694164457 0 -0.1900094668747063 0.43637778893885371 0 -0.19955833648725901 0.45176762694164457 0 -0.1908113195008545 0.44653755969868358 0 -0.1900094668747063 0.43637778893885371 0 -0.1900094668747063 0.43637778893885371 0 -0.1976800249370079 0.42766843791186959 0 -0.18683042567933841 0.42598225539144502 0 -0.1976800249370079 0.42766843791186959 0 -0.19010134173526619 0.41834884166842712 0 -0.18683042567933841 0.42598225539144502 0 -0.20240604902093801 0.43884580424488112 0 -0.1900094668747063 0.43637778893885371 0 -0.1976800249370079 0.42766843791186959 0 -0.1976800249370079 0.42766843791186959 0 -0.19010134173526619 0.41834884166842712 0 -0.20425326146149639 0.41689118642884521 0 -0.19421970323706439 0.40755984987473898 0 -0.19010134173526619 0.41834884166842712 0 -0.20425326146149639 0.41689118642884521 0 -0.19421970323706439 0.40755984987473898 0 -0.20425326146149639 0.41689118642884521 0 -0.20746086692550211 0.40307828501388709 0 -0.20425326146149639 0.41689118642884521 0 -0.22366052002483361 0.41378291583326482 0 -0.20746086692550211 0.40307828501388709 0 -0.20425326146149639 0.41689118642884521 0 -0.21239711190930419 0.43090878827088408 0 -0.22366052002483361 0.41378291583326482 0 -0.20240604902093801 0.43884580424488112 0 -0.1976800249370079 0.42766843791186959 0 -0.21239711190930419 0.43090878827088408 0 -0.1976800249370079 0.42766843791186959 0 -0.20425326146149639 0.41689118642884521 0 -0.21239711190930419 0.43090878827088408 0 -0.23103903366359041 0.44010095432677881 0 -0.21239711190930419 0.43090878827088408 0 -0.22366052002483361 0.41378291583326482 0 -0.23103903366359041 0.44010095432677881 0 -0.22366052002483361 0.41378291583326482 0 -0.24831374600229081 0.41630343703640338 0 -0.24714121616327059 0.44756089042196051 0 -0.23103903366359041 0.44010095432677881 0 -0.24831374600229081 0.41630343703640338 0 -0.23103903366359041 0.44010095432677881 0 -0.22366052002483361 0.41378291583326482 0 -0.22366052002483361 0.41378291583326482 0 -0.24831374600229081 0.41630343703640338 0 -0.23262952969619599 0.3963796930239506 0 -0.25813422169331651 0.36974106450526412 0 -0.24931026826535799 0.38957685829555622 0 -0.2408686093908321 0.37033117574588781 0 -0.24931026826535799 0.38957685829555622 0 -0.22558110780242041 0.37477037661477769 0 -0.24931026826535799 0.38957685829555622 0 -0.22558110780242041 0.37477037661477769 0 -0.2408686093908321 0.37033117574588781 0 -0.24931026826535799 0.38957685829555622 0 -0.23262952969619599 0.3963796930239506 0 -0.22558110780242041 0.37477037661477769 0 -0.24831374600229081 0.41630343703640338 0 -0.24931026826535799 0.38957685829555622 0 -0.23262952969619599 0.3963796930239506 0 -0.22366052002483361 0.41378291583326482 0 -0.23262952969619599 0.3963796930239506 0 -0.21628200638607689 0.38746487733975082 0 -0.22366052002483361 0.41378291583326482 0 -0.21628200638607689 0.38746487733975082 0 -0.21628200638607689 0.38746487733975082 0 -0.21904958367905819 0.37085874961802762 0 -0.22558110780242041 0.37477037661477769 0 -0.23262952969619599 0.3963796930239506 0 -0.21628200638607689 0.38746487733975082 0 -0.22558110780242041 0.37477037661477769 0 -0.21628200638607689 0.38746487733975082 0 -0.1896060573305316 0.39030635246560019 0 -0.20445512631951351 0.36881721560378072 0 -0.21628200638607689 0.38746487733975082 0 -0.20746086692550211 0.40307828501388709 0 -0.1896060573305316 0.39030635246560019 0 -0.22366052002483361 0.41378291583326482 0 -0.21628200638607689 0.38746487733975082 0 -0.20746086692550211 0.40307828501388709 0 -0.19421970323706439 0.40755984987473898 0 -0.20746086692550211 0.40307828501388709 0 -0.1896060573305316 0.39030635246560019 0 -0.1896060573305316 0.39030635246560019 0 -0.20445512631951351 0.36881721560378072 0 -0.1896060573305316 0.39030635246560019 0 -0.188371579815448 0.37357837634673241 0 -0.20445512631951351 0.36881721560378072 0 -0.1896060573305316 0.39030635246560019 0 -0.1753554203671342 0.38337835790722052 0 -0.188371579815448 0.37357837634673241 0 -0.1753554203671342 0.38337835790722052 0 -0.1603229614140079 0.388532281727347 0 -0.16696365906671501 0.39928114460234221 0 -0.1603229614140079 0.388532281727347 0 -0.1714921903254169 0.36520644942442698 0 -0.1753554203671342 0.38337835790722052 0 -0.1603229614140079 0.388532281727347 0 -0.1714921903254169 0.36520644942442698 0 -0.15699228210333119 0.40258746927757039 0 -0.16696365906671501 0.39928114460234221 0 -0.17264133145595581 0.4148572058835871 0 -0.15699228210333119 0.40258746927757039 0 -0.16696365906671501 0.39928114460234221 0 -0.15699228210333119 0.40258746927757039 0 -0.15723838443338989 0.39836907544825312 0 -0.16696365906671501 0.39928114460234221 0 -0.15723838443338989 0.39836907544825312 0 -0.15762751091724209 0.39416146407888508 0 -0.16696365906671501 0.39928114460234221 0 -0.1603229614140079 0.388532281727347 0 -0.15762751091724209 0.39416146407888508 0 -0.16696365906671501 0.39928114460234221 0 -0.1603229614140079 0.388532281727347 0 -0.16696365906671501 0.39928114460234221 0 -0.1603229614140079 0.388532281727347 0 -0.15762751091724209 0.39416146407888508 0 -0.15215954302866061 0.38986806377370481 0 -0.1603229614140079 0.388532281727347 0 -0.15762751091724209 0.39416146407888508 0 -0.16696365906671501 0.39928114460234221 0 -0.17475698834155201 0.41179548932742149 0 -0.1896060573305316 0.39030635246560019 0 -0.16696365906671501 0.39928114460234221 0 -0.17475698834155201 0.41179548932742149 0 -0.1896060573305316 0.39030635246560019 0 -0.1753554203671342 0.38337835790722052 0 -0.16696365906671501 0.39928114460234221 0 -0.19421970323706439 0.40755984987473898 0 -0.1896060573305316 0.39030635246560019 0 -0.17475698834155201 0.41179548932742149 0 -0.1896060573305316 0.39030635246560019 0 -0.17475698834155201 0.41179548932742149 0 -0.19421970323706439 0.40755984987473898 0 -0.19010134173526619 0.41834884166842712 0 -0.17475698834155201 0.41179548932742149 0 -0.19010134173526619 0.41834884166842712 0 -0.1804605972621551 0.42098795093606178 0 -0.18683042567933841 0.42598225539144502 0 -0.19010134173526619 0.41834884166842712 0 -0.1804605972621551 0.42098795093606178 0 -0.17475698834155201 0.41179548932742149 0 -0.1804605972621551 0.42098795093606178 0 -0.17264133145595581 0.4148572058835871 0 -0.1804605972621551 0.42098795093606178 0 -0.17475698834155201 0.41179548932742149 0 -0.1804605972621551 0.42098795093606178 0 -0.17264133145595581 0.4148572058835871 0 -0.17475698834155201 0.41179548932742149 0 -0.1804605972621551 0.42098795093606178 0 -0.17264133145595581 0.4148572058835871 0 -0.1759075585830463 0.42630237136452792 0 -0.17264133145595581 0.4148572058835871 0 -0.17475698834155201 0.41179548932742149 0 -0.1792125640640842 0.44038498347287519 0 -0.16623005211709219 0.42413542118949638 0 -0.1792125640640842 0.44038498347287519 0 -0.1759075585830463 0.42630237136452792 0 -0.16623005211709219 0.42413542118949638 0 -0.1792125640640842 0.44038498347287519 0 -0.1900094668747063 0.43637778893885371 0 -0.18099324801594591 0.43114629534061771 0 -0.1900094668747063 0.43637778893885371 0 -0.1804605972621551 0.42098795093606178 0 -0.18683042567933841 0.42598225539144502 0 -0.1900094668747063 0.43637778893885371 0 -0.1804605972621551 0.42098795093606178 0 -0.18099324801594591 0.43114629534061771 0 -0.1900094668747063 0.43637778893885371 0 -0.1804605972621551 0.42098795093606178 0 -0.1804605972621551 0.42098795093606178 0 -0.18683042567933841 0.42598225539144502 0 -0.1804605972621551 0.42098795093606178 0 -0.18099324801594591 0.43114629534061771 0 -0.1759075585830463 0.42630237136452792 0 -0.1792125640640842 0.44038498347287519 0 -0.18099324801594591 0.43114629534061771 0 -0.1759075585830463 0.42630237136452792 0 -0.16676819039987931 0.44500032349213742 0 -0.1792125640640842 0.44038498347287519 0 -0.16623005211709219 0.42413542118949638 0 -0.15584184971867271 0.43916892283553338 0 -0.16623005211709219 0.42413542118949638 0 -0.1510055222617506 0.42036093601010799 0 -0.15584184971867271 0.43916892283553338 0 -0.16676819039987931 0.44500032349213742 0 -0.16623005211709219 0.42413542118949638 0 -0.15584184971867271 0.43916892283553338 0 -0.16623005211709219 0.42413542118949638 0 -0.16623005211709219 0.42413542118949638 0 -0.1506852478591435 0.40467876549730408 0 -0.15699228210333119 0.40258746927757039 0 -0.16623005211709219 0.42413542118949638 0 -0.1506852478591435 0.40467876549730408 0 -0.15699228210333119 0.40258746927757039 0 -0.17264133145595581 0.4148572058835871 0 -0.15699228210333119 0.40258746927757039 0 -0.17264133145595581 0.4148572058835871 0 -0.16623005211709219 0.42413542118949638 0 -0.16696365906671501 0.39928114460234221 0 -0.17264133145595581 0.4148572058835871 0 -0.17475698834155201 0.41179548932742149 0 -0.17264133145595581 0.4148572058835871 0 -0.16623005211709219 0.42413542118949638 0 -0.17264133145595581 0.4148572058835871 0 -0.1759075585830463 0.42630237136452792 0 -0.16623005211709219 0.42413542118949638 0 -0.1510055222617506 0.42036093601010799 0 -0.14189267121727969 0.40759422172933762 0 -0.14040457642331541 0.43104711843710608 0 -0.16623005211709219 0.42413542118949638 0 -0.1510055222617506 0.42036093601010799 0 -0.1506852478591435 0.40467876549730408 0 -0.1510055222617506 0.42036093601010799 0 -0.14189267121727969 0.40759422172933762 0 -0.1506852478591435 0.40467876549730408 0 -0.15584184971867271 0.43916892283553338 0 -0.1510055222617506 0.42036093601010799 0 -0.14040457642331541 0.43104711843710608 0 -0.12747559360914409 0.44888736527933948 0 -0.14040457642331541 0.43104711843710608 0 -0.12116211241067321 0.42694999954873031 0 -0.14189267121727969 0.40759422172933762 0 -0.12761258966157971 0.40489462466678222 0 -0.1172037481399819 0.41578061322521931 0 -0.14189267121727969 0.40759422172933762 0 -0.12116211241067321 0.42694999954873031 0 -0.14189267121727969 0.40759422172933762 0 -0.1172037481399819 0.41578061322521931 0 -0.14189267121727969 0.40759422172933762 0 -0.14040457642331541 0.43104711843710608 0 -0.12116211241067321 0.42694999954873031 0 -0.14189267121727969 0.40759422172933762 0 -0.1172037481399819 0.41578061322521931 0 -0.12116211241067321 0.42694999954873031 0 -0.12761258966157971 0.40489462466678222 0 -0.12985170513361649 0.39912666318680418 0 -0.1356398696418758 0.40134804196484059 0 -0.12761258966157971 0.40489462466678222 0 -0.12985170513361649 0.39912666318680418 0 -0.1214527679362529 0.39858533832456861 0 -0.14189267121727969 0.40759422172933762 0 -0.12761258966157971 0.40489462466678222 0 -0.1356398696418758 0.40134804196484059 0 -0.12985170513361649 0.39912666318680418 0 -0.1356398696418758 0.40134804196484059 0 -0.13392726716418249 0.39681997364725491 0 -0.1356398696418758 0.40134804196484059 0 -0.1391344995045295 0.39812738750512672 0 -0.13392726716418249 0.39681997364725491 0 -0.1356398696418758 0.40134804196484059 0 -0.1391344995045295 0.39812738750512672 0 -0.14139695851022741 0.4024312980837127 0 -0.14189267121727969 0.40759422172933762 0 -0.1356398696418758 0.40134804196484059 0 -0.14139695851022741 0.4024312980837127 0 -0.13623470220051229 0.39281529696084311 0 -0.13602937467669091 0.38615136847518738 0 -0.14826272224010539 0.40164661108139538 0 -0.1391344995045295 0.39812738750512672 0 -0.13392726716418249 0.39681997364725491 0 -0.13623470220051229 0.39281529696084311 0 -0.13392726716418249 0.39681997364725491 0 -0.13623470220051229 0.39281529696084311 0 -0.12877555934037871 0.39268247861865951 0 -0.12985170513361649 0.39912666318680418 0 -0.12877555934037871 0.39268247861865951 0 -0.1214527679362529 0.39858533832456861 0 -0.13623470220051229 0.39281529696084311 0 -0.12877555934037871 0.39268247861865951 0 -0.13187857293199851 0.38816229786335288 0 -0.12985170513361649 0.39912666318680418 0 -0.13392726716418249 0.39681997364725491 0 -0.12877555934037871 0.39268247861865951 0 -0.13187857293199851 0.38816229786335288 0 -0.13311774989947939 0.38386849056312122 0 -0.1240609952911563 0.38466335496570819 0 -0.12877555934037871 0.39268247861865951 0 -0.13187857293199851 0.38816229786335288 0 -0.1240609952911563 0.38466335496570819 0 -0.12702382644332569 0.37909051114600772 0 -0.1346793501128162 0.37581591978074791 0 -0.13311774989947939 0.38386849056312122 0 -0.12702382644332569 0.37909051114600772 0 -0.13311774989947939 0.38386849056312122 0 -0.1240609952911563 0.38466335496570819 0 -0.12702382644332569 0.37909051114600772 0 -0.13311774989947939 0.38386849056312122 0 -0.1346793501128162 0.37581591978074791 0 -0.13311774989947939 0.38386849056312122 0 -0.14068621464753689 0.38116736900183718 0 -0.1346793501128162 0.37581591978074791 0 -0.14245341152628899 0.37700704569669169 0 -0.14068621464753689 0.38116736900183718 0 -0.13311774989947939 0.38386849056312122 0 -0.13602937467669091 0.38615136847518738 0 -0.14828039505772331 0.39269656106804918 0 -0.13311774989947939 0.38386849056312122 0 -0.14449199418568071 0.38672123236852107 0 -0.14068621464753689 0.38116736900183718 0 -0.13623470220051229 0.39281529696084311 0 -0.13187857293199851 0.38816229786335288 0 -0.13602937467669091 0.38615136847518738 0 -0.13311774989947939 0.38386849056312122 0 -0.13602937467669091 0.38615136847518738 0 -0.13187857293199851 0.38816229786335288 0 -0.13311774989947939 0.38386849056312122 0 -0.13602937467669091 0.38615136847518738 0 -0.13311774989947939 0.38386849056312122 0 -0.14449199418568071 0.38672123236852107 0 -0.14828039505772331 0.39269656106804918 0 -0.14449199418568071 0.38672123236852107 0 -0.14803236681221141 0.38183050759156478 0 -0.15215954302866061 0.38986806377370481 0 -0.1603229614140079 0.388532281727347 0 -0.14803236681221141 0.38183050759156478 0 -0.14650519438819479 0.36626229536079202 0 -0.1603229614140079 0.388532281727347 0 -0.14650519438819479 0.36626229536079202 0 -0.14449199418568071 0.38672123236852107 0 -0.14068621464753689 0.38116736900183718 0 -0.14803236681221141 0.38183050759156478 0 -0.14449199418568071 0.38672123236852107 0 -0.15215954302866061 0.38986806377370481 0 -0.14828039505772331 0.39269656106804918 0 -0.14245341152628899 0.37700704569669169 0 -0.14803236681221141 0.38183050759156478 0 -0.14650519438819479 0.36626229536079202 0 -0.14245341152628899 0.37700704569669169 0 -0.14068621464753689 0.38116736900183718 0 -0.14803236681221141 0.38183050759156478 0 -0.1603229614140079 0.388532281727347 0 -0.14803236681221141 0.38183050759156478 0 -0.15215954302866061 0.38986806377370481 0 -0.13602937467669091 0.38615136847518738 0 -0.15169956930152359 0.39843768416627329 0 -0.14826272224010539 0.40164661108139538 0 -0.13602937467669091 0.38615136847518738 0 -0.15169956930152359 0.39843768416627329 0 -0.15762751091724209 0.39416146407888508 0 -0.15215954302866061 0.38986806377370481 0 -0.15243229730324179 0.39394186112247848 0 -0.13602937467669091 0.38615136847518738 0 -0.15169956930152359 0.39843768416627329 0 -0.14828039505772331 0.39269656106804918 0 -0.15215954302866061 0.38986806377370481 0 -0.15243229730324179 0.39394186112247848 0 -0.14828039505772331 0.39269656106804918 0 -0.15243229730324179 0.39394186112247848 0 -0.15141341718856119 0.39551855055829099 0 -0.14828039505772331 0.39269656106804918 0 -0.15141341718856119 0.39551855055829099 0 -0.15169956930152359 0.39843768416627329 0 -0.14828039505772331 0.39269656106804918 0 -0.15141341718856119 0.39551855055829099 0 -0.15324140709175621 0.39699809587636331 0 -0.15169956930152359 0.39843768416627329 0 -0.15762751091724209 0.39416146407888508 0 -0.15243229730324179 0.39394186112247848 0 -0.15324140709175621 0.39699809587636331 0 -0.15324140709175621 0.39699809587636331 0 -0.15169956930152359 0.39843768416627329 0 -0.15723838443338989 0.39836907544825312 0 -0.15762751091724209 0.39416146407888508 0 -0.15324140709175621 0.39699809587636331 0 -0.15723838443338989 0.39836907544825312 0 -0.15324140709175621 0.39699809587636331 0 -0.15169956930152359 0.39843768416627329 0 -0.15243229730324179 0.39394186112247848 0 -0.15141341718856119 0.39551855055829099 0 -0.15324140709175621 0.39699809587636331 0 -0.15699228210333119 0.40258746927757039 0 -0.15723838443338989 0.39836907544825312 0 -0.15169956930152359 0.39843768416627329 0 -0.15699228210333119 0.40258746927757039 0 -0.15169956930152359 0.39843768416627329 0 -0.15155732148387041 0.4016599071586387 0 -0.15699228210333119 0.40258746927757039 0 -0.15169956930152359 0.39843768416627329 0 -0.15699228210333119 0.40258746927757039 0 -0.1506852478591435 0.40467876549730408 0 -0.15155732148387041 0.4016599071586387 0 -0.15699228210333119 0.40258746927757039 0 -0.1506852478591435 0.40467876549730408 0 -0.1506852478591435 0.40467876549730408 0 -0.14826272224010539 0.40164661108139538 0 -0.1506852478591435 0.40467876549730408 0 -0.15155732148387041 0.4016599071586387 0 -0.14826272224010539 0.40164661108139538 0 -0.15169956930152359 0.39843768416627329 0 -0.15155732148387041 0.4016599071586387 0 -0.14826272224010539 0.40164661108139538 0 -0.15169956930152359 0.39843768416627329 0 -0.14826272224010539 0.40164661108139538 0 -0.14189267121727969 0.40759422172933762 0 -0.1506852478591435 0.40467876549730408 0 -0.14826272224010539 0.40164661108139538 0 -0.14189267121727969 0.40759422172933762 0 -0.1506852478591435 0.40467876549730408 0 -0.1391344995045295 0.39812738750512672 0 -0.14826272224010539 0.40164661108139538 0 -0.14139695851022741 0.4024312980837127 0 -0.14189267121727969 0.40759422172933762 0 -0.14826272224010539 0.40164661108139538 0 -0.14189267121727969 0.40759422172933762 0 -0.14826272224010539 0.40164661108139538 0 -0.14139695851022741 0.4024312980837127 0 -0.13602937467669091 0.38615136847518738 0 -0.14826272224010539 0.40164661108139538 0 -0.1391344995045295 0.39812738750512672 0 -0.13623470220051229 0.39281529696084311 0 -0.14826272224010539 0.40164661108139538 0 -0.14650519438819479 0.36626229536079202 0 -0.13268742736238209 0.34399230899423672 0 -0.1445754076443119 0.33798892316378748 0 -0.14650519438819479 0.36626229536079202 0 -0.1445754076443119 0.33798892316378748 0 -0.1617558446689798 0.34243425521360138 0 -0.1346793501128162 0.37581591978074791 0 -0.14245341152628899 0.37700704569669169 0 -0.14650519438819479 0.36626229536079202 0 -0.12702382644332569 0.37909051114600772 0 -0.1346793501128162 0.37581591978074791 0 -0.13156439878461751 0.36344481374619281 0 -0.12702382644332569 0.37909051114600772 0 -0.13156439878461751 0.36344481374619281 0 -0.11683882443665 0.35217446827026139 0 -0.1346793501128162 0.37581591978074791 0 -0.14650519438819479 0.36626229536079202 0 -0.13156439878461751 0.36344481374619281 0 -0.14650519438819479 0.36626229536079202 0 -0.13156439878461751 0.36344481374619281 0 -0.13268742736238209 0.34399230899423672 0 -0.14650519438819479 0.36626229536079202 0 -0.13268742736238209 0.34399230899423672 0 -0.13156439878461751 0.36344481374619281 0 -0.13268742736238209 0.34399230899423672 0 -0.11683882443665 0.35217446827026139 0 -0.13268742736238209 0.34399230899423672 0 -0.13120664270144941 0.32824522234790859 0 -0.1203056521179815 0.32244533505273071 0 -0.13268742736238209 0.34399230899423672 0 -0.13120664270144941 0.32824522234790859 0 -0.1445754076443119 0.33798892316378748 0 -0.13268742736238209 0.34399230899423672 0 -0.1188696603365713 0.32172232262768019 0 -0.13120664270144941 0.32824522234790859 0 -0.1403346950909343 0.32484058888549849 0 -0.1445754076443119 0.33798892316378748 0 -0.13277592790491721 0.3181536782393099 0 -0.12710701658386739 0.32150240061104129 0 -0.1241398436111214 0.31716536680421598 0 -0.13277592790491721 0.3181536782393099 0 -0.13295253633619991 0.30581545730715359 0 -0.1241398436111214 0.31716536680421598 0 -0.13120664270144941 0.32824522234790859 0 -0.13277592790491721 0.3181536782393099 0 -0.12710701658386739 0.32150240061104129 0 -0.13120664270144941 0.32824522234790859 0 -0.12710701658386739 0.32150240061104129 0 -0.1203056521179815 0.32244533505273071 0 -0.13120664270144941 0.32824522234790859 0 -0.13277592790491721 0.3181536782393099 0 -0.1403346950909343 0.32484058888549849 0 -0.13277592790491721 0.3181536782393099 0 -0.1403346950909343 0.32484058888549849 0 -0.14445376569293991 0.31576879184118939 0 -0.13277592790491721 0.3181536782393099 0 -0.14445376569293991 0.31576879184118939 0 -0.13295253633619991 0.30581545730715359 0 -0.1403346950909343 0.32484058888549849 0 -0.14445376569293991 0.31576879184118939 0 -0.15185552377363809 0.32616466368477981 0 -0.14445376569293991 0.31576879184118939 0 -0.15185552377363809 0.32616466368477981 0 -0.15703039605946431 0.31443555683800078 0 -0.15185552377363809 0.32616466368477981 0 -0.1445754076443119 0.33798892316378748 0 -0.1617558446689798 0.34243425521360138 0 -0.1403346950909343 0.32484058888549849 0 -0.15185552377363809 0.32616466368477981 0 -0.1445754076443119 0.33798892316378748 0 -0.1617558446689798 0.34243425521360138 0 -0.17109439186515371 0.3336882876392 0 -0.18266141923682561 0.34188061712150702 0 -0.15185552377363809 0.32616466368477981 0 -0.1617558446689798 0.34243425521360138 0 -0.16410364628811039 0.32496666431553961 0 -0.1617558446689798 0.34243425521360138 0 -0.17109439186515371 0.3336882876392 0 -0.16410364628811039 0.32496666431553961 0 -0.15703039605946431 0.31443555683800078 0 -0.16410364628811039 0.32496666431553961 0 -0.16923728750897621 0.31277737485627077 0 -0.15185552377363809 0.32616466368477981 0 -0.15703039605946431 0.31443555683800078 0 -0.16410364628811039 0.32496666431553961 0 -0.17109439186515371 0.3336882876392 0 -0.16410364628811039 0.32496666431553961 0 -0.17700487575700971 0.32414224009001008 0 -0.16410364628811039 0.32496666431553961 0 -0.16923728750897621 0.31277737485627077 0 -0.17700487575700971 0.32414224009001008 0 -0.17700487575700971 0.32414224009001008 0 -0.19383064814823431 0.3185547848185869 0 -0.1813010189365323 0.31172357823186891 0 -0.16923728750897621 0.31277737485627077 0 -0.17700487575700971 0.32414224009001008 0 -0.1813010189365323 0.31172357823186891 0 -0.17700487575700971 0.32414224009001008 0 -0.18266141923682561 0.34188061712150702 0 -0.19383064814823431 0.3185547848185869 0 -0.17109439186515371 0.3336882876392 0 -0.17700487575700971 0.32414224009001008 0 -0.18266141923682561 0.34188061712150702 0 -0.18266141923682561 0.34188061712150702 0 -0.1714921903254169 0.36520644942442698 0 -0.19636850033244141 0.35883394071787461 0 -0.1617558446689798 0.34243425521360138 0 -0.18266141923682561 0.34188061712150702 0 -0.1714921903254169 0.36520644942442698 0 -0.18266141923682561 0.34188061712150702 0 -0.1714921903254169 0.36520644942442698 0 -0.14650519438819479 0.36626229536079202 0 -0.1617558446689798 0.34243425521360138 0 -0.1714921903254169 0.36520644942442698 0 -0.1603229614140079 0.388532281727347 0 -0.14650519438819479 0.36626229536079202 0 -0.1714921903254169 0.36520644942442698 0 -0.1714921903254169 0.36520644942442698 0 -0.188371579815448 0.37357837634673241 0 -0.19636850033244141 0.35883394071787461 0 -0.1753554203671342 0.38337835790722052 0 -0.1714921903254169 0.36520644942442698 0 -0.188371579815448 0.37357837634673241 0 -0.188371579815448 0.37357837634673241 0 -0.19636850033244141 0.35883394071787461 0 -0.20445512631951351 0.36881721560378072 0 -0.18266141923682561 0.34188061712150702 0 -0.19636850033244141 0.35883394071787461 0 -0.20104815538446569 0.33689738456464058 0 -0.19636850033244141 0.35883394071787461 0 -0.21396044435437181 0.34739650240209441 0 -0.20104815538446569 0.33689738456464058 0 -0.21396044435437181 0.34739650240209441 0 -0.20890349274732009 0.36114683884623677 0 -0.2254317277804154 0.36005290567134501 0 -0.19636850033244141 0.35883394071787461 0 -0.21396044435437181 0.34739650240209441 0 -0.20890349274732009 0.36114683884623677 0 -0.19636850033244141 0.35883394071787461 0 -0.21396044435437181 0.34739650240209441 0 -0.21628200638607689 0.38746487733975082 0 -0.20890349274732009 0.36114683884623677 0 -0.21904958367905819 0.37085874961802762 0 -0.21628200638607689 0.38746487733975082 0 -0.20890349274732009 0.36114683884623677 0 -0.21628200638607689 0.38746487733975082 0 -0.20445512631951351 0.36881721560378072 0 -0.20890349274732009 0.36114683884623677 0 -0.20890349274732009 0.36114683884623677 0 -0.21904958367905819 0.37085874961802762 0 -0.2254317277804154 0.36005290567134501 0 -0.19636850033244141 0.35883394071787461 0 -0.20445512631951351 0.36881721560378072 0 -0.20890349274732009 0.36114683884623677 0 -0.21904958367905819 0.37085874961802762 0 -0.22558110780242041 0.37477037661477769 0 -0.2254317277804154 0.36005290567134501 0 -0.22558110780242041 0.37477037661477769 0 -0.2254317277804154 0.36005290567134501 0 -0.2408686093908321 0.37033117574588781 0 -0.21396044435437181 0.34739650240209441 0 -0.2254317277804154 0.36005290567134501 0 -0.23509533331270999 0.34967556927436122 0 -0.21396044435437181 0.34739650240209441 0 -0.23509533331270999 0.34967556927436122 0 -0.23155238837630229 0.33595906408631421 0 -0.24588572141265019 0.35751467364249551 0 -0.23509533331270999 0.34967556927436122 0 -0.2452349654202535 0.3403825380020008 0 -0.2254317277804154 0.36005290567134501 0 -0.24588572141265019 0.35751467364249551 0 -0.23509533331270999 0.34967556927436122 0 -0.2254317277804154 0.36005290567134501 0 -0.24588572141265019 0.35751467364249551 0 -0.2408686093908321 0.37033117574588781 0 -0.25813422169331651 0.36974106450526412 0 -0.24588572141265019 0.35751467364249551 0 -0.2408686093908321 0.37033117574588781 0 -0.2491443323982333 0.32452162577053489 0 -0.23155238837630229 0.33595906408631421 0 -0.22787935912161639 0.32288036370364559 0 -0.2491443323982333 0.32452162577053489 0 -0.22787935912161639 0.32288036370364559 0 -0.25285694186177771 0.30306157520117899 0 -0.2491443323982333 0.32452162577053489 0 -0.23909060735699619 0.31088571866457387 0 -0.2491443323982333 0.32452162577053489 0 -0.22787935912161639 0.32288036370364559 0 -0.23909060735699619 0.31088571866457387 0 -0.2491443323982333 0.32452162577053489 0 -0.23155238837630229 0.33595906408631421 0 -0.2491443323982333 0.32452162577053489 0 -0.2452349654202535 0.3403825380020008 0 -0.23155238837630229 0.33595906408631421 0 -0.23509533331270999 0.34967556927436122 0 -0.2452349654202535 0.3403825380020008 0 -0.23155238837630229 0.33595906408631421 0 -0.21396044435437181 0.34739650240209441 0 -0.23155238837630229 0.33595906408631421 0 -0.2164340082069855 0.33259158950295198 0 -0.21396044435437181 0.34739650240209441 0 -0.23155238837630229 0.33595906408631421 0 -0.23155238837630229 0.33595906408631421 0 -0.22787935912161639 0.32288036370364559 0 -0.2164340082069855 0.33259158950295198 0 -0.22787935912161639 0.32288036370364559 0 -0.21662452450714201 0.31215653403978327 0 -0.2251482534093715 0.30458120574903602 0 -0.22787935912161639 0.32288036370364559 0 -0.2251482534093715 0.30458120574903602 0 -0.23909060735699619 0.31088571866457387 0 -0.22787935912161639 0.32288036370364559 0 -0.20661438584499961 0.32123910163675501 0 -0.22787935912161639 0.32288036370364559 0 -0.20661438584499961 0.32123910163675501 0 -0.21662452450714201 0.31215653403978327 0 -0.22787935912161639 0.32288036370364559 0 -0.20661438584499961 0.32123910163675501 0 -0.2164340082069855 0.33259158950295198 0 -0.20661438584499961 0.32123910163675501 0 -0.2164340082069855 0.33259158950295198 0 -0.20104815538446569 0.33689738456464058 0 -0.21396044435437181 0.34739650240209441 0 -0.2164340082069855 0.33259158950295198 0 -0.20104815538446569 0.33689738456464058 0 -0.18266141923682561 0.34188061712150702 0 -0.19383064814823431 0.3185547848185869 0 -0.18266141923682561 0.34188061712150702 0 -0.20104815538446569 0.33689738456464058 0 -0.19383064814823431 0.3185547848185869 0 -0.20661438584499961 0.32123910163675501 0 -0.20104815538446569 0.33689738456464058 0 -0.19383064814823431 0.3185547848185869 0 -0.19383064814823431 0.3185547848185869 0 -0.20499987705964301 0.29522895251566678 0 -0.19383064814823431 0.3185547848185869 0 -0.1904943322068017 0.30263584753036948 0 -0.20499987705964301 0.29522895251566678 0 -0.19383064814823431 0.3185547848185869 0 -0.1904943322068017 0.30263584753036948 0 -0.1813010189365323 0.31172357823186891 0 -0.20661438584499961 0.32123910163675501 0 -0.19383064814823431 0.3185547848185869 0 -0.20499987705964301 0.29522895251566678 0 -0.19109124795916571 0.28389627039827359 0 -0.20499987705964301 0.29522895251566678 0 -0.21279963803529331 0.27412223910997358 0 -0.1904943322068017 0.30263584753036948 0 -0.19109124795916571 0.28389627039827359 0 -0.20499987705964301 0.29522895251566678 0 -0.20499987705964301 0.29522895251566678 0 -0.2251482534093715 0.30458120574903602 0 -0.22280256617849231 0.28660402599452312 0 -0.20499987705964301 0.29522895251566678 0 -0.22280256617849231 0.28660402599452312 0 -0.21279963803529331 0.27412223910997358 0 -0.20661438584499961 0.32123910163675501 0 -0.20499987705964301 0.29522895251566678 0 -0.21662452450714201 0.31215653403978327 0 -0.20499987705964301 0.29522895251566678 0 -0.21662452450714201 0.31215653403978327 0 -0.2251482534093715 0.30458120574903602 0 -0.2251482534093715 0.30458120574903602 0 -0.23800441873502151 0.29572984607510172 0 -0.23909060735699619 0.31088571866457387 0 -0.22280256617849231 0.28660402599452312 0 -0.23800441873502151 0.29572984607510172 0 -0.23688789413369471 0.27959438355308419 0 -0.2251482534093715 0.30458120574903602 0 -0.22280256617849231 0.28660402599452312 0 -0.23800441873502151 0.29572984607510172 0 -0.23800441873502151 0.29572984607510172 0 -0.24851661436511269 0.28729547001918732 0 -0.23688789413369471 0.27959438355308419 0 -0.25285694186177771 0.30306157520117899 0 -0.23800441873502151 0.29572984607510172 0 -0.24851661436511269 0.28729547001918732 0 -0.25285694186177771 0.30306157520117899 0 -0.23800441873502151 0.29572984607510172 0 -0.23909060735699619 0.31088571866457387 0 -0.25174121177602782 0.2498917316032101 0 -0.23790562174692839 0.26643831730606798 0 -0.22326236342202119 0.25735637199373929 0 -0.25174121177602782 0.2498917316032101 0 -0.22326236342202119 0.25735637199373929 0 -0.25174121177602782 0.2498917316032101 0 -0.22326236342202119 0.25735637199373929 0 -0.23481477815490251 0.24337266251761661 0 -0.25174121177602782 0.2498917316032101 0 -0.25054407516362542 0.2726922845681235 0 -0.23790562174692839 0.26643831730606798 0 -0.25054407516362542 0.2726922845681235 0 -0.24851661436511269 0.28729547001918732 0 -0.23688789413369471 0.27959438355308419 0 -0.25054407516362542 0.2726922845681235 0 -0.23688789413369471 0.27959438355308419 0 -0.23790562174692839 0.26643831730606798 0 -0.22280256617849231 0.28660402599452312 0 -0.23688789413369471 0.27959438355308419 0 -0.22728435128482929 0.26733647037326852 0 -0.23688789413369471 0.27959438355308419 0 -0.23790562174692839 0.26643831730606798 0 -0.22728435128482929 0.26733647037326852 0 -0.22280256617849231 0.28660402599452312 0 -0.22728435128482929 0.26733647037326852 0 -0.21279963803529331 0.27412223910997358 0 -0.22728435128482929 0.26733647037326852 0 -0.22326236342202119 0.25735637199373929 0 -0.21279963803529331 0.27412223910997358 0 -0.22728435128482929 0.26733647037326852 0 -0.22326236342202119 0.25735637199373929 0 -0.23790562174692839 0.26643831730606798 0 -0.22728435128482929 0.26733647037326852 0 -0.22326236342202119 0.25735637199373929 0 -0.22326236342202119 0.25735637199373929 0 -0.2011614305910375 0.2631492858724086 0 -0.20641207343396001 0.24978112053115251 0 -0.22326236342202119 0.25735637199373929 0 -0.21279963803529331 0.27412223910997358 0 -0.2011614305910375 0.2631492858724086 0 -0.22326236342202119 0.25735637199373929 0 -0.2011614305910375 0.2631492858724086 0 -0.19109124795916571 0.28389627039827359 0 -0.2011614305910375 0.2631492858724086 0 -0.18186973577830931 0.26802493286933632 0 -0.19109124795916571 0.28389627039827359 0 -0.21279963803529331 0.27412223910997358 0 -0.2011614305910375 0.2631492858724086 0 -0.2011614305910375 0.2631492858724086 0 -0.20641207343396001 0.24978112053115251 0 -0.18712984602200741 0.2463238735196033 0 -0.2011614305910375 0.2631492858724086 0 -0.18186973577830931 0.26802493286933632 0 -0.18712984602200741 0.2463238735196033 0 -0.16293891616313869 0.26233422470847761 0 -0.18186973577830931 0.26802493286933632 0 -0.18712984602200741 0.2463238735196033 0 -0.16293891616313869 0.26233422470847761 0 -0.16159497141770501 0.24185108205389069 0 -0.18712984602200741 0.2463238735196033 0 -0.16293891616313869 0.26233422470847761 0 -0.18186973577830931 0.26802493286933632 0 -0.16788677417465661 0.28456109792525641 0 -0.16293891616313869 0.26233422470847761 0 -0.16788677417465661 0.28456109792525641 0 -0.14955093742279349 0.27698895644913729 0 -0.19109124795916571 0.28389627039827359 0 -0.18186973577830931 0.26802493286933632 0 -0.16788677417465661 0.28456109792525641 0 -0.1904943322068017 0.30263584753036948 0 -0.19109124795916571 0.28389627039827359 0 -0.1768426729021336 0.30064839517124131 0 -0.19109124795916571 0.28389627039827359 0 -0.1768426729021336 0.30064839517124131 0 -0.16788677417465661 0.28456109792525641 0 -0.1904943322068017 0.30263584753036948 0 -0.1813010189365323 0.31172357823186891 0 -0.1768426729021336 0.30064839517124131 0 -0.16923728750897621 0.31277737485627077 0 -0.1813010189365323 0.31172357823186891 0 -0.1768426729021336 0.30064839517124131 0 -0.16923728750897621 0.31277737485627077 0 -0.1768426729021336 0.30064839517124131 0 -0.16184325076958209 0.30181280226811819 0 -0.15703039605946431 0.31443555683800078 0 -0.16923728750897621 0.31277737485627077 0 -0.16184325076958209 0.30181280226811819 0 -0.16184325076958209 0.30181280226811819 0 -0.16788677417465661 0.28456109792525641 0 -0.1491935808202699 0.29339233403268122 0 -0.1768426729021336 0.30064839517124131 0 -0.16184325076958209 0.30181280226811819 0 -0.16788677417465661 0.28456109792525641 0 -0.16788677417465661 0.28456109792525641 0 -0.1491935808202699 0.29339233403268122 0 -0.14955093742279349 0.27698895644913729 0 -0.1491935808202699 0.29339233403268122 0 -0.12696886211886321 0.28573174560856418 0 -0.14955093742279349 0.27698895644913729 0 -0.1491935808202699 0.29339233403268122 0 -0.14909470593569121 0.30624498845742859 0 -0.13295253633619991 0.30581545730715359 0 -0.14445376569293991 0.31576879184118939 0 -0.14909470593569121 0.30624498845742859 0 -0.13295253633619991 0.30581545730715359 0 -0.14445376569293991 0.31576879184118939 0 -0.15703039605946431 0.31443555683800078 0 -0.14909470593569121 0.30624498845742859 0 -0.15703039605946431 0.31443555683800078 0 -0.16184325076958209 0.30181280226811819 0 -0.14909470593569121 0.30624498845742859 0 -0.16184325076958209 0.30181280226811819 0 -0.1491935808202699 0.29339233403268122 0 -0.14909470593569121 0.30624498845742859 0 -0.1491935808202699 0.29339233403268122 0 -0.13295253633619991 0.30581545730715359 0 -0.12696886211886321 0.28573174560856418 0 -0.12696886211886321 0.28573174560856418 0 -0.1407665538370397 0.25892537997070791 0 -0.12696886211886321 0.28573174560856418 0 -0.1407665538370397 0.25892537997070791 0 -0.1221090405403145 0.27422005798364202 0 -0.1407665538370397 0.25892537997070791 0 -0.1221090405403145 0.27422005798364202 0 -0.12696886211886321 0.28573174560856418 0 -0.1407665538370397 0.25892537997070791 0 -0.14955093742279349 0.27698895644913729 0 -0.1407665538370397 0.25892537997070791 0 -0.1244632804639286 0.25002572834587927 0 -0.1216495403749083 0.26109728814910171 0 -0.1407665538370397 0.25892537997070791 0 -0.1216495403749083 0.26109728814910171 0 -0.1221090405403145 0.27422005798364202 0 -0.16293891616313869 0.26233422470847761 0 -0.1407665538370397 0.25892537997070791 0 -0.16159497141770501 0.24185108205389069 0 -0.1407665538370397 0.25892537997070791 0 -0.16159497141770501 0.24185108205389069 0 -0.16293891616313869 0.26233422470847761 0 -0.1407665538370397 0.25892537997070791 0 -0.14955093742279349 0.27698895644913729 0 -0.096888951041182503 0.27230625009205689 0 -0.11129177293266759 0.26773887815388853 0 -0.093844956570145188 0.29217454375050472 0 -0.11129177293266759 0.26773887815388853 0 -0.093844956570145188 0.29217454375050472 0 -0.096888951041182503 0.27230625009205689 0 -0.099589176557763406 0.26175454890912442 0 -0.11129177293266759 0.26773887815388853 0 -0.099589176557763406 0.26175454890912442 0 -0.11094461912570321 0.25403907144483029 0 -0.0958811938507039 0.24696951446888271 0 -0.099589176557763406 0.26175454890912442 0 -0.11094461912570321 0.25403907144483029 0 -0.11129177293266759 0.26773887815388853 0 -0.11094461912570321 0.25403907144483029 0 -0.1216495403749083 0.26109728814910171 0 -0.11129177293266759 0.26773887815388853 0 -0.11094461912570321 0.25403907144483029 0 -0.1244632804639286 0.25002572834587927 0 -0.1216495403749083 0.26109728814910171 0 -0.11129177293266759 0.26773887815388853 0 -0.1147797013673406 0.2818459390907278 0 -0.1070529792807621 0.2864401619431321 0 -0.1216495403749083 0.26109728814910171 0 -0.11129177293266759 0.26773887815388853 0 -0.1221090405403145 0.27422005798364202 0 -0.11129177293266759 0.26773887815388853 0 -0.1221090405403145 0.27422005798364202 0 -0.1147797013673406 0.2818459390907278 0 -0.12696886211886321 0.28573174560856418 0 -0.1221090405403145 0.27422005798364202 0 -0.1147797013673406 0.2818459390907278 0 -0.12696886211886321 0.28573174560856418 0 -0.11217647391061999 0.2925918151292547 0 -0.1147797013673406 0.2818459390907278 0 -0.11217647391061999 0.2925918151292547 0 -0.1147797013673406 0.2818459390907278 0 -0.1070529792807621 0.2864401619431321 0 -0.13295253633619991 0.30581545730715359 0 -0.12696886211886321 0.28573174560856418 0 -0.1131711704006856 0.31253811124641989 0 -0.12696886211886321 0.28573174560856418 0 -0.1131711704006856 0.31253811124641989 0 -0.12696886211886321 0.28573174560856418 0 -0.11217647391061999 0.2925918151292547 0 -0.1131711704006856 0.31253811124641989 0 -0.13295253633619991 0.30581545730715359 0 -0.1131711704006856 0.31253811124641989 0 -0.1241398436111214 0.31716536680421598 0 -0.11217647391061999 0.2925918151292547 0 -0.10429365879082279 0.29823029565282527 0 -0.1131711704006856 0.31253811124641989 0 -0.093844956570145188 0.29217454375050472 0 -0.101892844931111 0.31317460763732041 0 -0.10429365879082279 0.29823029565282527 0 -0.093844956570145188 0.29217454375050472 0 -0.101892844931111 0.31317460763732041 0 -0.10429365879082279 0.29823029565282527 0 -0.1131711704006856 0.31253811124641989 0 -0.10429365879082279 0.29823029565282527 0 -0.101892844931111 0.31317460763732041 0 -0.1131711704006856 0.31253811124641989 0 -0.11129177293266759 0.26773887815388853 0 -0.1070529792807621 0.2864401619431321 0 -0.093844956570145188 0.29217454375050472 0 -0.10429365879082279 0.29823029565282527 0 -0.1070529792807621 0.2864401619431321 0 -0.093844956570145188 0.29217454375050472 0 -0.11217647391061999 0.2925918151292547 0 -0.10429365879082279 0.29823029565282527 0 -0.1070529792807621 0.2864401619431321 0 -0.093844956570145188 0.29217454375050472 0 -0.078824955954994877 0.28988768490876782 0 -0.084944037661520214 0.30464099455931742 0 -0.078824955954994877 0.28988768490876782 0 -0.084944037661520214 0.30464099455931742 0 -0.071740274413793645 0.29202560420132062 0 -0.093844956570145188 0.29217454375050472 0 -0.078824955954994877 0.28988768490876782 0 -0.078370884190656048 0.27998712221539729 0 -0.084944037661520214 0.30464099455931742 0 -0.101892844931111 0.31317460763732041 0 -0.093844956570145188 0.29217454375050472 0 -0.084944037661520214 0.30464099455931742 0 -0.101892844931111 0.31317460763732041 0 -0.093844956570145188 0.29217454375050472 0 -0.084944037661520214 0.30464099455931742 0 -0.084944037661520214 0.30464099455931742 0 -0.063240678986031917 0.3028203012424347 0 -0.066427709146053671 0.31030108620235058 0 -0.084944037661520214 0.30464099455931742 0 -0.063240678986031917 0.3028203012424347 0 -0.063316063383384469 0.29524679985427221 0 -0.084944037661520214 0.30464099455931742 0 -0.060785412900551283 0.29247728575505699 0 -0.084944037661520214 0.30464099455931742 0 -0.063316063383384469 0.29524679985427221 0 -0.060785412900551283 0.29247728575505699 0 -0.084944037661520214 0.30464099455931742 0 -0.071740274413793645 0.29202560420132062 0 -0.060785412900551283 0.29247728575505699 0 -0.078824955954994877 0.28988768490876782 0 -0.071740274413793645 0.29202560420132062 0 -0.069528556480935255 0.28410635636677239 0 -0.078824955954994877 0.28988768490876782 0 -0.069528556480935255 0.28410635636677239 0 -0.078370884190656048 0.27998712221539729 0 -0.071740274413793645 0.29202560420132062 0 -0.066162952882078241 0.28812545930409611 0 -0.060785412900551283 0.29247728575505699 0 -0.066162952882078241 0.28812545930409611 0 -0.069528556480935255 0.28410635636677239 0 -0.062597567733032752 0.28389259089323471 0 -0.071740274413793645 0.29202560420132062 0 -0.066162952882078241 0.28812545930409611 0 -0.069528556480935255 0.28410635636677239 0 -0.066162952882078241 0.28812545930409611 0 -0.062597567733032752 0.28389259089323471 0 -0.060785412900551283 0.29247728575505699 0 -0.065188897378049809 0.27103717989152842 0 -0.078370884190656048 0.27998712221539729 0 -0.08426691086367287 0.26718170553940368 0 -0.069528556480935255 0.28410635636677239 0 -0.062597567733032752 0.28389259089323471 0 -0.065188897378049809 0.27103717989152842 0 -0.069528556480935255 0.28410635636677239 0 -0.065188897378049809 0.27103717989152842 0 -0.078370884190656048 0.27998712221539729 0 -0.093844956570145188 0.29217454375050472 0 -0.08426691086367287 0.26718170553940368 0 -0.096888951041182503 0.27230625009205689 0 -0.093844956570145188 0.29217454375050472 0 -0.08426691086367287 0.26718170553940368 0 -0.093844956570145188 0.29217454375050472 0 -0.078370884190656048 0.27998712221539729 0 -0.08426691086367287 0.26718170553940368 0 -0.096888951041182503 0.27230625009205689 0 -0.099589176557763406 0.26175454890912442 0 -0.08426691086367287 0.26718170553940368 0 -0.099589176557763406 0.26175454890912442 0 -0.08426691086367287 0.26718170553940368 0 -0.0958811938507039 0.24696951446888271 0 -0.08426691086367287 0.26718170553940368 0 -0.074688865157201911 0.2421888673283023 0 -0.08426691086367287 0.26718170553940368 0 -0.0958811938507039 0.24696951446888271 0 -0.074688865157201911 0.2421888673283023 0 -0.065188897378049809 0.27103717989152842 0 -0.08426691086367287 0.26718170553940368 0 -0.074688865157201911 0.2421888673283023 0 -0.065188897378049809 0.27103717989152842 0 -0.052274387013596317 0.25132234308298201 0 -0.074688865157201911 0.2421888673283023 0 -0.065188897378049809 0.27103717989152842 0 -0.052274387013596317 0.25132234308298201 0 -0.05255945574620853 0.26758137132638993 0 -0.052274387013596317 0.25132234308298201 0 -0.05255945574620853 0.26758137132638993 0 -0.044910246323626599 0.26176617221068349 0 -0.062597567733032752 0.28389259089323471 0 -0.065188897378049809 0.27103717989152842 0 -0.056147602553746158 0.27986550906555219 0 -0.065188897378049809 0.27103717989152842 0 -0.056147602553746158 0.27986550906555219 0 -0.05255945574620853 0.26758137132638993 0 -0.05255945574620853 0.26758137132638993 0 -0.043945762137155009 0.27404817018518052 0 -0.044910246323626599 0.26176617221068349 0 -0.056147602553746158 0.27986550906555219 0 -0.05255945574620853 0.26758137132638993 0 -0.043945762137155009 0.27404817018518052 0 -0.043945762137155009 0.27404817018518052 0 -0.032125639109106437 0.27804727799408951 0 -0.023826080601362279 0.26881243960906981 0 -0.043945762137155009 0.27404817018518052 0 -0.027106111373758499 0.25561905461530432 0 -0.023826080601362279 0.26881243960906981 0 -0.043945762137155009 0.27404817018518052 0 -0.032125639109106437 0.27804727799408951 0 -0.046455526004828808 0.28526228187457342 0 -0.052274387013596317 0.25132234308298201 0 -0.044910246323626599 0.26176617221068349 0 -0.027106111373758499 0.25561905461530432 0 -0.043945762137155009 0.27404817018518052 0 -0.044910246323626599 0.26176617221068349 0 -0.027106111373758499 0.25561905461530432 0 -0.043945762137155009 0.27404817018518052 0 -0.027106111373758499 0.25561905461530432 0 -0.027106111373758499 0.25561905461530432 0 -0.023826080601362279 0.26881243960906981 0 -0.0062925107982489464 0.25777225113449648 0 -0.023826080601362279 0.26881243960906981 0 -0.020455589145643039 0.28038801725128287 0 -0.0054341861972371976 0.27585211339001769 0 -0.032125639109106437 0.27804727799408951 0 -0.023826080601362279 0.26881243960906981 0 -0.020455589145643039 0.28038801725128287 0 -0.023826080601362279 0.26881243960906981 0 -0.0054341861972371976 0.27585211339001769 0 -0.0062925107982489464 0.25777225113449648 0 -0.027106111373758499 0.25561905461530432 0 -0.0062925107982489464 0.25777225113449648 0 -0.010266460610361971 0.23718993904542809 0 -0.0050053426515477024 0.30421368897024309 0 -0.0129239886894199 0.29039819187035648 0 -0.017130372708049079 0.30133817412552732 0 -0.0050053426515477024 0.30421368897024309 0 -0.017130372708049079 0.30133817412552732 0 -0.01194344365753823 0.31495148552421148 0 -0.0054341861972371976 0.27585211339001769 0 -0.00026070856359705023 0.29209679303363628 0 -0.0129239886894199 0.29039819187035648 0 -0.0050053426515477024 0.30421368897024309 0 -0.00026070856359705023 0.29209679303363628 0 -0.0129239886894199 0.29039819187035648 0 -0.020455589145643039 0.28038801725128287 0 -0.0054341861972371976 0.27585211339001769 0 -0.0129239886894199 0.29039819187035648 0 -0.0129239886894199 0.29039819187035648 0 -0.025845117855334179 0.29046896448288678 0 -0.017130372708049079 0.30133817412552732 0 -0.020455589145643039 0.28038801725128287 0 -0.0129239886894199 0.29039819187035648 0 -0.025845117855334179 0.29046896448288678 0 -0.032125639109106437 0.27804727799408951 0 -0.020455589145643039 0.28038801725128287 0 -0.025845117855334179 0.29046896448288678 0 -0.025845117855334179 0.29046896448288678 0 -0.028103883571396551 0.30167899291972139 0 -0.037187462429321277 0.29769751371889869 0 -0.025845117855334179 0.29046896448288678 0 -0.028103883571396551 0.30167899291972139 0 -0.017130372708049079 0.30133817412552732 0 -0.028103883571396551 0.30167899291972139 0 -0.017130372708049079 0.30133817412552732 0 -0.024975685264553311 0.31216309571236228 0 -0.017130372708049079 0.30133817412552732 0 -0.024975685264553311 0.31216309571236228 0 -0.01194344365753823 0.31495148552421148 0 -0.028103883571396551 0.30167899291972139 0 -0.024975685264553311 0.31216309571236228 0 -0.0351108318525548 0.30810233717132007 0 -0.028103883571396551 0.30167899291972139 0 -0.0351108318525548 0.30810233717132007 0 -0.037187462429321277 0.29769751371889869 0 -0.0351108318525548 0.30810233717132007 0 -0.037187462429321277 0.29769751371889869 0 -0.043834804217362133 0.30412580660292399 0 -0.037187462429321277 0.29769751371889869 0 -0.043834804217362133 0.30412580660292399 0 -0.047534804102799359 0.29488537375429141 0 -0.0351108318525548 0.30810233717132007 0 -0.043834804217362133 0.30412580660292399 0 -0.04348359715273642 0.3140316268289034 0 -0.043834804217362133 0.30412580660292399 0 -0.04950979824228894 0.30885553273132521 0 -0.04348359715273642 0.3140316268289034 0 -0.032125639109106437 0.27804727799408951 0 -0.036359684941801002 0.28747590380675048 0 -0.046455526004828808 0.28526228187457342 0 -0.032125639109106437 0.27804727799408951 0 -0.025845117855334179 0.29046896448288678 0 -0.036359684941801002 0.28747590380675048 0 -0.025845117855334179 0.29046896448288678 0 -0.037187462429321277 0.29769751371889869 0 -0.036359684941801002 0.28747590380675048 0 -0.036359684941801002 0.28747590380675048 0 -0.046455526004828808 0.28526228187457342 0 -0.047534804102799359 0.29488537375429141 0 -0.037187462429321277 0.29769751371889869 0 -0.036359684941801002 0.28747590380675048 0 -0.047534804102799359 0.29488537375429141 0 -0.032125639109106437 0.27804727799408951 0 -0.046455526004828808 0.28526228187457342 0 -0.056147602553746158 0.27986550906555219 0 -0.043945762137155009 0.27404817018518052 0 -0.060785412900551283 0.29247728575505699 0 -0.043945762137155009 0.27404817018518052 0 -0.046455526004828808 0.28526228187457342 0 -0.060785412900551283 0.29247728575505699 0 -0.043945762137155009 0.27404817018518052 0 -0.060785412900551283 0.29247728575505699 0 -0.046455526004828808 0.28526228187457342 0 -0.060785412900551283 0.29247728575505699 0 -0.046455526004828808 0.28526228187457342 0 -0.047534804102799359 0.29488537375429141 0 -0.05407631117892614 0.29344771942809661 0 -0.046455526004828808 0.28526228187457342 0 -0.05407631117892614 0.29344771942809661 0 -0.060785412900551283 0.29247728575505699 0 -0.047534804102799359 0.29488537375429141 0 -0.05407631117892614 0.29344771942809661 0 -0.055835591722596063 0.29866778481995038 0 -0.05407631117892614 0.29344771942809661 0 -0.059542071499885753 0.29636451899614757 0 -0.060785412900551283 0.29247728575505699 0 -0.05407631117892614 0.29344771942809661 0 -0.059542071499885753 0.29636451899614757 0 -0.055835591722596063 0.29866778481995038 0 -0.063316063383384469 0.29524679985427221 0 -0.059542071499885753 0.29636451899614757 0 -0.060785412900551283 0.29247728575505699 0 -0.063316063383384469 0.29524679985427221 0 -0.060785412900551283 0.29247728575505699 0 -0.062597567733032752 0.28389259089323471 0 -0.056147602553746158 0.27986550906555219 0 -0.060785412900551283 0.29247728575505699 0 -0.04950979824228894 0.30885553273132521 0 -0.056626508971964119 0.30660747617712608 0 -0.054832891957512252 0.31644257604150322 0 -0.04950979824228894 0.30885553273132521 0 -0.051053578642734028 0.30204497404421737 0 -0.056626508971964119 0.30660747617712608 0 -0.043834804217362133 0.30412580660292399 0 -0.04950979824228894 0.30885553273132521 0 -0.051053578642734028 0.30204497404421737 0 -0.051053578642734028 0.30204497404421737 0 -0.055835591722596063 0.29866778481995038 0 -0.056626508971964119 0.30660747617712608 0 -0.047534804102799359 0.29488537375429141 0 -0.051053578642734028 0.30204497404421737 0 -0.055835591722596063 0.29866778481995038 0 -0.043834804217362133 0.30412580660292399 0 -0.047534804102799359 0.29488537375429141 0 -0.051053578642734028 0.30204497404421737 0 -0.063240678986031917 0.3028203012424347 0 -0.055835591722596063 0.29866778481995038 0 -0.056626508971964119 0.30660747617712608 0 -0.063240678986031917 0.3028203012424347 0 -0.059542071499885753 0.29636451899614757 0 -0.055835591722596063 0.29866778481995038 0 -0.063240678986031917 0.3028203012424347 0 -0.063316063383384469 0.29524679985427221 0 -0.059542071499885753 0.29636451899614757 0 -0.063240678986031917 0.3028203012424347 0 -0.066427709146053671 0.31030108620235058 0 -0.056626508971964119 0.30660747617712608 0 -0.066427709146053671 0.31030108620235058 0 -0.056626508971964119 0.30660747617712608 0 -0.054832891957512252 0.31644257604150322 0 -0.054832891957512252 0.31644257604150322 0 -0.058039855835844228 0.34232245899285402 0 -0.071491946748682506 0.32348172677608578 0 -0.04950979824228894 0.30885553273132521 0 -0.054832891957512252 0.31644257604150322 0 -0.04348359715273642 0.3140316268289034 0 -0.054832891957512252 0.31644257604150322 0 -0.04348359715273642 0.3140316268289034 0 -0.044287734711705481 0.32733478287155682 0 -0.058039855835844228 0.34232245899285402 0 -0.039249366383208917 0.33966055590497812 0 -0.044287734711705481 0.32733478287155682 0 -0.054832891957512252 0.31644257604150322 0 -0.058039855835844228 0.34232245899285402 0 -0.044287734711705481 0.32733478287155682 0 -0.039249366383208917 0.33966055590497812 0 -0.044287734711705481 0.32733478287155682 0 -0.029463818158455921 0.32993777717513312 0 -0.039249366383208917 0.33966055590497812 0 -0.025870527424596449 0.34123830348924178 0 -0.032056630806542717 0.34778139203465752 0 -0.039249366383208917 0.33966055590497812 0 -0.029463818158455921 0.32993777717513312 0 -0.025870527424596449 0.34123830348924178 0 -0.04348359715273642 0.3140316268289034 0 -0.044287734711705481 0.32733478287155682 0 -0.033079558479959081 0.31891698724511058 0 -0.044287734711705481 0.32733478287155682 0 -0.033079558479959081 0.31891698724511058 0 -0.029463818158455921 0.32993777717513312 0 -0.0351108318525548 0.30810233717132007 0 -0.04348359715273642 0.3140316268289034 0 -0.033079558479959081 0.31891698724511058 0 -0.024975685264553311 0.31216309571236228 0 -0.033079558479959081 0.31891698724511058 0 -0.020895699531528741 0.32298508569763928 0 -0.024975685264553311 0.31216309571236228 0 -0.0351108318525548 0.30810233717132007 0 -0.033079558479959081 0.31891698724511058 0 -0.024975685264553311 0.31216309571236228 0 -0.020895699531528741 0.32298508569763928 0 -0.01194344365753823 0.31495148552421148 0 -0.033079558479959081 0.31891698724511058 0 -0.020895699531528741 0.32298508569763928 0 -0.029463818158455921 0.32993777717513312 0 -0.029463818158455921 0.32993777717513312 0 -0.025870527424596449 0.34123830348924178 0 -0.017739930991149979 0.33407521428199122 0 -0.025870527424596449 0.34123830348924178 0 -0.017739930991149979 0.33407521428199122 0 -0.015063392225833741 0.34619652719092109 0 -0.020895699531528741 0.32298508569763928 0 -0.029463818158455921 0.32993777717513312 0 -0.017739930991149979 0.33407521428199122 0 -0.017739930991149979 0.33407521428199122 0 -0.0062846136565366129 0.34047471164903848 0 -0.0081717606375159482 0.32786595424702758 0 -0.020895699531528741 0.32298508569763928 0 -0.017739930991149979 0.33407521428199122 0 -0.0081717606375159482 0.32786595424702758 0 -0.017739930991149979 0.33407521428199122 0 -0.0062846136565366129 0.34047471164903848 0 -0.015063392225833741 0.34619652719092109 0 -0.0062846136565366129 0.34047471164903848 0 -0.0081717606375159482 0.32786595424702758 0 0.003770448595607732 0.33559415332684722 0 -0.0050053426515477024 0.30421368897024309 0 -0.01194344365753823 0.31495148552421148 0 0.0033326920966838072 0.32037137025536772 0 -0.0081717606375159482 0.32786595424702758 0 0.0033326920966838072 0.32037137025536772 0 0.003770448595607732 0.33559415332684722 0 -0.01194344365753823 0.31495148552421148 0 -0.0081717606375159482 0.32786595424702758 0 0.0033326920966838072 0.32037137025536772 0 -0.020895699531528741 0.32298508569763928 0 -0.01194344365753823 0.31495148552421148 0 -0.0081717606375159482 0.32786595424702758 0 -0.01423612219986691 0.36130000468842333 0 -0.0117792008684973 0.3676100834088612 0 -0.0064208538966585588 0.36109924297982282 0 -0.01423612219986691 0.36130000468842333 0 -0.0117792008684973 0.3676100834088612 0 -0.019589513471480718 0.36764057658788363 0 -0.0117792008684973 0.3676100834088612 0 -0.01354183183877598 0.37227968639449871 0 -0.019589513471480718 0.36764057658788363 0 -0.01354183183877598 0.37227968639449871 0 -0.019589513471480718 0.36764057658788363 0 -0.01245216641673403 0.38090294662415569 0 -0.01354183183877598 0.37227968639449871 0 -0.0082575591188790622 0.37245372226547102 0 -0.01119354177156966 0.37563255343349922 0 -0.0117792008684973 0.3676100834088612 0 -0.0082575591188790622 0.37245372226547102 0 -0.0048727612147018333 0.36791950834428089 0 -0.0117792008684973 0.3676100834088612 0 -0.01354183183877598 0.37227968639449871 0 -0.0082575591188790622 0.37245372226547102 0 -0.0048727612147018333 0.36791950834428089 0 -0.0015244919297118539 0.37331443520947022 0 0.0037963498076175142 0.36529258077041171 0 -0.0082575591188790622 0.37245372226547102 0 -0.0048727612147018333 0.36791950834428089 0 -0.0015244919297118539 0.37331443520947022 0 -0.0082575591188790622 0.37245372226547102 0 -0.0015244919297118539 0.37331443520947022 0 -0.0066335270900177538 0.37796606680221551 0 -0.0064208538966585588 0.36109924297982282 0 0.001436009402799204 0.35658407481376719 0 0.0037963498076175142 0.36529258077041171 0 -0.0048727612147018333 0.36791950834428089 0 -0.0064208538966585588 0.36109924297982282 0 0.0037963498076175142 0.36529258077041171 0 -0.0117792008684973 0.3676100834088612 0 -0.0048727612147018333 0.36791950834428089 0 -0.0064208538966585588 0.36109924297982282 0 -0.0060495494478987558 0.35111415297640919 0 0.0029978092564315341 0.34765306343151398 0 0.001436009402799204 0.35658407481376719 0 -0.0064208538966585588 0.36109924297982282 0 -0.0060495494478987558 0.35111415297640919 0 0.001436009402799204 0.35658407481376719 0 -0.0062846136565366129 0.34047471164903848 0 -0.0060495494478987558 0.35111415297640919 0 0.0029978092564315341 0.34765306343151398 0 -0.0060495494478987558 0.35111415297640919 0 -0.015063392225833741 0.34619652719092109 0 -0.01402421119723582 0.35453179594359152 0 -0.0062846136565366129 0.34047471164903848 0 -0.0060495494478987558 0.35111415297640919 0 -0.015063392225833741 0.34619652719092109 0 -0.0064208538966585588 0.36109924297982282 0 -0.0060495494478987558 0.35111415297640919 0 -0.01402421119723582 0.35453179594359152 0 -0.01423612219986691 0.36130000468842333 0 -0.0064208538966585588 0.36109924297982282 0 -0.01402421119723582 0.35453179594359152 0 -0.01423612219986691 0.36130000468842333 0 -0.01402421119723582 0.35453179594359152 0 -0.020999706971562161 0.36162784142028331 0 -0.01402421119723582 0.35453179594359152 0 -0.022723174425472038 0.35200446639130212 0 -0.020999706971562161 0.36162784142028331 0 -0.025870527424596449 0.34123830348924178 0 -0.015063392225833741 0.34619652719092109 0 -0.022723174425472038 0.35200446639130212 0 -0.015063392225833741 0.34619652719092109 0 -0.01402421119723582 0.35453179594359152 0 -0.022723174425472038 0.35200446639130212 0 -0.025870527424596449 0.34123830348924178 0 -0.022723174425472038 0.35200446639130212 0 -0.032056630806542717 0.34778139203465752 0 -0.022723174425472038 0.35200446639130212 0 -0.020999706971562161 0.36162784142028331 0 -0.031586250537993701 0.35649138122521667 0 -0.022723174425472038 0.35200446639130212 0 -0.032056630806542717 0.34778139203465752 0 -0.031586250537993701 0.35649138122521667 0 -0.020999706971562161 0.36162784142028331 0 -0.039197856109377073 0.38285384555958801 0 -0.020999706971562161 0.36162784142028331 0 -0.019589513471480718 0.36764057658788363 0 -0.039197856109377073 0.38285384555958801 0 -0.020999706971562161 0.36162784142028331 0 -0.039362524162694618 0.36429855870061872 0 -0.031586250537993701 0.35649138122521667 0 -0.01423612219986691 0.36130000468842333 0 -0.020999706971562161 0.36162784142028331 0 -0.019589513471480718 0.36764057658788363 0 -0.039362524162694618 0.36429855870061872 0 -0.060104724598026897 0.36717298899478129 0 -0.039197856109377073 0.38285384555958801 0 -0.020999706971562161 0.36162784142028331 0 -0.039362524162694618 0.36429855870061872 0 -0.039197856109377073 0.38285384555958801 0 -0.039249366383208917 0.33966055590497812 0 -0.032056630806542717 0.34778139203465752 0 -0.044492097645343051 0.35141498497824869 0 -0.032056630806542717 0.34778139203465752 0 -0.031586250537993701 0.35649138122521667 0 -0.044492097645343051 0.35141498497824869 0 -0.039362524162694618 0.36429855870061872 0 -0.031586250537993701 0.35649138122521667 0 -0.044492097645343051 0.35141498497824869 0 -0.058039855835844228 0.34232245899285402 0 -0.044492097645343051 0.35141498497824869 0 -0.060104724598026897 0.36717298899478129 0 -0.058039855835844228 0.34232245899285402 0 -0.039249366383208917 0.33966055590497812 0 -0.044492097645343051 0.35141498497824869 0 -0.039362524162694618 0.36429855870061872 0 -0.044492097645343051 0.35141498497824869 0 -0.060104724598026897 0.36717298899478129 0 -0.060104724598026897 0.36717298899478129 0 -0.084084002887773304 0.37101978279954562 0 -0.075601181398862224 0.35525574262113258 0 -0.084084002887773304 0.37101978279954562 0 -0.075601181398862224 0.35525574262113258 0 -0.095954111095390454 0.35473010335681782 0 -0.084084002887773304 0.37101978279954562 0 -0.099049883017736332 0.36925368591151242 0 -0.095954111095390454 0.35473010335681782 0 -0.075601181398862224 0.35525574262113258 0 -0.085944681416957158 0.33992759595701921 0 -0.095954111095390454 0.35473010335681782 0 -0.058039855835844228 0.34232245899285402 0 -0.060104724598026897 0.36717298899478129 0 -0.075601181398862224 0.35525574262113258 0 -0.058039855835844228 0.34232245899285402 0 -0.075601181398862224 0.35525574262113258 0 -0.085944681416957158 0.33992759595701921 0 -0.058039855835844228 0.34232245899285402 0 -0.071491946748682506 0.32348172677608578 0 -0.058039855835844228 0.34232245899285402 0 -0.071491946748682506 0.32348172677608578 0 -0.085944681416957158 0.33992759595701921 0 -0.066427709146053671 0.31030108620235058 0 -0.054832891957512252 0.31644257604150322 0 -0.071491946748682506 0.32348172677608578 0 -0.084944037661520214 0.30464099455931742 0 -0.066427709146053671 0.31030108620235058 0 -0.071491946748682506 0.32348172677608578 0 -0.084944037661520214 0.30464099455931742 0 -0.092810262700463858 0.32364850341148649 0 -0.101892844931111 0.31317460763732041 0 -0.084944037661520214 0.30464099455931742 0 -0.071491946748682506 0.32348172677608578 0 -0.084944037661520214 0.30464099455931742 0 -0.071491946748682506 0.32348172677608578 0 -0.092810262700463858 0.32364850341148649 0 -0.092810262700463858 0.32364850341148649 0 -0.085944681416957158 0.33992759595701921 0 -0.10220501333141439 0.33384332823817009 0 -0.071491946748682506 0.32348172677608578 0 -0.092810262700463858 0.32364850341148649 0 -0.085944681416957158 0.33992759595701921 0 -0.085944681416957158 0.33992759595701921 0 -0.10220501333141439 0.33384332823817009 0 -0.1055103988080425 0.34621130830258828 0 -0.10220501333141439 0.33384332823817009 0 -0.10656645125025629 0.32536986021559711 0 -0.1055103988080425 0.34621130830258828 0 -0.10220501333141439 0.33384332823817009 0 -0.10656645125025629 0.32536986021559711 0 -0.092810262700463858 0.32364850341148649 0 -0.10656645125025629 0.32536986021559711 0 -0.101892844931111 0.31317460763732041 0 -0.092810262700463858 0.32364850341148649 0 -0.10220501333141439 0.33384332823817009 0 -0.10656645125025629 0.32536986021559711 0 -0.10656645125025629 0.32536986021559711 0 -0.1105897058253375 0.31755341994452929 0 -0.10656645125025629 0.32536986021559711 0 -0.101892844931111 0.31317460763732041 0 -0.1105897058253375 0.31755341994452929 0 -0.101892844931111 0.31317460763732041 0 -0.1105897058253375 0.31755341994452929 0 -0.10656645125025629 0.32536986021559711 0 -0.101892844931111 0.31317460763732041 0 -0.101892844931111 0.31317460763732041 0 -0.1131711704006856 0.31253811124641989 0 -0.1105897058253375 0.31755341994452929 0 -0.1131711704006856 0.31253811124641989 0 -0.1188696603365713 0.32172232262768019 0 -0.1105897058253375 0.31755341994452929 0 -0.1188696603365713 0.32172232262768019 0 -0.1131711704006856 0.31253811124641989 0 -0.1105897058253375 0.31755341994452929 0 -0.1188696603365713 0.32172232262768019 0 -0.1131711704006856 0.31253811124641989 0 -0.1105897058253375 0.31755341994452929 0 -0.1105897058253375 0.31755341994452929 0 -0.1137704125255997 0.32541853289899819 0 -0.1188696603365713 0.32172232262768019 0 -0.10656645125025629 0.32536986021559711 0 -0.1105897058253375 0.31755341994452929 0 -0.1137704125255997 0.32541853289899819 0 -0.1137704125255997 0.32541853289899819 0 -0.1188696603365713 0.32172232262768019 0 -0.11905583269023511 0.33702852880818479 0 -0.12710701658386739 0.32150240061104129 0 -0.1203056521179815 0.32244533505273071 0 -0.1241398436111214 0.31716536680421598 0 -0.1203056521179815 0.32244533505273071 0 -0.1188696603365713 0.32172232262768019 0 -0.1241398436111214 0.31716536680421598 0 -0.1203056521179815 0.32244533505273071 0 -0.1188696603365713 0.32172232262768019 0 -0.1131711704006856 0.31253811124641989 0 -0.1188696603365713 0.32172232262768019 0 -0.1241398436111214 0.31716536680421598 0 -0.10656645125025629 0.32536986021559711 0 -0.11683882443665 0.35217446827026139 0 -0.13268742736238209 0.34399230899423672 0 -0.1188696603365713 0.32172232262768019 0 -0.11905583269023511 0.33702852880818479 0 -0.10656645125025629 0.32536986021559711 0 -0.11905583269023511 0.33702852880818479 0 -0.11683882443665 0.35217446827026139 0 -0.10656645125025629 0.32536986021559711 0 -0.11683882443665 0.35217446827026139 0 -0.1055103988080425 0.34621130830258828 0 -0.13268742736238209 0.34399230899423672 0 -0.1203056521179815 0.32244533505273071 0 -0.1188696603365713 0.32172232262768019 0 -0.10656645125025629 0.32536986021559711 0 -0.1137704125255997 0.32541853289899819 0 -0.11905583269023511 0.33702852880818479 0 -0.13268742736238209 0.34399230899423672 0 -0.11905583269023511 0.33702852880818479 0 -0.11683882443665 0.35217446827026139 0 -0.12702382644332569 0.37909051114600772 0 -0.11683882443665 0.35217446827026139 0 -0.11453593049743491 0.36929929695996949 0 -0.12702382644332569 0.37909051114600772 0 -0.11683882443665 0.35217446827026139 0 -0.12702382644332569 0.37909051114600772 0 -0.11453593049743491 0.36929929695996949 0 -0.11453593049743491 0.36929929695996949 0 -0.099049883017736332 0.36925368591151242 0 -0.095954111095390454 0.35473010335681782 0 -0.11453593049743491 0.36929929695996949 0 -0.095954111095390454 0.35473010335681782 0 -0.084084002887773304 0.37101978279954562 0 -0.099049883017736332 0.36925368591151242 0 -0.1016254875903467 0.38196556052971647 0 -0.11453593049743491 0.36929929695996949 0 -0.099049883017736332 0.36925368591151242 0 -0.1016254875903467 0.38196556052971647 0 -0.11683882443665 0.35217446827026139 0 -0.095954111095390454 0.35473010335681782 0 -0.1055103988080425 0.34621130830258828 0 -0.085944681416957158 0.33992759595701921 0 -0.095954111095390454 0.35473010335681782 0 -0.1055103988080425 0.34621130830258828 0 -0.11683882443665 0.35217446827026139 0 -0.11453593049743491 0.36929929695996949 0 -0.095954111095390454 0.35473010335681782 0 -0.1000611729261211 0.39733054528535339 0 -0.11166628741155921 0.39265249120233459 0 -0.11080013693898789 0.40406593728522228 0 -0.1000611729261211 0.39733054528535339 0 -0.1016254875903467 0.38196556052971647 0 -0.11166628741155921 0.39265249120233459 0 -0.1000611729261211 0.39733054528535339 0 -0.11080013693898789 0.40406593728522228 0 -0.098612523023937443 0.4101936725443821 0 -0.1000611729261211 0.39733054528535339 0 -0.098612523023937443 0.4101936725443821 0 -0.089655901608244062 0.4031966266546525 0 -0.1000611729261211 0.39733054528535339 0 -0.1016254875903467 0.38196556052971647 0 -0.086817225286430572 0.39107623484687382 0 -0.1152132857469903 0.38357898153161157 0 -0.12023377914526751 0.39043252892857649 0 -0.11166628741155921 0.39265249120233459 0 -0.1016254875903467 0.38196556052971647 0 -0.1152132857469903 0.38357898153161157 0 -0.11166628741155921 0.39265249120233459 0 -0.11453593049743491 0.36929929695996949 0 -0.1016254875903467 0.38196556052971647 0 -0.1152132857469903 0.38357898153161157 0 -0.12702382644332569 0.37909051114600772 0 -0.11453593049743491 0.36929929695996949 0 -0.1240609952911563 0.38466335496570819 0 -0.11453593049743491 0.36929929695996949 0 -0.1152132857469903 0.38357898153161157 0 -0.1240609952911563 0.38466335496570819 0 -0.12877555934037871 0.39268247861865951 0 -0.1240609952911563 0.38466335496570819 0 -0.12023377914526751 0.39043252892857649 0 -0.1152132857469903 0.38357898153161157 0 -0.1240609952911563 0.38466335496570819 0 -0.12023377914526751 0.39043252892857649 0 -0.12023377914526751 0.39043252892857649 0 -0.11166628741155921 0.39265249120233459 0 -0.1214527679362529 0.39858533832456861 0 -0.12877555934037871 0.39268247861865951 0 -0.12023377914526751 0.39043252892857649 0 -0.1214527679362529 0.39858533832456861 0 -0.11080013693898789 0.40406593728522228 0 -0.1189767044633524 0.40592393951577271 0 -0.1214527679362529 0.39858533832456861 0 -0.11166628741155921 0.39265249120233459 0 -0.11080013693898789 0.40406593728522228 0 -0.1214527679362529 0.39858533832456861 0 -0.12761258966157971 0.40489462466678222 0 -0.1189767044633524 0.40592393951577271 0 -0.1214527679362529 0.39858533832456861 0 -0.12761258966157971 0.40489462466678222 0 -0.1189767044633524 0.40592393951577271 0 -0.1172037481399819 0.41578061322521931 0 -0.11080013693898789 0.40406593728522228 0 -0.1189767044633524 0.40592393951577271 0 -0.1172037481399819 0.41578061322521931 0 -0.12116211241067321 0.42694999954873031 0 -0.1071797557472096 0.42666196038956727 0 -0.100431553604066 0.44630577736812221 0 -0.12116211241067321 0.42694999954873031 0 -0.100431553604066 0.44630577736812221 0 -0.1172037481399819 0.41578061322521931 0 -0.12116211241067321 0.42694999954873031 0 -0.1071797557472096 0.42666196038956727 0 -0.1071797557472096 0.42666196038956727 0 -0.092514825062684422 0.42396700472110221 0 -0.100431553604066 0.44630577736812221 0 -0.1172037481399819 0.41578061322521931 0 -0.1071797557472096 0.42666196038956727 0 -0.092514825062684422 0.42396700472110221 0 -0.1172037481399819 0.41578061322521931 0 -0.092514825062684422 0.42396700472110221 0 -0.1172037481399819 0.41578061322521931 0 -0.098612523023937443 0.4101936725443821 0 -0.092514825062684422 0.42396700472110221 0 -0.11080013693898789 0.40406593728522228 0 -0.1172037481399819 0.41578061322521931 0 -0.098612523023937443 0.4101936725443821 0 -0.098612523023937443 0.4101936725443821 0 -0.086017875635662988 0.41337258329843618 0 -0.089655901608244062 0.4031966266546525 0 -0.086017875635662988 0.41337258329843618 0 -0.074569345844833115 0.42411053500928853 0 -0.076770711169068279 0.40401009729821707 0 -0.086017875635662988 0.41337258329843618 0 -0.092514825062684422 0.42396700472110221 0 -0.074569345844833115 0.42411053500928853 0 -0.098612523023937443 0.4101936725443821 0 -0.086017875635662988 0.41337258329843618 0 -0.092514825062684422 0.42396700472110221 0 -0.086017875635662988 0.41337258329843618 0 -0.076770711169068279 0.40401009729821707 0 -0.089655901608244062 0.4031966266546525 0 -0.092514825062684422 0.42396700472110221 0 -0.083984276627545165 0.43956238763947258 0 -0.100431553604066 0.44630577736812221 0 -0.092514825062684422 0.42396700472110221 0 -0.074569345844833115 0.42411053500928853 0 -0.067825901985387058 0.43215339621698501 0 -0.092514825062684422 0.42396700472110221 0 -0.067825901985387058 0.43215339621698501 0 -0.083984276627545165 0.43956238763947258 0 -0.092514825062684422 0.42396700472110221 0 -0.067825901985387058 0.43215339621698501 0 -0.074569345844833115 0.42411053500928853 0 -0.064844967881049612 0.42639270145793351 0 -0.067825901985387058 0.43215339621698501 0 -0.064844967881049612 0.42639270145793351 0 -0.067825901985387058 0.43215339621698501 0 -0.055853658470016949 0.42873010414411522 0 -0.074569345844833115 0.42411053500928853 0 -0.064844967881049612 0.42639270145793351 0 -0.061130965223961303 0.4205767704613454 0 -0.074569345844833115 0.42411053500928853 0 -0.059938712339192367 0.40704561895658559 0 -0.074569345844833115 0.42411053500928853 0 -0.076770711169068279 0.40401009729821707 0 -0.059938712339192367 0.40704561895658559 0 -0.074569345844833115 0.42411053500928853 0 -0.061130965223961303 0.4205767704613454 0 -0.059938712339192367 0.40704561895658559 0 -0.070740004067482487 0.38754981624921908 0 -0.057396005247191899 0.40407984969889282 0 -0.076770711169068279 0.40401009729821707 0 -0.070740004067482487 0.38754981624921908 0 -0.057396005247191899 0.40407984969889282 0 -0.076770711169068279 0.40401009729821707 0 -0.057396005247191899 0.40407984969889282 0 -0.059938712339192367 0.40704561895658559 0 -0.076770711169068279 0.40401009729821707 0 -0.086817225286430572 0.39107623484687382 0 -0.070740004067482487 0.38754981624921908 0 -0.076770711169068279 0.40401009729821707 0 -0.086817225286430572 0.39107623484687382 0 -0.089655901608244062 0.4031966266546525 0 -0.1000611729261211 0.39733054528535339 0 -0.086817225286430572 0.39107623484687382 0 -0.089655901608244062 0.4031966266546525 0 -0.084084002887773304 0.37101978279954562 0 -0.1016254875903467 0.38196556052971647 0 -0.086817225286430572 0.39107623484687382 0 -0.084084002887773304 0.37101978279954562 0 -0.086817225286430572 0.39107623484687382 0 -0.070740004067482487 0.38754981624921908 0 -0.084084002887773304 0.37101978279954562 0 -0.070740004067482487 0.38754981624921908 0 -0.060104724598026897 0.36717298899478129 0 -0.084084002887773304 0.37101978279954562 0 -0.070740004067482487 0.38754981624921908 0 -0.060104724598026897 0.36717298899478129 0 -0.070740004067482487 0.38754981624921908 0 -0.056859647505519591 0.38541412512562018 0 -0.060104724598026897 0.36717298899478129 0 -0.056859647505519591 0.38541412512562018 0 -0.039197856109377073 0.38285384555958801 0 -0.070740004067482487 0.38754981624921908 0 -0.056859647505519591 0.38541412512562018 0 -0.057396005247191899 0.40407984969889282 0 -0.057396005247191899 0.40407984969889282 0 -0.039197856109377073 0.38285384555958801 0 -0.057396005247191899 0.40407984969889282 0 -0.0455628001145678 0.40059275751234208 0 -0.039197856109377073 0.38285384555958801 0 -0.056859647505519591 0.38541412512562018 0 -0.057396005247191899 0.40407984969889282 0 -0.039197856109377073 0.38285384555958801 0 -0.057396005247191899 0.40407984969889282 0 -0.059938712339192367 0.40704561895658559 0 -0.057396005247191899 0.40407984969889282 0 -0.049745920228002879 0.4056660079855825 0 -0.0455628001145678 0.40059275751234208 0 -0.0455628001145678 0.40059275751234208 0 -0.035394430911037722 0.39634905598598341 0 -0.039197856109377073 0.38285384555958801 0 -0.0455628001145678 0.40059275751234208 0 -0.035394430911037722 0.39634905598598341 0 -0.037155077134442702 0.40466698931320821 0 -0.0455628001145678 0.40059275751234208 0 -0.037155077134442702 0.40466698931320821 0 -0.044169226187665347 0.40704839486192729 0 -0.049745920228002879 0.4056660079855825 0 -0.0455628001145678 0.40059275751234208 0 -0.044169226187665347 0.40704839486192729 0 -0.035394430911037722 0.39634905598598341 0 -0.039197856109377073 0.38285384555958801 0 -0.024878649189916249 0.39304914363776189 0 -0.035394430911037722 0.39634905598598341 0 -0.037155077134442702 0.40466698931320821 0 -0.030154598644727349 0.40132135531399582 0 -0.037155077134442702 0.40466698931320821 0 -0.030154598644727349 0.40132135531399582 0 -0.03001372354282918 0.40787606311735553 0 -0.019589513471480718 0.36764057658788363 0 -0.020226265774926609 0.38526376600210588 0 -0.01286387693167104 0.39026907351276657 0 -0.019589513471480718 0.36764057658788363 0 -0.039197856109377073 0.38285384555958801 0 -0.02564683568562795 0.38265826226151828 0 -0.019589513471480718 0.36764057658788363 0 -0.02564683568562795 0.38265826226151828 0 -0.020226265774926609 0.38526376600210588 0 -0.019589513471480718 0.36764057658788363 0 -0.01286387693167104 0.39026907351276657 0 -0.020226265774926609 0.38526376600210588 0 -0.018546700662496151 0.39201428666227389 0 -0.01286387693167104 0.39026907351276657 0 -0.020226265774926609 0.38526376600210588 0 -0.024878649189916249 0.39304914363776189 0 -0.018546700662496151 0.39201428666227389 0 -0.039197856109377073 0.38285384555958801 0 -0.02564683568562795 0.38265826226151828 0 -0.024878649189916249 0.39304914363776189 0 -0.02564683568562795 0.38265826226151828 0 -0.020226265774926609 0.38526376600210588 0 -0.024878649189916249 0.39304914363776189 0 -0.035394430911037722 0.39634905598598341 0 -0.024878649189916249 0.39304914363776189 0 -0.030154598644727349 0.40132135531399582 0 -0.024878649189916249 0.39304914363776189 0 -0.030154598644727349 0.40132135531399582 0 -0.02333111244541089 0.40466552451566967 0 -0.030154598644727349 0.40132135531399582 0 -0.02333111244541089 0.40466552451566967 0 -0.03001372354282918 0.40787606311735553 0 -0.024878649189916249 0.39304914363776189 0 -0.02333111244541089 0.40466552451566967 0 -0.016848806059965221 0.3983751837391411 0 -0.02333111244541089 0.40466552451566967 0 -0.016848806059965221 0.3983751837391411 0 -0.01728975990157261 0.40902072919458238 0 -0.016848806059965221 0.3983751837391411 0 -0.018546700662496151 0.39201428666227389 0 -0.01286387693167104 0.39026907351276657 0 -0.024878649189916249 0.39304914363776189 0 -0.016848806059965221 0.3983751837391411 0 -0.018546700662496151 0.39201428666227389 0 -0.016848806059965221 0.3983751837391411 0 -0.01286387693167104 0.39026907351276657 0 -0.0061382403918613694 0.41289757043764957 0 -0.01286387693167104 0.39026907351276657 0 -0.0061382403918613694 0.41289757043764957 0 -0.0083071313853489009 0.39241284846055369 0 -0.01286387693167104 0.39026907351276657 0 -0.0061382403918613694 0.41289757043764957 0 -0.0083071313853489009 0.39241284846055369 0 -0.0061382403918613694 0.41289757043764957 0 0.001215528843426622 0.40337136132503182 0 -0.00024727968021932432 0.38779626046928811 0 -0.0059864164719755633 0.38349787570457128 0 -0.0082730105330539698 0.38726452365539488 0 -0.019589513471480718 0.36764057658788363 0 -0.01245216641673403 0.38090294662415569 0 -0.01286387693167104 0.39026907351276657 0 -0.0083071313853489009 0.39241284846055369 0 -0.00024727968021932432 0.38779626046928811 0 -0.0082730105330539698 0.38726452365539488 0 -0.00024727968021932432 0.38779626046928811 0 -0.0059864164719755633 0.38349787570457128 0 0.00019967971850866269 0.38057760276491942 0 -0.0015244919297118539 0.37331443520947022 0 -0.0066335270900177538 0.37796606680221551 0 0.00019967971850866269 0.38057760276491942 0 -0.0059864164719755633 0.38349787570457128 0 -0.0066335270900177538 0.37796606680221551 0 0.00019967971850866269 0.38057760276491942 0 -0.0059864164719755633 0.38349787570457128 0 -0.0066335270900177538 0.37796606680221551 0 -0.01245216641673403 0.38090294662415569 0 -0.01354183183877598 0.37227968639449871 0 -0.01119354177156966 0.37563255343349922 0 -0.01245216641673403 0.38090294662415569 0 -0.0066335270900177538 0.37796606680221551 0 -0.01119354177156966 0.37563255343349922 0 -0.01245216641673403 0.38090294662415569 0 -0.0082575591188790622 0.37245372226547102 0 -0.0066335270900177538 0.37796606680221551 0 -0.01119354177156966 0.37563255343349922 0 -0.01245216641673403 0.38090294662415569 0 -0.01286387693167104 0.39026907351276657 0 -0.0082730105330539698 0.38726452365539488 0 -0.0083071313853489009 0.39241284846055369 0 -0.01286387693167104 0.39026907351276657 0 -0.0082730105330539698 0.38726452365539488 0 -0.0059864164719755633 0.38349787570457128 0 -0.01245216641673403 0.38090294662415569 0 -0.0082730105330539698 0.38726452365539488 0 -0.0061382403918613694 0.41289757043764957 0 -0.010853099585606809 0.42161478894341492 0 0.0005873961479486412 0.43552606736253252 0 -0.0061382403918613694 0.41289757043764957 0 0.0005873961479486412 0.43552606736253252 0 -0.01296023969112951 0.42586592967055831 0 -0.01090656814426528 0.43013819271886439 0 -0.019612300355361191 0.42207216857528063 0 -0.01296023969112951 0.42586592967055831 0 -0.01090656814426528 0.43013819271886439 0 -0.010853099585606809 0.42161478894341492 0 -0.01296023969112951 0.42586592967055831 0 -0.010853099585606809 0.42161478894341492 0 -0.019612300355361191 0.42207216857528063 0 -0.01090656814426528 0.43013819271886439 0 0.0005873961479486412 0.43552606736253252 0 -0.01090656814426528 0.43013819271886439 0 -0.0091982625505949885 0.44510077470828258 0 0.0005873961479486412 0.43552606736253252 0 -0.01090656814426528 0.43013819271886439 0 -0.010853099585606809 0.42161478894341492 0 0.0005873961479486412 0.43552606736253252 0 -0.016848806059965221 0.3983751837391411 0 -0.0061382403918613694 0.41289757043764957 0 -0.01728975990157261 0.40902072919458238 0 -0.0061382403918613694 0.41289757043764957 0 -0.01558133797901751 0.41513901305953022 0 -0.01728975990157261 0.40902072919458238 0 -0.0061382403918613694 0.41289757043764957 0 -0.010853099585606809 0.42161478894341492 0 -0.01558133797901751 0.41513901305953022 0 -0.010853099585606809 0.42161478894341492 0 -0.01558133797901751 0.41513901305953022 0 -0.019612300355361191 0.42207216857528063 0 -0.01558133797901751 0.41513901305953022 0 -0.024549302631608039 0.41402635422092132 0 -0.019612300355361191 0.42207216857528063 0 -0.01558133797901751 0.41513901305953022 0 -0.01728975990157261 0.40902072919458238 0 -0.024549302631608039 0.41402635422092132 0 -0.02333111244541089 0.40466552451566967 0 -0.01728975990157261 0.40902072919458238 0 -0.024549302631608039 0.41402635422092132 0 -0.024549302631608039 0.41402635422092132 0 -0.03001372354282918 0.40787606311735553 0 -0.036520681268759583 0.41085024044609919 0 -0.02333111244541089 0.40466552451566967 0 -0.024549302631608039 0.41402635422092132 0 -0.03001372354282918 0.40787606311735553 0 -0.024549302631608039 0.41402635422092132 0 -0.036520681268759583 0.41085024044609919 0 -0.031381108753425743 0.42054061129401582 0 -0.024549302631608039 0.41402635422092132 0 -0.019612300355361191 0.42207216857528063 0 -0.031381108753425743 0.42054061129401582 0 -0.030663910802842809 0.42800813158185053 0 -0.024082925434508351 0.43160936244522358 0 -0.024093732808162321 0.44519524684320988 0 -0.030663910802842809 0.42800813158185053 0 -0.038165047883583443 0.42790242138604762 0 -0.024093732808162321 0.44519524684320988 0 -0.01090656814426528 0.43013819271886439 0 -0.031381108753425743 0.42054061129401582 0 -0.038165047883583443 0.42790242138604762 0 -0.024093732808162321 0.44519524684320988 0 -0.030663910802842809 0.42800813158185053 0 -0.024082925434508351 0.43160936244522358 0 -0.031381108753425743 0.42054061129401582 0 -0.01090656814426528 0.43013819271886439 0 -0.024082925434508351 0.43160936244522358 0 -0.031381108753425743 0.42054061129401582 0 -0.01090656814426528 0.43013819271886439 0 -0.019612300355361191 0.42207216857528063 0 -0.031381108753425743 0.42054061129401582 0 -0.01090656814426528 0.43013819271886439 0 -0.024082925434508351 0.43160936244522358 0 -0.024093732808162321 0.44519524684320988 0 -0.035516094915607851 0.43743020731656629 0 -0.038165047883583443 0.42790242138604762 0 -0.024093732808162321 0.44519524684320988 0 -0.030663910802842809 0.42800813158185053 0 -0.038165047883583443 0.42790242138604762 0 -0.031381108753425743 0.42054061129401582 0 -0.038165047883583443 0.42790242138604762 0 -0.044315163770534648 0.43127564666608731 0 -0.049187008529851098 0.42279436701226158 0 -0.035516094915607851 0.43743020731656629 0 -0.038165047883583443 0.42790242138604762 0 -0.044315163770534648 0.43127564666608731 0 -0.035516094915607851 0.43743020731656629 0 -0.044315163770534648 0.43127564666608731 0 -0.043136978908089707 0.4403397877128678 0 -0.038165047883583443 0.42790242138604762 0 -0.051855649362586492 0.41094302986916781 0 -0.038165047883583443 0.42790242138604762 0 -0.031381108753425743 0.42054061129401582 0 -0.051855649362586492 0.41094302986916781 0 -0.031381108753425743 0.42054061129401582 0 -0.051855649362586492 0.41094302986916781 0 -0.036520681268759583 0.41085024044609919 0 -0.031381108753425743 0.42054061129401582 0 -0.051855649362586492 0.41094302986916781 0 -0.038165047883583443 0.42790242138604762 0 -0.051855649362586492 0.41094302986916781 0 -0.049187008529851098 0.42279436701226158 0 -0.037155077134442702 0.40466698931320821 0 -0.03001372354282918 0.40787606311735553 0 -0.036520681268759583 0.41085024044609919 0 -0.036520681268759583 0.41085024044609919 0 -0.044169226187665347 0.40704839486192729 0 -0.051855649362586492 0.41094302986916781 0 -0.037155077134442702 0.40466698931320821 0 -0.036520681268759583 0.41085024044609919 0 -0.044169226187665347 0.40704839486192729 0 -0.057396005247191899 0.40407984969889282 0 -0.049745920228002879 0.4056660079855825 0 -0.051855649362586492 0.41094302986916781 0 -0.057396005247191899 0.40407984969889282 0 -0.051855649362586492 0.41094302986916781 0 -0.049745920228002879 0.4056660079855825 0 -0.044169226187665347 0.40704839486192729 0 -0.051855649362586492 0.41094302986916781 0 -0.051855649362586492 0.41094302986916781 0 -0.054023458346630929 0.41715405483866819 0 -0.056296197240575642 0.41403188357941229 0 -0.051855649362586492 0.41094302986916781 0 -0.054023458346630929 0.41715405483866819 0 -0.049187008529851098 0.42279436701226158 0 -0.054023458346630929 0.41715405483866819 0 -0.061130965223961303 0.4205767704613454 0 -0.049187008529851098 0.42279436701226158 0 -0.054023458346630929 0.41715405483866819 0 -0.061130965223961303 0.4205767704613454 0 -0.056296197240575642 0.41403188357941229 0 -0.051855649362586492 0.41094302986916781 0 -0.056296197240575642 0.41403188357941229 0 -0.059938712339192367 0.40704561895658559 0 -0.057396005247191899 0.40407984969889282 0 -0.051855649362586492 0.41094302986916781 0 -0.059938712339192367 0.40704561895658559 0 -0.061130965223961303 0.4205767704613454 0 -0.056296197240575642 0.41403188357941229 0 -0.059938712339192367 0.40704561895658559 0 -0.051855649362586492 0.41094302986916781 0 -0.059938712339192367 0.40704561895658559 0 -0.067825901985387058 0.43215339621698501 0 -0.043136978908089707 0.4403397877128678 0 -0.067825901985387058 0.43215339621698501 0 -0.055853658470016949 0.42873010414411522 0 -0.043136978908089707 0.4403397877128678 0 -0.044315163770534648 0.43127564666608731 0 -0.055853658470016949 0.42873010414411522 0 -0.043136978908089707 0.4403397877128678 0 -0.044315163770534648 0.43127564666608731 0 -0.049187008529851098 0.42279436701226158 0 -0.055853658470016949 0.42873010414411522 0 -0.064844967881049612 0.42639270145793351 0 -0.061130965223961303 0.4205767704613454 0 -0.055853658470016949 0.42873010414411522 0 -0.061130965223961303 0.4205767704613454 0 -0.049187008529851098 0.42279436701226158 0 -0.055853658470016949 0.42873010414411522 0 -0.060090093709743587 0.4431461231145844 0 -0.058822870859881742 0.45397054539555293 0 -0.043136978908089707 0.4403397877128678 0 -0.067825901985387058 0.43215339621698501 0 -0.060090093709743587 0.4431461231145844 0 -0.043136978908089707 0.4403397877128678 0 -0.058822870859881742 0.45397054539555293 0 -0.043136978908089707 0.4403397877128678 0 -0.040931542764063661 0.45168954919074672 0 -0.059704958193833618 0.46820256943175781 0 -0.058822870859881742 0.45397054539555293 0 -0.042949146708656738 0.46672428624422507 0 -0.058822870859881742 0.45397054539555293 0 -0.042949146708656738 0.46672428624422507 0 -0.040931542764063661 0.45168954919074672 0 -0.042949146708656738 0.46672428624422507 0 -0.025650397635290881 0.457830964921002 0 -0.025914422806634561 0.46812644972104722 0 -0.042949146708656738 0.46672428624422507 0 -0.026927857426461619 0.44843123948154417 0 -0.025650397635290881 0.457830964921002 0 -0.042949146708656738 0.46672428624422507 0 -0.040931542764063661 0.45168954919074672 0 -0.026927857426461619 0.44843123948154417 0 -0.042949146708656738 0.46672428624422507 0 -0.026927857426461619 0.44843123948154417 0 -0.043136978908089707 0.4403397877128678 0 -0.040931542764063661 0.45168954919074672 0 -0.035445657488840952 0.44503345747904449 0 -0.040931542764063661 0.45168954919074672 0 -0.035445657488840952 0.44503345747904449 0 -0.026927857426461619 0.44843123948154417 0 -0.035516094915607851 0.43743020731656629 0 -0.035445657488840952 0.44503345747904449 0 -0.030520271595253539 0.44373451573466488 0 -0.035516094915607851 0.43743020731656629 0 -0.043136978908089707 0.4403397877128678 0 -0.035445657488840952 0.44503345747904449 0 -0.035516094915607851 0.43743020731656629 0 -0.030520271595253539 0.44373451573466488 0 -0.024093732808162321 0.44519524684320988 0 -0.01090656814426528 0.43013819271886439 0 -0.024093732808162321 0.44519524684320988 0 -0.016570702414293939 0.44848322101172228 0 -0.01090656814426528 0.43013819271886439 0 -0.024093732808162321 0.44519524684320988 0 -0.016570702414293939 0.44848322101172228 0 -0.026927857426461619 0.44843123948154417 0 -0.025650397635290881 0.457830964921002 0 -0.024093732808162321 0.44519524684320988 0 -0.016570702414293939 0.44848322101172228 0 -0.026927857426461619 0.44843123948154417 0 -0.035445657488840952 0.44503345747904449 0 -0.030520271595253539 0.44373451573466488 0 -0.026927857426461619 0.44843123948154417 0 -0.030520271595253539 0.44373451573466488 0 -0.024093732808162321 0.44519524684320988 0 -0.026927857426461619 0.44843123948154417 0 -0.024093732808162321 0.44519524684320988 0 -0.026927857426461619 0.44843123948154417 0 -0.025914422806634561 0.46812644972104722 0 -0.01633559499150293 0.4591316496907264 0 -0.013023087144126391 0.47359189839759719 0 -0.025650397635290881 0.457830964921002 0 -0.025914422806634561 0.46812644972104722 0 -0.01633559499150293 0.4591316496907264 0 -0.016570702414293939 0.44848322101172228 0 -0.025650397635290881 0.457830964921002 0 -0.01633559499150293 0.4591316496907264 0 -0.0047806556464353436 0.45680287412294562 0 -0.013023087144126391 0.47359189839759719 0 0.00059582523221500473 0.46885726438604503 0 -0.01633559499150293 0.4591316496907264 0 -0.01220627596024507 0.45312351136096329 0 -0.0047806556464353436 0.45680287412294562 0 -0.01633559499150293 0.4591316496907264 0 -0.0047806556464353436 0.45680287412294562 0 -0.013023087144126391 0.47359189839759719 0 -0.016570702414293939 0.44848322101172228 0 -0.01633559499150293 0.4591316496907264 0 -0.01220627596024507 0.45312351136096329 0 -0.01090656814426528 0.43013819271886439 0 -0.016570702414293939 0.44848322101172228 0 -0.0091982625505949885 0.44510077470828258 0 -0.0047806556464353436 0.45680287412294562 0 -0.0091982625505949885 0.44510077470828258 0 0.0005873961479486412 0.43552606736253252 0 -0.016570702414293939 0.44848322101172228 0 -0.01220627596024507 0.45312351136096329 0 -0.0091982625505949885 0.44510077470828258 0 -0.01220627596024507 0.45312351136096329 0 -0.0047806556464353436 0.45680287412294562 0 -0.0091982625505949885 0.44510077470828258 0 -0.014123589070291881 0.5 0 -0.013023087144126391 0.47359189839759719 0 0.0046621640647640889 0.48184508255685682 0 -0.013023087144126391 0.47359189839759719 0 0.00059582523221500473 0.46885726438604503 0 0.0046621640647640889 0.48184508255685682 0 -0.025914422806634561 0.46812644972104722 0 -0.013023087144126391 0.47359189839759719 0 -0.031613887553595892 0.48335344935168523 0 -0.014123589070291881 0.5 0 -0.042923596536590961 0.49999999999999922 0 -0.031613887553595892 0.48335344935168523 0 -0.014123589070291881 0.5 0 -0.013023087144126391 0.47359189839759719 0 -0.031613887553595892 0.48335344935168523 0 -0.042923596536590961 0.49999999999999922 0 -0.031613887553595892 0.48335344935168523 0 -0.05897043599085186 0.48501733300690608 0 -0.042949146708656738 0.46672428624422507 0 -0.025914422806634561 0.46812644972104722 0 -0.031613887553595892 0.48335344935168523 0 -0.042949146708656738 0.46672428624422507 0 -0.031613887553595892 0.48335344935168523 0 -0.05897043599085186 0.48501733300690608 0 -0.042949146708656738 0.46672428624422507 0 -0.05897043599085186 0.48501733300690608 0 -0.059704958193833618 0.46820256943175781 0 -0.042949146708656738 0.46672428624422507 0 -0.05897043599085186 0.48501733300690608 0 -0.042923596536590961 0.49999999999999922 0 -0.05897043599085186 0.48501733300690608 0 -0.066894265581110404 0.49406473129558198 0 -0.042923596536590961 0.49999999999999922 0 -0.05897043599085186 0.48501733300690608 0 -0.042923596536590961 0.49999999999999922 0 -0.066894265581110404 0.49406473129558198 0 -0.072417844401773013 0.5 0 -0.05897043599085186 0.48501733300690608 0 -0.066894265581110404 0.49406473129558198 0 -0.081795088946713654 0.48583130360626631 0 -0.05897043599085186 0.48501733300690608 0 -0.066894265581110404 0.49406473129558198 0 -0.066894265581110404 0.49406473129558198 0 -0.072417844401773013 0.5 0 -0.081795088946713654 0.48583130360626631 0 -0.072417844401773013 0.5 0 -0.081795088946713654 0.48583130360626631 0 -0.1019120922669552 0.5 0 -0.081795088946713654 0.48583130360626631 0 -0.079700994797458777 0.46566155518751401 0 -0.110874900642133 0.47024420214759582 0 -0.059704958193833618 0.46820256943175781 0 -0.05897043599085186 0.48501733300690608 0 -0.079700994797458777 0.46566155518751401 0 -0.05897043599085186 0.48501733300690608 0 -0.079700994797458777 0.46566155518751401 0 -0.05897043599085186 0.48501733300690608 0 -0.081795088946713654 0.48583130360626631 0 -0.079700994797458777 0.46566155518751401 0 -0.058822870859881742 0.45397054539555293 0 -0.070574623085615878 0.44612076313293209 0 -0.079700994797458777 0.46566155518751401 0 -0.059704958193833618 0.46820256943175781 0 -0.058822870859881742 0.45397054539555293 0 -0.079700994797458777 0.46566155518751401 0 -0.067825901985387058 0.43215339621698501 0 -0.070574623085615878 0.44612076313293209 0 -0.083984276627545165 0.43956238763947258 0 -0.070574623085615878 0.44612076313293209 0 -0.083984276627545165 0.43956238763947258 0 -0.079700994797458777 0.46566155518751401 0 -0.067825901985387058 0.43215339621698501 0 -0.060090093709743587 0.4431461231145844 0 -0.070574623085615878 0.44612076313293209 0 -0.060090093709743587 0.4431461231145844 0 -0.058822870859881742 0.45397054539555293 0 -0.070574623085615878 0.44612076313293209 0 -0.083984276627545165 0.43956238763947258 0 -0.079700994797458777 0.46566155518751401 0 -0.100431553604066 0.44630577736812221 0 -0.079700994797458777 0.46566155518751401 0 -0.100431553604066 0.44630577736812221 0 -0.079700994797458777 0.46566155518751401 0 -0.100431553604066 0.44630577736812221 0 -0.110874900642133 0.47024420214759582 0 -0.12747559360914409 0.44888736527933948 0 -0.12116211241067321 0.42694999954873031 0 -0.100431553604066 0.44630577736812221 0 -0.12989941213789141 0.46706028052795168 0 -0.110874900642133 0.47024420214759582 0 -0.12747559360914409 0.44888736527933948 0 -0.100431553604066 0.44630577736812221 0 -0.110874900642133 0.47024420214759582 0 -0.12989941213789141 0.46706028052795168 0 -0.12747559360914409 0.44888736527933948 0 -0.110874900642133 0.47024420214759582 0 -0.12989941213789141 0.46706028052795168 0 -0.110874900642133 0.47024420214759582 0 -0.1229361870542558 0.48388316375613249 0 -0.13140634013213731 0.5 0 -0.1229361870542558 0.48388316375613249 0 -0.1019120922669552 0.5 0 -0.110874900642133 0.47024420214759582 0 -0.1229361870542558 0.48388316375613249 0 -0.1019120922669552 0.5 0 -0.081795088946713654 0.48583130360626631 0 -0.110874900642133 0.47024420214759582 0 -0.1019120922669552 0.5 0 -0.15665553298147011 0.082581178984143674 0 -0.17952578799766031 0.081559784973979199 0 -0.1625048630829091 0.096135470119919658 0 -0.1583348620713553 0.067914436856566743 0 -0.17952578799766031 0.081559784973979199 0 -0.15665553298147011 0.082581178984143674 0 -0.1583348620713553 0.067914436856566743 0 -0.17952578799766031 0.081559784973979199 0 -0.17952578799766031 0.081559784973979199 0 -0.1831157624949859 0.053391153854108642 0 -0.1979902716776607 0.076162042690907025 0 -0.1583348620713553 0.067914436856566743 0 -0.17952578799766031 0.081559784973979199 0 -0.1831157624949859 0.053391153854108642 0 -0.17952578799766031 0.081559784973979199 0 -0.18266530728306909 0.1060668502600506 0 -0.1625048630829091 0.096135470119919658 0 -0.18266530728306909 0.1060668502600506 0 -0.1625048630829091 0.096135470119919658 0 -0.18266530728306909 0.1060668502600506 0 -0.1826172944347213 0.1201107624509782 0 -0.15642727670496029 0.1106632219411303 0 -0.18266530728306909 0.1060668502600506 0 -0.1826172944347213 0.1201107624509782 0 -0.19698993295526279 0.11312340623189571 0 -0.1826172944347213 0.1201107624509782 0 -0.16824465591417909 0.1270981186700596 0 -0.15642727670496029 0.1106632219411303 0 -0.15412013754391071 0.1247881953508177 0 -0.16824465591417909 0.1270981186700596 0 -0.1826172944347213 0.1201107624509782 0 -0.15642727670496029 0.1106632219411303 0 -0.16824465591417909 0.1270981186700596 0 -0.18266530728306909 0.1060668502600506 0 -0.15642727670496029 0.1106632219411303 0 -0.1625048630829091 0.096135470119919658 0 -0.18266530728306909 0.1060668502600506 0 -0.15642727670496029 0.1106632219411303 0 -0.15642727670496029 0.1106632219411303 0 -0.1625048630829091 0.096135470119919658 0 -0.14377557831328561 0.1004171445725381 0 -0.1625048630829091 0.096135470119919658 0 -0.14377557831328561 0.1004171445725381 0 -0.1423444188827491 0.086204089979788581 0 -0.15642727670496029 0.1106632219411303 0 -0.14377557831328561 0.1004171445725381 0 -0.13018924612685151 0.11525959362221 0 -0.15412013754391071 0.1247881953508177 0 -0.13018924612685151 0.11525959362221 0 -0.14051522649376541 0.12923163548774511 0 -0.15642727670496029 0.1106632219411303 0 -0.13018924612685151 0.11525959362221 0 -0.15642727670496029 0.1106632219411303 0 -0.15412013754391071 0.1247881953508177 0 -0.13018924612685151 0.11525959362221 0 -0.13018924612685151 0.11525959362221 0 -0.14051522649376541 0.12923163548774511 0 -0.12121807963634181 0.1265796468657556 0 -0.14377557831328561 0.1004171445725381 0 -0.13018924612685151 0.11525959362221 0 -0.12741208676895829 0.09382334719964236 0 -0.14377557831328561 0.1004171445725381 0 -0.12741208676895829 0.09382334719964236 0 -0.1423444188827491 0.086204089979788581 0 -0.1423444188827491 0.086204089979788581 0 -0.13817464221187359 0.072773266467262981 0 -0.12218397468258919 0.076272709839657532 0 -0.12741208676895829 0.09382334719964236 0 -0.1423444188827491 0.086204089979788581 0 -0.12218397468258919 0.076272709839657532 0 -0.1423444188827491 0.086204089979788581 0 -0.12218397468258919 0.076272709839657532 0 -0.15665553298147011 0.082581178984143674 0 -0.1625048630829091 0.096135470119919658 0 -0.1423444188827491 0.086204089979788581 0 -0.1625048630829091 0.096135470119919658 0 -0.1423444188827491 0.086204089979788581 0 -0.15665553298147011 0.082581178984143674 0 -0.1423444188827491 0.086204089979788581 0 -0.13817464221187359 0.072773266467262981 0 -0.15665553298147011 0.082581178984143674 0 -0.1583348620713553 0.067914436856566743 0 -0.13817464221187359 0.072773266467262981 0 -0.1583348620713553 0.067914436856566743 0 -0.13817464221187359 0.072773266467262981 0 -0.13714393614504991 0.054269088739154848 0 -0.13817464221187359 0.072773266467262981 0 -0.12218397468258919 0.076272709839657532 0 -0.124323531508443 0.065513050878002008 0 -0.13817464221187359 0.072773266467262981 0 -0.13714393614504991 0.054269088739154848 0 -0.124323531508443 0.065513050878002008 0 -0.13714393614504991 0.054269088739154848 0 -0.124323531508443 0.065513050878002008 0 -0.13714393614504991 0.054269088739154848 0 -0.11764372953864061 0.041712435555085289 0 -0.1583348620713553 0.067914436856566743 0 -0.13714393614504991 0.054269088739154848 0 -0.1596787822321232 0.034505207380513582 0 -0.13714393614504991 0.054269088739154848 0 -0.124323531508443 0.065513050878002008 0 -0.1145734282052384 0.059234724285966878 0 -0.13714393614504991 0.054269088739154848 0 -0.13361656733593111 0.039351270495596183 0 -0.11764372953864061 0.041712435555085289 0 -0.13361656733593111 0.039351270495596183 0 -0.12637229316586379 0.025285514273861161 0 -0.1185779543477497 0.036380790525106933 0 -0.13714393614504991 0.054269088739154848 0 -0.1596787822321232 0.034505207380513582 0 -0.13714393614504991 0.054269088739154848 0 -0.13361656733593111 0.039351270495596183 0 -0.1596787822321232 0.034505207380513582 0 -0.13361656733593111 0.039351270495596183 0 -0.14130902608189841 0.025375038274380281 0 -0.1596787822321232 0.034505207380513582 0 -0.1583348620713553 0.067914436856566743 0 -0.13714393614504991 0.054269088739154848 0 -0.14316050255274121 -0.00029168652766420469 0 -0.1263847071420727 -0.00049017928581041167 0 -0.1332746325294013 0.012137924493903289 0 -0.1263847071420727 -0.00049017928581041167 0 -0.1332746325294013 0.012137924493903289 0 -0.1185294306974773 0.013044611416325329 0 -0.1332746325294013 0.012137924493903289 0 -0.12637229316586379 0.025285514273861161 0 -0.14130902608189841 0.025375038274380281 0 -0.1332746325294013 0.012137924493903289 0 -0.12637229316586379 0.025285514273861161 0 -0.1185294306974773 0.013044611416325329 0 -0.13361656733593111 0.039351270495596183 0 -0.12637229316586379 0.025285514273861161 0 -0.14130902608189841 0.025375038274380281 0 -0.1332746325294013 0.012137924493903289 0 -0.14130902608189841 0.025375038274380281 0 -0.1540002186825063 0.014047937410555 0 -0.14130902608189841 0.025375038274380281 0 -0.1540002186825063 0.014047937410555 0 -0.1596787822321232 0.034505207380513582 0 -0.14316050255274121 -0.00029168652766420469 0 -0.1332746325294013 0.012137924493903289 0 -0.1540002186825063 0.014047937410555 0 -0.14316050255274121 -0.00029168652766420469 0 -0.1643647403796791 -0.002180185179673185 0 -0.1540002186825063 0.014047937410555 0 -0.1643647403796791 -0.002180185179673185 0 -0.1540002186825063 0.014047937410555 0 -0.18221362831919469 0.014741326021870249 0 -0.1540002186825063 0.014047937410555 0 -0.18221362831919469 0.014741326021870249 0 -0.1596787822321232 0.034505207380513582 0 -0.18221362831919469 0.014741326021870249 0 -0.1596787822321232 0.034505207380513582 0 -0.18221362831919469 0.014741326021870249 0 -0.17983492728498601 0.034115309409750022 0 -0.1985577373956644 0.035363499557714159 0 -0.18221362831919469 0.014741326021870249 0 -0.1596787822321232 0.034505207380513582 0 -0.17983492728498601 0.034115309409750022 0 -0.1643647403796791 -0.002180185179673185 0 -0.18844860492981441 -0.0067593314437991887 0 -0.18221362831919469 0.014741326021870249 0 -0.1583348620713553 0.067914436856566743 0 -0.1596787822321232 0.034505207380513582 0 -0.1831157624949859 0.053391153854108642 0 -0.1596787822321232 0.034505207380513582 0 -0.17983492728498601 0.034115309409750022 0 -0.1831157624949859 0.053391153854108642 0 -0.17983492728498601 0.034115309409750022 0 -0.1831157624949859 0.053391153854108642 0 -0.1985577373956644 0.035363499557714159 0 -0.1831157624949859 0.053391153854108642 0 -0.2111105007939762 0.053874776456230157 0 -0.1979902716776607 0.076162042690907025 0 -0.1831157624949859 0.053391153854108642 0 -0.1985577373956644 0.035363499557714159 0 -0.2111105007939762 0.053874776456230157 0 -0.1985577373956644 0.035363499557714159 0 -0.2111105007939762 0.053874776456230157 0 -0.21804237866986739 0.03059940834959516 0 -0.20474847440626631 -0.005022555336773038 0 -0.18221362831919469 0.014741326021870249 0 -0.20593793934076021 0.016640863776797341 0 -0.20474847440626631 -0.005022555336773038 0 -0.18221362831919469 0.014741326021870249 0 -0.18844860492981441 -0.0067593314437991887 0 -0.20474847440626631 -0.005022555336773038 0 -0.18221362831919469 0.014741326021870249 0 -0.18221362831919469 0.014741326021870249 0 -0.1985577373956644 0.035363499557714159 0 -0.20593793934076021 0.016640863776797341 0 -0.1985577373956644 0.035363499557714159 0 -0.21804237866986739 0.03059940834959516 0 -0.20593793934076021 0.016640863776797341 0 -0.21804237866986739 0.03059940834959516 0 -0.20593793934076021 0.016640863776797341 0 -0.22612747791280821 0.0075226402915801599 0 -0.20474847440626631 -0.005022555336773038 0 -0.20593793934076021 0.016640863776797341 0 -0.22612747791280821 0.0075226402915801599 0 -0.21804237866986739 0.03059940834959516 0 -0.22612747791280821 0.0075226402915801599 0 -0.2393070426154143 0.027523082989801981 0 -0.25647799655420422 0.01978384053654646 0 -0.2393070426154143 0.027523082989801981 0 -0.24726539525988339 0.0072649071471831209 0 -0.22612747791280821 0.0075226402915801599 0 -0.2393070426154143 0.027523082989801981 0 -0.24726539525988339 0.0072649071471831209 0 -0.24177990985366549 -0.011629590456526629 0 -0.22612747791280821 0.0075226402915801599 0 -0.24726539525988339 0.0072649071471831209 0 -0.2111105007939762 0.053874776456230157 0 -0.23195978589863259 0.060571960103060513 0 -0.2278538655154588 0.044628248000917893 0 -0.2111105007939762 0.053874776456230157 0 -0.21804237866986739 0.03059940834959516 0 -0.2278538655154588 0.044628248000917893 0 -0.21804237866986739 0.03059940834959516 0 -0.2393070426154143 0.027523082989801981 0 -0.2278538655154588 0.044628248000917893 0 -0.2393070426154143 0.027523082989801981 0 -0.2278538655154588 0.044628248000917893 0 -0.24432076280216031 0.047166806547741247 0 -0.25691003956320763 0.034789260552451219 0 -0.2393070426154143 0.027523082989801981 0 -0.24432076280216031 0.047166806547741247 0 -0.25141454691245541 0.068485355368996928 0 -0.23195978589863259 0.060571960103060513 0 -0.24432076280216031 0.047166806547741247 0 -0.23195978589863259 0.060571960103060513 0 -0.2278538655154588 0.044628248000917893 0 -0.24432076280216031 0.047166806547741247 0 -0.25141454691245541 0.068485355368996928 0 -0.23195978589863259 0.060571960103060513 0 -0.23670332581959061 0.076605129954291584 0 -0.23670332581959061 0.076605129954291584 0 -0.24494597820556269 0.089809247836881045 0 -0.2292677493610768 0.088049253468380509 0 -0.25141454691245541 0.068485355368996928 0 -0.23670332581959061 0.076605129954291584 0 -0.24494597820556269 0.089809247836881045 0 -0.23670332581959061 0.076605129954291584 0 -0.2292677493610768 0.088049253468380509 0 -0.217143919035826 0.077953849656657581 0 -0.2292677493610768 0.088049253468380509 0 -0.217143919035826 0.077953849656657581 0 -0.21215389034654011 0.094337570308095142 0 -0.24494597820556269 0.089809247836881045 0 -0.2292677493610768 0.088049253468380509 0 -0.22096795558041299 0.101466327034389 0 -0.23195978589863259 0.060571960103060513 0 -0.23670332581959061 0.076605129954291584 0 -0.217143919035826 0.077953849656657581 0 -0.2111105007939762 0.053874776456230157 0 -0.23195978589863259 0.060571960103060513 0 -0.217143919035826 0.077953849656657581 0 -0.2111105007939762 0.053874776456230157 0 -0.217143919035826 0.077953849656657581 0 -0.1979902716776607 0.076162042690907025 0 -0.217143919035826 0.077953849656657581 0 -0.20722257555807549 0.085790558470320619 0 -0.1979902716776607 0.076162042690907025 0 -0.217143919035826 0.077953849656657581 0 -0.20722257555807549 0.085790558470320619 0 -0.21215389034654011 0.094337570308095142 0 -0.20722257555807549 0.085790558470320619 0 -0.20071671392396551 0.095205133091391739 0 -0.21215389034654011 0.094337570308095142 0 -0.20722257555807549 0.085790558470320619 0 -0.1979902716776607 0.076162042690907025 0 -0.20071671392396551 0.095205133091391739 0 -0.17952578799766031 0.081559784973979199 0 -0.1979902716776607 0.076162042690907025 0 -0.20071671392396551 0.095205133091391739 0 -0.17952578799766031 0.081559784973979199 0 -0.20071671392396551 0.095205133091391739 0 -0.1826172944347213 0.1201107624509782 0 -0.19698993295526279 0.11312340623189571 0 -0.1977441149967239 0.1268975036403803 0 -0.1826172944347213 0.1201107624509782 0 -0.19698993295526279 0.11312340623189571 0 -0.18266530728306909 0.1060668502600506 0 -0.19698993295526279 0.11312340623189571 0 -0.17952578799766031 0.081559784973979199 0 -0.18266530728306909 0.1060668502600506 0 -0.20071671392396551 0.095205133091391739 0 -0.18266530728306909 0.1060668502600506 0 -0.2021924402107014 0.1026460919628889 0 -0.18266530728306909 0.1060668502600506 0 -0.19698993295526279 0.11312340623189571 0 -0.2021924402107014 0.1026460919628889 0 -0.18266530728306909 0.1060668502600506 0 -0.20071671392396551 0.095205133091391739 0 -0.2021924402107014 0.1026460919628889 0 -0.19698993295526279 0.11312340623189571 0 -0.2021924402107014 0.1026460919628889 0 -0.22096795558041299 0.101466327034389 0 -0.2021924402107014 0.1026460919628889 0 -0.21215389034654011 0.094337570308095142 0 -0.22096795558041299 0.101466327034389 0 -0.19698993295526279 0.11312340623189571 0 -0.21753024661664619 0.1134097028435047 0 -0.22096795558041299 0.101466327034389 0 -0.19698993295526279 0.11312340623189571 0 -0.22096795558041299 0.101466327034389 0 -0.20071671392396551 0.095205133091391739 0 -0.2021924402107014 0.1026460919628889 0 -0.21215389034654011 0.094337570308095142 0 -0.19698993295526279 0.11312340623189571 0 -0.21753024661664619 0.1134097028435047 0 -0.2235812100826243 0.12622272482534491 0 -0.19698993295526279 0.11312340623189571 0 -0.2235812100826243 0.12622272482534491 0 -0.1977441149967239 0.1268975036403803 0 -0.19698993295526279 0.11312340623189571 0 -0.2235812100826243 0.12622272482534491 0 -0.2285818878482834 0.11282635328239141 0 -0.24359769406687889 0.1204805110666855 0 -0.2235812100826243 0.12622272482534491 0 -0.21753024661664619 0.1134097028435047 0 -0.2285818878482834 0.11282635328239141 0 -0.2235812100826243 0.12622272482534491 0 -0.24494597820556269 0.089809247836881045 0 -0.22096795558041299 0.101466327034389 0 -0.2370229009237701 0.10163897871457719 0 -0.2292677493610768 0.088049253468380509 0 -0.21215389034654011 0.094337570308095142 0 -0.22096795558041299 0.101466327034389 0 -0.2285818878482834 0.11282635328239141 0 -0.22096795558041299 0.101466327034389 0 -0.2370229009237701 0.10163897871457719 0 -0.24494597820556269 0.089809247836881045 0 -0.22096795558041299 0.101466327034389 0 -0.21753024661664619 0.1134097028435047 0 -0.2285818878482834 0.11282635328239141 0 -0.22096795558041299 0.101466327034389 0 -0.25580746141146998 0.10565197628936319 0 -0.24494597820556269 0.089809247836881045 0 -0.2370229009237701 0.10163897871457719 0 -0.25580746141146998 0.10565197628936319 0 -0.2370229009237701 0.10163897871457719 0 -0.24359769406687889 0.1204805110666855 0 -0.2285818878482834 0.11282635328239141 0 -0.2370229009237701 0.10163897871457719 0 -0.24359769406687889 0.1204805110666855 0 -0.2370229009237701 0.10163897871457719 0 -0.24359769406687889 0.1204805110666855 0 -0.25017248720998547 0.13932204341879451 0 -0.2235812100826243 0.12622272482534491 0 -0.24145261229141349 0.14830929438388671 0 -0.25017248720998547 0.13932204341879451 0 -0.24359769406687889 0.1204805110666855 0 -0.25017248720998547 0.13932204341879451 0 -0.24359769406687889 0.1204805110666855 0 -0.2235812100826243 0.12622272482534491 0 -0.25017248720998547 0.13932204341879451 0 -0.2235812100826243 0.12622272482534491 0 -0.2235812100826243 0.12622272482534491 0 -0.22736479673936169 0.1500203349805142 0 -0.21367110371086609 0.1465963056351815 0 -0.2235812100826243 0.12622272482534491 0 -0.22736479673936169 0.1500203349805142 0 -0.24145261229141349 0.14830929438388671 0 -0.22736479673936169 0.1500203349805142 0 -0.21367110371086609 0.1465963056351815 0 -0.21796468700199309 0.15597643142779791 0 -0.22736479673936169 0.1500203349805142 0 -0.24145261229141349 0.14830929438388671 0 -0.24009796861540911 0.16075806295817191 0 -0.25708097535247759 0.15911985302399939 0 -0.24145261229141349 0.14830929438388671 0 -0.24738686583330791 0.15920414664019819 0 -0.25708097535247759 0.15911985302399939 0 -0.25017248720998547 0.13932204341879451 0 -0.24145261229141349 0.14830929438388671 0 -0.24145261229141349 0.14830929438388671 0 -0.24738686583330791 0.15920414664019819 0 -0.24009796861540911 0.16075806295817191 0 -0.25091590707393119 0.16862937619473481 0 -0.24738686583330791 0.15920414664019819 0 -0.24009796861540911 0.16075806295817191 0 -0.25091590707393119 0.16862937619473481 0 -0.24009796861540911 0.16075806295817191 0 -0.23853909127446729 0.1739259629234422 0 -0.24009796861540911 0.16075806295817191 0 -0.23853909127446729 0.1739259629234422 0 -0.22964201816051669 0.18341056342198689 0 -0.24009796861540911 0.16075806295817191 0 -0.22964201816051669 0.18341056342198689 0 -0.25091590707393119 0.16862937619473481 0 -0.23853909127446729 0.1739259629234422 0 -0.23350047124801171 0.18290584911887189 0 -0.25091590707393119 0.16862937619473481 0 -0.23350047124801171 0.18290584911887189 0 -0.25091590707393119 0.16862937619473481 0 -0.24874496737149099 0.18091175587403899 0 -0.23350047124801171 0.18290584911887189 0 -0.25501052529300627 0.18594619292738371 0 -0.24874496737149099 0.18091175587403899 0 -0.24335811083150821 0.18966417318239151 0 -0.24874496737149099 0.18091175587403899 0 -0.23350047124801171 0.18290584911887189 0 -0.24335811083150821 0.18966417318239151 0 -0.24874496737149099 0.18091175587403899 0 -0.23350047124801171 0.18290584911887189 0 -0.22964201816051669 0.18341056342198689 0 -0.21116591352686659 0.18582737504648611 0 -0.2185508450609896 0.17453189847929551 0 -0.22964201816051669 0.18341056342198689 0 -0.21116591352686659 0.18582737504648611 0 -0.22964201816051669 0.18341056342198689 0 -0.2252576084460213 0.1643652158684494 0 -0.2185508450609896 0.17453189847929551 0 -0.22964201816051669 0.18341056342198689 0 -0.21116591352686659 0.18582737504648611 0 -0.2276681038916506 0.18768698899265679 0 -0.23853909127446729 0.1739259629234422 0 -0.23350047124801171 0.18290584911887189 0 -0.22964201816051669 0.18341056342198689 0 -0.23350047124801171 0.18290584911887189 0 -0.22964201816051669 0.18341056342198689 0 -0.2276681038916506 0.18768698899265679 0 -0.22964201816051669 0.18341056342198689 0 -0.2276681038916506 0.18768698899265679 0 -0.23350047124801171 0.18290584911887189 0 -0.2276681038916506 0.18768698899265679 0 -0.23350047124801171 0.18290584911887189 0 -0.22964201816051669 0.18341056342198689 0 -0.24009796861540911 0.16075806295817191 0 -0.22964201816051669 0.18341056342198689 0 -0.2252576084460213 0.1643652158684494 0 -0.22736479673936169 0.1500203349805142 0 -0.24009796861540911 0.16075806295817191 0 -0.2252576084460213 0.1643652158684494 0 -0.2252576084460213 0.1643652158684494 0 -0.21429173603059881 0.16640755401467469 0 -0.2185508450609896 0.17453189847929551 0 -0.22736479673936169 0.1500203349805142 0 -0.2252576084460213 0.1643652158684494 0 -0.21796468700199309 0.15597643142779791 0 -0.2252576084460213 0.1643652158684494 0 -0.21429173603059881 0.16640755401467469 0 -0.21796468700199309 0.15597643142779791 0 -0.21429173603059881 0.16640755401467469 0 -0.20887130959349839 0.1586918122766042 0 -0.21796468700199309 0.15597643142779791 0 -0.21429173603059881 0.16640755401467469 0 -0.2185508450609896 0.17453189847929551 0 -0.21218475677960799 0.1743431263909494 0 -0.21429173603059881 0.16640755401467469 0 -0.2047305324999773 0.1706056780233409 0 -0.21218475677960799 0.1743431263909494 0 -0.21429173603059881 0.16640755401467469 0 -0.2047305324999773 0.1706056780233409 0 -0.20887130959349839 0.1586918122766042 0 -0.2047305324999773 0.1706056780233409 0 -0.20887130959349839 0.1586918122766042 0 -0.19967946892385219 0.16148694578100611 0 -0.20887130959349839 0.1586918122766042 0 -0.19967946892385219 0.16148694578100611 0 -0.20289032939370291 0.15107795877762431 0 -0.21116591352686659 0.18582737504648611 0 -0.19527387548257649 0.1879061715809266 0 -0.21116591352686659 0.18582737504648611 0 -0.2185508450609896 0.17453189847929551 0 -0.21218475677960799 0.1743431263909494 0 -0.2047305324999773 0.1706056780233409 0 -0.21116591352686659 0.18582737504648611 0 -0.21218475677960799 0.1743431263909494 0 -0.21116591352686659 0.18582737504648611 0 -0.18795973998801979 0.16723773906539319 0 -0.18795973998801979 0.16723773906539319 0 -0.19527387548257649 0.1879061715809266 0 -0.21116591352686659 0.18582737504648611 0 -0.18795973998801979 0.16723773906539319 0 -0.19527387548257649 0.1879061715809266 0 -0.2047305324999773 0.1706056780233409 0 -0.21116591352686659 0.18582737504648611 0 -0.18795973998801979 0.16723773906539319 0 -0.2047305324999773 0.1706056780233409 0 -0.19967946892385219 0.16148694578100611 0 -0.18795973998801979 0.16723773906539319 0 -0.18795973998801979 0.16723773906539319 0 -0.19081377744495659 0.16169287162107721 0 -0.18646047222354659 0.16603672925939969 0 -0.18795973998801979 0.16723773906539319 0 -0.19081377744495659 0.16169287162107721 0 -0.19967946892385219 0.16148694578100611 0 -0.19081377744495659 0.16169287162107721 0 -0.19179178108866779 0.15065897978784151 0 -0.19967946892385219 0.16148694578100611 0 -0.18795973998801979 0.16723773906539319 0 -0.19081377744495659 0.16169287162107721 0 -0.19179178108866779 0.15065897978784151 0 -0.20119741986716891 0.1391846619492805 0 -0.18433471764384141 0.13584596274440411 0 -0.19081377744495659 0.16169287162107721 0 -0.19179178108866779 0.15065897978784151 0 -0.18239892052111031 0.15461677522852149 0 -0.19967946892385219 0.16148694578100611 0 -0.19179178108866779 0.15065897978784151 0 -0.20289032939370291 0.15107795877762431 0 -0.19179178108866779 0.15065897978784151 0 -0.20289032939370291 0.15107795877762431 0 -0.20119741986716891 0.1391846619492805 0 -0.1826172944347213 0.1201107624509782 0 -0.1977441149967239 0.1268975036403803 0 -0.18433471764384141 0.13584596274440411 0 -0.1977441149967239 0.1268975036403803 0 -0.20119741986716891 0.1391846619492805 0 -0.18433471764384141 0.13584596274440411 0 -0.2235812100826243 0.12622272482534491 0 -0.1977441149967239 0.1268975036403803 0 -0.20119741986716891 0.1391846619492805 0 -0.2235812100826243 0.12622272482534491 0 -0.20119741986716891 0.1391846619492805 0 -0.21367110371086609 0.1465963056351815 0 -0.20887130959349839 0.1586918122766042 0 -0.21367110371086609 0.1465963056351815 0 -0.21796468700199309 0.15597643142779791 0 -0.20887130959349839 0.1586918122766042 0 -0.20289032939370291 0.15107795877762431 0 -0.21367110371086609 0.1465963056351815 0 -0.20289032939370291 0.15107795877762431 0 -0.20119741986716891 0.1391846619492805 0 -0.21367110371086609 0.1465963056351815 0 -0.23481477815490251 0.24337266251761661 0 -0.22311272170392121 0.22943244724368739 0 -0.2167943809903882 0.24130682058119771 0 -0.22326236342202119 0.25735637199373929 0 -0.2167943809903882 0.24130682058119771 0 -0.22326236342202119 0.25735637199373929 0 -0.23481477815490251 0.24337266251761661 0 -0.2167943809903882 0.24130682058119771 0 -0.25174121177602782 0.2498917316032101 0 -0.23481477815490251 0.24337266251761661 0 -0.23582014818657929 0.22502297066265151 0 -0.25880771652771423 0.22585694761766101 0 -0.25174121177602782 0.2498917316032101 0 -0.23582014818657929 0.22502297066265151 0 -0.25880771652771423 0.22585694761766101 0 -0.23582014818657929 0.22502297066265151 0 -0.24593220940753249 0.2120454216302779 0 -0.23481477815490251 0.24337266251761661 0 -0.23582014818657929 0.22502297066265151 0 -0.22311272170392121 0.22943244724368739 0 -0.23582014818657929 0.22502297066265151 0 -0.22311272170392121 0.22943244724368739 0 -0.218997251225202 0.20647212908065629 0 -0.23582014818657929 0.22502297066265151 0 -0.218997251225202 0.20647212908065629 0 -0.23168712448680709 0.2014071277210718 0 -0.23582014818657929 0.22502297066265151 0 -0.24593220940753249 0.2120454216302779 0 -0.23168712448680709 0.2014071277210718 0 -0.25888613326370691 0.2079192455447646 0 -0.24593220940753249 0.2120454216302779 0 -0.2444599245728549 0.2000208166052404 0 -0.24593220940753249 0.2120454216302779 0 -0.2444599245728549 0.2000208166052404 0 -0.23168712448680709 0.2014071277210718 0 -0.2444599245728549 0.2000208166052404 0 -0.2361347470061663 0.19233699112404631 0 -0.23168712448680709 0.2014071277210718 0 -0.25616115666541911 0.1940366335829137 0 -0.2444599245728549 0.2000208166052404 0 -0.24335811083150821 0.18966417318239151 0 -0.2444599245728549 0.2000208166052404 0 -0.24335811083150821 0.18966417318239151 0 -0.2361347470061663 0.19233699112404631 0 -0.23350047124801171 0.18290584911887189 0 -0.24335811083150821 0.18966417318239151 0 -0.2361347470061663 0.19233699112404631 0 -0.218997251225202 0.20647212908065629 0 -0.2276681038916506 0.18768698899265679 0 -0.21116591352686659 0.18582737504648611 0 -0.2276681038916506 0.18768698899265679 0 -0.21778948892696409 0.19113328450092651 0 -0.218997251225202 0.20647212908065629 0 -0.2276681038916506 0.18768698899265679 0 -0.21545995523534381 0.19769473760645759 0 -0.23350047124801171 0.18290584911887189 0 -0.2361347470061663 0.19233699112404631 0 -0.2276681038916506 0.18768698899265679 0 -0.2361347470061663 0.19233699112404631 0 -0.2276681038916506 0.18768698899265679 0 -0.23168712448680709 0.2014071277210718 0 -0.218997251225202 0.20647212908065629 0 -0.2276681038916506 0.18768698899265679 0 -0.23168712448680709 0.2014071277210718 0 -0.2276681038916506 0.18768698899265679 0 -0.21778948892696409 0.19113328450092651 0 -0.21545995523534381 0.19769473760645759 0 -0.2276681038916506 0.18768698899265679 0 -0.21545995523534381 0.19769473760645759 0 -0.21116591352686659 0.18582737504648611 0 -0.20858820795015751 0.19405281099101079 0 -0.19527387548257649 0.1879061715809266 0 -0.21778948892696409 0.19113328450092651 0 -0.21545995523534381 0.19769473760645759 0 -0.20858820795015751 0.19405281099101079 0 -0.21116591352686659 0.18582737504648611 0 -0.21778948892696409 0.19113328450092651 0 -0.20858820795015751 0.19405281099101079 0 -0.21116591352686659 0.18582737504648611 0 -0.21778948892696409 0.19113328450092651 0 -0.21545995523534381 0.19769473760645759 0 -0.20325180657903569 0.20770248622025661 0 -0.21545995523534381 0.19769473760645759 0 -0.20858820795015751 0.19405281099101079 0 -0.20325180657903569 0.20770248622025661 0 -0.19527387548257649 0.1879061715809266 0 -0.20325180657903569 0.20770248622025661 0 -0.20858820795015751 0.19405281099101079 0 -0.19527387548257649 0.1879061715809266 0 -0.20325180657903569 0.20770248622025661 0 -0.19527387548257649 0.1879061715809266 0 -0.20325180657903569 0.20770248622025661 0 -0.18472355934948859 0.20609435970951151 0 -0.20325180657903569 0.20770248622025661 0 -0.18242338899837091 0.22477678413707439 0 -0.20325180657903569 0.20770248622025661 0 -0.18242338899837091 0.22477678413707439 0 -0.18472355934948859 0.20609435970951151 0 -0.218997251225202 0.20647212908065629 0 -0.21545995523534381 0.19769473760645759 0 -0.20325180657903569 0.20770248622025661 0 -0.20325180657903569 0.20770248622025661 0 -0.21032639855875451 0.22525726916865629 0 -0.218997251225202 0.20647212908065629 0 -0.21032639855875451 0.22525726916865629 0 -0.218997251225202 0.20647212908065629 0 -0.20325180657903569 0.20770248622025661 0 -0.21032639855875451 0.22525726916865629 0 -0.20325180657903569 0.20770248622025661 0 -0.21032639855875451 0.22525726916865629 0 -0.19728710102946001 0.22739512342783569 0 -0.21032639855875451 0.22525726916865629 0 -0.20514910324424529 0.23647372290178439 0 -0.2167943809903882 0.24130682058119771 0 -0.21032639855875451 0.22525726916865629 0 -0.2167943809903882 0.24130682058119771 0 -0.22311272170392121 0.22943244724368739 0 -0.21032639855875451 0.22525726916865629 0 -0.2167943809903882 0.24130682058119771 0 -0.22311272170392121 0.22943244724368739 0 -0.218997251225202 0.20647212908065629 0 -0.21032639855875451 0.22525726916865629 0 -0.21032639855875451 0.22525726916865629 0 -0.20514910324424529 0.23647372290178439 0 -0.21032639855875451 0.22525726916865629 0 -0.19728710102946001 0.22739512342783569 0 -0.20514910324424529 0.23647372290178439 0 -0.20325180657903569 0.20770248622025661 0 -0.19728710102946001 0.22739512342783569 0 -0.18242338899837091 0.22477678413707439 0 -0.19728710102946001 0.22739512342783569 0 -0.18712984602200741 0.2463238735196033 0 -0.18242338899837091 0.22477678413707439 0 -0.19728710102946001 0.22739512342783569 0 -0.20514910324424529 0.23647372290178439 0 -0.18712984602200741 0.2463238735196033 0 -0.20641207343396001 0.24978112053115251 0 -0.20514910324424529 0.23647372290178439 0 -0.18712984602200741 0.2463238735196033 0 -0.20641207343396001 0.24978112053115251 0 -0.20514910324424529 0.23647372290178439 0 -0.2167943809903882 0.24130682058119771 0 -0.22326236342202119 0.25735637199373929 0 -0.20641207343396001 0.24978112053115251 0 -0.2167943809903882 0.24130682058119771 0 -0.16159497141770501 0.24185108205389069 0 -0.18712984602200741 0.2463238735196033 0 -0.18242338899837091 0.22477678413707439 0 -0.16159497141770501 0.24185108205389069 0 -0.18242338899837091 0.22477678413707439 0 -0.16159497141770501 0.24185108205389069 0 -0.18242338899837091 0.22477678413707439 0 -0.16427242976835429 0.2132578061675664 0 -0.16427242976835429 0.2132578061675664 0 -0.15251949180269739 0.23609159306913749 0 -0.16159497141770501 0.24185108205389069 0 -0.16427242976835429 0.2132578061675664 0 -0.15251949180269739 0.23609159306913749 0 -0.16427242976835429 0.2132578061675664 0 -0.18472355934948859 0.20609435970951151 0 -0.17602536773401181 0.19042401926599559 0 -0.18242338899837091 0.22477678413707439 0 -0.16427242976835429 0.2132578061675664 0 -0.18472355934948859 0.20609435970951151 0 -0.19527387548257649 0.1879061715809266 0 -0.17602536773401181 0.19042401926599559 0 -0.19527387548257649 0.1879061715809266 0 -0.18472355934948859 0.20609435970951151 0 -0.17602536773401181 0.19042401926599559 0 -0.17602536773401181 0.19042401926599559 0 -0.15407411821536751 0.19329540563562581 0 -0.16427242976835429 0.2132578061675664 0 -0.17602536773401181 0.19042401926599559 0 -0.16427242976835429 0.2132578061675664 0 -0.17602536773401181 0.19042401926599559 0 -0.15407411821536751 0.19329540563562581 0 -0.15407411821536751 0.19329540563562581 0 -0.1321228686967231 0.19616679200525469 0 -0.1416823402619288 0.17671792503185871 0 -0.15407411821536751 0.19329540563562581 0 -0.1321228686967231 0.19616679200525469 0 -0.15407411821536751 0.19329540563562581 0 -0.1321228686967231 0.19616679200525469 0 -0.14746353563173059 0.21195855617643161 0 -0.1321228686967231 0.19616679200525469 0 -0.14746353563173059 0.21195855617643161 0 -0.13432876967551061 0.22098118400457381 0 -0.1321228686967231 0.19616679200525469 0 -0.13432876967551061 0.22098118400457381 0 -0.118353142381835 0.2152096210581021 0 -0.16427242976835429 0.2132578061675664 0 -0.15407411821536751 0.19329540563562581 0 -0.14746353563173059 0.21195855617643161 0 -0.14746353563173059 0.21195855617643161 0 -0.13432876967551061 0.22098118400457381 0 -0.15251949180269739 0.23609159306913749 0 -0.16427242976835429 0.2132578061675664 0 -0.14746353563173059 0.21195855617643161 0 -0.15251949180269739 0.23609159306913749 0 -0.13432876967551061 0.22098118400457381 0 -0.13450298872509811 0.23821720882731309 0 -0.15251949180269739 0.23609159306913749 0 -0.13432876967551061 0.22098118400457381 0 -0.13450298872509811 0.23821720882731309 0 -0.11597890663451919 0.23535889101036181 0 -0.1407665538370397 0.25892537997070791 0 -0.1244632804639286 0.25002572834587927 0 -0.13450298872509811 0.23821720882731309 0 -0.1407665538370397 0.25892537997070791 0 -0.16159497141770501 0.24185108205389069 0 -0.15251949180269739 0.23609159306913749 0 -0.1407665538370397 0.25892537997070791 0 -0.13450298872509811 0.23821720882731309 0 -0.15251949180269739 0.23609159306913749 0 -0.1407665538370397 0.25892537997070791 0 -0.15251949180269739 0.23609159306913749 0 -0.15412013754391071 0.1247881953508177 0 -0.1634878493586561 0.1476341823735722 0 -0.16824465591417909 0.1270981186700596 0 -0.1634878493586561 0.1476341823735722 0 -0.16824465591417909 0.1270981186700596 0 -0.17387721080877541 0.13930972795558169 0 -0.1826172944347213 0.1201107624509782 0 -0.16824465591417909 0.1270981186700596 0 -0.18433471764384141 0.13584596274440411 0 -0.16824465591417909 0.1270981186700596 0 -0.17387721080877541 0.13930972795558169 0 -0.18433471764384141 0.13584596274440411 0 -0.17387721080877541 0.13930972795558169 0 -0.18433471764384141 0.13584596274440411 0 -0.179441620318425 0.1466606480342911 0 -0.1634878493586561 0.1476341823735722 0 -0.17387721080877541 0.13930972795558169 0 -0.179441620318425 0.1466606480342911 0 -0.19179178108866779 0.15065897978784151 0 -0.18433471764384141 0.13584596274440411 0 -0.179441620318425 0.1466606480342911 0 -0.1634878493586561 0.1476341823735722 0 -0.179441620318425 0.1466606480342911 0 -0.18239892052111031 0.15461677522852149 0 -0.1634878493586561 0.1476341823735722 0 -0.18239892052111031 0.15461677522852149 0 -0.18646047222354659 0.16603672925939969 0 -0.19179178108866779 0.15065897978784151 0 -0.179441620318425 0.1466606480342911 0 -0.18239892052111031 0.15461677522852149 0 -0.19081377744495659 0.16169287162107721 0 -0.18239892052111031 0.15461677522852149 0 -0.18646047222354659 0.16603672925939969 0 -0.1634878493586561 0.1476341823735722 0 -0.18646047222354659 0.16603672925939969 0 -0.1758176103145293 0.17166682376557149 0 -0.1634878493586561 0.1476341823735722 0 -0.18646047222354659 0.16603672925939969 0 -0.18795973998801979 0.16723773906539319 0 -0.18646047222354659 0.16603672925939969 0 -0.1758176103145293 0.17166682376557149 0 -0.18795973998801979 0.16723773906539319 0 -0.18646047222354659 0.16603672925939969 0 -0.18795973998801979 0.16723773906539319 0 -0.19527387548257649 0.1879061715809266 0 -0.17602536773401181 0.19042401926599559 0 -0.18795973998801979 0.16723773906539319 0 -0.17602536773401181 0.19042401926599559 0 -0.18795973998801979 0.16723773906539319 0 -0.17602536773401181 0.19042401926599559 0 -0.1758176103145293 0.17166682376557149 0 -0.17602536773401181 0.19042401926599559 0 -0.15407411821536751 0.19329540563562581 0 -0.1603263152103214 0.17359765925396239 0 -0.17602536773401181 0.19042401926599559 0 -0.1758176103145293 0.17166682376557149 0 -0.1603263152103214 0.17359765925396239 0 -0.1634878493586561 0.1476341823735722 0 -0.1758176103145293 0.17166682376557149 0 -0.1603263152103214 0.17359765925396239 0 -0.1634878493586561 0.1476341823735722 0 -0.1603263152103214 0.17359765925396239 0 -0.14905783369226019 0.16115899639743581 0 -0.14905783369226019 0.16115899639743581 0 -0.1416823402619288 0.17671792503185871 0 -0.13506508199229289 0.15945867628009991 0 -0.1603263152103214 0.17359765925396239 0 -0.14905783369226019 0.16115899639743581 0 -0.1416823402619288 0.17671792503185871 0 -0.14905783369226019 0.16115899639743581 0 -0.13506508199229289 0.15945867628009991 0 -0.14472758163810159 0.14838653904768581 0 -0.15407411821536751 0.19329540563562581 0 -0.1603263152103214 0.17359765925396239 0 -0.1416823402619288 0.17671792503185871 0 -0.1321228686967231 0.19616679200525469 0 -0.1416823402619288 0.17671792503185871 0 -0.11869426416125201 0.17397720934984481 0 -0.1416823402619288 0.17671792503185871 0 -0.13506508199229289 0.15945867628009991 0 -0.11869426416125201 0.17397720934984481 0 -0.13506508199229289 0.15945867628009991 0 -0.12220922280389469 0.1533502612688972 0 -0.11869426416125201 0.17397720934984481 0 -0.132444056512738 0.14582849449777599 0 -0.14472758163810159 0.14838653904768581 0 -0.14051522649376541 0.12923163548774511 0 -0.13506508199229289 0.15945867628009991 0 -0.132444056512738 0.14582849449777599 0 -0.12220922280389469 0.1533502612688972 0 -0.13506508199229289 0.15945867628009991 0 -0.132444056512738 0.14582849449777599 0 -0.14472758163810159 0.14838653904768581 0 -0.1634878493586561 0.1476341823735722 0 -0.14905783369226019 0.16115899639743581 0 -0.14472758163810159 0.14838653904768581 0 -0.1634878493586561 0.1476341823735722 0 -0.14472758163810159 0.14838653904768581 0 -0.14051522649376541 0.12923163548774511 0 -0.1634878493586561 0.1476341823735722 0 -0.14051522649376541 0.12923163548774511 0 -0.15412013754391071 0.1247881953508177 0 -0.1634878493586561 0.1476341823735722 0 -0.14051522649376541 0.12923163548774511 0 -0.132444056512738 0.14582849449777599 0 -0.14051522649376541 0.12923163548774511 0 -0.1197031696356355 0.1387153604044522 0 -0.14051522649376541 0.12923163548774511 0 -0.12121807963634181 0.1265796468657556 0 -0.1197031696356355 0.1387153604044522 0 -0.12121807963634181 0.1265796468657556 0 -0.1197031696356355 0.1387153604044522 0 -0.11173154037671421 0.12983567951108141 0 -0.12121807963634181 0.1265796468657556 0 -0.11173154037671421 0.12983567951108141 0 -0.10395121554874261 0.1198559653032894 0 -0.1197031696356355 0.1387153604044522 0 -0.11173154037671421 0.12983567951108141 0 -0.1010215788564286 0.13657547730715419 0 -0.11173154037671421 0.12983567951108141 0 -0.1010215788564286 0.13657547730715419 0 -0.10395121554874261 0.1198559653032894 0 -0.1010215788564286 0.13657547730715419 0 -0.080360303044457487 0.123988615497546 0 -0.10395121554874261 0.1198559653032894 0 -0.1010215788564286 0.13657547730715419 0 -0.10395121554874261 0.1198559653032894 0 -0.1197031696356355 0.1387153604044522 0 -0.1010215788564286 0.13657547730715419 0 -0.1066645872062513 0.15190718211164039 0 -0.1010215788564286 0.13657547730715419 0 -0.1066645872062513 0.15190718211164039 0 -0.079427652901361251 0.14034166948943549 0 -0.1197031696356355 0.1387153604044522 0 -0.1066645872062513 0.15190718211164039 0 -0.12220922280389469 0.1533502612688972 0 -0.132444056512738 0.14582849449777599 0 -0.1197031696356355 0.1387153604044522 0 -0.12220922280389469 0.1533502612688972 0 -0.1066645872062513 0.15190718211164039 0 -0.12220922280389469 0.1533502612688972 0 -0.11869426416125201 0.17397720934984481 0 -0.11869426416125201 0.17397720934984481 0 -0.098406268527877441 0.1763572876732683 0 -0.1101716191780787 0.19903817837488369 0 -0.1066645872062513 0.15190718211164039 0 -0.098406268527877441 0.1763572876732683 0 -0.087611579619077118 0.15892283998529269 0 -0.1066645872062513 0.15190718211164039 0 -0.11869426416125201 0.17397720934984481 0 -0.098406268527877441 0.1763572876732683 0 -0.087611579619077118 0.15892283998529269 0 -0.079521033167156863 0.17579835759943241 0 -0.071650012921143619 0.1592243547117097 0 -0.098406268527877441 0.1763572876732683 0 -0.087611579619077118 0.15892283998529269 0 -0.079521033167156863 0.17579835759943241 0 -0.098406268527877441 0.1763572876732683 0 -0.079521033167156863 0.17579835759943241 0 -0.087774527835448757 0.19849995861851591 0 -0.079521033167156863 0.17579835759943241 0 -0.0646847764781395 0.19535448712397599 0 -0.060954993497172337 0.17492674758132101 0 -0.079521033167156863 0.17579835759943241 0 -0.071650012921143619 0.1592243547117097 0 -0.060954993497172337 0.17492674758132101 0 -0.071650012921143619 0.1592243547117097 0 -0.058566588981346569 0.158137458612988 0 -0.060954993497172337 0.17492674758132101 0 -0.071650012921143619 0.1592243547117097 0 -0.062556836798592155 0.14577726010020869 0 -0.058566588981346569 0.158137458612988 0 -0.071650012921143619 0.1592243547117097 0 -0.062556836798592155 0.14577726010020869 0 -0.079427652901361251 0.14034166948943549 0 -0.079427652901361251 0.14034166948943549 0 -0.05219071859647105 0.12877615686723129 0 -0.062556836798592155 0.14577726010020869 0 -0.079427652901361251 0.14034166948943549 0 -0.05219071859647105 0.12877615686723129 0 -0.079427652901361251 0.14034166948943549 0 -0.05219071859647105 0.12877615686723129 0 -0.080360303044457487 0.123988615497546 0 -0.1010215788564286 0.13657547730715419 0 -0.079427652901361251 0.14034166948943549 0 -0.080360303044457487 0.123988615497546 0 -0.1066645872062513 0.15190718211164039 0 -0.087611579619077118 0.15892283998529269 0 -0.079427652901361251 0.14034166948943549 0 -0.1066645872062513 0.15190718211164039 0 -0.079427652901361251 0.14034166948943549 0 -0.087611579619077118 0.15892283998529269 0 -0.071650012921143619 0.1592243547117097 0 -0.079427652901361251 0.14034166948943549 0 -0.0958811938507039 0.24696951446888271 0 -0.11597890663451919 0.23535889101036181 0 -0.095422724926931199 0.22206586571089279 0 -0.11094461912570321 0.25403907144483029 0 -0.0958811938507039 0.24696951446888271 0 -0.11597890663451919 0.23535889101036181 0 -0.11094461912570321 0.25403907144483029 0 -0.1244632804639286 0.25002572834587927 0 -0.11597890663451919 0.23535889101036181 0 -0.1244632804639286 0.25002572834587927 0 -0.13450298872509811 0.23821720882731309 0 -0.11597890663451919 0.23535889101036181 0 -0.11597890663451919 0.23535889101036181 0 -0.095422724926931199 0.22206586571089279 0 -0.118353142381835 0.2152096210581021 0 -0.13432876967551061 0.22098118400457381 0 -0.11597890663451919 0.23535889101036181 0 -0.118353142381835 0.2152096210581021 0 -0.095422724926931199 0.22206586571089279 0 -0.1101716191780787 0.19903817837488369 0 -0.087774527835448757 0.19849995861851591 0 -0.095422724926931199 0.22206586571089279 0 -0.118353142381835 0.2152096210581021 0 -0.1101716191780787 0.19903817837488369 0 -0.1321228686967231 0.19616679200525469 0 -0.118353142381835 0.2152096210581021 0 -0.1101716191780787 0.19903817837488369 0 -0.1321228686967231 0.19616679200525469 0 -0.1101716191780787 0.19903817837488369 0 -0.1321228686967231 0.19616679200525469 0 -0.11869426416125201 0.17397720934984481 0 -0.1101716191780787 0.19903817837488369 0 -0.098406268527877441 0.1763572876732683 0 -0.1101716191780787 0.19903817837488369 0 -0.087774527835448757 0.19849995861851591 0 -0.079521033167156863 0.17579835759943241 0 -0.087774527835448757 0.19849995861851591 0 -0.0646847764781395 0.19535448712397599 0 -0.087774527835448757 0.19849995861851591 0 -0.0646847764781395 0.19535448712397599 0 -0.065110819450730953 0.2171960291172009 0 -0.095422724926931199 0.22206586571089279 0 -0.087774527835448757 0.19849995861851591 0 -0.065110819450730953 0.2171960291172009 0 -0.095422724926931199 0.22206586571089279 0 -0.065110819450730953 0.2171960291172009 0 -0.074688865157201911 0.2421888673283023 0 -0.065110819450730953 0.2171960291172009 0 -0.074688865157201911 0.2421888673283023 0 -0.065110819450730953 0.2171960291172009 0 -0.074688865157201911 0.2421888673283023 0 -0.056039444910108982 0.23326121463501551 0 -0.0958811938507039 0.24696951446888271 0 -0.095422724926931199 0.22206586571089279 0 -0.074688865157201911 0.2421888673283023 0 -0.052274387013596317 0.25132234308298201 0 -0.027106111373758499 0.25561905461530432 0 -0.027207926015641509 0.23923675949123241 0 -0.052274387013596317 0.25132234308298201 0 -0.039159580341024618 0.22733039257491211 0 -0.027207926015641509 0.23923675949123241 0 -0.052274387013596317 0.25132234308298201 0 -0.056039444910108982 0.23326121463501551 0 -0.039159580341024618 0.22733039257491211 0 -0.052274387013596317 0.25132234308298201 0 -0.074688865157201911 0.2421888673283023 0 -0.056039444910108982 0.23326121463501551 0 -0.065110819450730953 0.2171960291172009 0 -0.056039444910108982 0.23326121463501551 0 -0.047700407971758861 0.21354271485956219 0 -0.056039444910108982 0.23326121463501551 0 -0.039159580341024618 0.22733039257491211 0 -0.047700407971758861 0.21354271485956219 0 -0.047700407971758861 0.21354271485956219 0 -0.045785484384413773 0.19072132006624351 0 -0.030767062529106461 0.20653075221388581 0 -0.039159580341024618 0.22733039257491211 0 -0.047700407971758861 0.21354271485956219 0 -0.030767062529106461 0.20653075221388581 0 -0.0646847764781395 0.19535448712397599 0 -0.065110819450730953 0.2171960291172009 0 -0.047700407971758861 0.21354271485956219 0 -0.0646847764781395 0.19535448712397599 0 -0.047700407971758861 0.21354271485956219 0 -0.045785484384413773 0.19072132006624351 0 -0.045785484384413773 0.19072132006624351 0 -0.030767062529106461 0.20653075221388581 0 -0.018073373410411511 0.18527643430814431 0 -0.0059438602793955566 0.2092035205245488 0 -0.030767062529106461 0.20653075221388581 0 -0.018073373410411511 0.18527643430814431 0 -0.0059438602793955566 0.2092035205245488 0 -0.018073373410411511 0.18527643430814431 0 0.0023692917363482059 0.18415398960282101 0 -0.0059438602793955566 0.2092035205245488 0 -0.018073373410411511 0.18527643430814431 0 -0.0059438602793955566 0.2092035205245488 0 -0.030767062529106461 0.20653075221388581 0 -0.020646040853168651 0.22125974689584019 0 -0.039159580341024618 0.22733039257491211 0 -0.030767062529106461 0.20653075221388581 0 -0.020646040853168651 0.22125974689584019 0 -0.020646040853168651 0.22125974689584019 0 -0.010266460610361971 0.23718993904542809 0 -0.027207926015641509 0.23923675949123241 0 -0.039159580341024618 0.22733039257491211 0 -0.020646040853168651 0.22125974689584019 0 -0.027207926015641509 0.23923675949123241 0 -0.0059438602793955566 0.2092035205245488 0 -0.020646040853168651 0.22125974689584019 0 -0.010266460610361971 0.23718993904542809 0 -0.0059438602793955566 0.2092035205245488 0 -0.010266460610361971 0.23718993904542809 0 0.0061856528516203851 0.23313060674095321 0 -0.010266460610361971 0.23718993904542809 0 0.00052304254878242677 0.24554969369601529 0 0.0061856528516203851 0.23313060674095321 0 -0.0062925107982489464 0.25777225113449648 0 -0.010266460610361971 0.23718993904542809 0 0.00052304254878242677 0.24554969369601529 0 -0.027106111373758499 0.25561905461530432 0 -0.010266460610361971 0.23718993904542809 0 -0.027106111373758499 0.25561905461530432 0 -0.010266460610361971 0.23718993904542809 0 -0.027207926015641509 0.23923675949123241 0 -0.033950133780696057 0.14477381457558031 0 -0.042332399672442088 0.13742226187533491 0 -0.030202886541427418 0.1613493480917399 0 -0.042332399672442088 0.13742226187533491 0 -0.030202886541427418 0.1613493480917399 0 -0.033950133780696057 0.14477381457558031 0 -0.042332399672442088 0.13742226187533491 0 -0.021581471720250382 0.14113025525291589 0 -0.042332399672442088 0.13742226187533491 0 -0.048561915940185899 0.1502978321535135 0 -0.030202886541427418 0.1613493480917399 0 -0.033950133780696057 0.14477381457558031 0 -0.042332399672442088 0.13742226187533491 0 -0.042332399672442088 0.13742226187533491 0 -0.021581471720250382 0.14113025525291589 0 -0.041643818214213153 0.1242976679106288 0 -0.021581471720250382 0.14113025525291589 0 -0.041643818214213153 0.1242976679106288 0 -0.042332399672442088 0.13742226187533491 0 -0.047685263178454909 0.12686302299826169 0 -0.042332399672442088 0.13742226187533491 0 -0.047685263178454909 0.12686302299826169 0 -0.041643818214213153 0.1242976679106288 0 -0.047685263178454909 0.12686302299826169 0 -0.041643818214213153 0.1242976679106288 0 -0.042332399672442088 0.13742226187533491 0 -0.05219071859647105 0.12877615686723129 0 -0.042332399672442088 0.13742226187533491 0 -0.05219071859647105 0.12877615686723129 0 -0.048561915940185899 0.1502978321535135 0 -0.042332399672442088 0.13742226187533491 0 -0.047685263178454909 0.12686302299826169 0 -0.05219071859647105 0.12877615686723129 0 -0.047685263178454909 0.12686302299826169 0 -0.05219071859647105 0.12877615686723129 0 -0.062556836798592155 0.14577726010020869 0 -0.05219071859647105 0.12877615686723129 0 -0.048561915940185899 0.1502978321535135 0 -0.062556836798592155 0.14577726010020869 0 -0.048561915940185899 0.1502978321535135 0 -0.058566588981346569 0.158137458612988 0 -0.048561915940185899 0.1502978321535135 0 -0.058566588981346569 0.158137458612988 0 -0.045522065050833768 0.17032450737357641 0 -0.058566588981346569 0.158137458612988 0 -0.060954993497172337 0.17492674758132101 0 -0.045522065050833768 0.17032450737357641 0 -0.0646847764781395 0.19535448712397599 0 -0.045785484384413773 0.19072132006624351 0 -0.060954993497172337 0.17492674758132101 0 -0.045785484384413773 0.19072132006624351 0 -0.060954993497172337 0.17492674758132101 0 -0.045522065050833768 0.17032450737357641 0 -0.045785484384413773 0.19072132006624351 0 -0.045522065050833768 0.17032450737357641 0 -0.018073373410411511 0.18527643430814431 0 -0.045522065050833768 0.17032450737357641 0 -0.030202886541427418 0.1613493480917399 0 -0.018073373410411511 0.18527643430814431 0 -0.048561915940185899 0.1502978321535135 0 -0.045522065050833768 0.17032450737357641 0 -0.030202886541427418 0.1613493480917399 0 -0.030202886541427418 0.1613493480917399 0 -0.018073373410411511 0.18527643430814431 0 -0.015514439868753199 0.1625915156070302 0 -0.030202886541427418 0.1613493480917399 0 -0.015514439868753199 0.1625915156070302 0 -0.025312232977781759 0.15246123338181661 0 -0.030202886541427418 0.1613493480917399 0 -0.018073373410411511 0.18527643430814431 0 -0.018073373410411511 0.18527643430814431 0 -0.015514439868753199 0.1625915156070302 0 0.0023692917363482059 0.18415398960282101 0 -0.00151912522628736 0.1579628425952026 0 -0.015514439868753199 0.1625915156070302 0 0.0023692917363482059 0.18415398960282101 0 -0.00151912522628736 0.1579628425952026 0 -0.021581471720250382 0.14113025525291589 0 -0.00151912522628736 0.1579628425952026 0 -0.015514439868753199 0.1625915156070302 0 -0.021581471720250382 0.14113025525291589 0 -0.00151912522628736 0.1579628425952026 0 -0.021581471720250382 0.14113025525291589 0 -0.0059598814706679579 0.1281148300807477 0 -0.015514439868753199 0.1625915156070302 0 -0.021581471720250382 0.14113025525291589 0 -0.025312232977781759 0.15246123338181661 0 -0.033950133780696057 0.14477381457558031 0 -0.030202886541427418 0.1613493480917399 0 -0.025312232977781759 0.15246123338181661 0 -0.033950133780696057 0.14477381457558031 0 -0.021581471720250382 0.14113025525291589 0 -0.025312232977781759 0.15246123338181661 0 -0.021581471720250382 0.14113025525291589 0 -0.026129467553069639 0.1177098700186848 0 -0.041643818214213153 0.1242976679106288 0 -0.021581471720250382 0.14113025525291589 0 -0.0059598814706679579 0.1281148300807477 0 -0.026129467553069639 0.1177098700186848 0 -0.0059598814706679579 0.1281148300807477 0 -0.01157584090199501 0.1128857425907636 0 -0.026129467553069639 0.1177098700186848 0 -0.01157584090199501 0.1128857425907636 0 -0.0042280144053344054 0.09563023333426704 0 0.011916828306180439 0.11976700023897351 0 -0.0059598814706679579 0.1281148300807477 0 -0.01157584090199501 0.1128857425907636 0 0.011916828306180439 0.11976700023897351 0 -0.01157584090199501 0.1128857425907636 0 -0.0042280144053344054 0.09563023333426704 0 -0.02090031114157332 0.1003759028653531 0 -0.02090031114157332 0.1003759028653531 0 -0.026129467553069639 0.1177098700186848 0 -0.03886964844866176 0.099701121251927885 0 -0.01157584090199501 0.1128857425907636 0 -0.02090031114157332 0.1003759028653531 0 -0.026129467553069639 0.1177098700186848 0 -0.0087542688128483814 0.062717272333401367 0 -0.02281328328355307 0.075753301887893532 0 0.00063572710032937935 0.071923096447820911 0 -0.02281328328355307 0.075753301887893532 0 0.00063572710032937935 0.071923096447820911 0 -0.0087542688128483814 0.062717272333401367 0 0.0056005899787823976 0.060139637155157473 0 0.00063572710032937935 0.071923096447820911 0 -0.0042280144053344054 0.09563023333426704 0 -0.02281328328355307 0.075753301887893532 0 0.00063572710032937935 0.071923096447820911 0 -0.02090031114157332 0.1003759028653531 0 -0.02281328328355307 0.075753301887893532 0 -0.03886964844866176 0.099701121251927885 0 -0.0042280144053344054 0.09563023333426704 0 -0.02090031114157332 0.1003759028653531 0 -0.02281328328355307 0.075753301887893532 0 -0.02281328328355307 0.075753301887893532 0 -0.019755804551900381 0.063952374318025806 0 -0.029020592409241978 0.060404658161118188 0 -0.02281328328355307 0.075753301887893532 0 -0.036174158867617393 0.069496017358810641 0 -0.029020592409241978 0.060404658161118188 0 -0.0087542688128483814 0.062717272333401367 0 -0.02281328328355307 0.075753301887893532 0 -0.019755804551900381 0.063952374318025806 0 -0.036174158867617393 0.069496017358810641 0 -0.046600466110238957 0.062242602058264707 0 -0.029020592409241978 0.060404658161118188 0 -0.02281328328355307 0.075753301887893532 0 -0.036174158867617393 0.069496017358810641 0 -0.046262293667435561 0.079583507327966152 0 -0.02281328328355307 0.075753301887893532 0 -0.046262293667435561 0.079583507327966152 0 -0.036174158867617393 0.069496017358810641 0 -0.046262293667435561 0.079583507327966152 0 -0.046600466110238957 0.062242602058264707 0 -0.02281328328355307 0.075753301887893532 0 -0.046262293667435561 0.079583507327966152 0 -0.03886964844866176 0.099701121251927885 0 -0.046262293667435561 0.079583507327966152 0 -0.062065466917438618 0.098496148668220998 0 -0.069711304051317591 0.083413712768041617 0 -0.046262293667435561 0.079583507327966152 0 -0.03886964844866176 0.099701121251927885 0 -0.062065466917438618 0.098496148668220998 0 -0.046262293667435561 0.079583507327966152 0 -0.069711304051317591 0.083413712768041617 0 -0.046262293667435561 0.079583507327966152 0 -0.069711304051317591 0.083413712768041617 0 -0.063517537109320746 0.067148798139672533 0 -0.046262293667435561 0.079583507327966152 0 -0.063517537109320746 0.067148798139672533 0 -0.046600466110238957 0.062242602058264707 0 -0.026129467553069639 0.1177098700186848 0 -0.040265640999875917 0.11382181093741039 0 -0.03886964844866176 0.099701121251927885 0 -0.040265640999875917 0.11382181093741039 0 -0.041643818214213153 0.1242976679106288 0 -0.05441962978355655 0.1135785845683988 0 -0.026129467553069639 0.1177098700186848 0 -0.040265640999875917 0.11382181093741039 0 -0.041643818214213153 0.1242976679106288 0 -0.026129467553069639 0.1177098700186848 0 -0.041643818214213153 0.1242976679106288 0 -0.040265640999875917 0.11382181093741039 0 -0.03886964844866176 0.099701121251927885 0 -0.05441962978355655 0.1135785845683988 0 -0.03886964844866176 0.099701121251927885 0 -0.062065466917438618 0.098496148668220998 0 -0.05441962978355655 0.1135785845683988 0 -0.062065466917438618 0.098496148668220998 0 -0.05441962978355655 0.1135785845683988 0 -0.070712568704793519 0.099908582530657833 0 -0.062065466917438618 0.098496148668220998 0 -0.05441962978355655 0.1135785845683988 0 -0.047685263178454909 0.12686302299826169 0 -0.041643818214213153 0.1242976679106288 0 -0.05441962978355655 0.1135785845683988 0 -0.047685263178454909 0.12686302299826169 0 -0.05441962978355655 0.1135785845683988 0 -0.047685263178454909 0.12686302299826169 0 -0.05219071859647105 0.12877615686723129 0 -0.05441962978355655 0.1135785845683988 0 -0.041643818214213153 0.1242976679106288 0 -0.05441962978355655 0.1135785845683988 0 -0.05219071859647105 0.12877615686723129 0 -0.05441962978355655 0.1135785845683988 0 -0.067627973640913691 0.1152371215428911 0 -0.05219071859647105 0.12877615686723129 0 -0.067627973640913691 0.1152371215428911 0 -0.067627973640913691 0.1152371215428911 0 -0.080360303044457487 0.123988615497546 0 -0.083065228685355222 0.1016980862185496 0 -0.05219071859647105 0.12877615686723129 0 -0.067627973640913691 0.1152371215428911 0 -0.080360303044457487 0.123988615497546 0 -0.05441962978355655 0.1135785845683988 0 -0.067627973640913691 0.1152371215428911 0 -0.070712568704793519 0.099908582530657833 0 -0.080360303044457487 0.123988615497546 0 -0.10395121554874261 0.1198559653032894 0 -0.080360303044457487 0.123988615497546 0 -0.083065228685355222 0.1016980862185496 0 -0.09597613515893326 0.1071625871314312 0 -0.080360303044457487 0.123988615497546 0 -0.10395121554874261 0.1198559653032894 0 -0.09597613515893326 0.1071625871314312 0 -0.083065228685355222 0.1016980862185496 0 -0.070712568704793519 0.099908582530657833 0 -0.087005507626027795 0.086238580492913663 0 -0.083065228685355222 0.1016980862185496 0 -0.098458943569394955 0.088109406252275008 0 -0.09597613515893326 0.1071625871314312 0 -0.083065228685355222 0.1016980862185496 0 -0.098458943569394955 0.088109406252275008 0 -0.062065466917438618 0.098496148668220998 0 -0.070712568704793519 0.099908582530657833 0 -0.069711304051317591 0.083413712768041617 0 -0.05441962978355655 0.1135785845683988 0 -0.070712568704793519 0.099908582530657833 0 -0.067627973640913691 0.1152371215428911 0 -0.083065228685355222 0.1016980862185496 0 -0.070712568704793519 0.099908582530657833 0 -0.067627973640913691 0.1152371215428911 0 -0.083065228685355222 0.1016980862185496 0 -0.070712568704793519 0.099908582530657833 0 -0.069711304051317591 0.083413712768041617 0 -0.087005507626027795 0.086238580492913663 0 -0.062065466917438618 0.098496148668220998 0 -0.069711304051317591 0.083413712768041617 0 -0.069711304051317591 0.083413712768041617 0 -0.063517537109320746 0.067148798139672533 0 -0.080297871239284113 0.062530293697041051 0 -0.069711304051317591 0.083413712768041617 0 -0.080297871239284113 0.062530293697041051 0 -0.069711304051317591 0.083413712768041617 0 -0.080297871239284113 0.062530293697041051 0 -0.08718252807101784 0.075675721396687629 0 -0.080297871239284113 0.062530293697041051 0 -0.08718252807101784 0.075675721396687629 0 -0.098198514800739975 0.062138213136347292 0 -0.069711304051317591 0.083413712768041617 0 -0.08718252807101784 0.075675721396687629 0 -0.087005507626027795 0.086238580492913663 0 -0.070712568704793519 0.099908582530657833 0 -0.087005507626027795 0.086238580492913663 0 -0.069711304051317591 0.083413712768041617 0 -0.087005507626027795 0.086238580492913663 0 -0.08718252807101784 0.075675721396687629 0 -0.089495165403245813 0.084149723040478977 0 -0.087005507626027795 0.086238580492913663 0 -0.08718252807101784 0.075675721396687629 0 -0.089495165403245813 0.084149723040478977 0 -0.098386805305490627 0.075583805245310609 0 -0.089495165403245813 0.084149723040478977 0 -0.087005507626027795 0.086238580492913663 0 -0.087005507626027795 0.086238580492913663 0 -0.098458943569394955 0.088109406252275008 0 -0.083065228685355222 0.1016980862185496 0 -0.087005507626027795 0.086238580492913663 0 -0.098458943569394955 0.088109406252275008 0 -0.089495165403245813 0.084149723040478977 0 -0.087005507626027795 0.086238580492913663 0 -0.098458943569394955 0.088109406252275008 0 -0.098458943569394955 0.088109406252275008 0 -0.11150312687183531 0.076757013016848299 0 -0.1077271712102891 0.098306489160068899 0 -0.089495165403245813 0.084149723040478977 0 -0.098458943569394955 0.088109406252275008 0 -0.098386805305490627 0.075583805245310609 0 -0.098458943569394955 0.088109406252275008 0 -0.098386805305490627 0.075583805245310609 0 -0.11150312687183531 0.076757013016848299 0 -0.098458943569394955 0.088109406252275008 0 -0.11150312687183531 0.076757013016848299 0 -0.11150312687183531 0.076757013016848299 0 -0.1145734282052384 0.059234724285966878 0 -0.098198514800739975 0.062138213136347292 0 -0.08718252807101784 0.075675721396687629 0 -0.098386805305490627 0.075583805245310609 0 -0.098198514800739975 0.062138213136347292 0 -0.098386805305490627 0.075583805245310609 0 -0.11150312687183531 0.076757013016848299 0 -0.098198514800739975 0.062138213136347292 0 -0.11150312687183531 0.076757013016848299 0 -0.1145734282052384 0.059234724285966878 0 -0.11150312687183531 0.076757013016848299 0 -0.124323531508443 0.065513050878002008 0 -0.1145734282052384 0.059234724285966878 0 -0.11150312687183531 0.076757013016848299 0 -0.12218397468258919 0.076272709839657532 0 -0.124323531508443 0.065513050878002008 0 -0.11150312687183531 0.076757013016848299 0 -0.124323531508443 0.065513050878002008 0 -0.12741208676895829 0.09382334719964236 0 -0.12218397468258919 0.076272709839657532 0 -0.1173035761619992 0.08666028552496112 0 -0.12741208676895829 0.09382334719964236 0 -0.1173035761619992 0.08666028552496112 0 -0.1077271712102891 0.098306489160068899 0 -0.11150312687183531 0.076757013016848299 0 -0.1173035761619992 0.08666028552496112 0 -0.1077271712102891 0.098306489160068899 0 -0.11150312687183531 0.076757013016848299 0 -0.1077271712102891 0.098306489160068899 0 -0.11150312687183531 0.076757013016848299 0 -0.12218397468258919 0.076272709839657532 0 -0.1173035761619992 0.08666028552496112 0 -0.13018924612685151 0.11525959362221 0 -0.12741208676895829 0.09382334719964236 0 -0.1077271712102891 0.098306489160068899 0 -0.13018924612685151 0.11525959362221 0 -0.10395121554874261 0.1198559653032894 0 -0.1077271712102891 0.098306489160068899 0 -0.13018924612685151 0.11525959362221 0 -0.12121807963634181 0.1265796468657556 0 -0.10395121554874261 0.1198559653032894 0 -0.13018924612685151 0.11525959362221 0 -0.10395121554874261 0.1198559653032894 0 -0.10395121554874261 0.1198559653032894 0 -0.1077271712102891 0.098306489160068899 0 -0.10395121554874261 0.1198559653032894 0 -0.09597613515893326 0.1071625871314312 0 -0.1077271712102891 0.098306489160068899 0 -0.098458943569394955 0.088109406252275008 0 -0.09597613515893326 0.1071625871314312 0 -0.1077271712102891 0.098306489160068899 0 -0.1014710056152193 0.02076345555504093 0 -0.090884438427249858 0.041646874626040123 0 -0.1014710056152193 0.02076345555504093 0 -0.11355471415737579 0.025730343751674531 0 -0.10320010270642931 0.03241183600181656 0 -0.1014710056152193 0.02076345555504093 0 -0.097258212468105759 0.007587723016552932 0 -0.086933599142346246 0.01549169568324373 0 -0.1014710056152193 0.02076345555504093 0 -0.097258212468105759 0.007587723016552932 0 -0.11080627435813829 0.00234838994996916 0 -0.1014710056152193 0.02076345555504093 0 -0.11080627435813829 0.00234838994996916 0 -0.1003169503325788 -0.0030229177658489211 0 -0.097258212468105759 0.007587723016552932 0 -0.08584508395003515 0.0017893316119406929 0 -0.1003169503325788 -0.0030229177658489211 0 -0.097258212468105759 0.007587723016552932 0 -0.11080627435813829 0.00234838994996916 0 -0.1014710056152193 0.02076345555504093 0 -0.11080627435813829 0.00234838994996916 0 -0.1185294306974773 0.013044611416325329 0 -0.1263847071420727 -0.00049017928581041167 0 -0.11080627435813829 0.00234838994996916 0 -0.1185294306974773 0.013044611416325329 0 -0.1014710056152193 0.02076345555504093 0 -0.1185294306974773 0.013044611416325329 0 -0.11355471415737579 0.025730343751674531 0 -0.12637229316586379 0.025285514273861161 0 -0.1185294306974773 0.013044611416325329 0 -0.11355471415737579 0.025730343751674531 0 -0.1014710056152193 0.02076345555504093 0 -0.1185294306974773 0.013044611416325329 0 -0.12637229316586379 0.025285514273861161 0 -0.11355471415737579 0.025730343751674531 0 -0.1185779543477497 0.036380790525106933 0 -0.13361656733593111 0.039351270495596183 0 -0.1185779543477497 0.036380790525106933 0 -0.11764372953864061 0.041712435555085289 0 -0.1185779543477497 0.036380790525106933 0 -0.11764372953864061 0.041712435555085289 0 -0.1185779543477497 0.036380790525106933 0 -0.11764372953864061 0.041712435555085289 0 -0.10320010270642931 0.03241183600181656 0 -0.11764372953864061 0.041712435555085289 0 -0.10320010270642931 0.03241183600181656 0 -0.11355471415737579 0.025730343751674531 0 -0.1185779543477497 0.036380790525106933 0 -0.10320010270642931 0.03241183600181656 0 -0.11764372953864061 0.041712435555085289 0 -0.1145734282052384 0.059234724285966878 0 -0.13714393614504991 0.054269088739154848 0 -0.11764372953864061 0.041712435555085289 0 -0.1145734282052384 0.059234724285966878 0 -0.11764372953864061 0.041712435555085289 0 -0.1145734282052384 0.059234724285966878 0 -0.1046177712905951 0.046823303358364293 0 -0.1145734282052384 0.059234724285966878 0 -0.098198514800739975 0.062138213136347292 0 -0.1046177712905951 0.046823303358364293 0 -0.098198514800739975 0.062138213136347292 0 -0.1046177712905951 0.046823303358364293 0 -0.090884438427249858 0.041646874626040123 0 -0.1014710056152193 0.02076345555504093 0 -0.10320010270642931 0.03241183600181656 0 -0.090884438427249858 0.041646874626040123 0 -0.11764372953864061 0.041712435555085289 0 -0.10320010270642931 0.03241183600181656 0 -0.1046177712905951 0.046823303358364293 0 -0.10320010270642931 0.03241183600181656 0 -0.1046177712905951 0.046823303358364293 0 -0.090884438427249858 0.041646874626040123 0 -0.090884438427249858 0.041646874626040123 0 -0.072238864980420731 0.049488993715259062 0 -0.075988494580490118 0.032294152556195728 0 -0.1014710056152193 0.02076345555504093 0 -0.090884438427249858 0.041646874626040123 0 -0.075988494580490118 0.032294152556195728 0 -0.080297871239284113 0.062530293697041051 0 -0.098198514800739975 0.062138213136347292 0 -0.090884438427249858 0.041646874626040123 0 -0.080297871239284113 0.062530293697041051 0 -0.090884438427249858 0.041646874626040123 0 -0.072238864980420731 0.049488993715259062 0 -0.080297871239284113 0.062530293697041051 0 -0.090884438427249858 0.041646874626040123 0 -0.063517537109320746 0.067148798139672533 0 -0.080297871239284113 0.062530293697041051 0 -0.072238864980420731 0.049488993715259062 0 -0.072238864980420731 0.049488993715259062 0 -0.075988494580490118 0.032294152556195728 0 -0.05050598354575879 0.043824849557345842 0 -0.075988494580490118 0.032294152556195728 0 -0.063923748500966077 0.025453179552296871 0 -0.05050598354575879 0.043824849557345842 0 -0.075988494580490118 0.032294152556195728 0 -0.05050598354575879 0.043824849557345842 0 -0.063923748500966077 0.025453179552296871 0 -0.072098180691645655 0.014539997838476889 0 -0.053741197941945817 0.01597698785817369 0 -0.075988494580490118 0.032294152556195728 0 -0.063923748500966077 0.025453179552296871 0 -0.072098180691645655 0.014539997838476889 0 -0.075988494580490118 0.032294152556195728 0 -0.086933599142346246 0.01549169568324373 0 -0.072098180691645655 0.014539997838476889 0 -0.1014710056152193 0.02076345555504093 0 -0.075988494580490118 0.032294152556195728 0 -0.1014710056152193 0.02076345555504093 0 -0.075988494580490118 0.032294152556195728 0 -0.086933599142346246 0.01549169568324373 0 -0.097258212468105759 0.007587723016552932 0 -0.086933599142346246 0.01549169568324373 0 -0.08584508395003515 0.0017893316119406929 0 -0.086933599142346246 0.01549169568324373 0 -0.08584508395003515 0.0017893316119406929 0 -0.072098180691645655 0.014539997838476889 0 -0.08584508395003515 0.0017893316119406929 0 -0.072098180691645655 0.014539997838476889 0 -0.060541425960350281 0.0027902607275900118 0 -0.040764220075145519 -0.0083702936523016892 0 -0.060541425960350281 0.0027902607275900118 0 -0.043195436554659357 0.0076950506344965926 0 -0.060541425960350281 0.0027902607275900118 0 -0.053741197941945817 0.01597698785817369 0 -0.043195436554659357 0.0076950506344965926 0 -0.072098180691645655 0.014539997838476889 0 -0.060541425960350281 0.0027902607275900118 0 -0.053741197941945817 0.01597698785817369 0 -0.063923748500966077 0.025453179552296871 0 -0.053741197941945817 0.01597698785817369 0 -0.05050598354575879 0.043824849557345842 0 -0.053741197941945817 0.01597698785817369 0 -0.037312706130242873 0.022249818147747361 0 -0.05050598354575879 0.043824849557345842 0 -0.040764220075145519 -0.0083702936523016892 0 -0.043195436554659357 0.0076950506344965926 0 -0.027098612542354999 0.0088100697805568503 0 -0.053741197941945817 0.01597698785817369 0 -0.037312706130242873 0.022249818147747361 0 -0.043195436554659357 0.0076950506344965926 0 -0.037312706130242873 0.022249818147747361 0 -0.043195436554659357 0.0076950506344965926 0 -0.027098612542354999 0.0088100697805568503 0 -0.063517537109320746 0.067148798139672533 0 -0.05050598354575879 0.043824849557345842 0 -0.046600466110238957 0.062242602058264707 0 -0.063517537109320746 0.067148798139672533 0 -0.072238864980420731 0.049488993715259062 0 -0.05050598354575879 0.043824849557345842 0 -0.037312706130242873 0.022249818147747361 0 -0.05050598354575879 0.043824849557345842 0 -0.029108569569133769 0.035736227559703827 0 -0.05050598354575879 0.043824849557345842 0 -0.025023472511027659 0.055355546558495762 0 -0.029108569569133769 0.035736227559703827 0 -0.05050598354575879 0.043824849557345842 0 -0.029020592409241978 0.060404658161118188 0 -0.025023472511027659 0.055355546558495762 0 -0.05050598354575879 0.043824849557345842 0 -0.046600466110238957 0.062242602058264707 0 -0.029020592409241978 0.060404658161118188 0 -0.05050598354575879 0.043824849557345842 0 -0.025023472511027659 0.055355546558495762 0 -0.0087542688128483814 0.062717272333401367 0 -0.019755804551900381 0.063952374318025806 0 -0.025023472511027659 0.055355546558495762 0 -0.0087542688128483814 0.062717272333401367 0 -0.025023472511027659 0.055355546558495762 0 -0.019755804551900381 0.063952374318025806 0 -0.029020592409241978 0.060404658161118188 0 -0.025023472511027659 0.055355546558495762 0 -0.029020592409241978 0.060404658161118188 0 -0.025023472511027659 0.055355546558495762 0 -0.025023472511027659 0.055355546558495762 0 -0.029108569569133769 0.035736227559703827 0 -0.0097910884617556197 0.036114190532836009 0 -0.025023472511027659 0.055355546558495762 0 -0.0097910884617556197 0.036114190532836009 0 -0.029108569569133769 0.035736227559703827 0 -0.0097910884617556197 0.036114190532836009 0 -0.022827927036181191 0.023150351632942281 0 -0.0097910884617556197 0.036114190532836009 0 -0.0099389404180049816 0.05077081591583537 0 0.0038130681136117361 0.048896254238608362 0 -0.0087542688128483814 0.062717272333401367 0 -0.025023472511027659 0.055355546558495762 0 -0.0099389404180049816 0.05077081591583537 0 -0.025023472511027659 0.055355546558495762 0 -0.0097910884617556197 0.036114190532836009 0 -0.0099389404180049816 0.05077081591583537 0 -0.0087542688128483814 0.062717272333401367 0 -0.0099389404180049816 0.05077081591583537 0 0.0038130681136117361 0.048896254238608362 0 -0.027098612542354999 0.0088100697805568503 0 -0.010828658477418681 0.01284145214386735 0 -0.020443904501618999 -0.001123202528514524 0 -0.027098612542354999 0.0088100697805568503 0 -0.010828658477418681 0.01284145214386735 0 -0.027098612542354999 0.0088100697805568503 0 -0.022827927036181191 0.023150351632942281 0 -0.010828658477418681 0.01284145214386735 0 -0.037312706130242873 0.022249818147747361 0 -0.027098612542354999 0.0088100697805568503 0 -0.022827927036181191 0.023150351632942281 0 -0.037312706130242873 0.022249818147747361 0 -0.029108569569133769 0.035736227559703827 0 -0.022827927036181191 0.023150351632942281 0 -0.0097910884617556197 0.036114190532836009 0 -0.010828658477418681 0.01284145214386735 0 0.0054412955875177502 0.0168728345071773 0 -0.0097910884617556197 0.036114190532836009 0 -0.022827927036181191 0.023150351632942281 0 -0.010828658477418681 0.01284145214386735 0 -0.0097910884617556197 0.036114190532836009 0 0.0054412955875177502 0.0168728345071773 0 -0.010828658477418681 0.01284145214386735 0 0.0023837959628292779 0.0045896394564886181 0 0.0054412955875177502 0.0168728345071773 0 -0.010828658477418681 0.01284145214386735 0 0.0054412955875177502 0.0168728345071773 0 -0.020443904501618999 -0.001123202528514524 0 -0.0071981610143054264 -0.0025996853953654721 0 -0.010828658477418681 0.01284145214386735 0 -0.0071981610143054264 -0.0025996853953654721 0 -0.010828658477418681 0.01284145214386735 0 0.0023837959628292779 0.0045896394564886181 0 0.0054412955875177502 0.0168728345071773 0 0.020281757731820671 -0.0018734506954683099 0 0.0023837959628292779 0.0045896394564886181 0 0.0054412955875177502 0.0168728345071773 0 0.020281757731820671 -0.0018734506954683099 0 0.0054412955875177502 0.0168728345071773 0 0.028314957840773109 0.02254048902077135 0 0.0094155099686855422 0.033038978557022668 0 -0.0097910884617556197 0.036114190532836009 0 0.0054412955875177502 0.0168728345071773 0 0.0094155099686855422 0.033038978557022668 0 0.0054412955875177502 0.0168728345071773 0 0.028314957840773109 0.02254048902077135 0 0.0054412955875177502 0.0168728345071773 0 0.028314957840773109 0.02254048902077135 0 0.020281757731820671 -0.0018734506954683099 0 0.028314957840773109 0.02254048902077135 0 0.04163462684118531 0.0029880238916752339 0 0.020281757731820671 -0.0018734506954683099 0 0.0038130681136117361 0.048896254238608362 0 0.01271156048924886 0.053789303808915799 0 0.019515422552610791 0.046272661309185822 0 0.0056005899787823976 0.060139637155157473 0 0.01271156048924886 0.053789303808915799 0 0.018424192636563998 0.061656598342712983 0 -0.0087542688128483814 0.062717272333401367 0 0.0056005899787823976 0.060139637155157473 0 0.0038130681136117361 0.048896254238608362 0 0.0056005899787823976 0.060139637155157473 0 0.0038130681136117361 0.048896254238608362 0 0.01271156048924886 0.053789303808915799 0 -0.0097910884617556197 0.036114190532836009 0 0.0038130681136117361 0.048896254238608362 0 0.0094155099686855422 0.033038978557022668 0 0.0038130681136117361 0.048896254238608362 0 0.0094155099686855422 0.033038978557022668 0 0.019515422552610791 0.046272661309185822 0 0.028314957840773109 0.02254048902077135 0 0.0094155099686855422 0.033038978557022668 0 0.019515422552610791 0.046272661309185822 0 0.028314957840773109 0.02254048902077135 0 0.019515422552610791 0.046272661309185822 0 0.040422246999569512 0.043597517713888742 0 0.019515422552610791 0.046272661309185822 0 0.030424052841174699 0.056706563186030297 0 0.040422246999569512 0.043597517713888742 0 0.01271156048924886 0.053789303808915799 0 0.019515422552610791 0.046272661309185822 0 0.018424192636563998 0.061656598342712983 0 0.030424052841174699 0.056706563186030297 0 0.018424192636563998 0.061656598342712983 0 0.02408473748421204 0.06809289100774947 0 0.019515422552610791 0.046272661309185822 0 0.030424052841174699 0.056706563186030297 0 0.018424192636563998 0.061656598342712983 0 0.030424052841174699 0.056706563186030297 0 0.040422246999569512 0.043597517713888742 0 0.049673664532917328 0.063913147556615701 0 0.028314957840773109 0.02254048902077135 0 0.040422246999569512 0.043597517713888742 0 0.051188620094028671 0.02820814353436487 0 0.040422246999569512 0.043597517713888742 0 0.051188620094028671 0.02820814353436487 0 0.063010327791778717 0.042410923572728278 0 0.051188620094028671 0.02820814353436487 0 0.066047458533611145 0.025440320400981261 0 0.063010327791778717 0.042410923572728278 0 0.040422246999569512 0.043597517713888742 0 0.063010327791778717 0.042410923572728278 0 0.049673664532917328 0.063913147556615701 0 0.075262591581623003 0.059733404105483071 0 0.049673664532917328 0.063913147556615701 0 0.028314957840773109 0.02254048902077135 0 0.04163462684118531 0.0029880238916752339 0 0.051188620094028671 0.02820814353436487 0 0.028314957840773109 0.02254048902077135 0 0.051188620094028671 0.02820814353436487 0 0.051188620094028671 0.02820814353436487 0 0.059543303650169931 0.011887926946737589 0 0.066047458533611145 0.025440320400981261 0 0.04163462684118531 0.0029880238916752339 0 0.051188620094028671 0.02820814353436487 0 0.059543303650169931 0.011887926946737589 0 0.04163462684118531 0.0029880238916752339 0 0.059543303650169931 0.011887926946737589 0 0.061444324376100902 -0.0063476516563641602 0 0.059543303650169931 0.011887926946737589 0 0.077781549971859792 0.013763181036104541 0 0.061444324376100902 -0.0063476516563641602 0 0.077781549971859792 0.013763181036104541 0 0.061444324376100902 -0.0063476516563641602 0 0.077781549971859792 0.013763181036104541 0 0.061444324376100902 -0.0063476516563641602 0 0.080795155288386974 -0.0023845122825129298 0 0.077781549971859792 0.013763181036104541 0 0.093597261146655245 0.0059525947911385994 0 0.095507836695849002 0.01885068402534662 0 0.077781549971859792 0.013763181036104541 0 0.093597261146655245 0.0059525947911385994 0 0.080795155288386974 -0.0023845122825129298 0 0.077781549971859792 0.013763181036104541 0 0.094118775567618676 0.033874013728573238 0 0.077781549971859792 0.013763181036104541 0 0.078713491160218613 0.030931426914971048 0 0.094118775567618676 0.033874013728573238 0 0.077781549971859792 0.013763181036104541 0 0.094118775567618676 0.033874013728573238 0 0.095507836695849002 0.01885068402534662 0 0.077781549971859792 0.013763181036104541 0 0.078713491160218613 0.030931426914971048 0 0.066047458533611145 0.025440320400981261 0 0.059543303650169931 0.011887926946737589 0 0.077781549971859792 0.013763181036104541 0 0.066047458533611145 0.025440320400981261 0 0.078713491160218613 0.030931426914971048 0 0.066047458533611145 0.025440320400981261 0 0.063010327791778717 0.042410923572728278 0 0.078713491160218613 0.030931426914971048 0 0.063010327791778717 0.042410923572728278 0 0.076674231716871794 0.043896613120270302 0 0.063010327791778717 0.042410923572728278 0 0.076674231716871794 0.043896613120270302 0 0.075262591581623003 0.059733404105483071 0 0.063010327791778717 0.042410923572728278 0 0.075262591581623003 0.059733404105483071 0 0.049673664532917328 0.063913147556615701 0 0.075262591581623003 0.059733404105483071 0 0.089782504895272466 0.043242543784662857 0 0.1008515186303289 0.05555366065435232 0 0.075262591581623003 0.059733404105483071 0 0.1008515186303289 0.05555366065435232 0 0.076674231716871794 0.043896613120270302 0 0.075262591581623003 0.059733404105483071 0 0.089782504895272466 0.043242543784662857 0 0.078713491160218613 0.030931426914971048 0 0.089782504895272466 0.043242543784662857 0 0.078713491160218613 0.030931426914971048 0 0.076674231716871794 0.043896613120270302 0 0.089782504895272466 0.043242543784662857 0 0.078713491160218613 0.030931426914971048 0 0.089782504895272466 0.043242543784662857 0 0.094118775567618676 0.033874013728573238 0 0.094118775567618676 0.033874013728573238 0 0.11045600116337539 0.053984846421043738 0 0.089782504895272466 0.043242543784662857 0 0.094118775567618676 0.033874013728573238 0 0.1008515186303289 0.05555366065435232 0 0.094118775567618676 0.033874013728573238 0 0.10677645054598769 0.037898247595204812 0 0.11045600116337539 0.053984846421043738 0 0.10677645054598769 0.037898247595204812 0 0.11168176383242891 0.034219146321452357 0 0.10429858453608989 0.0256703587546134 0 0.094118775567618676 0.033874013728573238 0 0.10677645054598769 0.037898247595204812 0 0.10429858453608989 0.0256703587546134 0 0.094118775567618676 0.033874013728573238 0 0.1008515186303289 0.05555366065435232 0 0.11045600116337539 0.053984846421043738 0 0.089782504895272466 0.043242543784662857 0 0.1008515186303289 0.05555366065435232 0 0.1008515186303289 0.05555366065435232 0 0.11045600116337539 0.053984846421043738 0 0.110956007475477 0.066792019017503521 0 0.1008515186303289 0.05555366065435232 0 0.11045600116337539 0.053984846421043738 0 0.1008515186303289 0.05555366065435232 0 0.110956007475477 0.066792019017503521 0 0.1142468711833269 0.058651339656580877 0 0.11045600116337539 0.053984846421043738 0 0.110956007475477 0.066792019017503521 0 0.11593190043715861 0.060725580549388113 0 0.1142468711833269 0.058651339656580877 0 0.110956007475477 0.066792019017503521 0 0.11593190043715861 0.060725580549388113 0 0.1142468711833269 0.058651339656580877 0 0.11752988867539881 0.057808344014132332 0 0.11593190043715861 0.060725580549388113 0 0.1142468711833269 0.058651339656580877 0 0.1142468711833269 0.058651339656580877 0 0.11045600116337539 0.053984846421043738 0 0.1142468711833269 0.058651339656580877 0 0.1165346777774582 0.052991943955031907 0 0.11752988867539881 0.057808344014132332 0 0.1142468711833269 0.058651339656580877 0 0.1165346777774582 0.052991943955031907 0 0.1142468711833269 0.058651339656580877 0 0.1165346777774582 0.052991943955031907 0 0.11045600116337539 0.053984846421043738 0 0.1165346777774582 0.052991943955031907 0 0.11045600116337539 0.053984846421043738 0 0.11332712763042541 0.041742872750339929 0 0.1165346777774582 0.052991943955031907 0 0.11045600116337539 0.053984846421043738 0 0.1165346777774582 0.052991943955031907 0 0.1207095333300392 0.052310015200376293 0 0.1258008839210312 0.043025047632520373 0 0.1207095333300392 0.052310015200376293 0 0.1258008839210312 0.043025047632520373 0 0.1266502062043493 0.050016126068568693 0 0.1207095333300392 0.052310015200376293 0 0.1249177574830235 0.05549570725843421 0 0.1266502062043493 0.050016126068568693 0 0.1165346777774582 0.052991943955031907 0 0.1207095333300392 0.052310015200376293 0 0.11986555203401961 0.056280573720561583 0 0.1165346777774582 0.052991943955031907 0 0.1207095333300392 0.052310015200376293 0 0.1165346777774582 0.052991943955031907 0 0.11986555203401961 0.056280573720561583 0 0.11752988867539881 0.057808344014132332 0 0.11986555203401961 0.056280573720561583 0 0.11752988867539881 0.057808344014132332 0 0.12107044194502931 0.060392282189097687 0 0.11986555203401961 0.056280573720561583 0 0.1249177574830235 0.05549570725843421 0 0.12107044194502931 0.060392282189097687 0 0.1207095333300392 0.052310015200376293 0 0.11986555203401961 0.056280573720561583 0 0.1249177574830235 0.05549570725843421 0 0.1249177574830235 0.05549570725843421 0 0.12107044194502931 0.060392282189097687 0 0.12761142098842679 0.062883107952959913 0 0.11593190043715861 0.060725580549388113 0 0.11752988867539881 0.057808344014132332 0 0.12107044194502931 0.060392282189097687 0 0.1165346777774582 0.052991943955031907 0 0.11332712763042541 0.041742872750339929 0 0.12751620659176091 0.025826703183530381 0 0.1165346777774582 0.052991943955031907 0 0.12751620659176091 0.025826703183530381 0 0.1258008839210312 0.043025047632520373 0 0.10677645054598769 0.037898247595204812 0 0.11045600116337539 0.053984846421043738 0 0.11332712763042541 0.041742872750339929 0 0.11168176383242891 0.034219146321452357 0 0.11332712763042541 0.041742872750339929 0 0.12751620659176091 0.025826703183530381 0 0.1165346777774582 0.052991943955031907 0 0.12751620659176091 0.025826703183530381 0 0.10677645054598769 0.037898247595204812 0 0.11168176383242891 0.034219146321452357 0 0.11332712763042541 0.041742872750339929 0 0.11168176383242891 0.034219146321452357 0 0.1142058271823109 0.022647435367460909 0 0.12751620659176091 0.025826703183530381 0 0.11168176383242891 0.034219146321452357 0 0.1142058271823109 0.022647435367460909 0 0.10429858453608989 0.0256703587546134 0 0.1142058271823109 0.022647435367460909 0 0.12088129531688289 0.012709603339681101 0 0.106628836193788 0.014256595111476551 0 0.1142058271823109 0.022647435367460909 0 0.12088129531688289 0.012709603339681101 0 0.12751620659176091 0.025826703183530381 0 0.12088129531688289 0.012709603339681101 0 0.11174088851103479 -0.001136892071535788 0 0.12922997235240771 -5.3501747736912381e-05 0 0.12088129531688289 0.012709603339681101 0 0.106628836193788 0.014256595111476551 0 0.11174088851103479 -0.001136892071535788 0 0.093597261146655245 0.0059525947911385994 0 0.106628836193788 0.014256595111476551 0 0.11174088851103479 -0.001136892071535788 0 0.093597261146655245 0.0059525947911385994 0 0.106628836193788 0.014256595111476551 0 0.095507836695849002 0.01885068402534662 0 0.094118775567618676 0.033874013728573238 0 0.095507836695849002 0.01885068402534662 0 0.10429858453608989 0.0256703587546134 0 0.106628836193788 0.014256595111476551 0 0.095507836695849002 0.01885068402534662 0 0.10429858453608989 0.0256703587546134 0 0.1142058271823109 0.022647435367460909 0 0.106628836193788 0.014256595111476551 0 0.10429858453608989 0.0256703587546134 0 0.10171721132327589 0.089646225035377794 0 0.092478415171075357 0.1125004310532523 0 0.1097352463225361 0.11732120119405989 0 0.11030448158573 0.097338078098579972 0 0.092478415171075357 0.1125004310532523 0 0.11030448158573 0.097338078098579972 0 0.10171721132327589 0.089646225035377794 0 0.092478415171075357 0.1125004310532523 0 0.1097352463225361 0.11732120119405989 0 0.092478415171075357 0.1125004310532523 0 0.1007709718809702 0.12927093273521739 0 0.1097352463225361 0.11732120119405989 0 0.11810951173179079 0.13588416397747449 0 0.12701285124311409 0.1116124001057755 0 0.1097352463225361 0.11732120119405989 0 0.11030448158573 0.097338078098579972 0 0.12701285124311409 0.1116124001057755 0 0.11030448158573 0.097338078098579972 0 0.12701285124311409 0.1116124001057755 0 0.11030448158573 0.097338078098579972 0 0.1249273330255416 0.097107323540065654 0 0.12701285124311409 0.1116124001057755 0 0.11030448158573 0.097338078098579972 0 0.1249273330255416 0.097107323540065654 0 0.11385449296806679 0.087523850291786068 0 0.1249273330255416 0.097107323540065654 0 0.11385449296806679 0.087523850291786068 0 0.12584004892598549 0.083346264786505142 0 0.11385449296806679 0.087523850291786068 0 0.110956007475477 0.066792019017503521 0 0.12584004892598549 0.083346264786505142 0 0.11385449296806679 0.087523850291786068 0 0.12584004892598549 0.083346264786505142 0 0.12180579377833931 0.068327597193629963 0 0.110956007475477 0.066792019017503521 0 0.12584004892598549 0.083346264786505142 0 0.110956007475477 0.066792019017503521 0 0.12584004892598549 0.083346264786505142 0 0.11593190043715861 0.060725580549388113 0 0.12107044194502931 0.060392282189097687 0 0.12180579377833931 0.068327597193629963 0 0.12107044194502931 0.060392282189097687 0 0.12180579377833931 0.068327597193629963 0 0.12761142098842679 0.062883107952959913 0 0.1142468711833269 0.058651339656580877 0 0.110956007475477 0.066792019017503521 0 0.11593190043715861 0.060725580549388113 0 0.12180579377833931 0.068327597193629963 0 0.110956007475477 0.066792019017503521 0 0.110956007475477 0.066792019017503521 0 0.10171721132327589 0.089646225035377794 0 0.092132678230029172 0.074059019767943518 0 0.1008515186303289 0.05555366065435232 0 0.110956007475477 0.066792019017503521 0 0.092132678230029172 0.074059019767943518 0 0.11385449296806679 0.087523850291786068 0 0.110956007475477 0.066792019017503521 0 0.10171721132327589 0.089646225035377794 0 0.110956007475477 0.066792019017503521 0 0.10171721132327589 0.089646225035377794 0 0.11030448158573 0.097338078098579972 0 0.11385449296806679 0.087523850291786068 0 0.10171721132327589 0.089646225035377794 0 0.092132678230029172 0.074059019767943518 0 0.07066048188808588 0.086763828695057207 0 0.086161260143958376 0.096172613689861255 0 0.10171721132327589 0.089646225035377794 0 0.092132678230029172 0.074059019767943518 0 0.086161260143958376 0.096172613689861255 0 0.075262591581623003 0.059733404105483071 0 0.092132678230029172 0.074059019767943518 0 0.07066048188808588 0.086763828695057207 0 0.075262591581623003 0.059733404105483071 0 0.1008515186303289 0.05555366065435232 0 0.092132678230029172 0.074059019767943518 0 0.075262591581623003 0.059733404105483071 0 0.07066048188808588 0.086763828695057207 0 0.049673664532917328 0.063913147556615701 0 0.07066048188808588 0.086763828695057207 0 0.076742178617381224 0.112397333590554 0 0.061153881102733447 0.11024216525479449 0 0.07066048188808588 0.086763828695057207 0 0.086161260143958376 0.096172613689861255 0 0.076742178617381224 0.112397333590554 0 0.10171721132327589 0.089646225035377794 0 0.086161260143958376 0.096172613689861255 0 0.092478415171075357 0.1125004310532523 0 0.086161260143958376 0.096172613689861255 0 0.092478415171075357 0.1125004310532523 0 0.076742178617381224 0.112397333590554 0 0.076742178617381224 0.112397333590554 0 0.082637104810127746 0.12698807089689701 0 0.079688452911995111 0.131316802378316 0 0.092478415171075357 0.1125004310532523 0 0.076742178617381224 0.112397333590554 0 0.082637104810127746 0.12698807089689701 0 0.092478415171075357 0.1125004310532523 0 0.083239619018874611 0.13535463707112669 0 0.092478415171075357 0.1125004310532523 0 0.082637104810127746 0.12698807089689701 0 0.083239619018874611 0.13535463707112669 0 0.061153881102733447 0.11024216525479449 0 0.079688452911995111 0.131316802378316 0 0.076742178617381224 0.112397333590554 0 0.061153881102733447 0.11024216525479449 0 0.079688452911995111 0.131316802378316 0 0.061153881102733447 0.11024216525479449 0 0.057948887345909701 0.13111049992592369 0 0.079688452911995111 0.131316802378316 0 0.061153881102733447 0.11024216525479449 0 0.038740942004890692 0.11465946885774179 0 0.057948887345909701 0.13111049992592369 0 0.07066048188808588 0.086763828695057207 0 0.061153881102733447 0.11024216525479449 0 0.042619309293471942 0.089167528131272697 0 0.061153881102733447 0.11024216525479449 0 0.042619309293471942 0.089167528131272697 0 0.061153881102733447 0.11024216525479449 0 0.038740942004890692 0.11465946885774179 0 0.042619309293471942 0.089167528131272697 0 0.038740942004890692 0.11465946885774179 0 0.042619309293471942 0.089167528131272697 0 0.01907681960390236 0.094280718844149569 0 0.07066048188808588 0.086763828695057207 0 0.049673664532917328 0.063913147556615701 0 0.042619309293471942 0.089167528131272697 0 0.042619309293471942 0.089167528131272697 0 0.02408473748421204 0.06809289100774947 0 0.049673664532917328 0.063913147556615701 0 0.042619309293471942 0.089167528131272697 0 0.02408473748421204 0.06809289100774947 0 0.049673664532917328 0.063913147556615701 0 0.02408473748421204 0.06809289100774947 0 0.030424052841174699 0.056706563186030297 0 0.049673664532917328 0.063913147556615701 0 0.02408473748421204 0.06809289100774947 0 0.018424192636563998 0.061656598342712983 0 0.02408473748421204 0.06809289100774947 0 0.042619309293471942 0.089167528131272697 0 0.02408473748421204 0.06809289100774947 0 0.01907681960390236 0.094280718844149569 0 -0.0042280144053344054 0.09563023333426704 0 0.00063572710032937935 0.071923096447820911 0 0.01907681960390236 0.094280718844149569 0 0.0056005899787823976 0.060139637155157473 0 0.018424192636563998 0.061656598342712983 0 0.00063572710032937935 0.071923096447820911 0 0.018424192636563998 0.061656598342712983 0 0.02408473748421204 0.06809289100774947 0 0.00063572710032937935 0.071923096447820911 0 0.02408473748421204 0.06809289100774947 0 0.00063572710032937935 0.071923096447820911 0 0.01907681960390236 0.094280718844149569 0 0.02408473748421204 0.06809289100774947 0 0.00063572710032937935 0.071923096447820911 0 0.038740942004890692 0.11465946885774179 0 0.01907681960390236 0.094280718844149569 0 0.011916828306180439 0.11976700023897351 0 -0.0042280144053344054 0.09563023333426704 0 0.01907681960390236 0.094280718844149569 0 0.011916828306180439 0.11976700023897351 0 -0.0059598814706679579 0.1281148300807477 0 0.011916828306180439 0.11976700023897351 0 0.015332839422348961 0.1462355066748092 0 0.038740942004890692 0.11465946885774179 0 0.011916828306180439 0.11976700023897351 0 0.039393987819385308 0.14304633399568681 0 0.011916828306180439 0.11976700023897351 0 0.015332839422348961 0.1462355066748092 0 0.039393987819385308 0.14304633399568681 0 0.015332839422348961 0.1462355066748092 0 0.033925472356288053 0.16463693998996631 0 0.039393987819385308 0.14304633399568681 0 -0.00151912522628736 0.1579628425952026 0 -0.0059598814706679579 0.1281148300807477 0 0.015332839422348961 0.1462355066748092 0 -0.00151912522628736 0.1579628425952026 0 0.018543221267675589 0.17479542993748931 0 -0.00151912522628736 0.1579628425952026 0 0.015332839422348961 0.1462355066748092 0 0.018543221267675589 0.17479542993748931 0 0.0023692917363482059 0.18415398960282101 0 0.018543221267675589 0.17479542993748931 0 0.02173717469265786 0.19187924795954839 0 -0.00151912522628736 0.1579628425952026 0 0.0023692917363482059 0.18415398960282101 0 0.018543221267675589 0.17479542993748931 0 0.018543221267675589 0.17479542993748931 0 0.038605567761638399 0.19162801727977621 0 0.018543221267675589 0.17479542993748931 0 0.033925472356288053 0.16463693998996631 0 0.038605567761638399 0.19162801727977621 0 0.018543221267675589 0.17479542993748931 0 0.02173717469265786 0.19187924795954839 0 0.038605567761638399 0.19162801727977621 0 0.015332839422348961 0.1462355066748092 0 0.018543221267675589 0.17479542993748931 0 0.033925472356288053 0.16463693998996631 0 0.033925472356288053 0.16463693998996631 0 0.052299862811757358 0.17152427897928929 0 0.039393987819385308 0.14304633399568681 0 0.052299862811757358 0.17152427897928929 0 0.038605567761638399 0.19162801727977621 0 0.033925472356288053 0.16463693998996631 0 0.052299862811757358 0.17152427897928929 0 0.038605567761638399 0.19162801727977621 0 0.05277932094668935 0.1868421333532756 0 0.052299862811757358 0.17152427897928929 0 0.038605567761638399 0.19162801727977621 0 0.05277932094668935 0.1868421333532756 0 0.052299862811757358 0.17152427897928929 0 0.065549109343682771 0.1791160261111634 0 0.052299862811757358 0.17152427897928929 0 0.065994157861876263 0.1514205406788027 0 0.052299862811757358 0.17152427897928929 0 0.065994157861876263 0.1514205406788027 0 0.066347345966476387 0.16166133931478011 0 0.052299862811757358 0.17152427897928929 0 0.066347345966476387 0.16166133931478011 0 0.065549109343682771 0.1791160261111634 0 0.057948887345909701 0.13111049992592369 0 0.039393987819385308 0.14304633399568681 0 0.065994157861876263 0.1514205406788027 0 0.052299862811757358 0.17152427897928929 0 0.039393987819385308 0.14304633399568681 0 0.065994157861876263 0.1514205406788027 0 0.038740942004890692 0.11465946885774179 0 0.057948887345909701 0.13111049992592369 0 0.039393987819385308 0.14304633399568681 0 0.027329493042695819 0.23903460929129841 0 0.018315165982636258 0.25705769295735748 0 0.029945818561336469 0.25087343006989432 0 0.027329493042695819 0.23903460929129841 0 0.0061856528516203851 0.23313060674095321 0 0.018315165982636258 0.25705769295735748 0 0.0061856528516203851 0.23313060674095321 0 0.018315165982636258 0.25705769295735748 0 0.00052304254878242677 0.24554969369601529 0 0.0061856528516203851 0.23313060674095321 0 0.018315165982636258 0.25705769295735748 0 -0.0059438602793955566 0.2092035205245488 0 0.0061856528516203851 0.23313060674095321 0 0.0061856528516203851 0.23313060674095321 0 0.024033836548012319 0.22560882288568351 0 0.016024494092549569 0.20947367423940499 0 0.027329493042695819 0.23903460929129841 0 0.0061856528516203851 0.23313060674095321 0 0.024033836548012319 0.22560882288568351 0 0.027329493042695819 0.23903460929129841 0 0.024033836548012319 0.22560882288568351 0 0.033649555327102433 0.227163594541023 0 0.024033836548012319 0.22560882288568351 0 0.031534043660666561 0.21600349057487539 0 0.033649555327102433 0.227163594541023 0 0.024033836548012319 0.22560882288568351 0 0.016024494092549569 0.20947367423940499 0 0.031534043660666561 0.21600349057487539 0 0.03048139683227348 0.2035546046414933 0 0.016024494092549569 0.20947367423940499 0 0.031534043660666561 0.21600349057487539 0 -0.0059438602793955566 0.2092035205245488 0 0.0061856528516203851 0.23313060674095321 0 0.016024494092549569 0.20947367423940499 0 -0.0059438602793955566 0.2092035205245488 0 0.0023692917363482059 0.18415398960282101 0 0.016024494092549569 0.20947367423940499 0 0.0023692917363482059 0.18415398960282101 0 0.016024494092549569 0.20947367423940499 0 0.02173717469265786 0.19187924795954839 0 0.03048139683227348 0.2035546046414933 0 0.016024494092549569 0.20947367423940499 0 0.02173717469265786 0.19187924795954839 0 0.03048139683227348 0.2035546046414933 0 0.02173717469265786 0.19187924795954839 0 0.038605567761638399 0.19162801727977621 0 0.038605567761638399 0.19162801727977621 0 0.054662743869678898 0.2051002110428736 0 0.03048139683227348 0.2035546046414933 0 0.038605567761638399 0.19162801727977621 0 0.04226271832627275 0.2052184704051378 0 0.03048139683227348 0.2035546046414933 0 0.038605567761638399 0.19162801727977621 0 0.038605567761638399 0.19162801727977621 0 0.048164276109921703 0.2038729051721096 0 0.04226271832627275 0.2052184704051378 0 0.05277932094668935 0.1868421333532756 0 0.054662743869678898 0.2051002110428736 0 0.065549109343682771 0.1791160261111634 0 0.054662743869678898 0.2051002110428736 0 0.065549109343682771 0.1791160261111634 0 0.05277932094668935 0.1868421333532756 0 0.038605567761638399 0.19162801727977621 0 0.054662743869678898 0.2051002110428736 0 0.038605567761638399 0.19162801727977621 0 0.048164276109921703 0.2038729051721096 0 0.054662743869678898 0.2051002110428736 0 0.054662743869678898 0.2051002110428736 0 0.064338911609809202 0.19946317470971439 0 0.065549109343682771 0.1791160261111634 0 0.054662743869678898 0.2051002110428736 0 0.044893230480466027 0.2293261731144588 0 0.054662743869678898 0.2051002110428736 0 0.048224103205526052 0.21851855589674471 0 0.044893230480466027 0.2293261731144588 0 0.048164276109921703 0.2038729051721096 0 0.048785532852532877 0.2084784592980477 0 0.051152802073269853 0.20711100646160779 0 0.054662743869678898 0.2051002110428736 0 0.05320754713151242 0.2133569401072645 0 0.044893230480466027 0.2293261731144588 0 0.048164276109921703 0.2038729051721096 0 0.051152802073269853 0.20711100646160779 0 0.052561882809344311 0.2056309016726118 0 0.048785532852532877 0.2084784592980477 0 0.048561900181062941 0.2111518004370509 0 0.045724500698770959 0.21165943540619739 0 0.048785532852532877 0.2084784592980477 0 0.050415165422591203 0.2089456160485931 0 0.051152802073269853 0.20711100646160779 0 0.050415165422591203 0.2089456160485931 0 0.050236797167578923 0.21043042945388371 0 0.051152802073269853 0.20711100646160779 0 0.048785532852532877 0.2084784592980477 0 0.050236797167578923 0.21043042945388371 0 0.048561900181062941 0.2111518004370509 0 0.048785532852532877 0.2084784592980477 0 0.050415165422591203 0.2089456160485931 0 0.050236797167578923 0.21043042945388371 0 0.050236797167578923 0.21043042945388371 0 0.054662743869678898 0.2051002110428736 0 0.052561882809344311 0.2056309016726118 0 0.050236797167578923 0.21043042945388371 0 0.051152802073269853 0.20711100646160779 0 0.052561882809344311 0.2056309016726118 0 0.048164276109921703 0.2038729051721096 0 0.054662743869678898 0.2051002110428736 0 0.052561882809344311 0.2056309016726118 0 0.054662743869678898 0.2051002110428736 0 0.057220814158414332 0.21031345741580201 0 0.05320754713151242 0.2133569401072645 0 0.054662743869678898 0.2051002110428736 0 0.060835018486671472 0.20706658808998149 0 0.064338911609809202 0.19946317470971439 0 0.054662743869678898 0.2051002110428736 0 0.057220814158414332 0.21031345741580201 0 0.060835018486671472 0.20706658808998149 0 0.057220814158414332 0.21031345741580201 0 0.060835018486671472 0.20706658808998149 0 0.061414797988534872 0.2114772981437765 0 0.05819869997889357 0.2149849711880388 0 0.05805371211362146 0.22010521046125231 0 0.065281053028411182 0.21706643935423231 0 0.057220814158414332 0.21031345741580201 0 0.061414797988534872 0.2114772981437765 0 0.05819869997889357 0.2149849711880388 0 0.061414797988534872 0.2114772981437765 0 0.05819869997889357 0.2149849711880388 0 0.065281053028411182 0.21706643935423231 0 0.057220814158414332 0.21031345741580201 0 0.05819869997889357 0.2149849711880388 0 0.05320754713151242 0.2133569401072645 0 0.05819869997889357 0.2149849711880388 0 0.055613896946064417 0.21740634220154359 0 0.05320754713151242 0.2133569401072645 0 0.05819869997889357 0.2149849711880388 0 0.055613896946064417 0.21740634220154359 0 0.05805371211362146 0.22010521046125231 0 0.050236797167578923 0.21043042945388371 0 0.054662743869678898 0.2051002110428736 0 0.048224103205526052 0.21851855589674471 0 0.050236797167578923 0.21043042945388371 0 0.048898571671271068 0.2132227644845324 0 0.048224103205526052 0.21851855589674471 0 0.055613896946064417 0.21740634220154359 0 0.05320754713151242 0.2133569401072645 0 0.05299562856023024 0.22117824704961911 0 0.050236797167578923 0.21043042945388371 0 0.048898571671271068 0.2132227644845324 0 0.048561900181062941 0.2111518004370509 0 0.048898571671271068 0.2132227644845324 0 0.048561900181062941 0.2111518004370509 0 0.045724500698770959 0.21165943540619739 0 0.048898571671271068 0.2132227644845324 0 0.048224103205526052 0.21851855589674471 0 0.045594648177426207 0.21591266858858099 0 0.048224103205526052 0.21851855589674471 0 0.045594648177426207 0.21591266858858099 0 0.043328679053870361 0.2191966321614684 0 0.045594648177426207 0.21591266858858099 0 0.041125697294503348 0.216148129731702 0 0.043328679053870361 0.2191966321614684 0 0.041125697294503348 0.216148129731702 0 0.045724500698770959 0.21165943540619739 0 0.038225671362497417 0.21051682615188119 0 0.045594648177426207 0.21591266858858099 0 0.041125697294503348 0.216148129731702 0 0.045724500698770959 0.21165943540619739 0 0.048898571671271068 0.2132227644845324 0 0.045594648177426207 0.21591266858858099 0 0.045724500698770959 0.21165943540619739 0 0.048785532852532877 0.2084784592980477 0 0.045724500698770959 0.21165943540619739 0 0.04226271832627275 0.2052184704051378 0 0.048164276109921703 0.2038729051721096 0 0.048785532852532877 0.2084784592980477 0 0.04226271832627275 0.2052184704051378 0 0.045724500698770959 0.21165943540619739 0 0.04226271832627275 0.2052184704051378 0 0.038225671362497417 0.21051682615188119 0 0.03048139683227348 0.2035546046414933 0 0.04226271832627275 0.2052184704051378 0 0.038225671362497417 0.21051682615188119 0 0.03048139683227348 0.2035546046414933 0 0.038225671362497417 0.21051682615188119 0 0.031534043660666561 0.21600349057487539 0 0.041125697294503348 0.216148129731702 0 0.038225671362497417 0.21051682615188119 0 0.031534043660666561 0.21600349057487539 0 0.041125697294503348 0.216148129731702 0 0.031534043660666561 0.21600349057487539 0 0.038658994484452799 0.2217925556377556 0 0.031534043660666561 0.21600349057487539 0 0.038658994484452799 0.2217925556377556 0 0.033649555327102433 0.227163594541023 0 0.038658994484452799 0.2217925556377556 0 0.033649555327102433 0.227163594541023 0 0.039293586560966438 0.2279808596929985 0 0.027329493042695819 0.23903460929129841 0 0.033649555327102433 0.227163594541023 0 0.037163146994557167 0.23447330747067571 0 0.033649555327102433 0.227163594541023 0 0.039293586560966438 0.2279808596929985 0 0.037163146994557167 0.23447330747067571 0 0.043743054449845907 0.23305812665876841 0 0.044893230480466027 0.2293261731144588 0 0.043022405009607703 0.22426262712446629 0 0.039293586560966438 0.2279808596929985 0 0.043743054449845907 0.23305812665876841 0 0.043022405009607703 0.22426262712446629 0 0.039293586560966438 0.2279808596929985 0 0.043743054449845907 0.23305812665876841 0 0.037163146994557167 0.23447330747067571 0 0.043743054449845907 0.23305812665876841 0 0.044893230480466027 0.2293261731144588 0 0.048224103205526052 0.21851855589674471 0 0.044893230480466027 0.2293261731144588 0 0.043022405009607703 0.22426262712446629 0 0.038658994484452799 0.2217925556377556 0 0.039293586560966438 0.2279808596929985 0 0.043022405009607703 0.22426262712446629 0 0.038658994484452799 0.2217925556377556 0 0.043022405009607703 0.22426262712446629 0 0.043328679053870361 0.2191966321614684 0 0.041125697294503348 0.216148129731702 0 0.038658994484452799 0.2217925556377556 0 0.043328679053870361 0.2191966321614684 0 0.048224103205526052 0.21851855589674471 0 0.043022405009607703 0.22426262712446629 0 0.043328679053870361 0.2191966321614684 0 0.05320754713151242 0.2133569401072645 0 0.044893230480466027 0.2293261731144588 0 0.05299562856023024 0.22117824704961911 0 0.044893230480466027 0.2293261731144588 0 0.053656308505615841 0.22555075855855219 0 0.05299562856023024 0.22117824704961911 0 0.053656308505615841 0.22555075855855219 0 0.05805371211362146 0.22010521046125231 0 0.060316349441336278 0.2318776029630647 0 0.053656308505615841 0.22555075855855219 0 0.05299562856023024 0.22117824704961911 0 0.05805371211362146 0.22010521046125231 0 0.055613896946064417 0.21740634220154359 0 0.05299562856023024 0.22117824704961911 0 0.05805371211362146 0.22010521046125231 0 0.044893230480466027 0.2293261731144588 0 0.053656308505615841 0.22555075855855219 0 0.060316349441336278 0.2318776029630647 0 0.043743054449845907 0.23305812665876841 0 0.044893230480466027 0.2293261731144588 0 0.065546195528431439 0.2493082971063314 0 0.044893230480466027 0.2293261731144588 0 0.060316349441336278 0.2318776029630647 0 0.065546195528431439 0.2493082971063314 0 0.043743054449845907 0.23305812665876841 0 0.041800045592175247 0.24512934716929019 0 0.065546195528431439 0.2493082971063314 0 0.044893230480466027 0.2293261731144588 0 0.065546195528431439 0.2493082971063314 0 0.043743054449845907 0.23305812665876841 0 0.041800045592175247 0.24512934716929019 0 0.037163146994557167 0.23447330747067571 0 0.027329493042695819 0.23903460929129841 0 0.041800045592175247 0.24512934716929019 0 0.037163146994557167 0.23447330747067571 0 0.027329493042695819 0.23903460929129841 0 0.041800045592175247 0.24512934716929019 0 0.029945818561336469 0.25087343006989432 0 0.093158877486271385 0.24497865695800511 0 0.077286708751709315 0.2386206037486108 0 0.090996944033354288 0.2279093860827999 0 0.093158877486271385 0.24497865695800511 0 0.077286708751709315 0.2386206037486108 0 0.083889286290303566 0.25240242155535458 0 0.060316349441336278 0.2318776029630647 0 0.077286708751709315 0.2386206037486108 0 0.065546195528431439 0.2493082971063314 0 0.077286708751709315 0.2386206037486108 0 0.065546195528431439 0.2493082971063314 0 0.083889286290303566 0.25240242155535458 0 0.060316349441336278 0.2318776029630647 0 0.077286708751709315 0.2386206037486108 0 0.069812599730558922 0.22524725782610899 0 0.05805371211362146 0.22010521046125231 0 0.060316349441336278 0.2318776029630647 0 0.069812599730558922 0.22524725782610899 0 0.05805371211362146 0.22010521046125231 0 0.069812599730558922 0.22524725782610899 0 0.065281053028411182 0.21706643935423231 0 0.069812599730558922 0.22524725782610899 0 0.079842715888440219 0.21530706262600019 0 0.065281053028411182 0.21706643935423231 0 0.077286708751709315 0.2386206037486108 0 0.069812599730558922 0.22524725782610899 0 0.090996944033354288 0.2279093860827999 0 0.069812599730558922 0.22524725782610899 0 0.090996944033354288 0.2279093860827999 0 0.079842715888440219 0.21530706262600019 0 0.079842715888440219 0.21530706262600019 0 0.08493137213635335 0.20212197754149011 0 0.099329449705222089 0.21000542611026229 0 0.090996944033354288 0.2279093860827999 0 0.079842715888440219 0.21530706262600019 0 0.099329449705222089 0.21000542611026229 0 0.079842715888440219 0.21530706262600019 0 0.065281053028411182 0.21706643935423231 0 0.068975355975123748 0.2091314470208066 0 0.079842715888440219 0.21530706262600019 0 0.068975355975123748 0.2091314470208066 0 0.08493137213635335 0.20212197754149011 0 0.061414797988534872 0.2114772981437765 0 0.065281053028411182 0.21706643935423231 0 0.068975355975123748 0.2091314470208066 0 0.060835018486671472 0.20706658808998149 0 0.068975355975123748 0.2091314470208066 0 0.064338911609809202 0.19946317470971439 0 0.060835018486671472 0.20706658808998149 0 0.061414797988534872 0.2114772981437765 0 0.068975355975123748 0.2091314470208066 0 0.068975355975123748 0.2091314470208066 0 0.072899426944448259 0.19648449255423359 0 0.08493137213635335 0.20212197754149011 0 0.072899426944448259 0.19648449255423359 0 0.082496368967567374 0.18772946793892009 0 0.065549109343682771 0.1791160261111634 0 0.072899426944448259 0.19648449255423359 0 0.064338911609809202 0.19946317470971439 0 0.065549109343682771 0.1791160261111634 0 0.068975355975123748 0.2091314470208066 0 0.072899426944448259 0.19648449255423359 0 0.064338911609809202 0.19946317470971439 0 0.082496368967567374 0.18772946793892009 0 0.08493137213635335 0.20212197754149011 0 0.1015352472026272 0.1897477935179758 0 0.072899426944448259 0.19648449255423359 0 0.082496368967567374 0.18772946793892009 0 0.08493137213635335 0.20212197754149011 0 0.1015352472026272 0.1897477935179758 0 0.11762621229661301 0.2048327762159064 0 0.099329449705222089 0.21000542611026229 0 0.08493137213635335 0.20212197754149011 0 0.1015352472026272 0.1897477935179758 0 0.099329449705222089 0.21000542611026229 0 0.11762621229661301 0.2048327762159064 0 0.12698955129055589 0.1851002668214535 0 0.1015352472026272 0.1897477935179758 0 0.11762621229661301 0.2048327762159064 0 0.12698955129055589 0.1851002668214535 0 0.11762621229661301 0.2048327762159064 0 0.1082628733026705 0.22456528561035929 0 0.1264354845166363 0.2226523341710443 0 0.11762621229661301 0.2048327762159064 0 0.1082628733026705 0.22456528561035929 0 0.11762621229661301 0.2048327762159064 0 0.099329449705222089 0.21000542611026229 0 0.1082628733026705 0.22456528561035929 0 0.090996944033354288 0.2279093860827999 0 0.099329449705222089 0.21000542611026229 0 0.1082628733026705 0.22456528561035929 0 0.090996944033354288 0.2279093860827999 0 0.1082628733026705 0.22456528561035929 0 0.1040712235599244 0.2376323428694021 0 0.1082628733026705 0.22456528561035929 0 0.1205808000874211 0.24010140278001529 0 0.1040712235599244 0.2376323428694021 0 0.1082628733026705 0.22456528561035929 0 0.1205808000874211 0.24010140278001529 0 0.1264354845166363 0.2226523341710443 0 0.1205808000874211 0.24010140278001529 0 0.1040712235599244 0.2376323428694021 0 0.1073566228899049 0.25060698291583089 0 0.1205808000874211 0.24010140278001529 0 0.12169936599027439 0.2567597450848853 0 0.1073566228899049 0.25060698291583089 0 0.093158877486271385 0.24497865695800511 0 0.090996944033354288 0.2279093860827999 0 0.1040712235599244 0.2376323428694021 0 0.093158877486271385 0.24497865695800511 0 0.1040712235599244 0.2376323428694021 0 0.1073566228899049 0.25060698291583089 0 0.092497802563082043 0.14588160584197971 0 0.083239619018874611 0.13535463707112669 0 0.076452136790600769 0.15214497583736061 0 0.083239619018874611 0.13535463707112669 0 0.076452136790600769 0.15214497583736061 0 0.092497802563082043 0.14588160584197971 0 0.076452136790600769 0.15214497583736061 0 0.092497802563082043 0.14588160584197971 0 0.076452136790600769 0.15214497583736061 0 0.088655276236935185 0.160536481029001 0 0.092497802563082043 0.14588160584197971 0 0.083239619018874611 0.13535463707112669 0 0.079688452911995111 0.131316802378316 0 0.083239619018874611 0.13535463707112669 0 0.076452136790600769 0.15214497583736061 0 0.092497802563082043 0.14588160584197971 0 0.083239619018874611 0.13535463707112669 0 0.1007709718809702 0.12927093273521739 0 0.092478415171075357 0.1125004310532523 0 0.083239619018874611 0.13535463707112669 0 0.1007709718809702 0.12927093273521739 0 0.082637104810127746 0.12698807089689701 0 0.079688452911995111 0.131316802378316 0 0.083239619018874611 0.13535463707112669 0 0.082637104810127746 0.12698807089689701 0 0.079688452911995111 0.131316802378316 0 0.079688452911995111 0.131316802378316 0 0.083239619018874611 0.13535463707112669 0 0.057948887345909701 0.13111049992592369 0 0.079688452911995111 0.131316802378316 0 0.065994157861876263 0.1514205406788027 0 0.079688452911995111 0.131316802378316 0 0.065994157861876263 0.1514205406788027 0 0.079688452911995111 0.131316802378316 0 0.076452136790600769 0.15214497583736061 0 0.065994157861876263 0.1514205406788027 0 0.076452136790600769 0.15214497583736061 0 0.071441463024464871 0.1541008749672845 0 0.065994157861876263 0.1514205406788027 0 0.076452136790600769 0.15214497583736061 0 0.071441463024464871 0.1541008749672845 0 0.066347345966476387 0.16166133931478011 0 0.076452136790600769 0.15214497583736061 0 0.071441463024464871 0.1541008749672845 0 0.071441463024464871 0.1541008749672845 0 0.065994157861876263 0.1514205406788027 0 0.066347345966476387 0.16166133931478011 0 0.076452136790600769 0.15214497583736061 0 0.066347345966476387 0.16166133931478011 0 0.065549109343682771 0.1791160261111634 0 0.076452136790600769 0.15214497583736061 0 0.065549109343682771 0.1791160261111634 0 0.076452136790600769 0.15214497583736061 0 0.065549109343682771 0.1791160261111634 0 0.079565131575125403 0.16647222552228849 0 0.065549109343682771 0.1791160261111634 0 0.087604003929283025 0.17409141911162929 0 0.079565131575125403 0.16647222552228849 0 0.082496368967567374 0.18772946793892009 0 0.065549109343682771 0.1791160261111634 0 0.087604003929283025 0.17409141911162929 0 0.082496368967567374 0.18772946793892009 0 0.1015352472026272 0.1897477935179758 0 0.087604003929283025 0.17409141911162929 0 0.076452136790600769 0.15214497583736061 0 0.079565131575125403 0.16647222552228849 0 0.088655276236935185 0.160536481029001 0 0.087604003929283025 0.17409141911162929 0 0.079565131575125403 0.16647222552228849 0 0.088655276236935185 0.160536481029001 0 0.092497802563082043 0.14588160584197971 0 0.088655276236935185 0.160536481029001 0 0.1097436769268202 0.16549093633171541 0 0.087604003929283025 0.17409141911162929 0 0.088655276236935185 0.160536481029001 0 0.1097436769268202 0.16549093633171541 0 0.1015352472026272 0.1897477935179758 0 0.087604003929283025 0.17409141911162929 0 0.1097436769268202 0.16549093633171541 0 0.1097436769268202 0.16549093633171541 0 0.1339197842794875 0.1704953392792258 0 0.12698955129055589 0.1851002668214535 0 0.1097436769268202 0.16549093633171541 0 0.12698955129055589 0.1851002668214535 0 0.1015352472026272 0.1897477935179758 0 0.1097436769268202 0.16549093633171541 0 0.12698955129055589 0.1851002668214535 0 0.1097436769268202 0.16549093633171541 0 0.124281614688106 0.15284528859572219 0 0.1339197842794875 0.1704953392792258 0 0.124281614688106 0.15284528859572219 0 0.1111581514774503 0.15002549868672241 0 0.11810951173179079 0.13588416397747449 0 0.1097436769268202 0.16549093633171541 0 0.124281614688106 0.15284528859572219 0 0.1111581514774503 0.15002549868672241 0 0.092497802563082043 0.14588160584197971 0 0.1097436769268202 0.16549093633171541 0 0.1111581514774503 0.15002549868672241 0 0.092497802563082043 0.14588160584197971 0 0.11810951173179079 0.13588416397747449 0 0.092497802563082043 0.14588160584197971 0 0.1111581514774503 0.15002549868672241 0 0.11810951173179079 0.13588416397747449 0 0.092497802563082043 0.14588160584197971 0 0.1097436769268202 0.16549093633171541 0 0.092497802563082043 0.14588160584197971 0 0.1007709718809702 0.12927093273521739 0 0.11810951173179079 0.13588416397747449 0 0.1097352463225361 0.11732120119405989 0 0.1007709718809702 0.12927093273521739 0 0.11810951173179079 0.13588416397747449 0 0.11810951173179079 0.13588416397747449 0 0.14372122090049971 0.12588672211296939 0 0.13517033264833231 0.14280593339909661 0 0.11810951173179079 0.13588416397747449 0 0.14372122090049971 0.12588672211296939 0 0.14372122090049971 0.12588672211296939 0 0.14811480673930269 0.14511429486097641 0 0.13517033264833231 0.14280593339909661 0 0.14372122090049971 0.12588672211296939 0 0.1636264243993108 0.1428921684962593 0 0.14372122090049971 0.12588672211296939 0 0.14811480673930269 0.14511429486097641 0 0.1636264243993108 0.1428921684962593 0 0.14811480673930269 0.14511429486097641 0 0.14085001726841931 0.1558904117369983 0 0.15720603847995129 0.15809623855955821 0 0.14811480673930269 0.14511429486097641 0 0.14085001726841931 0.1558904117369983 0 0.13517033264833231 0.14280593339909661 0 0.124281614688106 0.15284528859572219 0 0.14085001726841931 0.1558904117369983 0 0.13517033264833231 0.14280593339909661 0 0.124281614688106 0.15284528859572219 0 0.11810951173179079 0.13588416397747449 0 0.13517033264833231 0.14280593339909661 0 0.124281614688106 0.15284528859572219 0 0.14085001726841931 0.1558904117369983 0 0.1339197842794875 0.1704953392792258 0 0.14085001726841931 0.1558904117369983 0 0.1339197842794875 0.1704953392792258 0 0.1339197842794875 0.1704953392792258 0 0.12698955129055589 0.1851002668214535 0 0.1467757805583966 0.184366593478828 0 0.1339197842794875 0.1704953392792258 0 0.12698955129055589 0.1851002668214535 0 0.1467757805583966 0.184366593478828 0 0.14855429452315391 0.1687530087860476 0 0.1640198520295148 0.17491646087562729 0 0.1339197842794875 0.1704953392792258 0 0.1467757805583966 0.184366593478828 0 0.14855429452315391 0.1687530087860476 0 0.14085001726841931 0.1558904117369983 0 0.14855429452315391 0.1687530087860476 0 0.15720603847995129 0.15809623855955821 0 0.14085001726841931 0.1558904117369983 0 0.1339197842794875 0.1704953392792258 0 0.14855429452315391 0.1687530087860476 0 0.15720603847995129 0.15809623855955821 0 0.1640198520295148 0.17491646087562729 0 0.1835316278981233 0.15989761487954751 0 0.14855429452315391 0.1687530087860476 0 0.15720603847995129 0.15809623855955821 0 0.1640198520295148 0.17491646087562729 0 0.1467757805583966 0.184366593478828 0 0.1640198520295148 0.17491646087562729 0 0.17055922324448539 0.19879035409526319 0 0.1640198520295148 0.17491646087562729 0 0.1829278155375279 0.1797953556364057 0 0.17055922324448539 0.19879035409526319 0 0.1640198520295148 0.17491646087562729 0 0.1829278155375279 0.1797953556364057 0 0.1835316278981233 0.15989761487954751 0 0.1835316278981233 0.15989761487954751 0 0.1636264243993108 0.1428921684962593 0 0.1835316278981233 0.15989761487954751 0 0.1636264243993108 0.1428921684962593 0 0.18972097744882541 0.13380328971103481 0 0.17667357051540469 0.12532751281523449 0 0.1636264243993108 0.1428921684962593 0 0.18972097744882541 0.13380328971103481 0 0.17667357051540469 0.12532751281523449 0 0.18972097744882541 0.13380328971103481 0 0.1868142606579751 0.1214397756045083 0 0.14372122090049971 0.12588672211296939 0 0.1636264243993108 0.1428921684962593 0 0.16291101993369231 0.1183960506016624 0 0.17667357051540469 0.12532751281523449 0 0.1636264243993108 0.1428921684962593 0 0.16291101993369231 0.1183960506016624 0 0.15720603847995129 0.15809623855955821 0 0.1835316278981233 0.15989761487954751 0 0.1636264243993108 0.1428921684962593 0 0.14811480673930269 0.14511429486097641 0 0.15720603847995129 0.15809623855955821 0 0.1636264243993108 0.1428921684962593 0 0.15152369355776621 0.24985893891519911 0 0.14031587656356931 0.23637666329713439 0 0.1639906180054114 0.22717213458422189 0 0.15152369355776621 0.24985893891519911 0 0.14031587656356931 0.23637666329713439 0 0.1338055702009765 0.24966410633270131 0 0.1205808000874211 0.24010140278001529 0 0.14031587656356931 0.23637666329713439 0 0.1338055702009765 0.24966410633270131 0 0.1205808000874211 0.24010140278001529 0 0.1338055702009765 0.24966410633270131 0 0.12169936599027439 0.2567597450848853 0 0.1205808000874211 0.24010140278001529 0 0.14031587656356931 0.23637666329713439 0 0.1264354845166363 0.2226523341710443 0 0.14031587656356931 0.23637666329713439 0 0.1264354845166363 0.2226523341710443 0 0.1454900846479838 0.20613620070283739 0 0.14031587656356931 0.23637666329713439 0 0.1454900846479838 0.20613620070283739 0 0.1639906180054114 0.22717213458422189 0 0.1454900846479838 0.20613620070283739 0 0.1639906180054114 0.22717213458422189 0 0.11762621229661301 0.2048327762159064 0 0.1264354845166363 0.2226523341710443 0 0.1454900846479838 0.20613620070283739 0 0.12698955129055589 0.1851002668214535 0 0.1467757805583966 0.184366593478828 0 0.1454900846479838 0.20613620070283739 0 0.11762621229661301 0.2048327762159064 0 0.12698955129055589 0.1851002668214535 0 0.1454900846479838 0.20613620070283739 0 0.12698955129055589 0.1851002668214535 0 0.1454900846479838 0.20613620070283739 0 0.1467757805583966 0.184366593478828 0 0.1454900846479838 0.20613620070283739 0 0.17055922324448539 0.19879035409526319 0 0.17055922324448539 0.19879035409526319 0 0.1639906180054114 0.22717213458422189 0 0.19780893923833709 0.22308014540621479 0 0.1829278155375279 0.1797953556364057 0 0.17055922324448539 0.19879035409526319 0 0.1953999583297584 0.19549618042325309 0 0.1454900846479838 0.20613620070283739 0 0.17055922324448539 0.19879035409526319 0 0.1639906180054114 0.22717213458422189 0 0.1639906180054114 0.22717213458422189 0 0.182491151362839 0.24820806846560631 0 0.19780893923833709 0.22308014540621479 0 0.1639906180054114 0.22717213458422189 0 0.182491151362839 0.24820806846560631 0 0.1639906180054114 0.22717213458422189 0 0.182491151362839 0.24820806846560631 0 0.16654584110041859 0.25141402998849288 0 0.15152369355776621 0.24985893891519911 0 0.1639906180054114 0.22717213458422189 0 0.16654584110041859 0.25141402998849288 0 0.20323580424516999 0.24901026716194319 0 0.21971355302517101 0.23954989193063889 0 0.22733852896958251 0.25985763436866632 0 0.20323580424516999 0.24901026716194319 0 0.19780893923833709 0.22308014540621479 0 0.21971355302517101 0.23954989193063889 0 0.182491151362839 0.24820806846560631 0 0.20323580424516999 0.24901026716194319 0 0.19780893923833709 0.22308014540621479 0 0.19780893923833709 0.22308014540621479 0 0.22707002769851481 0.22250110731134409 0 0.21971355302517101 0.23954989193063889 0 0.19780893923833709 0.22308014540621479 0 0.22063323564908879 0.20445854356503829 0 0.22707002769851481 0.22250110731134409 0 0.19780893923833709 0.22308014540621479 0 0.1953999583297584 0.19549618042325309 0 0.22063323564908879 0.20445854356503829 0 0.17055922324448539 0.19879035409526319 0 0.19780893923833709 0.22308014540621479 0 0.1953999583297584 0.19549618042325309 0 0.1953999583297584 0.19549618042325309 0 0.22063323564908879 0.20445854356503829 0 0.1953999583297584 0.19549618042325309 0 0.22063323564908879 0.20445854356503829 0 0.22418317743696939 0.17915807744700299 0 0.24778755904117561 0.19261041655277891 0 0.22063323564908879 0.20445854356503829 0 0.22418317743696939 0.17915807744700299 0 0.24778755904117561 0.19261041655277891 0 0.24586651296841919 0.21342090670682359 0 0.22063323564908879 0.20445854356503829 0 0.24586651296841919 0.21342090670682359 0 0.22063323564908879 0.20445854356503829 0 0.22707002769851481 0.22250110731134409 0 0.24586651296841919 0.21342090670682359 0 0.22063323564908879 0.20445854356503829 0 0.22707002769851481 0.22250110731134409 0 0.2383861826425086 0.23614859941304819 0 0.21971355302517101 0.23954989193063889 0 0.24586651296841919 0.21342090670682359 0 0.2383861826425086 0.23614859941304819 0 0.25611452929584783 0.23210673768206719 0 0.24586651296841919 0.21342090670682359 0 0.22707002769851481 0.22250110731134409 0 0.2383861826425086 0.23614859941304819 0 0.2383861826425086 0.23614859941304819 0 0.25330306868854607 0.24974758695179611 0 0.25611452929584783 0.23210673768206719 0 0.2383861826425086 0.23614859941304819 0 0.22733852896958251 0.25985763436866632 0 0.25330306868854607 0.24974758695179611 0 0.2383861826425086 0.23614859941304819 0 0.21971355302517101 0.23954989193063889 0 0.22733852896958251 0.25985763436866632 0 0.2052076800438252 0.1446426648256566 0 0.21801872350387599 0.1596977066787037 0 0.22407515367158901 0.14096460327525989 0 0.2052076800438252 0.1446426648256566 0 0.21215074587702371 0.1267467883197069 0 0.22407515367158901 0.14096460327525989 0 0.21215074587702371 0.1267467883197069 0 0.18972097744882541 0.13380328971103481 0 0.1987616757007851 0.11572292080140779 0 0.2052076800438252 0.1446426648256566 0 0.21215074587702371 0.1267467883197069 0 0.18972097744882541 0.13380328971103481 0 0.1835316278981233 0.15989761487954751 0 0.2052076800438252 0.1446426648256566 0 0.18972097744882541 0.13380328971103481 0 0.1829278155375279 0.1797953556364057 0 0.1835316278981233 0.15989761487954751 0 0.20112841618575791 0.16987616790833729 0 0.1835316278981233 0.15989761487954751 0 0.2052076800438252 0.1446426648256566 0 0.20112841618575791 0.16987616790833729 0 0.1829278155375279 0.1797953556364057 0 0.1953999583297584 0.19549618042325309 0 0.20112841618575791 0.16987616790833729 0 0.1953999583297584 0.19549618042325309 0 0.20112841618575791 0.16987616790833729 0 0.22418317743696939 0.17915807744700299 0 0.20112841618575791 0.16987616790833729 0 0.21801872350387599 0.1596977066787037 0 0.22418317743696939 0.17915807744700299 0 0.2052076800438252 0.1446426648256566 0 0.20112841618575791 0.16987616790833729 0 0.21801872350387599 0.1596977066787037 0 0.21801872350387599 0.1596977066787037 0 0.22418317743696939 0.17915807744700299 0 0.23648432970893199 0.15706624272585781 0 0.24778755904117561 0.19261041655277891 0 0.22418317743696939 0.17915807744700299 0 0.25071325899215041 0.17221730569813209 0 0.22418317743696939 0.17915807744700299 0 0.23648432970893199 0.15706624272585781 0 0.25071325899215041 0.17221730569813209 0 0.23648432970893199 0.15706624272585781 0 0.2602033980042267 0.15272867852389249 0 0.25071325899215041 0.17221730569813209 0 0.23648432970893199 0.15706624272585781 0 0.243585146636947 0.13962416392737431 0 0.2602033980042267 0.15272867852389249 0 0.23648432970893199 0.15706624272585781 0 0.22407515367158901 0.14096460327525989 0 0.243585146636947 0.13962416392737431 0 0.21801872350387599 0.1596977066787037 0 0.23648432970893199 0.15706624272585781 0 0.22407515367158901 0.14096460327525989 0 0.21215074587702371 0.1267467883197069 0 0.22407515367158901 0.14096460327525989 0 0.22978466292233291 0.1188405028389343 0 0.22407515367158901 0.14096460327525989 0 0.243585146636947 0.13962416392737431 0 0.22978466292233291 0.1188405028389343 0 0.243585146636947 0.13962416392737431 0 0.2494403980090209 0.1171116334398949 0 0.22978466292233291 0.1188405028389343 0 0.243585146636947 0.13962416392737431 0 0.2494403980090209 0.1171116334398949 0 0.2494403980090209 0.1171116334398949 0 0.23374017519627521 0.096036559249233364 0 0.22978466292233291 0.1188405028389343 0 0.2494403980090209 0.1171116334398949 0 0.23374017519627521 0.096036559249233364 0 0.25529564938109472 0.094599102952415665 0 0.23374017519627521 0.096036559249233364 0 0.21576556759435259 0.1070449798886613 0 0.21503399708603521 0.090681290559346109 0 0.23374017519627521 0.096036559249233364 0 0.22978466292233291 0.1188405028389343 0 0.21576556759435259 0.1070449798886613 0 0.21215074587702371 0.1267467883197069 0 0.22978466292233291 0.1188405028389343 0 0.21576556759435259 0.1070449798886613 0 0.21215074587702371 0.1267467883197069 0 0.21576556759435259 0.1070449798886613 0 0.1987616757007851 0.11572292080140779 0 0.21576556759435259 0.1070449798886613 0 0.20405793088031449 0.097920499862421392 0 0.1987616757007851 0.11572292080140779 0 0.21576556759435259 0.1070449798886613 0 0.20405793088031449 0.097920499862421392 0 0.21503399708603521 0.090681290559346109 0 0.1908354384815433 0.10029672169762451 0 0.1987616757007851 0.11572292080140779 0 0.18210081896688529 0.1109053790903563 0 0.20405793088031449 0.097920499862421392 0 0.1908354384815433 0.10029672169762451 0 0.1987616757007851 0.11572292080140779 0 0.20405793088031449 0.097920499862421392 0 0.1908354384815433 0.10029672169762451 0 0.19093292052318869 0.085159824320032579 0 0.18972097744882541 0.13380328971103481 0 0.1987616757007851 0.11572292080140779 0 0.1868142606579751 0.1214397756045083 0 0.1987616757007851 0.11572292080140779 0 0.18210081896688529 0.1109053790903563 0 0.1868142606579751 0.1214397756045083 0 0.20029290722471929 0.072235816294577634 0 0.19988085161225319 0.048489579819193912 0 0.18693061282637441 0.072721849392225618 0 0.20029290722471929 0.072235816294577634 0 0.19093292052318869 0.085159824320032579 0 0.18693061282637441 0.072721849392225618 0 0.20405793088031449 0.097920499862421392 0 0.19093292052318869 0.085159824320032579 0 0.2033415478786296 0.084660272386408525 0 0.20029290722471929 0.072235816294577634 0 0.19093292052318869 0.085159824320032579 0 0.2033415478786296 0.084660272386408525 0 0.2033415478786296 0.084660272386408525 0 0.21503399708603521 0.090681290559346109 0 0.21165507378589549 0.076998801625278557 0 0.20405793088031449 0.097920499862421392 0 0.2033415478786296 0.084660272386408525 0 0.21503399708603521 0.090681290559346109 0 0.21503399708603521 0.090681290559346109 0 0.21165507378589549 0.076998801625278557 0 0.22197697140556791 0.08096102975187322 0 0.21165507378589549 0.076998801625278557 0 0.21993529817362281 0.068535431127339549 0 0.22197697140556791 0.08096102975187322 0 0.20029290722471929 0.072235816294577634 0 0.21165507378589549 0.076998801625278557 0 0.20934972094679871 0.064918969632126358 0 0.20029290722471929 0.072235816294577634 0 0.2033415478786296 0.084660272386408525 0 0.21165507378589549 0.076998801625278557 0 0.21165507378589549 0.076998801625278557 0 0.20934972094679871 0.064918969632126358 0 0.21993529817362281 0.068535431127339549 0 0.20934972094679871 0.064918969632126358 0 0.21993529817362281 0.068535431127339549 0 0.21688688866815301 0.055648507781103813 0 0.21993529817362281 0.068535431127339549 0 0.230920880213695 0.071352362523912499 0 0.22865312994494211 0.06028380591151359 0 0.21993529817362281 0.068535431127339549 0 0.230920880213695 0.071352362523912499 0 0.22197697140556791 0.08096102975187322 0 0.230920880213695 0.071352362523912499 0 0.22197697140556791 0.08096102975187322 0 0.23430353063426809 0.081906090176102869 0 0.230920880213695 0.071352362523912499 0 0.23916693832508479 0.064341690102425145 0 0.22865312994494211 0.06028380591151359 0 0.23374017519627521 0.096036559249233364 0 0.21503399708603521 0.090681290559346109 0 0.22197697140556791 0.08096102975187322 0 0.23374017519627521 0.096036559249233364 0 0.22197697140556791 0.08096102975187322 0 0.23430353063426809 0.081906090176102869 0 0.23374017519627521 0.096036559249233364 0 0.2435180879280722 0.085902203614471567 0 0.25529564938109472 0.094599102952415665 0 0.23374017519627521 0.096036559249233364 0 0.23430353063426809 0.081906090176102869 0 0.2435180879280722 0.085902203614471567 0 0.23430353063426809 0.081906090176102869 0 0.2435180879280722 0.085902203614471567 0 0.24136153842773059 0.075278295741023682 0 0.2435180879280722 0.085902203614471567 0 0.24997250701208401 0.079471354332479371 0 0.24136153842773059 0.075278295741023682 0 0.2435180879280722 0.085902203614471567 0 0.24997250701208401 0.079471354332479371 0 0.25529564938109472 0.094599102952415665 0 0.230920880213695 0.071352362523912499 0 0.23916693832508479 0.064341690102425145 0 0.24136153842773059 0.075278295741023682 0 0.230920880213695 0.071352362523912499 0 0.23430353063426809 0.081906090176102869 0 0.24136153842773059 0.075278295741023682 0 0.24997250701208401 0.079471354332479371 0 0.24136153842773059 0.075278295741023682 0 0.24853635857035189 0.069490596889548964 0 0.23916693832508479 0.064341690102425145 0 0.24136153842773059 0.075278295741023682 0 0.24853635857035189 0.069490596889548964 0 0.23916693832508479 0.064341690102425145 0 0.24853635857035189 0.069490596889548964 0 0.2484312972887181 0.056541775366689723 0 0.23916693832508479 0.064341690102425145 0 0.2484312972887181 0.056541775366689723 0 0.23605136294643711 0.053949284398143123 0 0.23916693832508479 0.064341690102425145 0 0.23605136294643711 0.053949284398143123 0 0.22865312994494211 0.06028380591151359 0 0.2484312972887181 0.056541775366689723 0 0.23571169382426249 0.040996978268444839 0 0.2484312972887181 0.056541775366689723 0 0.23605136294643711 0.053949284398143123 0 0.23571169382426249 0.040996978268444839 0 0.2484312972887181 0.056541775366689723 0 0.24334429870242 0.044267468012004541 0 0.23571169382426249 0.040996978268444839 0 0.24334429870242 0.044267468012004541 0 0.24867026828239761 0.038097702182248623 0 0.25301588290366778 0.043405118851215743 0 0.24334429870242 0.044267468012004541 0 0.24867026828239761 0.038097702182248623 0 0.2418760710959931 0.03715233210639058 0 0.24867026828239761 0.038097702182248623 0 0.2418760710959931 0.03715233210639058 0 0.24510305125085591 0.02993903034939497 0 0.24867026828239761 0.038097702182248623 0 0.24510305125085591 0.02993903034939497 0 0.25392148086072691 0.032220210432752298 0 0.2386437857217637 0.032246454975123351 0 0.23571169382426249 0.040996978268444839 0 0.23186454763489819 0.028994799959233739 0 0.2386437857217637 0.032246454975123351 0 0.2418760710959931 0.03715233210639058 0 0.23571169382426249 0.040996978268444839 0 0.2386437857217637 0.032246454975123351 0 0.2418760710959931 0.03715233210639058 0 0.24510305125085591 0.02993903034939497 0 0.24334429870242 0.044267468012004541 0 0.2418760710959931 0.03715233210639058 0 0.23571169382426249 0.040996978268444839 0 0.23571169382426249 0.040996978268444839 0 0.22495818048063029 0.037015276606808922 0 0.22680446460153789 0.048446967755086959 0 0.23571169382426249 0.040996978268444839 0 0.22495818048063029 0.037015276606808922 0 0.23186454763489819 0.028994799959233739 0 0.22495818048063029 0.037015276606808922 0 0.22680446460153789 0.048446967755086959 0 0.21648852993746789 0.042973163713850453 0 0.22680446460153789 0.048446967755086959 0 0.21688688866815301 0.055648507781103813 0 0.21648852993746789 0.042973163713850453 0 0.21993529817362281 0.068535431127339549 0 0.22865312994494211 0.06028380591151359 0 0.21688688866815301 0.055648507781103813 0 0.22865312994494211 0.06028380591151359 0 0.22680446460153789 0.048446967755086959 0 0.21688688866815301 0.055648507781103813 0 0.23605136294643711 0.053949284398143123 0 0.22865312994494211 0.06028380591151359 0 0.22680446460153789 0.048446967755086959 0 0.23605136294643711 0.053949284398143123 0 0.23571169382426249 0.040996978268444839 0 0.22680446460153789 0.048446967755086959 0 0.23933600806982619 0.0054964392510234864 0 0.23314311228104639 0.0036975179188727548 0 0.2392704882312289 -0.00010989444563926339 0 0.23933600806982619 0.0054964392510234864 0 0.23406951224292319 0.0089949537857843993 0 0.23314311228104639 0.0036975179188727548 0 0.23933600806982619 0.0054964392510234864 0 0.24637522602358761 0.00088169354209314784 0 0.2392704882312289 -0.00010989444563926339 0 0.24637522602358761 0.00088169354209314784 0 0.24528316363166999 0.0095210458368082344 0 0.25040151105958658 0.0055971893843182576 0 0.23933600806982619 0.0054964392510234864 0 0.24637522602358761 0.00088169354209314784 0 0.24528316363166999 0.0095210458368082344 0 0.24528316363166999 0.0095210458368082344 0 0.24017542086569529 0.0143485163351517 0 0.2486024776200059 0.016654203094090929 0 0.24528316363166999 0.0095210458368082344 0 0.25257232655810741 0.01222979089227948 0 0.25040151105958658 0.0055971893843182576 0 0.24528316363166999 0.0095210458368082344 0 0.2486024776200059 0.016654203094090929 0 0.25257232655810741 0.01222979089227948 0 0.23933600806982619 0.0054964392510234864 0 0.24017542086569529 0.0143485163351517 0 0.23406951224292319 0.0089949537857843993 0 0.23933600806982619 0.0054964392510234864 0 0.24528316363166999 0.0095210458368082344 0 0.24017542086569529 0.0143485163351517 0 0.24017542086569529 0.0143485163351517 0 0.23122409762348861 0.017766867855923432 0 0.23406951224292319 0.0089949537857843993 0 0.24017542086569529 0.0143485163351517 0 0.245381215054645 0.022392291388893371 0 0.23866356480280879 0.02414913419215263 0 0.24017542086569529 0.0143485163351517 0 0.23866356480280879 0.02414913419215263 0 0.23122409762348861 0.017766867855923432 0 0.24017542086569529 0.0143485163351517 0 0.2486024776200059 0.016654203094090929 0 0.245381215054645 0.022392291388893371 0 0.2486024776200059 0.016654203094090929 0 0.245381215054645 0.022392291388893371 0 0.25120105678908078 0.02419039512390813 0 0.245381215054645 0.022392291388893371 0 0.24510305125085591 0.02993903034939497 0 0.23866356480280879 0.02414913419215263 0 0.245381215054645 0.022392291388893371 0 0.24510305125085591 0.02993903034939497 0 0.25120105678908078 0.02419039512390813 0 0.2386437857217637 0.032246454975123351 0 0.24510305125085591 0.02993903034939497 0 0.23866356480280879 0.02414913419215263 0 0.2386437857217637 0.032246454975123351 0 0.23866356480280879 0.02414913419215263 0 0.23186454763489819 0.028994799959233739 0 0.22495818048063029 0.037015276606808922 0 0.23186454763489819 0.028994799959233739 0 0.21283109039813189 0.02425731024616223 0 0.23122409762348861 0.017766867855923432 0 0.2273333343533436 0.010140731909935171 0 0.21283109039813189 0.02425731024616223 0 0.23186454763489819 0.028994799959233739 0 0.23122409762348861 0.017766867855923432 0 0.21283109039813189 0.02425731024616223 0 0.23866356480280879 0.02414913419215263 0 0.23186454763489819 0.028994799959233739 0 0.23122409762348861 0.017766867855923432 0 0.21283109039813189 0.02425731024616223 0 0.22705880568139331 -0.0002827260119973446 0 0.2273333343533436 0.010140731909935171 0 0.21283109039813189 0.02425731024616223 0 0.22705880568139331 -0.0002827260119973446 0 0.23122409762348861 0.017766867855923432 0 0.23406951224292319 0.0089949537857843993 0 0.2273333343533436 0.010140731909935171 0 0.23406951224292319 0.0089949537857843993 0 0.2273333343533436 0.010140731909935171 0 0.23130102404551109 0.0061869083650808749 0 0.2273333343533436 0.010140731909935171 0 0.22868127398141611 0.0038284040794943162 0 0.22705880568139331 -0.0002827260119973446 0 0.22868127398141611 0.0038284040794943162 0 0.23314311228104639 0.0036975179188727548 0 0.22705880568139331 -0.0002827260119973446 0 0.23314311228104639 0.0036975179188727548 0 0.2392704882312289 -0.00010989444563926339 0 0.22705880568139331 -0.0002827260119973446 0 0.2273333343533436 0.010140731909935171 0 0.22868127398141611 0.0038284040794943162 0 0.23130102404551109 0.0061869083650808749 0 0.23406951224292319 0.0089949537857843993 0 0.23130102404551109 0.0061869083650808749 0 0.23314311228104639 0.0036975179188727548 0 0.22868127398141611 0.0038284040794943162 0 0.23130102404551109 0.0061869083650808749 0 0.23314311228104639 0.0036975179188727548 0 0.2103161558829155 0.0073366999870678358 0 0.21283109039813189 0.02425731024616223 0 0.19184439553761021 0.015053411376240109 0 0.2103161558829155 0.0073366999870678358 0 0.21702532397159671 -0.0047453557277351852 0 0.22705880568139331 -0.0002827260119973446 0 0.2103161558829155 0.0073366999870678358 0 0.21283109039813189 0.02425731024616223 0 0.22705880568139331 -0.0002827260119973446 0 0.2103161558829155 0.0073366999870678358 0 0.19184439553761021 0.015053411376240109 0 0.20834725607445961 -0.0096561038045452699 0 0.21283109039813189 0.02425731024616223 0 0.19184439553761021 0.015053411376240109 0 0.19478537841085911 0.033540953111228837 0 0.19184439553761021 0.015053411376240109 0 0.20834725607445961 -0.0096561038045452699 0 0.20029290722471929 0.072235816294577634 0 0.20934972094679871 0.064918969632126358 0 0.19988085161225319 0.048489579819193912 0 0.20934972094679871 0.064918969632126358 0 0.21688688866815301 0.055648507781103813 0 0.19988085161225319 0.048489579819193912 0 0.21688688866815301 0.055648507781103813 0 0.21648852993746789 0.042973163713850453 0 0.19988085161225319 0.048489579819193912 0 0.22495818048063029 0.037015276606808922 0 0.21283109039813189 0.02425731024616223 0 0.21648852993746789 0.042973163713850453 0 0.21283109039813189 0.02425731024616223 0 0.19988085161225319 0.048489579819193912 0 0.21283109039813189 0.02425731024616223 0 0.21648852993746789 0.042973163713850453 0 0.19988085161225319 0.048489579819193912 0 0.21283109039813189 0.02425731024616223 0 0.19478537841085911 0.033540953111228837 0 0.19988085161225319 0.048489579819193912 0 0.19478537841085911 0.033540953111228837 0 0.19988085161225319 0.048489579819193912 0 0.1858160245126694 0.048279762214767243 0 0.19988085161225319 0.048489579819193912 0 0.18676215493228099 0.062111763200039243 0 0.1858160245126694 0.048279762214767243 0 0.19988085161225319 0.048489579819193912 0 0.18676215493228099 0.062111763200039243 0 0.18693061282637441 0.072721849392225618 0 0.19988085161225319 0.048489579819193912 0 0.18693061282637441 0.072721849392225618 0 0.18676215493228099 0.062111763200039243 0 0.17231020260719271 0.057493588386348812 0 0.1675036313945803 0.062927163172017658 0 0.17231020260719271 0.057493588386348812 0 0.1858160245126694 0.048279762214767243 0 0.1753415350007608 0.039762926557025423 0 0.18676215493228099 0.062111763200039243 0 0.17231020260719271 0.057493588386348812 0 0.1858160245126694 0.048279762214767243 0 0.19478537841085911 0.033540953111228837 0 0.1858160245126694 0.048279762214767243 0 0.1753415350007608 0.039762926557025423 0 0.1753415350007608 0.039762926557025423 0 0.15954297089196659 0.043569899874733947 0 0.1654269769075091 0.027682140805182581 0 0.15954297089196659 0.043569899874733947 0 0.1654269769075091 0.027682140805182581 0 0.15118678275836961 0.034802967083594628 0 0.1753415350007608 0.039762926557025423 0 0.15954297089196659 0.043569899874733947 0 0.15883867446391151 0.064472441737811012 0 0.1753415350007608 0.039762926557025423 0 0.15883867446391151 0.064472441737811012 0 0.17231020260719271 0.057493588386348812 0 0.1753415350007608 0.039762926557025423 0 0.15883867446391151 0.064472441737811012 0 0.17231020260719271 0.057493588386348812 0 0.1675036313945803 0.062927163172017658 0 0.15883867446391151 0.064472441737811012 0 0.19184439553761021 0.015053411376240109 0 0.1719670311559959 0.01089304653873178 0 0.17726970188525989 -0.0068487750443640347 0 0.19184439553761021 0.015053411376240109 0 0.1753415350007608 0.039762926557025423 0 0.1654269769075091 0.027682140805182581 0 0.19184439553761021 0.015053411376240109 0 0.19478537841085911 0.033540953111228837 0 0.1753415350007608 0.039762926557025423 0 0.19184439553761021 0.015053411376240109 0 0.1719670311559959 0.01089304653873178 0 0.1654269769075091 0.027682140805182581 0 0.19184439553761021 0.015053411376240109 0 0.1753415350007608 0.039762926557025423 0 0.1654269769075091 0.027682140805182581 0 0.15301395976207741 0.018186833968981419 0 0.15118678275836961 0.034802967083594628 0 0.1719670311559959 0.01089304653873178 0 0.1654269769075091 0.027682140805182581 0 0.15301395976207741 0.018186833968981419 0 0.1719670311559959 0.01089304653873178 0 0.15661445415562739 0.0050079149201050811 0 0.17726970188525989 -0.0068487750443640347 0 0.1719670311559959 0.01089304653873178 0 0.15661445415562739 0.0050079149201050811 0 0.15301395976207741 0.018186833968981419 0 0.15661445415562739 0.0050079149201050811 0 0.14348211511946171 0.0012410676157907699 0 0.15301395976207741 0.018186833968981419 0 0.14348211511946171 0.0012410676157907699 0 0.15301395976207741 0.018186833968981419 0 0.13585548493164859 0.01378859463764644 0 0.15301395976207741 0.018186833968981419 0 0.14051510604770159 0.026078140703210819 0 0.13585548493164859 0.01378859463764644 0 0.15301395976207741 0.018186833968981419 0 0.14051510604770159 0.026078140703210819 0 0.15118678275836961 0.034802967083594628 0 0.14051510604770159 0.026078140703210819 0 0.12751620659176091 0.025826703183530381 0 0.13500309619465189 0.03778560464230124 0 0.12088129531688289 0.012709603339681101 0 0.12751620659176091 0.025826703183530381 0 0.13585548493164859 0.01378859463764644 0 0.14051510604770159 0.026078140703210819 0 0.12751620659176091 0.025826703183530381 0 0.13585548493164859 0.01378859463764644 0 0.12088129531688289 0.012709603339681101 0 0.13585548493164859 0.01378859463764644 0 0.12922997235240771 -5.3501747736912381e-05 0 0.14348211511946171 0.0012410676157907699 0 0.13585548493164859 0.01378859463764644 0 0.12922997235240771 -5.3501747736912381e-05 0 0.15954297089196659 0.043569899874733947 0 0.14692088532928169 0.051129023190056119 0 0.15883867446391151 0.064472441737811012 0 0.14692088532928169 0.051129023190056119 0 0.14566322325498049 0.061168839478874061 0 0.13344762510774619 0.051271410320192667 0 0.14692088532928169 0.051129023190056119 0 0.15883867446391151 0.064472441737811012 0 0.14692088532928169 0.051129023190056119 0 0.14566322325498049 0.061168839478874061 0 0.15883867446391151 0.064472441737811012 0 0.15954297089196659 0.043569899874733947 0 0.14692088532928169 0.051129023190056119 0 0.15118678275836961 0.034802967083594628 0 0.14051510604770159 0.026078140703210819 0 0.15118678275836961 0.034802967083594628 0 0.13500309619465189 0.03778560464230124 0 0.14692088532928169 0.051129023190056119 0 0.15118678275836961 0.034802967083594628 0 0.13500309619465189 0.03778560464230124 0 0.14692088532928169 0.051129023190056119 0 0.13500309619465189 0.03778560464230124 0 0.14692088532928169 0.051129023190056119 0 0.13500309619465189 0.03778560464230124 0 0.13344762510774619 0.051271410320192667 0 0.12751620659176091 0.025826703183530381 0 0.13500309619465189 0.03778560464230124 0 0.1258008839210312 0.043025047632520373 0 0.13500309619465189 0.03778560464230124 0 0.1258008839210312 0.043025047632520373 0 0.13344762510774619 0.051271410320192667 0 0.1258008839210312 0.043025047632520373 0 0.1266502062043493 0.050016126068568693 0 0.13344762510774619 0.051271410320192667 0 0.1249177574830235 0.05549570725843421 0 0.1266502062043493 0.050016126068568693 0 0.13344762510774619 0.051271410320192667 0 0.14566322325498049 0.061168839478874061 0 0.13344762510774619 0.051271410320192667 0 0.1366878347571408 0.064889925834685031 0 0.1249177574830235 0.05549570725843421 0 0.13344762510774619 0.051271410320192667 0 0.12761142098842679 0.062883107952959913 0 0.13344762510774619 0.051271410320192667 0 0.12761142098842679 0.062883107952959913 0 0.1366878347571408 0.064889925834685031 0 0.12180579377833931 0.068327597193629963 0 0.12761142098842679 0.062883107952959913 0 0.1319436907845648 0.07171962319022121 0 0.1319436907845648 0.07171962319022121 0 0.15242109661682179 0.074081396311624553 0 0.12584004892598549 0.083346264786505142 0 0.12761142098842679 0.062883107952959913 0 0.1319436907845648 0.07171962319022121 0 0.1366878347571408 0.064889925834685031 0 0.1319436907845648 0.07171962319022121 0 0.1366878347571408 0.064889925834685031 0 0.15242109661682179 0.074081396311624553 0 0.12180579377833931 0.068327597193629963 0 0.1319436907845648 0.07171962319022121 0 0.12584004892598549 0.083346264786505142 0 0.14566322325498049 0.061168839478874061 0 0.1366878347571408 0.064889925834685031 0 0.15242109661682179 0.074081396311624553 0 0.15242109661682179 0.074081396311624553 0 0.15883867446391151 0.064472441737811012 0 0.14566322325498049 0.061168839478874061 0 0.15242109661682179 0.074081396311624553 0 0.15883867446391151 0.064472441737811012 0 0.15242109661682179 0.074081396311624553 0 0.1375060329142595 0.096413524257436184 0 0.15242109661682179 0.074081396311624553 0 0.14941567846638071 0.096122468252711576 0 0.1595062789984957 0.092948799018424247 0 0.15242109661682179 0.074081396311624553 0 0.1375060329142595 0.096413524257436184 0 0.14941567846638071 0.096122468252711576 0 0.15242109661682179 0.074081396311624553 0 0.12584004892598549 0.083346264786505142 0 0.1375060329142595 0.096413524257436184 0 0.15242109661682179 0.074081396311624553 0 0.12584004892598549 0.083346264786505142 0 0.12584004892598549 0.083346264786505142 0 0.1375060329142595 0.096413524257436184 0 0.1249273330255416 0.097107323540065654 0 0.12584004892598549 0.083346264786505142 0 0.1375060329142595 0.096413524257436184 0 0.1249273330255416 0.097107323540065654 0 0.1358719056864727 0.1035636032000217 0 0.1375060329142595 0.096413524257436184 0 0.1249273330255416 0.097107323540065654 0 0.1358719056864727 0.1035636032000217 0 0.12701285124311409 0.1116124001057755 0 0.1358719056864727 0.1035636032000217 0 0.1375060329142595 0.096413524257436184 0 0.1441234072924551 0.1037665320414502 0 0.14372122090049971 0.12588672211296939 0 0.12701285124311409 0.1116124001057755 0 0.1433973288586021 0.1136648946458889 0 0.1358719056864727 0.1035636032000217 0 0.12701285124311409 0.1116124001057755 0 0.1433973288586021 0.1136648946458889 0 0.14372122090049971 0.12588672211296939 0 0.12701285124311409 0.1116124001057755 0 0.11810951173179079 0.13588416397747449 0 0.14372122090049971 0.12588672211296939 0 0.12701285124311409 0.1116124001057755 0 0.14372122090049971 0.12588672211296939 0 0.16291101993369231 0.1183960506016624 0 0.1433973288586021 0.1136648946458889 0 0.1524062389220833 0.1068105306951269 0 0.16291101993369231 0.1183960506016624 0 0.14372122090049971 0.12588672211296939 0 0.1433973288586021 0.1136648946458889 0 0.16291101993369231 0.1183960506016624 0 0.1375060329142595 0.096413524257436184 0 0.14246268920954669 0.098494280298727629 0 0.14941567846638071 0.096122468252711576 0 0.14246268920954669 0.098494280298727629 0 0.1441234072924551 0.1037665320414502 0 0.14941567846638071 0.096122468252711576 0 0.1375060329142595 0.096413524257436184 0 0.14246268920954669 0.098494280298727629 0 0.1441234072924551 0.1037665320414502 0 0.1358719056864727 0.1035636032000217 0 0.1433973288586021 0.1136648946458889 0 0.1441234072924551 0.1037665320414502 0 0.1433973288586021 0.1136648946458889 0 0.1441234072924551 0.1037665320414502 0 0.1524062389220833 0.1068105306951269 0 0.1441234072924551 0.1037665320414502 0 0.1524062389220833 0.1068105306951269 0 0.14941567846638071 0.096122468252711576 0 0.1524062389220833 0.1068105306951269 0 0.1558869152055212 0.1000553164056758 0 0.14941567846638071 0.096122468252711576 0 0.1558869152055212 0.1000553164056758 0 0.14941567846638071 0.096122468252711576 0 0.1595062789984957 0.092948799018424247 0 0.1558869152055212 0.1000553164056758 0 0.16221946443512489 0.10433946765644039 0 0.1595062789984957 0.092948799018424247 0 0.1524062389220833 0.1068105306951269 0 0.1558869152055212 0.1000553164056758 0 0.16221946443512489 0.10433946765644039 0 0.16221946443512489 0.10433946765644039 0 0.17336035622592341 0.097216897606311276 0 0.1595062789984957 0.092948799018424247 0 0.16221946443512489 0.10433946765644039 0 0.16291101993369231 0.1183960506016624 0 0.18210081896688529 0.1109053790903563 0 0.1524062389220833 0.1068105306951269 0 0.16221946443512489 0.10433946765644039 0 0.16291101993369231 0.1183960506016624 0 0.17667357051540469 0.12532751281523449 0 0.16291101993369231 0.1183960506016624 0 0.18210081896688529 0.1109053790903563 0 0.16291101993369231 0.1183960506016624 0 0.18210081896688529 0.1109053790903563 0 0.17667357051540469 0.12532751281523449 0 0.18210081896688529 0.1109053790903563 0 0.1868142606579751 0.1214397756045083 0 0.1908354384815433 0.10029672169762451 0 0.17336035622592341 0.097216897606311276 0 0.17734769177342791 0.085195544158785899 0 0.16221946443512489 0.10433946765644039 0 0.18210081896688529 0.1109053790903563 0 0.17336035622592341 0.097216897606311276 0 0.1908354384815433 0.10029672169762451 0 0.18210081896688529 0.1109053790903563 0 0.17336035622592341 0.097216897606311276 0 0.1908354384815433 0.10029672169762451 0 0.19093292052318869 0.085159824320032579 0 0.17734769177342791 0.085195544158785899 0 0.1908354384815433 0.10029672169762451 0 0.17734769177342791 0.085195544158785899 0 0.17336035622592341 0.097216897606311276 0 0.17734769177342791 0.085195544158785899 0 0.1686179546071678 0.089437089202131323 0 0.19093292052318869 0.085159824320032579 0 0.17734769177342791 0.085195544158785899 0 0.18693061282637441 0.072721849392225618 0 0.18676215493228099 0.062111763200039243 0 0.16385994506531301 0.070094366619946807 0 0.17734769177342791 0.085195544158785899 0 0.18693061282637441 0.072721849392225618 0 0.17770282105195331 0.072832647959761646 0 0.18676215493228099 0.062111763200039243 0 0.17770282105195331 0.072832647959761646 0 0.16385994506531301 0.070094366619946807 0 0.18676215493228099 0.062111763200039243 0 0.1675036313945803 0.062927163172017658 0 0.16385994506531301 0.070094366619946807 0 0.18676215493228099 0.062111763200039243 0 0.18693061282637441 0.072721849392225618 0 0.17770282105195331 0.072832647959761646 0 0.17734769177342791 0.085195544158785899 0 0.17770282105195331 0.072832647959761646 0 0.16385994506531301 0.070094366619946807 0 0.17734769177342791 0.085195544158785899 0 0.16385994506531301 0.070094366619946807 0 0.15242109661682179 0.074081396311624553 0 0.16385994506531301 0.070094366619946807 0 0.15883867446391151 0.064472441737811012 0 0.1675036313945803 0.062927163172017658 0 0.16385994506531301 0.070094366619946807 0 0.15883867446391151 0.064472441737811012 0 0.16385994506531301 0.070094366619946807 0 0.15883867446391151 0.064472441737811012 0 0.15242109661682179 0.074081396311624553 0 0.16385994506531301 0.070094366619946807 0 0.15242109661682179 0.074081396311624553 0 0.16385994506531301 0.070094366619946807 0 0.16425749143082441 0.08238711602500387 0 0.15242109661682179 0.074081396311624553 0 0.1595062789984957 0.092948799018424247 0 0.16425749143082441 0.08238711602500387 0 0.1595062789984957 0.092948799018424247 0 0.1686179546071678 0.089437089202131323 0 0.16425749143082441 0.08238711602500387 0 0.17336035622592341 0.097216897606311276 0 0.1595062789984957 0.092948799018424247 0 0.1686179546071678 0.089437089202131323 0 0.17734769177342791 0.085195544158785899 0 0.1686179546071678 0.089437089202131323 0 0.16425749143082441 0.08238711602500387 0 0.17734769177342791 0.085195544158785899 0 0.16385994506531301 0.070094366619946807 0 0.16425749143082441 0.08238711602500387 0 0.10090677831013529 0.47396124206401807 0 0.1153671493593045 0.5 0 0.089262812041459694 0.5 0 0.10090677831013529 0.47396124206401807 0 0.1153671493593045 0.5 0 0.12855994965836309 0.47453026711805119 0 0.1156484126395653 0.44906053423611908 0 0.12855994965836309 0.47453026711805119 0 0.12405882547213599 0.46239727108338857 0 0.1156484126395653 0.44906053423611908 0 0.12855994965836309 0.47453026711805119 0 0.10090677831013529 0.47396124206401807 0 0.1156484126395653 0.44906053423611908 0 0.12855994965836309 0.47453026711805119 0 0.12405882547213599 0.46239727108338857 0 0.12340305628634129 0.44865160551396183 0 0.1156484126395653 0.44906053423611908 0 0.12405882547213599 0.46239727108338857 0 0.12340305628634129 0.44865160551396183 0 0.12340305628634129 0.44865160551396183 0 0.1156484126395653 0.44906053423611908 0 0.1156484126395653 0.44906053423611908 0 0.1079882904580899 0.4339499191698068 0 0.12340305628634129 0.44865160551396183 0 0.1156484126395653 0.44906053423611908 0 0.1079882904580899 0.4339499191698068 0 0.1156484126395653 0.44906053423611908 0 0.095502513628318075 0.45012289597898841 0 0.095502513628318075 0.45012289597898841 0 0.090696542343839323 0.4332188320218881 0 0.1079882904580899 0.4339499191698068 0 0.1156484126395653 0.44906053423611908 0 0.095502513628318075 0.45012289597898841 0 0.1079882904580899 0.4339499191698068 0 0.10090677831013529 0.47396124206401807 0 0.1156484126395653 0.44906053423611908 0 0.095502513628318075 0.45012289597898841 0 0.095502513628318075 0.45012289597898841 0 0.083550989247282187 0.46400502344394012 0 0.075356614617069856 0.45118525772183837 0 0.10090677831013529 0.47396124206401807 0 0.095502513628318075 0.45012289597898841 0 0.083550989247282187 0.46400502344394012 0 0.075356614617069856 0.45118525772183837 0 0.07358917128373095 0.43059644824442639 0 0.090696542343839323 0.4332188320218881 0 0.095502513628318075 0.45012289597898841 0 0.075356614617069856 0.45118525772183837 0 0.095502513628318075 0.45012289597898841 0 0.075356614617069856 0.45118525772183837 0 0.090696542343839323 0.4332188320218881 0 0.075356614617069856 0.45118525772183837 0 0.055210715605821727 0.45224761946468972 0 0.055210715605821727 0.45224761946468972 0 0.060905729865506297 0.43526499716228578 0 0.07358917128373095 0.43059644824442639 0 0.075356614617069856 0.45118525772183837 0 0.055210715605821727 0.45224761946468972 0 0.07358917128373095 0.43059644824442639 0 0.055210715605821727 0.45224761946468972 0 0.07358917128373095 0.43059644824442639 0 0.075356614617069856 0.45118525772183837 0 0.06501438287240599 0.46595144409407568 0 0.055210715605821727 0.45224761946468972 0 0.083550989247282187 0.46400502344394012 0 0.075356614617069856 0.45118525772183837 0 0.06501438287240599 0.46595144409407568 0 0.06501438287240599 0.46595144409407568 0 0.07593658638481221 0.48121566998128401 0 0.053556943630409623 0.48275359675431773 0 0.083550989247282187 0.46400502344394012 0 0.06501438287240599 0.46595144409407568 0 0.07593658638481221 0.48121566998128401 0 0.10090677831013529 0.47396124206401807 0 0.083550989247282187 0.46400502344394012 0 0.07593658638481221 0.48121566998128401 0 0.10090677831013529 0.47396124206401807 0 0.07593658638481221 0.48121566998128401 0 0.089262812041459694 0.5 0 0.07593658638481221 0.48121566998128401 0 0.063158474723614855 0.49999999999999928 0 0.053556943630409623 0.48275359675431773 0 0.07593658638481221 0.48121566998128401 0 0.089262812041459694 0.5 0 0.063158474723614855 0.49999999999999928 0 0.063158474723614855 0.49999999999999928 0 0.053556943630409623 0.48275359675431773 0 0.063158474723614855 0.49999999999999928 0 0.053556943630409623 0.48275359675431773 0 0.038917446559810998 0.5 0 0.053556943630409623 0.48275359675431773 0 0.043955412537204627 0.46550719350863579 0 0.06501438287240599 0.46595144409407568 0 0.053556943630409623 0.48275359675431773 0 0.043955412537204627 0.46550719350863579 0 0.053556943630409623 0.48275359675431773 0 0.02931591546660571 0.48275359675431728 0 0.043955412537204627 0.46550719350863579 0 0.02931591546660571 0.48275359675431728 0 0.02747393357445652 0.46540105463618359 0 0.043955412537204627 0.46550719350863579 0 0.02931591546660571 0.48275359675431728 0 0.043955412537204627 0.46550719350863579 0 0.053556943630409623 0.48275359675431773 0 0.038917446559810998 0.5 0 0.02931591546660571 0.48275359675431728 0 0.02931591546660571 0.48275359675431728 0 0.0046621640647640889 0.48184508255685682 0 0.01467641839600708 0.49999999999999911 0 0.038917446559810998 0.5 0 0.02931591546660571 0.48275359675431728 0 0.01467641839600708 0.49999999999999911 0 0.02931591546660571 0.48275359675431728 0 0.01467641839600708 0.49999999999999911 0 0.02931591546660571 0.48275359675431728 0 0.014824891689527281 0.46950760841689421 0 0.02747393357445652 0.46540105463618359 0 0.02931591546660571 0.48275359675431728 0 0.014824891689527281 0.46950760841689421 0 0.0046621640647640889 0.48184508255685682 0 0.014824891689527281 0.46950760841689421 0 0.00059582523221500473 0.46885726438604503 0 0.0046621640647640889 0.48184508255685682 0 -0.014123589070291881 0.5 0 0.0046621640647640889 0.48184508255685682 0 0.01467641839600708 0.49999999999999911 0 0.0076432397605931939 0.45926555053949708 0 0.0005873961479486412 0.43552606736253252 0 0.01167979775462639 0.44072570674147798 0 0.0076432397605931939 0.45926555053949708 0 0.0005873961479486412 0.43552606736253252 0 -0.0047806556464353436 0.45680287412294562 0 0.0076432397605931939 0.45926555053949708 0 0.0005873961479486412 0.43552606736253252 0 0.01167979775462639 0.44072570674147798 0 0.0076432397605931939 0.45926555053949708 0 0.020509971661344779 0.45481417686958958 0 0.01167979775462639 0.44072570674147798 0 0.0005873961479486412 0.43552606736253252 0 0.014824891689527281 0.46950760841689421 0 0.00059582523221500473 0.46885726438604503 0 0.0076432397605931939 0.45926555053949708 0 -0.0047806556464353436 0.45680287412294562 0 0.00059582523221500473 0.46885726438604503 0 0.0076432397605931939 0.45926555053949708 0 0.014824891689527281 0.46950760841689421 0 0.0076432397605931939 0.45926555053949708 0 0.020509971661344779 0.45481417686958958 0 0.020509971661344779 0.45481417686958958 0 0.02747393357445652 0.46540105463618359 0 0.036184136702255648 0.451548320128766 0 0.014824891689527281 0.46950760841689421 0 0.020509971661344779 0.45481417686958958 0 0.02747393357445652 0.46540105463618359 0 0.020509971661344779 0.45481417686958958 0 0.025775371996116191 0.44072476877185368 0 0.036184136702255648 0.451548320128766 0 0.01167979775462639 0.44072570674147798 0 0.020509971661344779 0.45481417686958958 0 0.025775371996116191 0.44072476877185368 0 0.01167979775462639 0.44072570674147798 0 0.025775371996116191 0.44072476877185368 0 0.01971022130605999 0.43334641691082959 0 0.025775371996116191 0.44072476877185368 0 0.036184136702255648 0.451548320128766 0 0.037251354377538327 0.43664192693745241 0 0.036184136702255648 0.451548320128766 0 0.044475641269311111 0.44657504188020108 0 0.050904405669528752 0.45247470582735799 0 0.044475641269311111 0.44657504188020108 0 0.048502207038677483 0.44063320512140269 0 0.037251354377538327 0.43664192693745241 0 0.036184136702255648 0.451548320128766 0 0.044475641269311111 0.44657504188020108 0 0.037251354377538327 0.43664192693745241 0 0.02747393357445652 0.46540105463618359 0 0.036184136702255648 0.451548320128766 0 0.043955412537204627 0.46550719350863579 0 0.036184136702255648 0.451548320128766 0 0.043955412537204627 0.46550719350863579 0 0.050904405669528752 0.45247470582735799 0 0.036184136702255648 0.451548320128766 0 0.043955412537204627 0.46550719350863579 0 0.06501438287240599 0.46595144409407568 0 0.043955412537204627 0.46550719350863579 0 0.055210715605821727 0.45224761946468972 0 0.043955412537204627 0.46550719350863579 0 0.055210715605821727 0.45224761946468972 0 0.043955412537204627 0.46550719350863579 0 0.050904405669528752 0.45247470582735799 0 0.055210715605821727 0.45224761946468972 0 0.05199973988976922 0.44543911389118762 0 0.055210715605821727 0.45224761946468972 0 0.060905729865506297 0.43526499716228578 0 0.048502207038677483 0.44063320512140269 0 0.05199973988976922 0.44543911389118762 0 0.060905729865506297 0.43526499716228578 0 0.044475641269311111 0.44657504188020108 0 0.048502207038677483 0.44063320512140269 0 0.05199973988976922 0.44543911389118762 0 0.044475641269311111 0.44657504188020108 0 0.050904405669528752 0.45247470582735799 0 0.05199973988976922 0.44543911389118762 0 0.050904405669528752 0.45247470582735799 0 0.05199973988976922 0.44543911389118762 0 0.055210715605821727 0.45224761946468972 0 0.050904405669528752 0.45247470582735799 0 0.055210715605821727 0.45224761946468972 0 0.048502207038677483 0.44063320512140269 0 0.060905729865506297 0.43526499716228578 0 0.05277176752176313 0.42447130957191259 0 0.048502207038677483 0.44063320512140269 0 0.05277176752176313 0.42447130957191259 0 0.060905729865506297 0.43526499716228578 0 0.05277176752176313 0.42447130957191259 0 0.064892116418216891 0.42152298311342551 0 0.05277176752176313 0.42447130957191259 0 0.057041328004849123 0.4083094140224226 0 0.05277176752176313 0.42447130957191259 0 0.057041328004849123 0.4083094140224226 0 0.064892116418216891 0.42152298311342551 0 0.05277176752176313 0.42447130957191259 0 0.057041328004849123 0.4083094140224226 0 0.038794419195633978 0.41889820720317672 0 0.057041328004849123 0.4083094140224226 0 0.038794419195633978 0.41889820720317672 0 0.035258508208116407 0.40301055883513298 0 0.038794419195633978 0.41889820720317672 0 0.02278982783698107 0.4137292580393977 0 0.035258508208116407 0.40301055883513298 0 0.038794419195633978 0.41889820720317672 0 0.037251354377538327 0.43664192693745241 0 0.027653729224555879 0.42722677581274171 0 0.048502207038677483 0.44063320512140269 0 0.05277176752176313 0.42447130957191259 0 0.037251354377538327 0.43664192693745241 0 0.05277176752176313 0.42447130957191259 0 0.038794419195633978 0.41889820720317672 0 0.037251354377538327 0.43664192693745241 0 0.025775371996116191 0.44072476877185368 0 0.01971022130605999 0.43334641691082959 0 0.027653729224555879 0.42722677581274171 0 0.025775371996116191 0.44072476877185368 0 0.037251354377538327 0.43664192693745241 0 0.027653729224555879 0.42722677581274171 0 0.01971022130605999 0.43334641691082959 0 0.027653729224555879 0.42722677581274171 0 0.01373198624894152 0.42470841631724549 0 0.027653729224555879 0.42722677581274171 0 0.02278982783698107 0.4137292580393977 0 0.01373198624894152 0.42470841631724549 0 0.038794419195633978 0.41889820720317672 0 0.027653729224555879 0.42722677581274171 0 0.02278982783698107 0.4137292580393977 0 0.02278982783698107 0.4137292580393977 0 0.0072246537696774018 0.41418193126651931 0 0.01373198624894152 0.42470841631724549 0 0.02278982783698107 0.4137292580393977 0 0.0072246537696774018 0.41418193126651931 0 0.01347568841138377 0.39771170364784342 0 -0.0061382403918613694 0.41289757043764957 0 0.0072246537696774018 0.41418193126651931 0 0.0005873961479486412 0.43552606736253252 0 -0.0061382403918613694 0.41289757043764957 0 0.0072246537696774018 0.41418193126651931 0 0.001215528843426622 0.40337136132503182 0 0.0072246537696774018 0.41418193126651931 0 0.0005873961479486412 0.43552606736253252 0 0.01373198624894152 0.42470841631724549 0 0.01167979775462639 0.44072570674147798 0 0.0005873961479486412 0.43552606736253252 0 0.01373198624894152 0.42470841631724549 0 0.01167979775462639 0.44072570674147798 0 0.01971022130605999 0.43334641691082959 0 0.01373198624894152 0.42470841631724549 0 0.0080458256180299444 0.38398964513224421 0 0.01347568841138377 0.39771170364784342 0 0.020337302895407999 0.37686122882940742 0 0.0080458256180299444 0.38398964513224421 0 0.020337302895407999 0.37686122882940742 0 0.007685617129557662 0.37466701237684458 0 -0.0015244919297118539 0.37331443520947022 0 0.00019967971850866269 0.38057760276491942 0 0.007685617129557662 0.37466701237684458 0 0.0080458256180299444 0.38398964513224421 0 0.00019967971850866269 0.38057760276491942 0 0.007685617129557662 0.37466701237684458 0 -0.00024727968021932432 0.38779626046928811 0 0.0080458256180299444 0.38398964513224421 0 0.01347568841138377 0.39771170364784342 0 -0.00024727968021932432 0.38779626046928811 0 0.0080458256180299444 0.38398964513224421 0 0.00019967971850866269 0.38057760276491942 0 -0.0083071313853489009 0.39241284846055369 0 0.01347568841138377 0.39771170364784342 0 -0.0083071313853489009 0.39241284846055369 0 -0.00024727968021932432 0.38779626046928811 0 0.01347568841138377 0.39771170364784342 0 0.0072246537696774018 0.41418193126651931 0 0.001215528843426622 0.40337136132503182 0 0.01347568841138377 0.39771170364784342 0 -0.0083071313853489009 0.39241284846055369 0 0.001215528843426622 0.40337136132503182 0 0.01347568841138377 0.39771170364784342 0 0.01347568841138377 0.39771170364784342 0 0.034560050200877962 0.38606514813881998 0 0.035258508208116407 0.40301055883513298 0 0.02278982783698107 0.4137292580393977 0 0.01347568841138377 0.39771170364784342 0 0.035258508208116407 0.40301055883513298 0 0.01347568841138377 0.39771170364784342 0 0.035258508208116407 0.40301055883513298 0 0.020337302895407999 0.37686122882940742 0 0.034560050200877962 0.38606514813881998 0 0.037907173216347692 0.36900247462334379 0 0.01347568841138377 0.39771170364784342 0 0.020337302895407999 0.37686122882940742 0 0.034560050200877962 0.38606514813881998 0 0.034560050200877962 0.38606514813881998 0 0.048828330243463773 0.37812345183287871 0 0.037907173216347692 0.36900247462334379 0 0.034560050200877962 0.38606514813881998 0 0.048319891012507922 0.39154096310822412 0 0.048828330243463773 0.37812345183287871 0 0.057041328004849123 0.4083094140224226 0 0.035258508208116407 0.40301055883513298 0 0.057041328004849123 0.4083094140224226 0 0.035258508208116407 0.40301055883513298 0 0.048319891012507922 0.39154096310822412 0 0.034560050200877962 0.38606514813881998 0 0.035258508208116407 0.40301055883513298 0 0.048319891012507922 0.39154096310822412 0 0.057041328004849123 0.4083094140224226 0 0.063541766686075932 0.38370280371485971 0 0.057041328004849123 0.4083094140224226 0 0.048319891012507922 0.39154096310822412 0 0.063541766686075932 0.38370280371485971 0 0.048828330243463773 0.37812345183287871 0 0.063541766686075932 0.38370280371485971 0 0.055073826663196553 0.36331899158513248 0 0.048319891012507922 0.39154096310822412 0 0.048828330243463773 0.37812345183287871 0 0.063541766686075932 0.38370280371485971 0 0.063541766686075932 0.38370280371485971 0 0.085258021138960249 0.38911142418271433 0 0.077650113253140335 0.37410380879500532 0 0.085258021138960249 0.38911142418271433 0 0.077650113253140335 0.37410380879500532 0 0.085258021138960249 0.38911142418271433 0 0.080617459112047027 0.37168121104414309 0 0.077650113253140335 0.37410380879500532 0 0.085258021138960249 0.38911142418271433 0 0.1005101862344529 0.37753196838393888 0 0.080617459112047027 0.37168121104414309 0 0.085258021138960249 0.38911142418271433 0 0.1005101862344529 0.37753196838393888 0 0.085258021138960249 0.38911142418271433 0 0.092793094707783477 0.40397536414310631 0 0.081010135534107852 0.40235069094083292 0 0.085258021138960249 0.38911142418271433 0 0.092793094707783477 0.40397536414310631 0 0.085258021138960249 0.38911142418271433 0 0.092793094707783477 0.40397536414310631 0 0.0990848277097333 0.39212355852996039 0 0.081010135534107852 0.40235069094083292 0 0.067304678148959227 0.40274161637455169 0 0.078684748140729288 0.4135743590629587 0 0.085258021138960249 0.38911142418271433 0 0.081010135534107852 0.40235069094083292 0 0.067304678148959227 0.40274161637455169 0 0.063541766686075932 0.38370280371485971 0 0.085258021138960249 0.38911142418271433 0 0.067304678148959227 0.40274161637455169 0 0.085258021138960249 0.38911142418271433 0 0.067304678148959227 0.40274161637455169 0 0.057041328004849123 0.4083094140224226 0 0.063541766686075932 0.38370280371485971 0 0.067304678148959227 0.40274161637455169 0 0.057041328004849123 0.4083094140224226 0 0.078684748140729288 0.4135743590629587 0 0.057041328004849123 0.4083094140224226 0 0.064892116418216891 0.42152298311342551 0 0.078684748140729288 0.4135743590629587 0 0.057041328004849123 0.4083094140224226 0 0.067304678148959227 0.40274161637455169 0 0.078684748140729288 0.4135743590629587 0 0.064892116418216891 0.42152298311342551 0 0.07358917128373095 0.43059644824442639 0 0.078684748140729288 0.4135743590629587 0 0.060905729865506297 0.43526499716228578 0 0.064892116418216891 0.42152298311342551 0 0.07358917128373095 0.43059644824442639 0 0.07358917128373095 0.43059644824442639 0 0.090696542343839323 0.4332188320218881 0 0.078684748140729288 0.4135743590629587 0 0.090696542343839323 0.4332188320218881 0 0.078684748140729288 0.4135743590629587 0 0.1003281682766089 0.41883930410349712 0 0.092793094707783477 0.40397536414310631 0 0.078684748140729288 0.4135743590629587 0 0.1003281682766089 0.41883930410349712 0 0.078684748140729288 0.4135743590629587 0 0.1003281682766089 0.41883930410349712 0 0.092793094707783477 0.40397536414310631 0 0.081010135534107852 0.40235069094083292 0 0.078684748140729288 0.4135743590629587 0 0.092793094707783477 0.40397536414310631 0 0.1003281682766089 0.41883930410349712 0 0.092793094707783477 0.40397536414310631 0 0.1003281682766089 0.41883930410349712 0 0.11040882011405991 0.41257101229574861 0 0.090696542343839323 0.4332188320218881 0 0.1003281682766089 0.41883930410349712 0 0.1079882904580899 0.4339499191698068 0 0.1003281682766089 0.41883930410349712 0 0.1079882904580899 0.4339499191698068 0 0.12340305628634129 0.44865160551396183 0 0.1222350243603849 0.42416833216689281 0 0.1003281682766089 0.41883930410349712 0 0.1079882904580899 0.4339499191698068 0 0.1222350243603849 0.42416833216689281 0 0.12340305628634129 0.44865160551396183 0 0.1079882904580899 0.4339499191698068 0 0.1222350243603849 0.42416833216689281 0 0.1003281682766089 0.41883930410349712 0 0.1222350243603849 0.42416833216689281 0 0.1222350243603849 0.42416833216689281 0 0.1214770794270391 0.40828094709395069 0 0.1222350243603849 0.42416833216689281 0 0.11040882011405991 0.41257101229574861 0 0.1214770794270391 0.40828094709395069 0 0.1003281682766089 0.41883930410349712 0 0.1222350243603849 0.42416833216689281 0 0.11040882011405991 0.41257101229574861 0 0.11040882011405991 0.41257101229574861 0 0.1214770794270391 0.40828094709395069 0 0.10812283685477631 0.40118821912777342 0 0.1214770794270391 0.40828094709395069 0 0.12071913449369449 0.39239356202100839 0 0.1214770794270391 0.40828094709395069 0 0.12071913449369449 0.39239356202100839 0 0.10812283685477631 0.40118821912777342 0 0.12071913449369449 0.39239356202100839 0 0.11932853697928229 0.36324506162077169 0 0.13279498662191061 0.37598326688028688 0 0.12071913449369449 0.39239356202100839 0 0.11932853697928229 0.36324506162077169 0 0.12071913449369449 0.39239356202100839 0 0.1005101862344529 0.37753196838393888 0 0.11932853697928229 0.36324506162077169 0 0.12071913449369449 0.39239356202100839 0 0.1005101862344529 0.37753196838393888 0 0.12071913449369449 0.39239356202100839 0 0.1005101862344529 0.37753196838393888 0 0.0990848277097333 0.39212355852996039 0 0.085258021138960249 0.38911142418271433 0 0.1005101862344529 0.37753196838393888 0 0.0990848277097333 0.39212355852996039 0 0.12071913449369449 0.39239356202100839 0 0.0990848277097333 0.39212355852996039 0 0.10812283685477631 0.40118821912777342 0 0.092793094707783477 0.40397536414310631 0 0.11040882011405991 0.41257101229574861 0 0.10812283685477631 0.40118821912777342 0 0.092793094707783477 0.40397536414310631 0 0.0990848277097333 0.39212355852996039 0 0.10812283685477631 0.40118821912777342 0 0.096342679094394354 0.34997657253365938 0 0.1061945545233992 0.35973752512303081 0 0.1094255375479565 0.35081600276556119 0 0.096342679094394354 0.34997657253365938 0 0.1094255375479565 0.35081600276556119 0 0.1038940537457453 0.34195889752981629 0 0.1094255375479565 0.35081600276556119 0 0.1119983417695697 0.34270511573786822 0 0.1038940537457453 0.34195889752981629 0 0.096342679094394354 0.34997657253365938 0 0.1038940537457453 0.34195889752981629 0 0.096237057951567131 0.33954789688919818 0 0.096342679094394354 0.34997657253365938 0 0.1061945545233992 0.35973752512303081 0 0.093231292549801864 0.3603339369558699 0 0.1005101862344529 0.37753196838393888 0 0.1061945545233992 0.35973752512303081 0 0.11932853697928229 0.36324506162077169 0 0.1005101862344529 0.37753196838393888 0 0.1061945545233992 0.35973752512303081 0 0.093231292549801864 0.3603339369558699 0 0.1061945545233992 0.35973752512303081 0 0.11932853697928229 0.36324506162077169 0 0.1189961612439189 0.3562780893984811 0 0.1005101862344529 0.37753196838393888 0 0.11932853697928229 0.36324506162077169 0 0.11932853697928229 0.36324506162077169 0 0.1189961612439189 0.3562780893984811 0 0.1189961612439189 0.3562780893984811 0 0.1170492212984353 0.34869145333754509 0 0.1094255375479565 0.35081600276556119 0 0.1061945545233992 0.35973752512303081 0 0.1189961612439189 0.3562780893984811 0 0.1094255375479565 0.35081600276556119 0 0.1170492212984353 0.34869145333754509 0 0.1094255375479565 0.35081600276556119 0 0.1119983417695697 0.34270511573786822 0 0.1170492212984353 0.34869145333754509 0 0.1247188455028202 0.34473722437045218 0 0.1119983417695697 0.34270511573786822 0 0.1189961612439189 0.3562780893984811 0 0.1170492212984353 0.34869145333754509 0 0.1247188455028202 0.34473722437045218 0 0.1247188455028202 0.34473722437045218 0 0.1175891745719997 0.33433482260747271 0 0.12858808323795631 0.33279482181631109 0 0.1247188455028202 0.34473722437045218 0 0.1175891745719997 0.33433482260747271 0 0.1119983417695697 0.34270511573786822 0 0.1175891745719997 0.33433482260747271 0 0.11886584608340769 0.32448998583300992 0 0.12858808323795631 0.33279482181631109 0 0.1175891745719997 0.33433482260747271 0 0.1097786266034759 0.33558155891078018 0 0.1096149711177524 0.3278091850639574 0 0.1175891745719997 0.33433482260747271 0 0.11886584608340769 0.32448998583300992 0 0.1096149711177524 0.3278091850639574 0 0.1175891745719997 0.33433482260747271 0 0.1097786266034759 0.33558155891078018 0 0.1119983417695697 0.34270511573786822 0 0.11876326876670799 0.31332406482761682 0 0.11886584608340769 0.32448998583300992 0 0.13030610635144951 0.3201194431732875 0 0.11886584608340769 0.32448998583300992 0 0.1096149711177524 0.3278091850639574 0 0.10892577089384869 0.31737460941675461 0 0.11876326876670799 0.31332406482761682 0 0.11886584608340769 0.32448998583300992 0 0.10892577089384869 0.31737460941675461 0 0.10892577089384869 0.31737460941675461 0 0.098990180476386011 0.32277432361249581 0 0.09736850077090034 0.31015564445613791 0 0.1096149711177524 0.3278091850639574 0 0.10892577089384869 0.31737460941675461 0 0.098990180476386011 0.32277432361249581 0 0.1096149711177524 0.3278091850639574 0 0.098990180476386011 0.32277432361249581 0 0.1015279901061177 0.33326077336121579 0 0.1097786266034759 0.33558155891078018 0 0.1119983417695697 0.34270511573786822 0 0.1038940537457453 0.34195889752981629 0 0.1097786266034759 0.33558155891078018 0 0.1038940537457453 0.34195889752981629 0 0.1015279901061177 0.33326077336121579 0 0.1097786266034759 0.33558155891078018 0 0.1096149711177524 0.3278091850639574 0 0.1015279901061177 0.33326077336121579 0 0.1015279901061177 0.33326077336121579 0 0.096237057951567131 0.33954789688919818 0 0.091209283741747527 0.33132108974864338 0 0.098990180476386011 0.32277432361249581 0 0.1015279901061177 0.33326077336121579 0 0.091209283741747527 0.33132108974864338 0 0.1038940537457453 0.34195889752981629 0 0.1015279901061177 0.33326077336121579 0 0.096237057951567131 0.33954789688919818 0 0.088211283069830754 0.3412221512726557 0 0.075414410575981472 0.33291764416303848 0 0.085729657538691995 0.35019371595886689 0 0.096237057951567131 0.33954789688919818 0 0.088211283069830754 0.3412221512726557 0 0.091209283741747527 0.33132108974864338 0 0.096342679094394354 0.34997657253365938 0 0.096237057951567131 0.33954789688919818 0 0.088211283069830754 0.3412221512726557 0 0.088211283069830754 0.3412221512726557 0 0.091209283741747527 0.33132108974864338 0 0.075414410575981472 0.33291764416303848 0 0.091209283741747527 0.33132108974864338 0 0.084660489937453065 0.31770286225168931 0 0.075414410575981472 0.33291764416303848 0 0.098990180476386011 0.32277432361249581 0 0.084660489937453065 0.31770286225168931 0 0.09736850077090034 0.31015564445613791 0 0.098990180476386011 0.32277432361249581 0 0.091209283741747527 0.33132108974864338 0 0.084660489937453065 0.31770286225168931 0 0.075414410575981472 0.33291764416303848 0 0.054703705375683927 0.32883895160657051 0 0.071518672839273004 0.30389375763548082 0 0.084660489937453065 0.31770286225168931 0 0.075414410575981472 0.33291764416303848 0 0.071518672839273004 0.30389375763548082 0 0.075414410575981472 0.33291764416303848 0 0.071518672839273004 0.30389375763548082 0 0.075414410575981472 0.33291764416303848 0 0.072918533581969411 0.3482082070781064 0 0.054703705375683927 0.32883895160657051 0 0.066833218506701486 0.352766037822974 0 0.072918533581969411 0.3482082070781064 0 0.054703705375683927 0.32883895160657051 0 0.075414410575981472 0.33291764416303848 0 0.072918533581969411 0.3482082070781064 0 0.07931014831269026 0.36194153069059598 0 0.075414410575981472 0.33291764416303848 0 0.07931014831269026 0.36194153069059598 0 0.066833218506701486 0.352766037822974 0 0.070042205367313787 0.35909619340729959 0 0.055073826663196553 0.36331899158513248 0 0.066833218506701486 0.352766037822974 0 0.070920434991000425 0.35577176329256011 0 0.072918533581969411 0.3482082070781064 0 0.066833218506701486 0.352766037822974 0 0.070920434991000425 0.35577176329256011 0 0.066833218506701486 0.352766037822974 0 0.070042205367313787 0.35909619340729959 0 0.070920434991000425 0.35577176329256011 0 0.066833218506701486 0.352766037822974 0 0.070042205367313787 0.35909619340729959 0 0.070920434991000425 0.35577176329256011 0 0.07931014831269026 0.36194153069059598 0 0.070920434991000425 0.35577176329256011 0 0.072918533581969411 0.3482082070781064 0 0.07931014831269026 0.36194153069059598 0 0.070042205367313787 0.35909619340729959 0 0.070920434991000425 0.35577176329256011 0 0.07931014831269026 0.36194153069059598 0 0.070042205367313787 0.35909619340729959 0 0.070920434991000425 0.35577176329256011 0 0.070920434991000425 0.35577176329256011 0 0.072918533581969411 0.3482082070781064 0 0.075414410575981472 0.33291764416303848 0 0.085729657538691995 0.35019371595886689 0 0.07931014831269026 0.36194153069059598 0 0.085729657538691995 0.35019371595886689 0 0.093231292549801864 0.3603339369558699 0 0.07931014831269026 0.36194153069059598 0 0.096342679094394354 0.34997657253365938 0 0.085729657538691995 0.35019371595886689 0 0.093231292549801864 0.3603339369558699 0 0.096342679094394354 0.34997657253365938 0 0.088211283069830754 0.3412221512726557 0 0.085729657538691995 0.35019371595886689 0 0.1005101862344529 0.37753196838393888 0 0.07931014831269026 0.36194153069059598 0 0.080617459112047027 0.37168121104414309 0 0.1005101862344529 0.37753196838393888 0 0.093231292549801864 0.3603339369558699 0 0.07931014831269026 0.36194153069059598 0 0.1005101862344529 0.37753196838393888 0 0.07931014831269026 0.36194153069059598 0 0.07931014831269026 0.36194153069059598 0 0.080617459112047027 0.37168121104414309 0 0.07931014831269026 0.36194153069059598 0 0.080617459112047027 0.37168121104414309 0 0.077650113253140335 0.37410380879500532 0 0.063541766686075932 0.38370280371485971 0 0.070042205367313787 0.35909619340729959 0 0.063541766686075932 0.38370280371485971 0 0.070042205367313787 0.35909619340729959 0 0.077650113253140335 0.37410380879500532 0 0.063541766686075932 0.38370280371485971 0 0.070042205367313787 0.35909619340729959 0 0.055073826663196553 0.36331899158513248 0 0.070042205367313787 0.35909619340729959 0 0.07931014831269026 0.36194153069059598 0 0.077650113253140335 0.37410380879500532 0 0.070042205367313787 0.35909619340729959 0 0.077650113253140335 0.37410380879500532 0 0.048828330243463773 0.37812345183287871 0 0.055073826663196553 0.36331899158513248 0 0.037907173216347692 0.36900247462334379 0 0.066833218506701486 0.352766037822974 0 0.054482740420165869 0.35282970994137741 0 0.053499718956109388 0.34296062640130859 0 0.066833218506701486 0.352766037822974 0 0.053499718956109388 0.34296062640130859 0 0.066833218506701486 0.352766037822974 0 0.055073826663196553 0.36331899158513248 0 0.054482740420165869 0.35282970994137741 0 0.055073826663196553 0.36331899158513248 0 0.054482740420165869 0.35282970994137741 0 0.042524197554657722 0.35227318395609369 0 0.054482740420165869 0.35282970994137741 0 0.042524197554657722 0.35227318395609369 0 0.053499718956109388 0.34296062640130859 0 0.042524197554657722 0.35227318395609369 0 0.02591415495345677 0.36089544147839908 0 0.026491563547101051 0.344879275629838 0 0.042524197554657722 0.35227318395609369 0 0.037907173216347692 0.36900247462334379 0 0.02591415495345677 0.36089544147839908 0 0.055073826663196553 0.36331899158513248 0 0.042524197554657722 0.35227318395609369 0 0.037907173216347692 0.36900247462334379 0 0.020337302895407999 0.37686122882940742 0 0.037907173216347692 0.36900247462334379 0 0.02591415495345677 0.36089544147839908 0 0.020337302895407999 0.37686122882940742 0 0.02591415495345677 0.36089544147839908 0 0.01412801201977021 0.36660742695433879 0 0.02591415495345677 0.36089544147839908 0 0.01290663531281112 0.35532087131663143 0 0.01412801201977021 0.36660742695433879 0 0.02591415495345677 0.36089544147839908 0 0.026491563547101051 0.344879275629838 0 0.01290663531281112 0.35532087131663143 0 0.026491563547101051 0.344879275629838 0 0.01290663531281112 0.35532087131663143 0 0.012473664162300601 0.34346636662570712 0 0.01290663531281112 0.35532087131663143 0 0.0029978092564315341 0.34765306343151398 0 0.012473664162300601 0.34346636662570712 0 0.01290663531281112 0.35532087131663143 0 0.001436009402799204 0.35658407481376719 0 0.0037963498076175142 0.36529258077041171 0 0.01290663531281112 0.35532087131663143 0 0.0029978092564315341 0.34765306343151398 0 0.001436009402799204 0.35658407481376719 0 -0.0015244919297118539 0.37331443520947022 0 0.0037963498076175142 0.36529258077041171 0 0.007685617129557662 0.37466701237684458 0 0.0037963498076175142 0.36529258077041171 0 0.007685617129557662 0.37466701237684458 0 0.01412801201977021 0.36660742695433879 0 0.020337302895407999 0.37686122882940742 0 0.007685617129557662 0.37466701237684458 0 0.01412801201977021 0.36660742695433879 0 0.01290663531281112 0.35532087131663143 0 0.0037963498076175142 0.36529258077041171 0 0.01412801201977021 0.36660742695433879 0 0.0033326920966838072 0.32037137025536772 0 0.015753070794735591 0.33226188480582752 0 0.016948210533686819 0.31988861604359542 0 0.0033326920966838072 0.32037137025536772 0 0.016948210533686819 0.31988861604359542 0 0.0088937656126342347 0.30612611901235992 0 0.0033326920966838072 0.32037137025536772 0 0.003770448595607732 0.33559415332684722 0 0.015753070794735591 0.33226188480582752 0 0.0029978092564315341 0.34765306343151398 0 0.003770448595607732 0.33559415332684722 0 0.012473664162300601 0.34346636662570712 0 -0.0062846136565366129 0.34047471164903848 0 0.0029978092564315341 0.34765306343151398 0 0.003770448595607732 0.33559415332684722 0 0.003770448595607732 0.33559415332684722 0 0.012473664162300601 0.34346636662570712 0 0.015753070794735591 0.33226188480582752 0 0.015753070794735591 0.33226188480582752 0 0.02732916060236789 0.33230290777377308 0 0.016948210533686819 0.31988861604359542 0 0.026491563547101051 0.344879275629838 0 0.015753070794735591 0.33226188480582752 0 0.02732916060236789 0.33230290777377308 0 0.026491563547101051 0.344879275629838 0 0.012473664162300601 0.34346636662570712 0 0.015753070794735591 0.33226188480582752 0 0.02732916060236789 0.33230290777377308 0 0.016948210533686819 0.31988861604359542 0 0.02889971226249239 0.31826490436424909 0 0.016948210533686819 0.31988861604359542 0 0.02889971226249239 0.31826490436424909 0 0.023821688461732049 0.30362292461551532 0 0.02889971226249239 0.31826490436424909 0 0.040166219405515999 0.33315521497964501 0 0.04257419224466804 0.30491186539016618 0 0.040166219405515999 0.33315521497964501 0 0.054703705375683927 0.32883895160657051 0 0.04257419224466804 0.30491186539016618 0 0.02732916060236789 0.33230290777377308 0 0.02889971226249239 0.31826490436424909 0 0.040166219405515999 0.33315521497964501 0 0.042524197554657722 0.35227318395609369 0 0.026491563547101051 0.344879275629838 0 0.040166219405515999 0.33315521497964501 0 0.042524197554657722 0.35227318395609369 0 0.040166219405515999 0.33315521497964501 0 0.053499718956109388 0.34296062640130859 0 0.026491563547101051 0.344879275629838 0 0.02732916060236789 0.33230290777377308 0 0.040166219405515999 0.33315521497964501 0 0.040166219405515999 0.33315521497964501 0 0.053499718956109388 0.34296062640130859 0 0.066833218506701486 0.352766037822974 0 0.053499718956109388 0.34296062640130859 0 0.054703705375683927 0.32883895160657051 0 0.066833218506701486 0.352766037822974 0 0.054703705375683927 0.32883895160657051 0 0.040166219405515999 0.33315521497964501 0 0.053499718956109388 0.34296062640130859 0 0.054703705375683927 0.32883895160657051 0 0.054703705375683927 0.32883895160657051 0 0.04257419224466804 0.30491186539016618 0 0.054703705375683927 0.32883895160657051 0 0.04257419224466804 0.30491186539016618 0 0.071518672839273004 0.30389375763548082 0 0.051652493769344388 0.28644641470547572 0 0.04257419224466804 0.30491186539016618 0 0.071518672839273004 0.30389375763548082 0 0.04257419224466804 0.30491186539016618 0 0.030444679113652191 0.28098477917376191 0 0.04257419224466804 0.30491186539016618 0 0.023821688461732049 0.30362292461551532 0 0.030444679113652191 0.28098477917376191 0 0.051652493769344388 0.28644641470547572 0 0.04257419224466804 0.30491186539016618 0 0.030444679113652191 0.28098477917376191 0 0.02889971226249239 0.31826490436424909 0 0.04257419224466804 0.30491186539016618 0 0.023821688461732049 0.30362292461551532 0 0.016948210533686819 0.31988861604359542 0 0.023821688461732049 0.30362292461551532 0 0.0088937656126342347 0.30612611901235992 0 0.023821688461732049 0.30362292461551532 0 0.01516957100325866 0.29156126370895902 0 0.0088937656126342347 0.30612611901235992 0 0.01516957100325866 0.29156126370895902 0 0.011995643403719589 0.27474010701921697 0 0.030444679113652191 0.28098477917376191 0 0.023821688461732049 0.30362292461551532 0 0.01516957100325866 0.29156126370895902 0 0.030444679113652191 0.28098477917376191 0 -0.00026070856359705023 0.29209679303363628 0 0.01516957100325866 0.29156126370895902 0 0.0088937656126342347 0.30612611901235992 0 -0.00026070856359705023 0.29209679303363628 0 0.01516957100325866 0.29156126370895902 0 0.011995643403719589 0.27474010701921697 0 -0.0050053426515477024 0.30421368897024309 0 -0.00026070856359705023 0.29209679303363628 0 0.0088937656126342347 0.30612611901235992 0 -0.0050053426515477024 0.30421368897024309 0 0.0033326920966838072 0.32037137025536772 0 0.0088937656126342347 0.30612611901235992 0 -0.0062925107982489464 0.25777225113449648 0 0.00052304254878242677 0.24554969369601529 0 0.018315165982636258 0.25705769295735748 0 -0.0062925107982489464 0.25777225113449648 0 0.011995643403719589 0.27474010701921697 0 0.018315165982636258 0.25705769295735748 0 -0.0054341861972371976 0.27585211339001769 0 -0.0062925107982489464 0.25777225113449648 0 0.011995643403719589 0.27474010701921697 0 -0.0054341861972371976 0.27585211339001769 0 -0.00026070856359705023 0.29209679303363628 0 0.011995643403719589 0.27474010701921697 0 0.030444679113652191 0.28098477917376191 0 0.018315165982636258 0.25705769295735748 0 0.039734026519466781 0.25889920549181072 0 0.011995643403719589 0.27474010701921697 0 0.030444679113652191 0.28098477917376191 0 0.018315165982636258 0.25705769295735748 0 0.030444679113652191 0.28098477917376191 0 0.018315165982636258 0.25705769295735748 0 0.018315165982636258 0.25705769295735748 0 0.029945818561336469 0.25087343006989432 0 0.039734026519466781 0.25889920549181072 0 0.041800045592175247 0.24512934716929019 0 0.029945818561336469 0.25087343006989432 0 0.039734026519466781 0.25889920549181072 0 0.051652493769344388 0.28644641470547572 0 0.030444679113652191 0.28098477917376191 0 0.052352254338569132 0.27004168647422899 0 0.030444679113652191 0.28098477917376191 0 0.039734026519466781 0.25889920549181072 0 0.052352254338569132 0.27004168647422899 0 0.051652493769344388 0.28644641470547572 0 0.052352254338569132 0.27004168647422899 0 0.067622935102564521 0.27486987110792299 0 0.065546195528431439 0.2493082971063314 0 0.052352254338569132 0.27004168647422899 0 0.067622935102564521 0.27486987110792299 0 0.041800045592175247 0.24512934716929019 0 0.065546195528431439 0.2493082971063314 0 0.039734026519466781 0.25889920549181072 0 0.065546195528431439 0.2493082971063314 0 0.039734026519466781 0.25889920549181072 0 0.052352254338569132 0.27004168647422899 0 0.065546195528431439 0.2493082971063314 0 0.078878052744095692 0.27142004631392691 0 0.067622935102564521 0.27486987110792299 0 0.065546195528431439 0.2493082971063314 0 0.085316570737710776 0.26896830791724041 0 0.065546195528431439 0.2493082971063314 0 0.085316570737710776 0.26896830791724041 0 0.078878052744095692 0.27142004631392691 0 0.065546195528431439 0.2493082971063314 0 0.083889286290303566 0.25240242155535458 0 0.085316570737710776 0.26896830791724041 0 0.083889286290303566 0.25240242155535458 0 0.085316570737710776 0.26896830791724041 0 0.09657779338607303 0.26044978568258259 0 0.093158877486271385 0.24497865695800511 0 0.083889286290303566 0.25240242155535458 0 0.09657779338607303 0.26044978568258259 0 0.078878052744095692 0.27142004631392691 0 0.082827039948381739 0.28041909223394929 0 0.076748339287195544 0.2785643627955891 0 0.091982499345542965 0.28002418252103789 0 0.078878052744095692 0.27142004631392691 0 0.082827039948381739 0.28041909223394929 0 0.091982499345542965 0.28002418252103789 0 0.085316570737710776 0.26896830791724041 0 0.078878052744095692 0.27142004631392691 0 0.091982499345542965 0.28002418252103789 0 0.078878052744095692 0.27142004631392691 0 0.078878052744095692 0.27142004631392691 0 0.076748339287195544 0.2785643627955891 0 0.067622935102564521 0.27486987110792299 0 0.076748339287195544 0.2785643627955891 0 0.067622935102564521 0.27486987110792299 0 0.077665329353740209 0.28754844152655717 0 0.067622935102564521 0.27486987110792299 0 0.071518672839273004 0.30389375763548082 0 0.051652493769344388 0.28644641470547572 0 0.067622935102564521 0.27486987110792299 0 0.071518672839273004 0.30389375763548082 0 0.067622935102564521 0.27486987110792299 0 0.077665329353740209 0.28754844152655717 0 0.071518672839273004 0.30389375763548082 0 0.077665329353740209 0.28754844152655717 0 0.071518672839273004 0.30389375763548082 0 0.085440080863654205 0.30446211430442022 0 0.085440080863654205 0.30446211430442022 0 0.092003382982479481 0.29325213595159039 0 0.09736850077090034 0.31015564445613791 0 0.084660489937453065 0.31770286225168931 0 0.071518672839273004 0.30389375763548082 0 0.085440080863654205 0.30446211430442022 0 0.084660489937453065 0.31770286225168931 0 0.085440080863654205 0.30446211430442022 0 0.09736850077090034 0.31015564445613791 0 0.077665329353740209 0.28754844152655717 0 0.085440080863654205 0.30446211430442022 0 0.092003382982479481 0.29325213595159039 0 0.082827039948381739 0.28041909223394929 0 0.076748339287195544 0.2785643627955891 0 0.077665329353740209 0.28754844152655717 0 0.082827039948381739 0.28041909223394929 0 0.077665329353740209 0.28754844152655717 0 0.092003382982479481 0.29325213595159039 0 0.091982499345542965 0.28002418252103789 0 0.082827039948381739 0.28041909223394929 0 0.092003382982479481 0.29325213595159039 0 0.091982499345542965 0.28002418252103789 0 0.1050869459469902 0.2886283187281492 0 0.091982499345542965 0.28002418252103789 0 0.092003382982479481 0.29325213595159039 0 0.1050869459469902 0.2886283187281492 0 0.092003382982479481 0.29325213595159039 0 0.1050869459469902 0.2886283187281492 0 0.10313047150519811 0.29983900431030308 0 0.1050869459469902 0.2886283187281492 0 0.10313047150519811 0.29983900431030308 0 0.1143632820380522 0.29785287141900108 0 0.092003382982479481 0.29325213595159039 0 0.09736850077090034 0.31015564445613791 0 0.10313047150519811 0.29983900431030308 0 0.10892577089384869 0.31737460941675461 0 0.09736850077090034 0.31015564445613791 0 0.1113063926441442 0.3067395890073269 0 0.09736850077090034 0.31015564445613791 0 0.10313047150519811 0.29983900431030308 0 0.1113063926441442 0.3067395890073269 0 0.11876326876670799 0.31332406482761682 0 0.12528706189015809 0.30189133961414799 0 0.13030610635144951 0.3201194431732875 0 0.11876326876670799 0.31332406482761682 0 0.10892577089384869 0.31737460941675461 0 0.1113063926441442 0.3067395890073269 0 0.10313047150519811 0.29983900431030308 0 0.1113063926441442 0.3067395890073269 0 0.1143632820380522 0.29785287141900108 0 0.1113063926441442 0.3067395890073269 0 0.1143632820380522 0.29785287141900108 0 0.12528706189015809 0.30189133961414799 0 0.11876326876670799 0.31332406482761682 0 0.1113063926441442 0.3067395890073269 0 0.12528706189015809 0.30189133961414799 0 0.1050869459469902 0.2886283187281492 0 0.1162512864472889 0.28488453418782722 0 0.1219941725939203 0.29075954193376669 0 0.1050869459469902 0.2886283187281492 0 0.1219941725939203 0.29075954193376669 0 0.12528706189015809 0.30189133961414799 0 0.1050869459469902 0.2886283187281492 0 0.12528706189015809 0.30189133961414799 0 0.1050869459469902 0.2886283187281492 0 0.1143632820380522 0.29785287141900108 0 0.12528706189015809 0.30189133961414799 0 0.1050869459469902 0.2886283187281492 0 0.1162512864472889 0.28488453418782722 0 0.1126368784306378 0.27696860768963549 0 0.1050869459469902 0.2886283187281492 0 0.1143632820380522 0.29785287141900108 0 0.1162512864472889 0.28488453418782722 0 0.1219941725939203 0.29075954193376669 0 0.1239325884306314 0.28193995109413961 0 0.1162512864472889 0.28488453418782722 0 0.1239325884306314 0.28193995109413961 0 0.1126368784306378 0.27696860768963549 0 0.1239325884306314 0.28193995109413961 0 0.1126368784306378 0.27696860768963549 0 0.12238138265906059 0.26903531425037902 0 0.1126368784306378 0.27696860768963549 0 0.12238138265906059 0.26903531425037902 0 0.10941660173088739 0.26455280595534192 0 0.12238138265906059 0.26903531425037902 0 0.12169936599027439 0.2567597450848853 0 0.10941660173088739 0.26455280595534192 0 0.12169936599027439 0.2567597450848853 0 0.10941660173088739 0.26455280595534192 0 0.1073566228899049 0.25060698291583089 0 0.10941660173088739 0.26455280595534192 0 0.1073566228899049 0.25060698291583089 0 0.09657779338607303 0.26044978568258259 0 0.093158877486271385 0.24497865695800511 0 0.1073566228899049 0.25060698291583089 0 0.09657779338607303 0.26044978568258259 0 0.1050869459469902 0.2886283187281492 0 0.1126368784306378 0.27696860768963549 0 0.1016879771935312 0.27208078517027928 0 0.085316570737710776 0.26896830791724041 0 0.1050869459469902 0.2886283187281492 0 0.1016879771935312 0.27208078517027928 0 0.085316570737710776 0.26896830791724041 0 0.1050869459469902 0.2886283187281492 0 0.091982499345542965 0.28002418252103789 0 0.085316570737710776 0.26896830791724041 0 0.1050869459469902 0.2886283187281492 0 0.085316570737710776 0.26896830791724041 0 0.09657779338607303 0.26044978568258259 0 0.1016879771935312 0.27208078517027928 0 0.1126368784306378 0.27696860768963549 0 0.10941660173088739 0.26455280595534192 0 0.1016879771935312 0.27208078517027928 0 0.10941660173088739 0.26455280595534192 0 0.09657779338607303 0.26044978568258259 0 0.1016879771935312 0.27208078517027928 0 0.15410173019121401 0.26930227715994082 0 0.13652057225118019 0.27824373931236179 0 0.14926146567135429 0.28530778367185 0 0.15410173019121401 0.26930227715994082 0 0.1349081148058513 0.26522378158627241 0 0.13652057225118019 0.27824373931236179 0 0.15152369355776621 0.24985893891519911 0 0.15410173019121401 0.26930227715994082 0 0.1349081148058513 0.26522378158627241 0 0.15152369355776621 0.24985893891519911 0 0.1338055702009765 0.24966410633270131 0 0.1349081148058513 0.26522378158627241 0 0.1338055702009765 0.24966410633270131 0 0.12169936599027439 0.2567597450848853 0 0.1349081148058513 0.26522378158627241 0 0.12238138265906059 0.26903531425037902 0 0.12169936599027439 0.2567597450848853 0 0.1349081148058513 0.26522378158627241 0 0.12238138265906059 0.26903531425037902 0 0.1349081148058513 0.26522378158627241 0 0.13652057225118019 0.27824373931236179 0 0.1239325884306314 0.28193995109413961 0 0.12238138265906059 0.26903531425037902 0 0.13652057225118019 0.27824373931236179 0 0.1219941725939203 0.29075954193376669 0 0.1239325884306314 0.28193995109413961 0 0.1367038594805807 0.29397013143333378 0 0.1239325884306314 0.28193995109413961 0 0.13652057225118019 0.27824373931236179 0 0.1367038594805807 0.29397013143333378 0 0.1219941725939203 0.29075954193376669 0 0.1367038594805807 0.29397013143333378 0 0.12528706189015809 0.30189133961414799 0 0.1367038594805807 0.29397013143333378 0 0.12528706189015809 0.30189133961414799 0 0.14548717783332599 0.315154360500147 0 0.12528706189015809 0.30189133961414799 0 0.14548717783332599 0.315154360500147 0 0.13030610635144951 0.3201194431732875 0 0.12528706189015809 0.30189133961414799 0 0.14548717783332599 0.315154360500147 0 0.1367038594805807 0.29397013143333378 0 0.15421601259984519 0.3010890478640344 0 0.14548717783332599 0.315154360500147 0 0.15421601259984519 0.3010890478640344 0 0.16199395662144189 0.31392454477757281 0 0.14548717783332599 0.315154360500147 0 0.1367038594805807 0.29397013143333378 0 0.15421601259984519 0.3010890478640344 0 0.14926146567135429 0.28530778367185 0 0.13652057225118019 0.27824373931236179 0 0.1367038594805807 0.29397013143333378 0 0.14926146567135429 0.28530778367185 0 0.15421601259984519 0.3010890478640344 0 0.14926146567135429 0.28530778367185 0 0.16675301656470309 0.28852093764987391 0 0.15421601259984519 0.3010890478640344 0 0.16675301656470309 0.28852093764987391 0 0.16780042813164919 0.30446427618197941 0 0.16675301656470309 0.28852093764987391 0 0.16780042813164919 0.30446427618197941 0 0.18098744022599211 0.30297197541681492 0 0.16780042813164919 0.30446427618197941 0 0.1779054660592217 0.31833421921828609 0 0.16199395662144189 0.31392454477757281 0 0.15421601259984519 0.3010890478640344 0 0.16780042813164919 0.30446427618197941 0 0.16199395662144189 0.31392454477757281 0 0.16780042813164919 0.30446427618197941 0 0.18098744022599211 0.30297197541681492 0 0.1779054660592217 0.31833421921828609 0 0.16675301656470309 0.28852093764987391 0 0.18098744022599211 0.30297197541681492 0 0.1884308075340092 0.2894359370556393 0 0.16675301656470309 0.28852093764987391 0 0.17281413222764111 0.26476736713298282 0 0.1884308075340092 0.2894359370556393 0 0.17281413222764111 0.26476736713298282 0 0.1884308075340092 0.2894359370556393 0 0.17281413222764111 0.26476736713298282 0 0.20099168472026649 0.26924400234699059 0 0.1884308075340092 0.2894359370556393 0 0.15410173019121401 0.26930227715994082 0 0.16675301656470309 0.28852093764987391 0 0.17281413222764111 0.26476736713298282 0 0.15410173019121401 0.26930227715994082 0 0.14926146567135429 0.28530778367185 0 0.16675301656470309 0.28852093764987391 0 0.15152369355776621 0.24985893891519911 0 0.15410173019121401 0.26930227715994082 0 0.16654584110041859 0.25141402998849288 0 0.15410173019121401 0.26930227715994082 0 0.16654584110041859 0.25141402998849288 0 0.17281413222764111 0.26476736713298282 0 0.182491151362839 0.24820806846560631 0 0.16654584110041859 0.25141402998849288 0 0.17281413222764111 0.26476736713298282 0 0.182491151362839 0.24820806846560631 0 0.17281413222764111 0.26476736713298282 0 0.20099168472026649 0.26924400234699059 0 0.182491151362839 0.24820806846560631 0 0.20099168472026649 0.26924400234699059 0 0.182491151362839 0.24820806846560631 0 0.20323580424516999 0.24901026716194319 0 0.20099168472026649 0.26924400234699059 0 0.20099168472026649 0.26924400234699059 0 0.21949221807769409 0.290279936228375 0 0.20099168472026649 0.26924400234699059 0 0.22733852896958251 0.25985763436866632 0 0.21949221807769409 0.290279936228375 0 0.20323580424516999 0.24901026716194319 0 0.20099168472026649 0.26924400234699059 0 0.22733852896958251 0.25985763436866632 0 0.22733852896958251 0.25985763436866632 0 0.24587805146891881 0.27733747393989699 0 0.21949221807769409 0.290279936228375 0 0.22733852896958251 0.25985763436866632 0 0.24587805146891881 0.27733747393989699 0 0.25330306868854607 0.24974758695179611 0 0.24587805146891881 0.27733747393989699 0 0.21949221807769409 0.290279936228375 0 0.25264327573459772 0.29879392936350568 0 0.23799275143512169 0.31131587010975942 0 0.21949221807769409 0.290279936228375 0 0.25264327573459772 0.29879392936350568 0 0.23799275143512169 0.31131587010975942 0 0.21949221807769409 0.290279936228375 0 0.20404748284037741 0.31410450697829589 0 0.23799275143512169 0.31131587010975942 0 0.21949221807769409 0.290279936228375 0 0.21949221807769409 0.290279936228375 0 0.1884308075340092 0.2894359370556393 0 0.20404748284037741 0.31410450697829589 0 0.20099168472026649 0.26924400234699059 0 0.21949221807769409 0.290279936228375 0 0.1884308075340092 0.2894359370556393 0 0.1884308075340092 0.2894359370556393 0 0.20404748284037741 0.31410450697829589 0 0.18098744022599211 0.30297197541681492 0 0.20404748284037741 0.31410450697829589 0 0.1779054660592217 0.31833421921828609 0 0.18098744022599211 0.30297197541681492 0 0.1884308075340092 0.2894359370556393 0 0.20404748284037741 0.31410450697829589 0 0.18966080293745241 0.3308376801079228 0 0.20404748284037741 0.31410450697829589 0 0.1779054660592217 0.31833421921828609 0 0.18966080293745241 0.3308376801079228 0 0.19879313186978381 0.35213865343741718 0 0.17692069893194021 0.34702897328767329 0 0.18966080293745241 0.3308376801079228 0 0.2196641581467455 0.3387730769009526 0 0.19879313186978381 0.35213865343741718 0 0.20404748284037741 0.31410450697829589 0 0.2196641581467455 0.3387730769009526 0 0.18966080293745241 0.3308376801079228 0 0.20404748284037741 0.31410450697829589 0 0.2196641581467455 0.3387730769009526 0 0.23799275143512169 0.31131587010975942 0 0.2196641581467455 0.3387730769009526 0 0.2390769329513357 0.34382157179716683 0 0.23799275143512169 0.31131587010975942 0 0.20404748284037741 0.31410450697829589 0 0.2196641581467455 0.3387730769009526 0 0.23799275143512169 0.31131587010975942 0 0.25649328479254918 0.33235180399114372 0 0.25264327573459772 0.29879392936350568 0 0.23799275143512169 0.31131587010975942 0 0.2390769329513357 0.34382157179716683 0 0.25649328479254918 0.33235180399114372 0 0.23799275143512169 0.31131587010975942 0 0.25649328479254918 0.33235180399114372 0 0.24904242420903 0.36862970638804732 0 0.23886152724640181 0.37536750124850943 0 0.25592029321336779 0.37874914184280539 0 0.23684561316834049 0.36337121911895143 0 0.24904242420903 0.36862970638804732 0 0.25375611628729122 0.3566904670715379 0 0.23684561316834049 0.36337121911895143 0 0.24904242420903 0.36862970638804732 0 0.23886152724640181 0.37536750124850943 0 0.2390769329513357 0.34382157179716683 0 0.25375611628729122 0.3566904670715379 0 0.25649328479254918 0.33235180399114372 0 0.23684561316834049 0.36337121911895143 0 0.2390769329513357 0.34382157179716683 0 0.25375611628729122 0.3566904670715379 0 0.23684561316834049 0.36337121911895143 0 0.2390769329513357 0.34382157179716683 0 0.21931973290327689 0.35772276426228589 0 0.2196641581467455 0.3387730769009526 0 0.2390769329513357 0.34382157179716683 0 0.21931973290327689 0.35772276426228589 0 0.23684561316834049 0.36337121911895143 0 0.21931973290327689 0.35772276426228589 0 0.22585783825035571 0.3723645146877983 0 0.23684561316834049 0.36337121911895143 0 0.22585783825035571 0.3723645146877983 0 0.23886152724640181 0.37536750124850943 0 0.21931973290327689 0.35772276426228589 0 0.22585783825035571 0.3723645146877983 0 0.20530470127214309 0.37499167066335731 0 0.21931973290327689 0.35772276426228589 0 0.20530470127214309 0.37499167066335731 0 0.19879313186978381 0.35213865343741718 0 0.2196641581467455 0.3387730769009526 0 0.21931973290327689 0.35772276426228589 0 0.19879313186978381 0.35213865343741718 0 0.20530470127214309 0.37499167066335731 0 0.19879313186978381 0.35213865343741718 0 0.18527744487455561 0.36448388752910882 0 0.18527744487455561 0.36448388752910882 0 0.16712598588580149 0.36959965471450201 0 0.17692069893194021 0.34702897328767329 0 0.18527744487455561 0.36448388752910882 0 0.16712598588580149 0.36959965471450201 0 0.18055817647805239 0.38812426258728072 0 0.16712598588580149 0.36959965471450201 0 0.1481474072413822 0.37305618948637398 0 0.15591655346088559 0.35081535744619269 0 0.16712598588580149 0.36959965471450201 0 0.17692069893194021 0.34702897328767329 0 0.15591655346088559 0.35081535744619269 0 0.17692069893194021 0.34702897328767329 0 0.1666951031381837 0.33836890084807469 0 0.15591655346088559 0.35081535744619269 0 0.19879313186978381 0.35213865343741718 0 0.18527744487455561 0.36448388752910882 0 0.17692069893194021 0.34702897328767329 0 0.18966080293745241 0.3308376801079228 0 0.17692069893194021 0.34702897328767329 0 0.17575105566561869 0.33239594150463259 0 0.17692069893194021 0.34702897328767329 0 0.17575105566561869 0.33239594150463259 0 0.1666951031381837 0.33836890084807469 0 0.18966080293745241 0.3308376801079228 0 0.17575105566561869 0.33239594150463259 0 0.1779054660592217 0.31833421921828609 0 0.17575105566561869 0.33239594150463259 0 0.1779054660592217 0.31833421921828609 0 0.16568729377649399 0.32841738138614601 0 0.16199395662144189 0.31392454477757281 0 0.16568729377649399 0.32841738138614601 0 0.14548717783332599 0.315154360500147 0 0.16568729377649399 0.32841738138614601 0 0.15825695711357901 0.33369057427819893 0 0.14548717783332599 0.315154360500147 0 0.1779054660592217 0.31833421921828609 0 0.16199395662144189 0.31392454477757281 0 0.16568729377649399 0.32841738138614601 0 0.1666951031381837 0.33836890084807469 0 0.15825695711357901 0.33369057427819893 0 0.15591655346088559 0.35081535744619269 0 0.17575105566561869 0.33239594150463259 0 0.1666951031381837 0.33836890084807469 0 0.16568729377649399 0.32841738138614601 0 0.1666951031381837 0.33836890084807469 0 0.16568729377649399 0.32841738138614601 0 0.15825695711357901 0.33369057427819893 0 0.15825695711357901 0.33369057427819893 0 0.14171481664814409 0.33201629848656877 0 0.13879274704643019 0.34846781794948473 0 0.15825695711357901 0.33369057427819893 0 0.13879274704643019 0.34846781794948473 0 0.16568729377649399 0.32841738138614601 0 0.14548717783332599 0.315154360500147 0 0.15825695711357901 0.33369057427819893 0 0.14171481664814409 0.33201629848656877 0 0.14548717783332599 0.315154360500147 0 0.14171481664814409 0.33201629848656877 0 0.14548717783332599 0.315154360500147 0 0.13030610635144951 0.3201194431732875 0 0.11886584608340769 0.32448998583300992 0 0.13030610635144951 0.3201194431732875 0 0.12858808323795631 0.33279482181631109 0 0.14171481664814409 0.33201629848656877 0 0.12858808323795631 0.33279482181631109 0 0.13879274704643019 0.34846781794948473 0 0.1247188455028202 0.34473722437045218 0 0.12858808323795631 0.33279482181631109 0 0.13879274704643019 0.34846781794948473 0 0.14171481664814409 0.33201629848656877 0 0.13030610635144951 0.3201194431732875 0 0.12858808323795631 0.33279482181631109 0 0.11932853697928229 0.36324506162077169 0 0.1189961612439189 0.3562780893984811 0 0.13879274704643019 0.34846781794948473 0 0.11932853697928229 0.36324506162077169 0 0.13879274704643019 0.34846781794948473 0 0.1189961612439189 0.3562780893984811 0 0.1247188455028202 0.34473722437045218 0 0.13879274704643019 0.34846781794948473 0 0.11932853697928229 0.36324506162077169 0 0.13879274704643019 0.34846781794948473 0 0.1343177228312788 0.36278093312542292 0 0.11932853697928229 0.36324506162077169 0 0.1343177228312788 0.36278093312542292 0 0.13279498662191061 0.37598326688028688 0 0.1343177228312788 0.36278093312542292 0 0.1481474072413822 0.37305618948637398 0 0.13279498662191061 0.37598326688028688 0 0.1343177228312788 0.36278093312542292 0 0.1481474072413822 0.37305618948637398 0 0.15591655346088559 0.35081535744619269 0 0.13879274704643019 0.34846781794948473 0 0.1343177228312788 0.36278093312542292 0 0.15591655346088559 0.35081535744619269 0 0.15825695711357901 0.33369057427819893 0 0.13879274704643019 0.34846781794948473 0 0.15591655346088559 0.35081535744619269 0 0.1559356343279934 0.39408925795038291 0 0.14146213156391371 0.38844058814785781 0 0.14612437028066061 0.41107648830081661 0 0.1481474072413822 0.37305618948637398 0 0.1559356343279934 0.39408925795038291 0 0.14146213156391371 0.38844058814785781 0 0.1481474072413822 0.37305618948637398 0 0.1559356343279934 0.39408925795038291 0 0.1481474072413822 0.37305618948637398 0 0.14146213156391371 0.38844058814785781 0 0.13279498662191061 0.37598326688028688 0 0.12071913449369449 0.39239356202100839 0 0.14146213156391371 0.38844058814785781 0 0.13279498662191061 0.37598326688028688 0 0.12071913449369449 0.39239356202100839 0 0.13342175238717729 0.40173502516091292 0 0.14146213156391371 0.38844058814785781 0 0.13342175238717729 0.40173502516091292 0 0.14612437028066061 0.41107648830081661 0 0.1214770794270391 0.40828094709395069 0 0.12071913449369449 0.39239356202100839 0 0.13342175238717729 0.40173502516091292 0 0.12071913449369449 0.39239356202100839 0 0.14146213156391371 0.38844058814785781 0 0.13342175238717729 0.40173502516091292 0 0.1214770794270391 0.40828094709395069 0 0.13342175238717729 0.40173502516091292 0 0.1340263565772119 0.41508453124904421 0 0.1222350243603849 0.42416833216689281 0 0.1214770794270391 0.40828094709395069 0 0.1340263565772119 0.41508453124904421 0 0.13342175238717729 0.40173502516091292 0 0.1340263565772119 0.41508453124904421 0 0.14612437028066061 0.41107648830081661 0 0.13342175238717729 0.40173502516091292 0 0.14612437028066061 0.41107648830081661 0 0.12340305628634129 0.44865160551396183 0 0.1222350243603849 0.42416833216689281 0 0.14687355643079761 0.43016186352264868 0 0.1222350243603849 0.42416833216689281 0 0.14687355643079761 0.43016186352264868 0 0.1222350243603849 0.42416833216689281 0 0.1340263565772119 0.41508453124904421 0 0.14687355643079761 0.43016186352264868 0 0.14687355643079761 0.43016186352264868 0 0.15597216992876481 0.42233613177328971 0 0.14612437028066061 0.41107648830081661 0 0.1559356343279934 0.39408925795038291 0 0.14612437028066061 0.41107648830081661 0 0.1637238614146046 0.41512232641439162 0 0.1340263565772119 0.41508453124904421 0 0.14687355643079761 0.43016186352264868 0 0.14612437028066061 0.41107648830081661 0 0.15597216992876481 0.42233613177328971 0 0.14612437028066061 0.41107648830081661 0 0.1637238614146046 0.41512232641439162 0 0.1637238614146046 0.41512232641439162 0 0.1750322635581138 0.41360997075205158 0 0.1694535878235609 0.40215310082521211 0 0.14687355643079761 0.43016186352264868 0 0.15597216992876481 0.42233613177328971 0 0.1715120885012108 0.43615539487840232 0 0.1637238614146046 0.41512232641439162 0 0.1715120885012108 0.43615539487840232 0 0.1794354781626683 0.42559199185874391 0 0.1637238614146046 0.41512232641439162 0 0.1715120885012108 0.43615539487840232 0 0.15597216992876481 0.42233613177328971 0 0.1637238614146046 0.41512232641439162 0 0.1715120885012108 0.43615539487840232 0 0.14687355643079761 0.43016186352264868 0 0.1715120885012108 0.43615539487840232 0 0.1715120885012108 0.43615539487840232 0 0.1794354781626683 0.42559199185874391 0 0.18833562183381211 0.4402478616802179 0 0.1794354781626683 0.42559199185874391 0 0.1750322635581138 0.41360997075205158 0 0.19501681839944349 0.42176304626403038 0 0.1637238614146046 0.41512232641439162 0 0.1794354781626683 0.42559199185874391 0 0.1750322635581138 0.41360997075205158 0 0.1750322635581138 0.41360997075205158 0 0.181759741992398 0.4014692571533785 0 0.20199494010986499 0.40198969444896959 0 0.181759741992398 0.4014692571533785 0 0.1694535878235609 0.40215310082521211 0 0.18055817647805239 0.38812426258728072 0 0.1750322635581138 0.41360997075205158 0 0.181759741992398 0.4014692571533785 0 0.1694535878235609 0.40215310082521211 0 0.1559356343279934 0.39408925795038291 0 0.1637238614146046 0.41512232641439162 0 0.1559356343279934 0.39408925795038291 0 0.1694535878235609 0.40215310082521211 0 0.18055817647805239 0.38812426258728072 0 0.1559356343279934 0.39408925795038291 0 0.1637238614146046 0.41512232641439162 0 0.1694535878235609 0.40215310082521211 0 0.16712598588580149 0.36959965471450201 0 0.1481474072413822 0.37305618948637398 0 0.1559356343279934 0.39408925795038291 0 0.16712598588580149 0.36959965471450201 0 0.1559356343279934 0.39408925795038291 0 0.18055817647805239 0.38812426258728072 0 0.20530470127214309 0.37499167066335731 0 0.18055817647805239 0.38812426258728072 0 0.20199494010986499 0.40198969444896959 0 0.20530470127214309 0.37499167066335731 0 0.18527744487455561 0.36448388752910882 0 0.18055817647805239 0.38812426258728072 0 0.181759741992398 0.4014692571533785 0 0.18055817647805239 0.38812426258728072 0 0.20199494010986499 0.40198969444896959 0 0.20199494010986499 0.40198969444896959 0 0.2289576166616164 0.39036941814588749 0 0.20199494010986499 0.40198969444896959 0 0.2289576166616164 0.39036941814588749 0 0.21711423007704009 0.41416087831965381 0 0.20530470127214309 0.37499167066335731 0 0.20199494010986499 0.40198969444896959 0 0.2289576166616164 0.39036941814588749 0 0.22585783825035571 0.3723645146877983 0 0.2289576166616164 0.39036941814588749 0 0.23886152724640181 0.37536750124850943 0 0.22585783825035571 0.3723645146877983 0 0.20530470127214309 0.37499167066335731 0 0.2289576166616164 0.39036941814588749 0 0.2289576166616164 0.39036941814588749 0 0.23384575370489011 0.41228468132644602 0 0.21711423007704009 0.41416087831965381 0 0.2289576166616164 0.39036941814588749 0 0.2445212999378823 0.39842746020603098 0 0.23384575370489011 0.41228468132644602 0 0.2445212999378823 0.39842746020603098 0 0.24772174732239871 0.41042670374335971 0 0.25496869930512001 0.40320859073049431 0 0.2289576166616164 0.39036941814588749 0 0.2445212999378823 0.39842746020603098 0 0.25592029321336779 0.37874914184280539 0 0.2289576166616164 0.39036941814588749 0 0.25592029321336779 0.37874914184280539 0 0.2289576166616164 0.39036941814588749 0 0.23886152724640181 0.37536750124850943 0 0.25592029321336779 0.37874914184280539 0 0.24175016542794861 0.43052107645578441 0 0.23384575370489011 0.41228468132644602 0 0.22889857838244601 0.42781701534546618 0 0.24175016542794861 0.43052107645578441 0 0.23384575370489011 0.41228468132644602 0 0.25128587781223161 0.42297503557477428 0 0.24175016542794861 0.43052107645578441 0 0.22889857838244601 0.42781701534546618 0 0.23419783964928331 0.43621814991441471 0 0.24175016542794861 0.43052107645578441 0 0.23419783964928331 0.43621814991441471 0 0.24207478202628049 0.44239364197936287 0 0.24772174732239871 0.41042670374335971 0 0.23384575370489011 0.41228468132644602 0 0.25128587781223161 0.42297503557477428 0 0.2445212999378823 0.39842746020603098 0 0.24772174732239871 0.41042670374335971 0 0.23384575370489011 0.41228468132644602 0 0.23384575370489011 0.41228468132644602 0 0.22889857838244601 0.42781701534546618 0 0.21711423007704009 0.41416087831965381 0 0.23384575370489011 0.41228468132644602 0 0.22889857838244601 0.42781701534546618 0 0.22889857838244601 0.42781701534546618 0 0.21397167320398031 0.43074141438712338 0 0.21711423007704009 0.41416087831965381 0 0.22889857838244601 0.42781701534546618 0 0.23419783964928331 0.43621814991441471 0 0.22395140306000089 0.44334934936448622 0 0.22889857838244601 0.42781701534546618 0 0.21397167320398031 0.43074141438712338 0 0.22395140306000089 0.44334934936448622 0 0.22889857838244601 0.42781701534546618 0 0.22395140306000089 0.44334934936448622 0 0.21397167320398031 0.43074141438712338 0 0.21711423007704009 0.41416087831965381 0 0.19501681839944349 0.42176304626403038 0 0.21397167320398031 0.43074141438712338 0 0.19501681839944349 0.42176304626403038 0 0.20515915516641431 0.44434032848202931 0 0.20199494010986499 0.40198969444896959 0 0.21711423007704009 0.41416087831965381 0 0.19501681839944349 0.42176304626403038 0 0.1750322635581138 0.41360997075205158 0 0.20199494010986499 0.40198969444896959 0 0.19501681839944349 0.42176304626403038 0 0.1750322635581138 0.41360997075205158 0 0.20199494010986499 0.40198969444896959 0 0.1794354781626683 0.42559199185874391 0 0.19501681839944349 0.42176304626403038 0 0.18833562183381211 0.4402478616802179 0 0.19501681839944349 0.42176304626403038 0 0.18833562183381211 0.4402478616802179 0 0.20515915516641431 0.44434032848202931 0 0.1912144393181284 0.45535371225967791 0 0.20515915516641431 0.44434032848202931 0 0.17512922150319371 0.44592390897383649 0 0.20515915516641431 0.44434032848202931 0 0.17512922150319371 0.44592390897383649 0 0.18833562183381211 0.4402478616802179 0 0.20515915516641431 0.44434032848202931 0 0.1912144393181284 0.45535371225967791 0 0.20850845516475811 0.45943620392773638 0 0.20515915516641431 0.44434032848202931 0 0.18833562183381211 0.4402478616802179 0 0.20515915516641431 0.44434032848202931 0 0.17512922150319371 0.44592390897383649 0 0.1912144393181284 0.45535371225967791 0 0.20850845516475811 0.45943620392773638 0 0.18474976762031289 0.47190538112304908 0 0.20850845516475811 0.45943620392773638 0 0.21425530159755729 0.47379158696090801 0 0.18474976762031289 0.47190538112304908 0 0.20850845516475811 0.45943620392773638 0 0.2226028953377272 0.44758317392181352 0 0.21425530159755729 0.47379158696090801 0 0.2226028953377272 0.44758317392181352 0 0.21425530159755729 0.47379158696090801 0 0.20515915516641431 0.44434032848202931 0 0.22395140306000089 0.44334934936448622 0 0.20515915516641431 0.44434032848202931 0 0.21279583660005341 0.44474854571045808 0 0.22395140306000089 0.44334934936448622 0 0.21397167320398031 0.43074141438712338 0 0.20515915516641431 0.44434032848202931 0 0.22395140306000089 0.44334934936448622 0 0.20850845516475811 0.45943620392773638 0 0.20515915516641431 0.44434032848202931 0 0.21841759034073641 0.44756555499789891 0 0.21279583660005341 0.44474854571045808 0 0.2226028953377272 0.44758317392181352 0 0.20515915516641431 0.44434032848202931 0 0.21841759034073641 0.44756555499789891 0 0.21841759034073641 0.44756555499789891 0 0.21279583660005341 0.44474854571045808 0 0.2226028953377272 0.44758317392181352 0 0.20515915516641431 0.44434032848202931 0 0.21841759034073641 0.44756555499789891 0 0.21279583660005341 0.44474854571045808 0 0.20850845516475811 0.45943620392773638 0 0.21841759034073641 0.44756555499789891 0 0.2226028953377272 0.44758317392181352 0 0.21279583660005341 0.44474854571045808 0 0.22395140306000089 0.44334934936448622 0 0.2226028953377272 0.44758317392181352 0 0.22395140306000089 0.44334934936448622 0 0.24207478202628049 0.44239364197936287 0 0.23419783964928331 0.43621814991441471 0 0.22395140306000089 0.44334934936448622 0 0.24207478202628049 0.44239364197936287 0 0.2226028953377272 0.44758317392181352 0 0.245728265230131 0.45426732129448261 0 0.22395140306000089 0.44334934936448622 0 0.2226028953377272 0.44758317392181352 0 0.24207478202628049 0.44239364197936287 0 0.22395140306000089 0.44334934936448622 0 0.2226028953377272 0.44758317392181352 0 0.2226028953377272 0.44758317392181352 0 0.23025520836679861 0.46445409309265789 0 0.245728265230131 0.45426732129448261 0 0.2226028953377272 0.44758317392181352 0 0.23025520836679861 0.46445409309265789 0 0.21425530159755729 0.47379158696090801 0 0.23025520836679861 0.46445409309265789 0 0.245728265230131 0.45426732129448261 0 0.24261863591353991 0.46960892170715218 0 0.245728265230131 0.45426732129448261 0 0.24261863591353991 0.46960892170715218 0 0.25429293155706229 0.46713712892986659 0 0.245728265230131 0.45426732129448261 0 0.24207478202628049 0.44239364197936287 0 0.26019816099256032 0.44143793459424202 0 0.24175016542794861 0.43052107645578441 0 0.24207478202628049 0.44239364197936287 0 0.26019816099256032 0.44143793459424202 0 0.2226028953377272 0.44758317392181352 0 0.245728265230131 0.45426732129448261 0 0.24207478202628049 0.44239364197936287 0 0.24923232485093619 0.48011128193403829 0 0.23135977591958601 0.48169359144682988 0 0.2330753567465513 0.5 0 0.24923232485093619 0.48011128193403829 0 0.2330753567465513 0.5 0 0.26024300563571762 0.5 0 0.23025520836679861 0.46445409309265789 0 0.24261863591353991 0.46960892170715218 0 0.23135977591958601 0.48169359144682988 0 0.24923232485093619 0.48011128193403829 0 0.24261863591353991 0.46960892170715218 0 0.23135977591958601 0.48169359144682988 0 0.24923232485093619 0.48011128193403829 0 0.24261863591353991 0.46960892170715218 0 0.25429293155706229 0.46713712892986659 0 0.23025520836679861 0.46445409309265789 0 0.23135977591958601 0.48169359144682988 0 0.21425530159755729 0.47379158696090801 0 0.23135977591958601 0.48169359144682988 0 0.2330753567465513 0.5 0 0.20590770785738499 0.50000000000000178 0 0.20590770785738499 0.50000000000000178 0 0.21425530159755729 0.47379158696090801 0 0.20590770785738499 0.50000000000000178 0 0.21425530159755729 0.47379158696090801 0 0.1951683376606807 0.48607348719104282 0 0.23135977591958601 0.48169359144682988 0 0.20590770785738499 0.50000000000000178 0 0.21425530159755729 0.47379158696090801 0 0.21425530159755729 0.47379158696090801 0 0.1951683376606807 0.48607348719104282 0 0.18474976762031289 0.47190538112304908 0 0.20590770785738499 0.50000000000000178 0 0.1951683376606807 0.48607348719104282 0 0.18442896746397319 0.5 0 0.1951683376606807 0.48607348719104282 0 0.17455755104778101 0.48591086300833197 0 0.18442896746397319 0.5 0 0.17455755104778101 0.48591086300833197 0 0.18442896746397319 0.5 0 0.16295022707056131 0.5 0 0.17455755104778101 0.48591086300833197 0 0.16295022707056131 0.5 0 0.15782234273691551 0.47274948435599351 0 0.17455755104778101 0.48591086300833197 0 0.15782234273691551 0.47274948435599351 0 0.18474976762031289 0.47190538112304908 0 0.1951683376606807 0.48607348719104282 0 0.17455755104778101 0.48591086300833197 0 0.18474976762031289 0.47190538112304908 0 0.1912144393181284 0.45535371225967791 0 0.18474976762031289 0.47190538112304908 0 0.17512922150319371 0.44592390897383649 0 0.18474976762031289 0.47190538112304908 0 0.17512922150319371 0.44592390897383649 0 0.15782234273691551 0.47274948435599351 0 0.18474976762031289 0.47190538112304908 0 0.17512922150319371 0.44592390897383649 0 0.1715120885012108 0.43615539487840232 0 0.18833562183381211 0.4402478616802179 0 0.17512922150319371 0.44592390897383649 0 0.1715120885012108 0.43615539487840232 0 0.18833562183381211 0.4402478616802179 0 0.1715120885012108 0.43615539487840232 0 0.17512922150319371 0.44592390897383649 0 0.17512922150319371 0.44592390897383649 0 0.1492661388947675 0.44728775724389841 0 0.1715120885012108 0.43615539487840232 0 0.17512922150319371 0.44592390897383649 0 0.1492661388947675 0.44728775724389841 0 0.15782234273691551 0.47274948435599351 0 0.17512922150319371 0.44592390897383649 0 0.1492661388947675 0.44728775724389841 0 0.15782234273691551 0.47274948435599351 0 0.1492661388947675 0.44728775724389841 0 0.13759267631936009 0.46485249453493421 0 0.14687355643079761 0.43016186352264868 0 0.1715120885012108 0.43615539487840232 0 0.1492661388947675 0.44728775724389841 0 0.12340305628634129 0.44865160551396183 0 0.1492661388947675 0.44728775724389841 0 0.12340305628634129 0.44865160551396183 0 0.14687355643079761 0.43016186352264868 0 0.1492661388947675 0.44728775724389841 0 0.12340305628634129 0.44865160551396183 0 0.1492661388947675 0.44728775724389841 0 0.13759267631936009 0.46485249453493421 0 0.12405882547213599 0.46239727108338857 0 0.12340305628634129 0.44865160551396183 0 0.13759267631936009 0.46485249453493421 0 0.12405882547213599 0.46239727108338857 0 0.13759267631936009 0.46485249453493421 0 0.12855994965836309 0.47453026711805119 0 0.13759267631936009 0.46485249453493421 0 0.12855994965836309 0.47453026711805119 0 0.14475545317108979 0.48273277282822702 0 0.12855994965836309 0.47453026711805119 0 0.1414714866771494 0.49999999999998901 0 0.1153671493593045 0.5 0 0.12855994965836309 0.47453026711805119 0 0.1414714866771494 0.49999999999998901 0 0.12855994965836309 0.47453026711805119 0 0.1414714866771494 0.49999999999998901 0 0.14475545317108979 0.48273277282822702 0 0.16295022707056131 0.5 0 0.1414714866771494 0.49999999999998901 0 0.14475545317108979 0.48273277282822702 0 0.16295022707056131 0.5 0 0.15782234273691551 0.47274948435599351 0 0.14475545317108979 0.48273277282822702 0 0.15782234273691551 0.47274948435599351 0 0.13759267631936009 0.46485249453493421 0 0.14475545317108979 0.48273277282822702 0 0.35663645170206959 0.4742285787889049 0 0.34389067945645407 0.46301581339775999 0 0.3412739859050451 0.47960376758839812 0 0.35663645170206959 0.4742285787889049 0 0.35621847007768992 0.48625449604046678 0 0.3412739859050451 0.47960376758839812 0 0.35621847007768992 0.48625449604046678 0 0.36891360119238159 0.5 0 0.34174595230321569 0.5 0 0.35621847007768992 0.48625449604046678 0 0.3412739859050451 0.47960376758839812 0 0.34174595230321569 0.5 0 0.35621847007768992 0.48625449604046678 0 0.36891360119238159 0.5 0 0.37102616877421812 0.47990382161489231 0 0.35663645170206959 0.4742285787889049 0 0.35621847007768992 0.48625449604046678 0 0.37102616877421812 0.47990382161489231 0 0.35663645170206959 0.4742285787889049 0 0.37102616877421812 0.47990382161489231 0 0.35663645170206959 0.4742285787889049 0 0.37102616877421812 0.47990382161489231 0 0.37056231748715063 0.46549514162231442 0 0.37056231748715063 0.46549514162231442 0 0.35589104969797708 0.44537150834839939 0 0.37512159256099409 0.46723749568800771 0 0.37056231748715063 0.46549514162231442 0 0.35589104969797708 0.44537150834839939 0 0.35669954944340232 0.46203768815318202 0 0.35589104969797708 0.44537150834839939 0 0.37512159256099409 0.46723749568800771 0 0.37056231748715063 0.46549514162231442 0 0.35589104969797708 0.44537150834839939 0 0.35663645170206959 0.4742285787889049 0 0.37056231748715063 0.46549514162231442 0 0.35669954944340232 0.46203768815318202 0 0.36856146243249033 0.44407763524990829 0 0.35589104969797708 0.44537150834839939 0 0.37512159256099409 0.46723749568800771 0 0.36856146243249033 0.44407763524990829 0 0.38085702682071321 0.44702362668510748 0 0.37512159256099409 0.46723749568800771 0 0.36856146243249033 0.44407763524990829 0 0.37496066392291932 0.43554357024030838 0 0.38085702682071321 0.44702362668510748 0 0.36856146243249033 0.44407763524990829 0 0.36015086439732058 0.44003657534299129 0 0.35589104969797708 0.44537150834839939 0 0.36856146243249033 0.44407763524990829 0 0.36015086439732058 0.44003657534299129 0 0.3642780136467465 0.43200519773475948 0 0.35589104969797708 0.44537150834839939 0 0.34389067945645407 0.46301581339775999 0 0.33244503931737812 0.4504787427805575 0 0.35589104969797708 0.44537150834839939 0 0.33244503931737812 0.4504787427805575 0 0.35456038192340011 0.44385847957331859 0 0.34946850859191081 0.4380687918565272 0 0.35623522510629457 0.43513759173327121 0 0.36015086439732058 0.44003657534299129 0 0.35456038192340011 0.44385847957331859 0 0.35623522510629457 0.43513759173327121 0 0.35456038192340011 0.44385847957331859 0 0.34946850859191081 0.4380687918565272 0 0.36015086439732058 0.44003657534299129 0 0.35456038192340011 0.44385847957331859 0 0.35589104969797708 0.44537150834839939 0 0.35456038192340011 0.44385847957331859 0 0.35589104969797708 0.44537150834839939 0 0.35456038192340011 0.44385847957331859 0 0.34946850859191081 0.4380687918565272 0 0.34144782946785218 0.44030417100584018 0 0.35456038192340011 0.44385847957331859 0 0.35589104969797708 0.44537150834839939 0 0.34144782946785218 0.44030417100584018 0 0.35589104969797708 0.44537150834839939 0 0.35669954944340232 0.46203768815318202 0 0.34389067945645407 0.46301581339775999 0 0.35663645170206959 0.4742285787889049 0 0.35669954944340232 0.46203768815318202 0 0.34389067945645407 0.46301581339775999 0 0.33244503931737812 0.4504787427805575 0 0.32953640512702848 0.47207868415318671 0 0.34389067945645407 0.46301581339775999 0 0.33244503931737812 0.4504787427805575 0 0.32953640512702848 0.47207868415318671 0 0.35589104969797708 0.44537150834839939 0 0.33244503931737812 0.4504787427805575 0 0.34144782946785218 0.44030417100584018 0 0.33244503931737812 0.4504787427805575 0 0.31870740299584172 0.45053290855922201 0 0.33545712111755688 0.42811058438196031 0 0.33244503931737812 0.4504787427805575 0 0.33545712111755688 0.42811058438196031 0 0.33244503931737812 0.4504787427805575 0 0.34144782946785218 0.44030417100584018 0 0.33545712111755688 0.42811058438196031 0 0.31870740299584172 0.45053290855922201 0 0.3192173465544958 0.43796526048271461 0 0.33545712111755688 0.42811058438196031 0 0.31870740299584172 0.45053290855922201 0 0.33545712111755688 0.42811058438196031 0 0.33244503931737812 0.4504787427805575 0 0.31870740299584172 0.45053290855922201 0 0.31254823049292269 0.45481285615288508 0 0.33244503931737812 0.4504787427805575 0 0.31254823049292269 0.45481285615288508 0 0.31870740299584172 0.45053290855922201 0 0.31254823049292269 0.45481285615288508 0 0.31011666116085912 0.44494894947138958 0 0.3192173465544958 0.43796526048271461 0 0.31011666116085912 0.44494894947138958 0 0.31177978688315211 0.43492112008913542 0 0.31870740299584172 0.45053290855922201 0 0.3192173465544958 0.43796526048271461 0 0.31011666116085912 0.44494894947138958 0 0.33244503931737812 0.4504787427805575 0 0.31777574851888768 0.46665980944327051 0 0.32953640512702848 0.47207868415318671 0 0.33244503931737812 0.4504787427805575 0 0.31254823049292269 0.45481285615288508 0 0.31777574851888768 0.46665980944327051 0 0.31777574851888768 0.46665980944327051 0 0.31961595676381299 0.48204503315007008 0 0.30653222971862748 0.46818151500133193 0 0.31777574851888768 0.46665980944327051 0 0.31961595676381299 0.48204503315007008 0 0.32953640512702848 0.47207868415318671 0 0.34389067945645407 0.46301581339775999 0 0.32953640512702848 0.47207868415318671 0 0.3412739859050451 0.47960376758839812 0 0.31961595676381299 0.48204503315007008 0 0.32953640512702848 0.47207868415318671 0 0.3412739859050451 0.47960376758839812 0 0.31961595676381299 0.48204503315007008 0 0.3412739859050451 0.47960376758839812 0 0.34174595230321569 0.5 0 0.31961595676381299 0.48204503315007008 0 0.34174595230321569 0.5 0 0.31457830341404969 0.5 0 0.31457830341404969 0.5 0 0.30060257529068191 0.48128974964602378 0 0.28741065452488368 0.5 0 0.31961595676381299 0.48204503315007008 0 0.31457830341404969 0.5 0 0.30060257529068191 0.48128974964602378 0 0.31961595676381299 0.48204503315007008 0 0.30060257529068191 0.48128974964602378 0 0.30653222971862748 0.46818151500133193 0 0.30060257529068191 0.48128974964602378 0 0.29265142166846719 0.45914696952521261 0 0.30653222971862748 0.46818151500133193 0 0.30060257529068191 0.48128974964602378 0 0.29265142166846719 0.45914696952521261 0 0.29197900501493862 0.46763561603982068 0 0.30060257529068191 0.48128974964602378 0 0.29265142166846719 0.45914696952521261 0 0.30060257529068191 0.48128974964602378 0 0.28720216650477781 0.4808030035759237 0 0.29197900501493862 0.46763561603982068 0 0.28720216650477781 0.4808030035759237 0 0.27778566900489737 0.47355626848764282 0 0.29197900501493862 0.46763561603982068 0 0.28720216650477781 0.4808030035759237 0 0.28741065452488368 0.5 0 0.27607284990278019 0.48474501322331248 0 0.30060257529068191 0.48128974964602378 0 0.28720216650477781 0.4808030035759237 0 0.28741065452488368 0.5 0 0.28741065452488368 0.5 0 0.27607284990278019 0.48474501322331248 0 0.26024300563571762 0.5 0 0.27607284990278019 0.48474501322331248 0 0.264820688479455 0.47364624093200491 0 0.26024300563571762 0.5 0 0.28720216650477781 0.4808030035759237 0 0.27607284990278019 0.48474501322331248 0 0.27778566900489737 0.47355626848764282 0 0.27778566900489737 0.47355626848764282 0 0.264820688479455 0.47364624093200491 0 0.2688536351225348 0.46095146866715148 0 0.27607284990278019 0.48474501322331248 0 0.27778566900489737 0.47355626848764282 0 0.264820688479455 0.47364624093200491 0 0.24923232485093619 0.48011128193403829 0 0.264820688479455 0.47364624093200491 0 0.25429293155706229 0.46713712892986659 0 0.24923232485093619 0.48011128193403829 0 0.264820688479455 0.47364624093200491 0 0.26024300563571762 0.5 0 0.245728265230131 0.45426732129448261 0 0.26019816099256032 0.44143793459424202 0 0.26593644203117961 0.44978193614582229 0 0.24207478202628049 0.44239364197936287 0 0.26019816099256032 0.44143793459424202 0 0.245728265230131 0.45426732129448261 0 0.25429293155706229 0.46713712892986659 0 0.2688536351225348 0.46095146866715148 0 0.245728265230131 0.45426732129448261 0 0.2688536351225348 0.46095146866715148 0 0.245728265230131 0.45426732129448261 0 0.2688536351225348 0.46095146866715148 0 0.26593644203117961 0.44978193614582229 0 0.264820688479455 0.47364624093200491 0 0.25429293155706229 0.46713712892986659 0 0.2688536351225348 0.46095146866715148 0 0.2688536351225348 0.46095146866715148 0 0.27395184381117937 0.45417387302564022 0 0.26593644203117961 0.44978193614582229 0 0.2688536351225348 0.46095146866715148 0 0.27754963046639852 0.46243658625583922 0 0.27395184381117937 0.45417387302564022 0 0.27778566900489737 0.47355626848764282 0 0.2688536351225348 0.46095146866715148 0 0.29197900501493862 0.46763561603982068 0 0.2688536351225348 0.46095146866715148 0 0.29197900501493862 0.46763561603982068 0 0.2688536351225348 0.46095146866715148 0 0.27754963046639852 0.46243658625583922 0 0.29197900501493862 0.46763561603982068 0 0.27754963046639852 0.46243658625583922 0 0.27395184381117937 0.45417387302564022 0 0.28156841276964778 0.45191676036945988 0 0.27395184381117937 0.45417387302564022 0 0.27585109866613622 0.44578261368992789 0 0.28156841276964778 0.45191676036945988 0 0.27585109866613622 0.44578261368992789 0 0.28156841276964778 0.45191676036945988 0 0.28339007751768858 0.43335550367038278 0 0.27395184381117937 0.45417387302564022 0 0.27585109866613622 0.44578261368992789 0 0.26593644203117961 0.44978193614582229 0 0.27585109866613622 0.44578261368992789 0 0.26593644203117961 0.44978193614582229 0 0.27183624152703117 0.43685500569961683 0 0.26019816099256032 0.44143793459424202 0 0.26593644203117961 0.44978193614582229 0 0.27183624152703117 0.43685500569961683 0 0.27585109866613622 0.44578261368992789 0 0.28339007751768858 0.43335550367038278 0 0.27183624152703117 0.43685500569961683 0 0.28156841276964778 0.45191676036945988 0 0.29265142166846719 0.45914696952521261 0 0.28339007751768858 0.43335550367038278 0 0.29265142166846719 0.45914696952521261 0 0.30065673213498018 0.44880786816107532 0 0.28339007751768858 0.43335550367038278 0 0.30065673213498018 0.44880786816107532 0 0.29911220659201571 0.43744654324058002 0 0.28339007751768858 0.43335550367038278 0 0.29265142166846719 0.45914696952521261 0 0.28339007751768858 0.43335550367038278 0 0.27754963046639852 0.46243658625583922 0 0.29265142166846719 0.45914696952521261 0 0.29197900501493862 0.46763561603982068 0 0.27754963046639852 0.46243658625583922 0 0.29265142166846719 0.45914696952521261 0 0.27754963046639852 0.46243658625583922 0 0.28156841276964778 0.45191676036945988 0 0.29265142166846719 0.45914696952521261 0 0.31254823049292269 0.45481285615288508 0 0.29265142166846719 0.45914696952521261 0 0.30065673213498018 0.44880786816107532 0 0.31254823049292269 0.45481285615288508 0 0.29265142166846719 0.45914696952521261 0 0.31254823049292269 0.45481285615288508 0 0.29265142166846719 0.45914696952521261 0 0.30653222971862748 0.46818151500133193 0 0.31254823049292269 0.45481285615288508 0 0.31777574851888768 0.46665980944327051 0 0.30653222971862748 0.46818151500133193 0 0.30065673213498018 0.44880786816107532 0 0.31011666116085912 0.44494894947138958 0 0.29911220659201571 0.43744654324058002 0 0.31254823049292269 0.45481285615288508 0 0.30065673213498018 0.44880786816107532 0 0.31011666116085912 0.44494894947138958 0 0.31011666116085912 0.44494894947138958 0 0.31177978688315211 0.43492112008913542 0 0.29911220659201571 0.43744654324058002 0 0.31050947719563399 0.42208819017491311 0 0.29911220659201571 0.43744654324058002 0 0.31050947719563399 0.42208819017491311 0 0.29911220659201571 0.43744654324058002 0 0.29244328774245948 0.41614196154579158 0 0.31177978688315211 0.43492112008913542 0 0.31050947719563399 0.42208819017491311 0 0.29911220659201571 0.43744654324058002 0 0.31050947719563399 0.42208819017491311 0 0.30573000372804421 0.40663332047053091 0 0.29244328774245948 0.41614196154579158 0 0.30573000372804421 0.40663332047053091 0 0.29244328774245948 0.41614196154579158 0 0.2914744419702005 0.39640673583174307 0 0.29244328774245948 0.41614196154579158 0 0.27412873336691002 0.40756403781555328 0 0.2914744419702005 0.39640673583174307 0 0.29244328774245948 0.41614196154579158 0 0.28339007751768858 0.43335550367038278 0 0.27412873336691002 0.40756403781555328 0 0.29911220659201571 0.43744654324058002 0 0.29244328774245948 0.41614196154579158 0 0.28339007751768858 0.43335550367038278 0 0.28339007751768858 0.43335550367038278 0 0.26766911868455578 0.42556034591737718 0 0.27183624152703117 0.43685500569961683 0 0.28339007751768858 0.43335550367038278 0 0.26766911868455578 0.42556034591737718 0 0.27412873336691002 0.40756403781555328 0 0.26019816099256032 0.44143793459424202 0 0.26766911868455578 0.42556034591737718 0 0.27183624152703117 0.43685500569961683 0 0.28339007751768858 0.43335550367038278 0 0.27412873336691002 0.40756403781555328 0 0.26766911868455578 0.42556034591737718 0 0.27412873336691002 0.40756403781555328 0 0.25897228328246541 0.41415252442921391 0 0.26766911868455578 0.42556034591737718 0 0.25897228328246541 0.41415252442921391 0 0.25128587781223161 0.42297503557477428 0 0.27412873336691002 0.40756403781555328 0 0.25897228328246541 0.41415252442921391 0 0.25496869930512001 0.40320859073049431 0 0.24772174732239871 0.41042670374335971 0 0.25897228328246541 0.41415252442921391 0 0.25496869930512001 0.40320859073049431 0 0.24772174732239871 0.41042670374335971 0 0.25897228328246541 0.41415252442921391 0 0.25128587781223161 0.42297503557477428 0 0.24175016542794861 0.43052107645578441 0 0.26019816099256032 0.44143793459424202 0 0.25128587781223161 0.42297503557477428 0 0.26019816099256032 0.44143793459424202 0 0.26766911868455578 0.42556034591737718 0 0.25128587781223161 0.42297503557477428 0 0.2445212999378823 0.39842746020603098 0 0.25592029321336779 0.37874914184280539 0 0.25767811525333079 0.39292168196757971 0 0.2648673892161314 0.38177257196072367 0 0.25592029321336779 0.37874914184280539 0 0.25767811525333079 0.39292168196757971 0 0.2648673892161314 0.38177257196072367 0 0.25592029321336779 0.37874914184280539 0 0.26378936728388508 0.36866823472240462 0 0.27412873336691002 0.40756403781555328 0 0.25767811525333079 0.39292168196757971 0 0.25496869930512001 0.40320859073049431 0 0.27412873336691002 0.40756403781555328 0 0.2648673892161314 0.38177257196072367 0 0.25767811525333079 0.39292168196757971 0 0.2445212999378823 0.39842746020603098 0 0.25767811525333079 0.39292168196757971 0 0.25496869930512001 0.40320859073049431 0 0.27412873336691002 0.40756403781555328 0 0.2648673892161314 0.38177257196072367 0 0.27412873336691002 0.40756403781555328 0 0.2648673892161314 0.38177257196072367 0 0.27893278987490733 0.38172028826524612 0 0.2648673892161314 0.38177257196072367 0 0.27893278987490733 0.38172028826524612 0 0.26378936728388508 0.36866823472240462 0 0.27893278987490733 0.38172028826524612 0 0.2914744419702005 0.39640673583174307 0 0.29349435150740599 0.37442367175391128 0 0.27893278987490733 0.38172028826524612 0 0.29349435150740599 0.37442367175391128 0 0.27412873336691002 0.40756403781555328 0 0.27893278987490733 0.38172028826524612 0 0.2914744419702005 0.39640673583174307 0 0.30573000372804421 0.40663332047053091 0 0.30770054965332722 0.39057675443158008 0 0.32190674779925182 0.40672983710924587 0 0.30573000372804421 0.40663332047053091 0 0.2914744419702005 0.39640673583174307 0 0.30770054965332722 0.39057675443158008 0 0.2914744419702005 0.39640673583174307 0 0.30770054965332722 0.39057675443158008 0 0.29349435150740599 0.37442367175391128 0 0.30770054965332722 0.39057675443158008 0 0.31367600362349451 0.37864024705387239 0 0.29349435150740599 0.37442367175391128 0 0.30770054965332722 0.39057675443158008 0 0.29349435150740599 0.37442367175391128 0 0.30770054965332722 0.39057675443158008 0 0.31367600362349451 0.37864024705387239 0 0.32226469685540171 0.38702591064487818 0 0.31367600362349451 0.37864024705387239 0 0.32226469685540171 0.38702591064487818 0 0.32764592060083753 0.37318230665729452 0 0.33869195845232303 0.38411098383663789 0 0.34130140430382833 0.38059463399403309 0 0.33897996237605282 0.40194945181292091 0 0.34130140430382833 0.38059463399403309 0 0.33897996237605282 0.40194945181292091 0 0.34579556604546352 0.38845729776097238 0 0.33869195845232303 0.38411098383663789 0 0.34130140430382833 0.38059463399403309 0 0.33993848193767418 0.3662306035205577 0 0.32226469685540171 0.38702591064487818 0 0.33869195845232303 0.38411098383663789 0 0.32764592060083753 0.37318230665729452 0 0.33869195845232303 0.38411098383663789 0 0.34130140430382833 0.38059463399403309 0 0.33869195845232303 0.38411098383663789 0 0.33897996237605282 0.40194945181292091 0 0.32190674779925182 0.40672983710924587 0 0.33869195845232303 0.38411098383663789 0 0.32190674779925182 0.40672983710924587 0 0.34130140430382833 0.38059463399403309 0 0.33897996237605282 0.40194945181292091 0 0.30770054965332722 0.39057675443158008 0 0.32190674779925182 0.40672983710924587 0 0.30770054965332722 0.39057675443158008 0 0.32226469685540171 0.38702591064487818 0 0.32190674779925182 0.40672983710924587 0 0.32226469685540171 0.38702591064487818 0 0.33869195845232303 0.38411098383663789 0 0.32190674779925182 0.40672983710924587 0 0.31050947719563399 0.42208819017491311 0 0.32190674779925182 0.40672983710924587 0 0.32489939852434052 0.42405181846681261 0 0.32190674779925182 0.40672983710924587 0 0.32489939852434052 0.42405181846681261 0 0.33615468434322548 0.4229303782122924 0 0.31050947719563399 0.42208819017491311 0 0.30573000372804421 0.40663332047053091 0 0.32190674779925182 0.40672983710924587 0 0.31050947719563399 0.42208819017491311 0 0.32190674779925182 0.40672983710924587 0 0.3192173465544958 0.43796526048271461 0 0.32010827831738492 0.4304688227476523 0 0.33545712111755688 0.42811058438196031 0 0.3192173465544958 0.43796526048271461 0 0.31177978688315211 0.43492112008913542 0 0.32010827831738492 0.4304688227476523 0 0.31177978688315211 0.43492112008913542 0 0.31050947719563399 0.42208819017491311 0 0.32010827831738492 0.4304688227476523 0 0.31050947719563399 0.42208819017491311 0 0.32010827831738492 0.4304688227476523 0 0.32489939852434052 0.42405181846681261 0 0.32010827831738492 0.4304688227476523 0 0.32489939852434052 0.42405181846681261 0 0.33545712111755688 0.42811058438196031 0 0.32489939852434052 0.42405181846681261 0 0.33545712111755688 0.42811058438196031 0 0.33615468434322548 0.4229303782122924 0 0.33545712111755688 0.42811058438196031 0 0.33615468434322548 0.4229303782122924 0 0.33545712111755688 0.42811058438196031 0 0.33615468434322548 0.4229303782122924 0 0.33786990709652193 0.42488066319776319 0 0.33615468434322548 0.4229303782122924 0 0.33786990709652193 0.42488066319776319 0 0.33545712111755688 0.42811058438196031 0 0.33786990709652193 0.42488066319776319 0 0.34946850859191081 0.4380687918565272 0 0.34144782946785218 0.44030417100584018 0 0.33786990709652193 0.42488066319776319 0 0.34144782946785218 0.44030417100584018 0 0.33545712111755688 0.42811058438196031 0 0.33786990709652193 0.42488066319776319 0 0.34946850859191081 0.4380687918565272 0 0.33786990709652193 0.42488066319776319 0 0.33897996237605282 0.40194945181292091 0 0.33615468434322548 0.4229303782122924 0 0.33897996237605282 0.40194945181292091 0 0.32190674779925182 0.40672983710924587 0 0.33615468434322548 0.4229303782122924 0 0.32190674779925182 0.40672983710924587 0 0.33615468434322548 0.4229303782122924 0 0.33615468434322548 0.4229303782122924 0 0.33786990709652193 0.42488066319776319 0 0.35107088604499692 0.40720892524438551 0 0.33897996237605282 0.40194945181292091 0 0.33615468434322548 0.4229303782122924 0 0.35107088604499692 0.40720892524438551 0 0.33786990709652193 0.42488066319776319 0 0.35107088604499692 0.40720892524438551 0 0.35107088604499692 0.40720892524438551 0 0.35754259390987159 0.41392016689638678 0 0.35180886279880119 0.42377751485205267 0 0.33786990709652193 0.42488066319776319 0 0.35107088604499692 0.40720892524438551 0 0.35180886279880119 0.42377751485205267 0 0.35754259390987159 0.41392016689638678 0 0.35180886279880119 0.42377751485205267 0 0.36153161156085478 0.42240580185995041 0 0.35107088604499692 0.40720892524438551 0 0.35754259390987159 0.41392016689638678 0 0.35936963540747791 0.4044454178113337 0 0.34946850859191081 0.4380687918565272 0 0.33786990709652193 0.42488066319776319 0 0.35062876654492081 0.42996034837620201 0 0.33786990709652193 0.42488066319776319 0 0.35062876654492081 0.42996034837620201 0 0.35180886279880119 0.42377751485205267 0 0.35180886279880119 0.42377751485205267 0 0.35727057116847161 0.4283687885602267 0 0.36153161156085478 0.42240580185995041 0 0.35062876654492081 0.42996034837620201 0 0.35180886279880119 0.42377751485205267 0 0.35727057116847161 0.4283687885602267 0 0.35727057116847161 0.4283687885602267 0 0.35623522510629457 0.43513759173327121 0 0.3642780136467465 0.43200519773475948 0 0.34946850859191081 0.4380687918565272 0 0.35062876654492081 0.42996034837620201 0 0.35623522510629457 0.43513759173327121 0 0.35062876654492081 0.42996034837620201 0 0.35727057116847161 0.4283687885602267 0 0.35623522510629457 0.43513759173327121 0 0.36015086439732058 0.44003657534299129 0 0.35623522510629457 0.43513759173327121 0 0.3642780136467465 0.43200519773475948 0 0.35727057116847161 0.4283687885602267 0 0.3642780136467465 0.43200519773475948 0 0.36153161156085478 0.42240580185995041 0 0.3642780136467465 0.43200519773475948 0 0.36153161156085478 0.42240580185995041 0 0.37272182308741741 0.42263353265252218 0 0.3642780136467465 0.43200519773475948 0 0.37272182308741741 0.42263353265252218 0 0.37496066392291932 0.43554357024030838 0 0.36856146243249033 0.44407763524990829 0 0.3642780136467465 0.43200519773475948 0 0.37496066392291932 0.43554357024030838 0 0.35754259390987159 0.41392016689638678 0 0.36426082556363137 0.41163409672386408 0 0.35936963540747791 0.4044454178113337 0 0.35754259390987159 0.41392016689638678 0 0.36153161156085478 0.42240580185995041 0 0.36426082556363137 0.41163409672386408 0 0.36153161156085478 0.42240580185995041 0 0.37272182308741741 0.42263353265252218 0 0.36426082556363137 0.41163409672386408 0 0.37272182308741741 0.42263353265252218 0 0.36426082556363137 0.41163409672386408 0 0.37953045560202608 0.40852348643003811 0 0.36437433327496282 0.3980927728141605 0 0.38354038978219313 0.39368338083776178 0 0.36437433327496282 0.3980927728141605 0 0.37266803431851148 0.38645422185544981 0 0.38354038978219313 0.39368338083776178 0 0.36426082556363137 0.41163409672386408 0 0.36437433327496282 0.3980927728141605 0 0.37953045560202608 0.40852348643003811 0 0.36426082556363137 0.41163409672386408 0 0.36437433327496282 0.3980927728141605 0 0.35936963540747791 0.4044454178113337 0 0.36437433327496282 0.3980927728141605 0 0.37266803431851148 0.38645422185544981 0 0.36427186499347208 0.38953718729100789 0 0.36437433327496282 0.3980927728141605 0 0.36427186499347208 0.38953718729100789 0 0.35936963540747791 0.4044454178113337 0 0.37266803431851148 0.38645422185544981 0 0.36996543361725859 0.37709852170534319 0 0.36465588796239162 0.38210166128331818 0 0.36996543361725859 0.37709852170534319 0 0.36465588796239162 0.38210166128331818 0 0.36287819796456239 0.37432391118093811 0 0.36465588796239162 0.38210166128331818 0 0.35814959790554868 0.38468605192290062 0 0.35863035838853141 0.37842781987448049 0 0.36465588796239162 0.38210166128331818 0 0.35863035838853141 0.37842781987448049 0 0.36287819796456239 0.37432391118093811 0 0.37266803431851148 0.38645422185544981 0 0.36465588796239162 0.38210166128331818 0 0.36427186499347208 0.38953718729100789 0 0.36465588796239162 0.38210166128331818 0 0.36427186499347208 0.38953718729100789 0 0.35814959790554868 0.38468605192290062 0 0.35814959790554868 0.38468605192290062 0 0.35232163150176082 0.3817949335205153 0 0.35233056942106528 0.39085189093105038 0 0.36427186499347208 0.38953718729100789 0 0.35814959790554868 0.38468605192290062 0 0.35233056942106528 0.39085189093105038 0 0.35863035838853141 0.37842781987448049 0 0.35232163150176082 0.3817949335205153 0 0.35590326182104259 0.37362874958897191 0 0.35863035838853141 0.37842781987448049 0 0.35590326182104259 0.37362874958897191 0 0.36287819796456239 0.37432391118093811 0 0.35814959790554868 0.38468605192290062 0 0.35863035838853141 0.37842781987448049 0 0.35232163150176082 0.3817949335205153 0 0.34130140430382833 0.38059463399403309 0 0.35232163150176082 0.3817949335205153 0 0.35590326182104259 0.37362874958897191 0 0.34130140430382833 0.38059463399403309 0 0.35232163150176082 0.3817949335205153 0 0.34579556604546352 0.38845729776097238 0 0.35232163150176082 0.3817949335205153 0 0.34579556604546352 0.38845729776097238 0 0.35233056942106528 0.39085189093105038 0 0.35107088604499692 0.40720892524438551 0 0.36427186499347208 0.38953718729100789 0 0.35233056942106528 0.39085189093105038 0 0.35107088604499692 0.40720892524438551 0 0.36427186499347208 0.38953718729100789 0 0.34579556604546352 0.38845729776097238 0 0.34660328066718982 0.39669976639337712 0 0.35233056942106528 0.39085189093105038 0 0.35107088604499692 0.40720892524438551 0 0.34660328066718982 0.39669976639337712 0 0.35233056942106528 0.39085189093105038 0 0.33897996237605282 0.40194945181292091 0 0.34579556604546352 0.38845729776097238 0 0.34660328066718982 0.39669976639337712 0 0.35107088604499692 0.40720892524438551 0 0.36427186499347208 0.38953718729100789 0 0.35936963540747791 0.4044454178113337 0 0.33897996237605282 0.40194945181292091 0 0.35107088604499692 0.40720892524438551 0 0.34660328066718982 0.39669976639337712 0 0.35462097060003211 0.3437938870227234 0 0.33424543090248993 0.35400381526645242 0 0.35462097060003211 0.3437938870227234 0 0.34925663551552522 0.35410886635614958 0 0.33424543090248993 0.35400381526645242 0 0.35645547758693252 0.3540061162185178 0 0.34925663551552522 0.35410886635614958 0 0.35547716910539379 0.36149213056402962 0 0.35645547758693252 0.3540061162185178 0 0.35547716910539379 0.36149213056402962 0 0.36014351564888297 0.35850702010981222 0 0.35645547758693252 0.3540061162185178 0 0.35462097060003211 0.3437938870227234 0 0.35926027346726858 0.34856907235344559 0 0.35645547758693252 0.3540061162185178 0 0.35462097060003211 0.3437938870227234 0 0.34925663551552522 0.35410886635614958 0 0.34925663551552522 0.35410886635614958 0 0.35547716910539379 0.36149213056402962 0 0.33993848193767418 0.3662306035205577 0 0.34130140430382833 0.38059463399403309 0 0.35547716910539379 0.36149213056402962 0 0.33993848193767418 0.3662306035205577 0 0.34130140430382833 0.38059463399403309 0 0.35547716910539379 0.36149213056402962 0 0.34130140430382833 0.38059463399403309 0 0.35590326182104259 0.37362874958897191 0 0.35547716910539379 0.36149213056402962 0 0.35590326182104259 0.37362874958897191 0 0.35547716910539379 0.36149213056402962 0 0.36430697355712682 0.36476517698031807 0 0.36430697355712682 0.36476517698031807 0 0.3835067099232759 0.3770195829208372 0 0.35547716910539379 0.36149213056402962 0 0.36430697355712682 0.36476517698031807 0 0.36014351564888297 0.35850702010981222 0 0.36430697355712682 0.36476517698031807 0 0.37376509744084729 0.35993562871136181 0 0.3835067099232759 0.3770195829208372 0 0.36996543361725859 0.37709852170534319 0 0.36430697355712682 0.36476517698031807 0 0.3835067099232759 0.3770195829208372 0 0.36996543361725859 0.37709852170534319 0 0.36430697355712682 0.36476517698031807 0 0.36287819796456239 0.37432391118093811 0 0.35590326182104259 0.37362874958897191 0 0.36430697355712682 0.36476517698031807 0 0.36287819796456239 0.37432391118093811 0 0.36430697355712682 0.36476517698031807 0 0.37376509744084729 0.35993562871136181 0 0.36433444234607931 0.35376465667638352 0 0.37376509744084729 0.35993562871136181 0 0.36433444234607931 0.35376465667638352 0 0.37305384309557271 0.34699511731599231 0 0.36430697355712682 0.36476517698031807 0 0.36433444234607931 0.35376465667638352 0 0.36014351564888297 0.35850702010981222 0 0.35645547758693252 0.3540061162185178 0 0.35926027346726858 0.34856907235344559 0 0.36433444234607931 0.35376465667638352 0 0.35645547758693252 0.3540061162185178 0 0.36433444234607931 0.35376465667638352 0 0.36014351564888297 0.35850702010981222 0 0.35462097060003211 0.3437938870227234 0 0.35926027346726858 0.34856907235344559 0 0.36539284935145089 0.34618201439628138 0 0.35926027346726858 0.34856907235344559 0 0.36433444234607931 0.35376465667638352 0 0.36539284935145089 0.34618201439628138 0 0.36433444234607931 0.35376465667638352 0 0.36539284935145089 0.34618201439628138 0 0.37305384309557271 0.34699511731599231 0 0.36539284935145089 0.34618201439628138 0 0.37305384309557271 0.34699511731599231 0 0.36581526271706738 0.33818456717398021 0 0.37305384309557271 0.34699511731599231 0 0.36581526271706738 0.33818456717398021 0 0.37539764169578338 0.3338948889294866 0 0.36581526271706738 0.33818456717398021 0 0.3634227403324688 0.32751970941513409 0 0.37539764169578338 0.3338948889294866 0 0.36581526271706738 0.33818456717398021 0 0.3634227403324688 0.32751970941513409 0 0.35253072115072492 0.32842925464311978 0 0.35462097060003211 0.3437938870227234 0 0.36581526271706738 0.33818456717398021 0 0.35462097060003211 0.3437938870227234 0 0.36539284935145089 0.34618201439628138 0 0.36581526271706738 0.33818456717398021 0 0.37271325201104771 0.32176212770686402 0 0.3634227403324688 0.32751970941513409 0 0.35044047170141668 0.31306462226351628 0 0.37271325201104771 0.32176212770686402 0 0.35044047170141668 0.31306462226351628 0 0.35690080907146082 0.31196117263315781 0 0.37271325201104771 0.32176212770686402 0 0.35690080907146082 0.31196117263315781 0 0.36980160249579258 0.30603548957239801 0 0.37271325201104771 0.32176212770686402 0 0.35044047170141668 0.31306462226351628 0 0.37271325201104771 0.32176212770686402 0 0.3634227403324688 0.32751970941513409 0 0.37539764169578338 0.3338948889294866 0 0.3634227403324688 0.32751970941513409 0 0.35044047170141668 0.31306462226351628 0 0.35253072115072492 0.32842925464311978 0 0.35044047170141668 0.31306462226351628 0 0.35253072115072492 0.32842925464311978 0 0.35044047170141668 0.31306462226351628 0 0.35253072115072492 0.32842925464311978 0 0.33912844829283278 0.3226372230925767 0 0.35462097060003211 0.3437938870227234 0 0.35253072115072492 0.32842925464311978 0 0.35462097060003211 0.3437938870227234 0 0.36581526271706738 0.33818456717398021 0 0.35253072115072492 0.32842925464311978 0 0.35253072115072492 0.32842925464311978 0 0.34112907036904683 0.33780486651387059 0 0.33912844829283278 0.3226372230925767 0 0.35462097060003211 0.3437938870227234 0 0.35253072115072492 0.32842925464311978 0 0.34112907036904683 0.33780486651387059 0 0.34112907036904683 0.33780486651387059 0 0.32782301192204721 0.33270859713312151 0 0.33424543090248993 0.35400381526645242 0 0.34112907036904683 0.33780486651387059 0 0.33912844829283278 0.3226372230925767 0 0.32782301192204721 0.33270859713312151 0 0.35044047170141668 0.31306462226351628 0 0.33912844829283278 0.3226372230925767 0 0.3357341065038878 0.30732179673481252 0 0.33912844829283278 0.3226372230925767 0 0.32693060114488959 0.31930607999829302 0 0.32782301192204721 0.33270859713312151 0 0.33912844829283278 0.3226372230925767 0 0.32693060114488959 0.31930607999829302 0 0.3357341065038878 0.30732179673481252 0 0.32693060114488959 0.31930607999829302 0 0.3160429573084419 0.32449059847807332 0 0.32782301192204721 0.33270859713312151 0 0.32693060114488959 0.31930607999829302 0 0.3160429573084419 0.32449059847807332 0 0.31592448169723858 0.3093721845528809 0 0.3160429573084419 0.32449059847807332 0 0.32782301192204721 0.33270859713312151 0 0.31107907021558612 0.34191209009839912 0 0.32782301192204721 0.33270859713312151 0 0.33424543090248993 0.35400381526645242 0 0.31107907021558612 0.34191209009839912 0 0.33424543090248993 0.35400381526645242 0 0.31386989120494779 0.36421374351018171 0 0.31107907021558612 0.34191209009839912 0 0.33424543090248993 0.35400381526645242 0 0.31386989120494779 0.36421374351018171 0 0.35462097060003211 0.3437938870227234 0 0.34112907036904683 0.33780486651387059 0 0.33424543090248993 0.35400381526645242 0 0.34925663551552522 0.35410886635614958 0 0.33424543090248993 0.35400381526645242 0 0.33993848193767418 0.3662306035205577 0 0.33869195845232303 0.38411098383663789 0 0.33993848193767418 0.3662306035205577 0 0.32764592060083753 0.37318230665729452 0 0.33424543090248993 0.35400381526645242 0 0.33993848193767418 0.3662306035205577 0 0.32764592060083753 0.37318230665729452 0 0.33424543090248993 0.35400381526645242 0 0.32764592060083753 0.37318230665729452 0 0.31386989120494779 0.36421374351018171 0 0.31367600362349451 0.37864024705387239 0 0.32764592060083753 0.37318230665729452 0 0.31386989120494779 0.36421374351018171 0 0.31386989120494779 0.36421374351018171 0 0.29630507862176653 0.35452029369208632 0 0.29349435150740599 0.37442367175391128 0 0.31367600362349451 0.37864024705387239 0 0.31386989120494779 0.36421374351018171 0 0.29349435150740599 0.37442367175391128 0 0.31386989120494779 0.36421374351018171 0 0.29349435150740599 0.37442367175391128 0 0.31386989120494779 0.36421374351018171 0 0.29630507862176653 0.35452029369208632 0 0.31107907021558612 0.34191209009839912 0 0.29630507862176653 0.35452029369208632 0 0.28599438097562618 0.33786445693331629 0 0.31107907021558612 0.34191209009839912 0 0.29630507862176653 0.35452029369208632 0 0.27499381814997692 0.35338773787252808 0 0.28599438097562618 0.33786445693331629 0 0.27893278987490733 0.38172028826524612 0 0.29349435150740599 0.37442367175391128 0 0.27499381814997692 0.35338773787252808 0 0.29349435150740599 0.37442367175391128 0 0.27499381814997692 0.35338773787252808 0 0.29630507862176653 0.35452029369208632 0 0.29349435150740599 0.37442367175391128 0 0.27499381814997692 0.35338773787252808 0 0.27893278987490733 0.38172028826524612 0 0.27499381814997692 0.35338773787252808 0 0.26378936728388508 0.36866823472240462 0 0.27499381814997692 0.35338773787252808 0 0.25375611628729122 0.3566904670715379 0 0.25649328479254918 0.33235180399114372 0 0.27499381814997692 0.35338773787252808 0 0.25375611628729122 0.3566904670715379 0 0.26378936728388508 0.36866823472240462 0 0.24904242420903 0.36862970638804732 0 0.25375611628729122 0.3566904670715379 0 0.26378936728388508 0.36866823472240462 0 0.24904242420903 0.36862970638804732 0 0.25592029321336779 0.37874914184280539 0 0.26378936728388508 0.36866823472240462 0 0.25649328479254918 0.33235180399114372 0 0.27671253041446409 0.32189706260733969 0 0.25264327573459772 0.29879392936350568 0 0.27499381814997692 0.35338773787252808 0 0.25649328479254918 0.33235180399114372 0 0.25649328479254918 0.33235180399114372 0 0.27671253041446409 0.32189706260733969 0 0.28599438097562618 0.33786445693331629 0 0.27499381814997692 0.35338773787252808 0 0.25649328479254918 0.33235180399114372 0 0.28599438097562618 0.33786445693331629 0 0.27671253041446409 0.32189706260733969 0 0.28599438097562618 0.33786445693331629 0 0.3003825036594146 0.32311775333840143 0 0.27671253041446409 0.32189706260733969 0 0.3003825036594146 0.32311775333840143 0 0.29412326728800547 0.30100413970213458 0 0.28599438097562618 0.33786445693331629 0 0.31107907021558612 0.34191209009839912 0 0.3003825036594146 0.32311775333840143 0 0.3160429573084419 0.32449059847807332 0 0.31107907021558612 0.34191209009839912 0 0.3003825036594146 0.32311775333840143 0 0.3160429573084419 0.32449059847807332 0 0.3003825036594146 0.32311775333840143 0 0.31592448169723858 0.3093721845528809 0 0.29412326728800547 0.30100413970213458 0 0.26763403927588658 0.28084485596358549 0 0.3015026582728435 0.27869290260564689 0 0.30928821508076992 0.29555869682330871 0 0.29412326728800547 0.30100413970213458 0 0.31592448169723858 0.3093721845528809 0 0.3003825036594146 0.32311775333840143 0 0.29412326728800547 0.30100413970213458 0 0.31592448169723858 0.3093721845528809 0 0.30928821508076992 0.29555869682330871 0 0.3015026582728435 0.27869290260564689 0 0.32560245306499208 0.2931655604325723 0 0.30928821508076992 0.29555869682330871 0 0.29412326728800547 0.30100413970213458 0 0.3015026582728435 0.27869290260564689 0 0.27671253041446409 0.32189706260733969 0 0.29412326728800547 0.30100413970213458 0 0.27325151684630999 0.3004907314513468 0 0.27671253041446409 0.32189706260733969 0 0.27325151684630999 0.3004907314513468 0 0.25264327573459772 0.29879392936350568 0 0.29412326728800547 0.30100413970213458 0 0.27325151684630999 0.3004907314513468 0 0.26763403927588658 0.28084485596358549 0 0.24587805146891881 0.27733747393989699 0 0.25264327573459772 0.29879392936350568 0 0.26763403927588658 0.28084485596358549 0 0.27325151684630999 0.3004907314513468 0 0.25264327573459772 0.29879392936350568 0 0.26763403927588658 0.28084485596358549 0 0.27740286348069482 0.26422024477872152 0 0.25330306868854607 0.24974758695179611 0 0.24587805146891881 0.27733747393989699 0 0.26763403927588658 0.28084485596358549 0 0.25330306868854607 0.24974758695179611 0 0.27740286348069482 0.26422024477872152 0 0.25330306868854607 0.24974758695179611 0 0.28316477846165211 0.24967076173474309 0 0.26763403927588658 0.28084485596358549 0 0.27740286348069482 0.26422024477872152 0 0.25330306868854607 0.24974758695179611 0 0.26763403927588658 0.28084485596358549 0 0.27740286348069482 0.26422024477872152 0 0.3015026582728435 0.27869290260564689 0 0.27740286348069482 0.26422024477872152 0 0.30391607325737691 0.25765648791281842 0 0.28316477846165211 0.24967076173474309 0 0.27740286348069482 0.26422024477872152 0 0.3015026582728435 0.27869290260564689 0 0.27740286348069482 0.26422024477872152 0 0.3015026582728435 0.27869290260564689 0 0.30391607325737691 0.25765648791281842 0 0.3015026582728435 0.27869290260564689 0 0.30391607325737691 0.25765648791281842 0 0.32240112908906982 0.27119463292781359 0 0.30391607325737691 0.25765648791281842 0 0.32854686329858718 0.25611047685695282 0 0.31857031815401088 0.24323529296225249 0 0.30391607325737691 0.25765648791281842 0 0.32854686329858718 0.25611047685695282 0 0.32240112908906982 0.27119463292781359 0 0.32854686329858718 0.25611047685695282 0 0.32240112908906982 0.27119463292781359 0 0.34411190546120979 0.26654572768710311 0 0.32854686329858718 0.25611047685695282 0 0.34411190546120979 0.26654572768710311 0 0.34131673426324188 0.24599948240090661 0 0.34411190546120979 0.26654572768710311 0 0.34131673426324188 0.24599948240090661 0 0.33359043407996392 0.28078296163729582 0 0.32240112908906982 0.27119463292781359 0 0.34411190546120979 0.26654572768710311 0 0.33359043407996392 0.28078296163729582 0 0.34690707665917658 0.28709197297329969 0 0.34411190546120979 0.26654572768710311 0 0.3015026582728435 0.27869290260564689 0 0.32240112908906982 0.27119463292781359 0 0.32560245306499208 0.2931655604325723 0 0.3015026582728435 0.27869290260564689 0 0.32560245306499208 0.2931655604325723 0 0.33359043407996392 0.28078296163729582 0 0.32240112908906982 0.27119463292781359 0 0.32560245306499208 0.2931655604325723 0 0.32560245306499208 0.2931655604325723 0 0.31592448169723858 0.3093721845528809 0 0.3357341065038878 0.30732179673481252 0 0.30928821508076992 0.29555869682330871 0 0.32560245306499208 0.2931655604325723 0 0.31592448169723858 0.3093721845528809 0 0.32693060114488959 0.31930607999829302 0 0.31592448169723858 0.3093721845528809 0 0.3357341065038878 0.30732179673481252 0 0.32560245306499208 0.2931655604325723 0 0.3357341065038878 0.30732179673481252 0 0.34970224785714138 0.30763821825949661 0 0.32560245306499208 0.2931655604325723 0 0.34970224785714138 0.30763821825949661 0 0.35044047170141668 0.31306462226351628 0 0.3357341065038878 0.30732179673481252 0 0.33359043407996392 0.28078296163729582 0 0.32560245306499208 0.2931655604325723 0 0.34690707665917658 0.28709197297329969 0 0.32560245306499208 0.2931655604325723 0 0.34690707665917658 0.28709197297329969 0 0.34970224785714138 0.30763821825949661 0 0.34690707665917658 0.28709197297329969 0 0.35744284268979348 0.30164446124447158 0 0.36390247736539427 0.29549545278400602 0 0.34690707665917658 0.28709197297329969 0 0.34970224785714138 0.30763821825949661 0 0.35744284268979348 0.30164446124447158 0 0.34690707665917658 0.28709197297329969 0 0.34970224785714138 0.30763821825949661 0 0.35044047170141668 0.31306462226351628 0 0.3357341065038878 0.30732179673481252 0 0.34970224785714138 0.30763821825949661 0 0.35044047170141668 0.31306462226351628 0 0.34970224785714138 0.30763821825949661 0 0.34970224785714138 0.30763821825949661 0 0.35744284268979348 0.30164446124447158 0 0.35690080907146082 0.31196117263315781 0 0.34970224785714138 0.30763821825949661 0 0.35690080907146082 0.31196117263315781 0 0.35044047170141668 0.31306462226351628 0 0.34970224785714138 0.30763821825949661 0 0.35690080907146082 0.31196117263315781 0 0.35744284268979348 0.30164446124447158 0 0.35690080907146082 0.31196117263315781 0 0.36980160249579258 0.30603548957239801 0 0.35744284268979348 0.30164446124447158 0 0.36980160249579258 0.30603548957239801 0 0.36390247736539427 0.29549545278400602 0 0.36980160249579258 0.30603548957239801 0 0.36390247736539427 0.29549545278400602 0 0.37900202227037971 0.29476871492237161 0 0.34690707665917658 0.28709197297329969 0 0.36953588213746208 0.28526404012388162 0 0.3648495098154621 0.27159008903089787 0 0.34690707665917658 0.28709197297329969 0 0.36390247736539427 0.29549545278400602 0 0.36953588213746208 0.28526404012388162 0 0.36390247736539427 0.29549545278400602 0 0.36953588213746208 0.28526404012388162 0 0.37900202227037971 0.29476871492237161 0 0.36953588213746208 0.28526404012388162 0 0.3648495098154621 0.27159008903089787 0 0.38275035444881539 0.27884239331100602 0 0.3648495098154621 0.27159008903089787 0 0.38001554852001163 0.264658919851955 0 0.36515898826689819 0.24889684022616351 0 0.3648495098154621 0.27159008903089787 0 0.34411190546120979 0.26654572768710311 0 0.36515898826689819 0.24889684022616351 0 0.34411190546120979 0.26654572768710311 0 0.34131673426324188 0.24599948240090661 0 0.36515898826689819 0.24889684022616351 0 0.34690707665917658 0.28709197297329969 0 0.3648495098154621 0.27159008903089787 0 0.34411190546120979 0.26654572768710311 0 0.34690707665917658 0.28709197297329969 0 0.34411190546120979 0.26654572768710311 0 0.3890012422705546 0.25179419805142012 0 0.41284349627421091 0.25469155587667658 0 0.39831764779832751 0.27217107864028728 0 0.3890012422705546 0.25179419805142012 0 0.41284349627421091 0.25469155587667658 0 0.3890012422705546 0.25179419805142012 0 0.36515898826689819 0.24889684022616351 0 0.39831764779832751 0.27217107864028728 0 0.3890012422705546 0.25179419805142012 0 0.38001554852001163 0.264658919851955 0 0.3890012422705546 0.25179419805142012 0 0.38001554852001163 0.264658919851955 0 0.36515898826689819 0.24889684022616351 0 0.3648495098154621 0.27159008903089787 0 0.38001554852001163 0.264658919851955 0 0.38275035444881539 0.27884239331100602 0 0.39831764779832751 0.27217107864028728 0 0.38001554852001163 0.264658919851955 0 0.38275035444881539 0.27884239331100602 0 0.36953588213746208 0.28526404012388162 0 0.38275035444881539 0.27884239331100602 0 0.37900202227037971 0.29476871492237161 0 0.38275035444881539 0.27884239331100602 0 0.37900202227037971 0.29476871492237161 0 0.39873890840468429 0.29331337716899802 0 0.37271325201104771 0.32176212770686402 0 0.36980160249579258 0.30603548957239801 0 0.3875814028885281 0.30950057308555812 0 0.36980160249579258 0.30603548957239801 0 0.37900202227037971 0.29476871492237161 0 0.3875814028885281 0.30950057308555812 0 0.37900202227037971 0.29476871492237161 0 0.3875814028885281 0.30950057308555812 0 0.39873890840468429 0.29331337716899802 0 0.39873890840468429 0.29331337716899802 0 0.40690489414971442 0.31159481717133591 0 0.41045014498837401 0.29862518884685268 0 0.3875814028885281 0.30950057308555812 0 0.39873890840468429 0.29331337716899802 0 0.40690489414971442 0.31159481717133591 0 0.39831764779832751 0.27217107864028728 0 0.38275035444881539 0.27884239331100602 0 0.39873890840468429 0.29331337716899802 0 0.39831764779832751 0.27217107864028728 0 0.39873890840468429 0.29331337716899802 0 0.40987042427439258 0.28637014099305802 0 0.40987042427439258 0.28637014099305802 0 0.41978894593114607 0.29479189239383241 0 0.42026423171301458 0.27725776796210272 0 0.39873890840468429 0.29331337716899802 0 0.40987042427439258 0.28637014099305802 0 0.41045014498837401 0.29862518884685268 0 0.40987042427439258 0.28637014099305802 0 0.41978894593114607 0.29479189239383241 0 0.41045014498837401 0.29862518884685268 0 0.41978894593114607 0.29479189239383241 0 0.41694755218193208 0.30705571650703922 0 0.4286512155820083 0.31365484985698711 0 0.40690489414971442 0.31159481717133591 0 0.41045014498837401 0.29862518884685268 0 0.41694755218193208 0.30705571650703922 0 0.41978894593114607 0.29479189239383241 0 0.41045014498837401 0.29862518884685268 0 0.41694755218193208 0.30705571650703922 0 0.41694755218193208 0.30705571650703922 0 0.4286512155820083 0.31365484985698711 0 0.41874045150698919 0.31479334613986298 0 0.40690489414971442 0.31159481717133591 0 0.41694755218193208 0.30705571650703922 0 0.41874045150698919 0.31479334613986298 0 0.41978894593114607 0.29479189239383241 0 0.43379789991650902 0.30013515849384681 0 0.43300317306786368 0.31373493054863028 0 0.41978894593114607 0.29479189239383241 0 0.43300317306786368 0.31373493054863028 0 0.41978894593114607 0.29479189239383241 0 0.43300317306786368 0.31373493054863028 0 0.4286512155820083 0.31365484985698711 0 0.43379789991650902 0.30013515849384681 0 0.44009469899214071 0.30655206128803902 0 0.43300317306786368 0.31373493054863028 0 0.41978894593114607 0.29479189239383241 0 0.43236181605812679 0.29054375166780883 0 0.42026423171301458 0.27725776796210272 0 0.43236181605812679 0.29054375166780883 0 0.42026423171301458 0.27725776796210272 0 0.4422108156277017 0.28234445728391799 0 0.41978894593114607 0.29479189239383241 0 0.43379789991650902 0.30013515849384681 0 0.43236181605812679 0.29054375166780883 0 0.43379789991650902 0.30013515849384681 0 0.43236181605812679 0.29054375166780883 0 0.44574718710226252 0.29818948220534391 0 0.42026423171301458 0.27725776796210272 0 0.43668575027786721 0.25758891370193199 0 0.4422108156277017 0.28234445728391799 0 0.42026423171301458 0.27725776796210272 0 0.4422108156277017 0.28234445728391799 0 0.39831764779832751 0.27217107864028728 0 0.40987042427439258 0.28637014099305802 0 0.42026423171301458 0.27725776796210272 0 0.39831764779832751 0.27217107864028728 0 0.42026423171301458 0.27725776796210272 0 0.39831764779832751 0.27217107864028728 0 0.42026423171301458 0.27725776796210272 0 0.41284349627421091 0.25469155587667658 0 0.42026423171301458 0.27725776796210272 0 0.41284349627421091 0.25469155587667658 0 0.43668575027786721 0.25758891370193199 0 0.41284349627421091 0.25469155587667658 0 0.43668575027786721 0.25758891370193199 0 0.43668575027786721 0.25758891370193199 0 0.45756471460833997 0.2601261667098439 0 0.43668575027786721 0.25758891370193199 0 0.45140845616194791 0.27119445099156131 0 0.45756471460833997 0.2601261667098439 0 0.43668575027786721 0.25758891370193199 0 0.45756471460833997 0.2601261667098439 0 0.45283070825841942 0.24383381562730361 0 0.43668575027786721 0.25758891370193199 0 0.45140845616194791 0.27119445099156131 0 0.4422108156277017 0.28234445728391799 0 0.45140845616194791 0.27119445099156131 0 0.45920387566181192 0.28299109155232199 0 0.4422108156277017 0.28234445728391799 0 0.43668575027786721 0.25758891370193199 0 0.4422108156277017 0.28234445728391799 0 0.45140845616194791 0.27119445099156131 0 0.46354855577620352 0.27095780638888672 0 0.45920387566181192 0.28299109155232199 0 0.45140845616194791 0.27119445099156131 0 0.46354855577620352 0.27095780638888672 0 0.45756471460833997 0.2601261667098439 0 0.46354855577620352 0.27095780638888672 0 0.47112205351010461 0.27781390297295139 0 0.45920387566181192 0.28299109155232199 0 0.46354855577620352 0.27095780638888672 0 0.45756471460833997 0.2601261667098439 0 0.47844367893881312 0.26266341971775459 0 0.45756471460833997 0.2601261667098439 0 0.47844367893881312 0.26266341971775459 0 0.46919350202318177 0.2487520754501045 0 0.45756471460833997 0.2601261667098439 0 0.45283070825841942 0.24383381562730361 0 0.46919350202318177 0.2487520754501045 0 0.45756471460833997 0.2601261667098439 0 0.47844367893881312 0.26266341971775459 0 0.47844367893881312 0.26266341971775459 0 0.46919350202318177 0.2487520754501045 0 0.4815769265928514 0.2429082163709019 0 0.47844367893881312 0.26266341971775459 0 0.47112205351010461 0.27781390297295139 0 0.4822267845982231 0.27901825459182422 0 0.46354855577620352 0.27095780638888672 0 0.47844367893881312 0.26266341971775459 0 0.47112205351010461 0.27781390297295139 0 0.47844367893881312 0.26266341971775459 0 0.4822267845982231 0.27901825459182422 0 0.5 0.27204432219799513 0 0.47844367893881312 0.26266341971775459 0 0.5 0.27204432219799513 0 0.5 0.24425464330145341 0 0.50000000000000178 0.29983400109453701 0 0.48816896555314382 0.29299644901916427 0 0.48111922349601982 0.30156852610621632 0 0.50000000000000178 0.29983400109453701 0 0.48301118455711772 0.31465513166753439 0 0.50000000000000178 0.29983400109453701 0 0.48111922349601982 0.30156852610621632 0 0.48301118455711772 0.31465513166753439 0 0.50000000000000178 0.29983400109453701 0 0.48301118455711772 0.31465513166753439 0 0.49999999999999839 0.31496774411729422 0 0.5 0.27204432219799513 0 0.50000000000000178 0.29983400109453701 0 0.48816896555314382 0.29299644901916427 0 0.4822267845982231 0.27901825459182422 0 0.5 0.27204432219799513 0 0.48816896555314382 0.29299644901916427 0 0.48816896555314382 0.29299644901916427 0 0.47339922498905412 0.28957317905125551 0 0.48111922349601982 0.30156852610621632 0 0.48816896555314382 0.29299644901916427 0 0.47339922498905412 0.28957317905125551 0 0.4822267845982231 0.27901825459182422 0 0.48816896555314382 0.29299644901916427 0 0.47339922498905412 0.28957317905125551 0 0.47112205351010461 0.27781390297295139 0 0.4822267845982231 0.27901825459182422 0 0.47339922498905412 0.28957317905125551 0 0.47339922498905412 0.28957317905125551 0 0.47173785299019028 0.30058354746374139 0 0.46362273255098507 0.29818022740310202 0 0.47173785299019028 0.30058354746374139 0 0.48111922349601982 0.30156852610621632 0 0.47057213517790097 0.30919689154664609 0 0.47339922498905412 0.28957317905125551 0 0.47173785299019028 0.30058354746374139 0 0.48111922349601982 0.30156852610621632 0 0.48111922349601982 0.30156852610621632 0 0.47057213517790097 0.30919689154664609 0 0.48301118455711772 0.31465513166753439 0 0.47173785299019028 0.30058354746374139 0 0.47057213517790097 0.30919689154664609 0 0.46420783915002928 0.30726680452297639 0 0.47057213517790097 0.30919689154664609 0 0.46156171203811902 0.31426043833692557 0 0.45862948442496421 0.28614990908334681 0 0.45354476299295121 0.31411291786446782 0 0.46420783915002928 0.30726680452297639 0 0.46362273255098507 0.29818022740310202 0 0.45354476299295121 0.31411291786446782 0 0.47057213517790097 0.30919689154664609 0 0.46420783915002928 0.30726680452297639 0 0.46156171203811902 0.31426043833692557 0 0.46362273255098507 0.29818022740310202 0 0.45862948442496421 0.28614990908334681 0 0.45354476299295121 0.31411291786446782 0 0.47173785299019028 0.30058354746374139 0 0.46420783915002928 0.30726680452297639 0 0.46362273255098507 0.29818022740310202 0 0.46420783915002928 0.30726680452297639 0 0.45354476299295121 0.31411291786446782 0 0.46156171203811902 0.31426043833692557 0 0.45862948442496421 0.28614990908334681 0 0.45920387566181192 0.28299109155232199 0 0.4422108156277017 0.28234445728391799 0 0.47112205351010461 0.27781390297295139 0 0.47339922498905412 0.28957317905125551 0 0.45920387566181192 0.28299109155232199 0 0.47339922498905412 0.28957317905125551 0 0.45862948442496421 0.28614990908334681 0 0.45920387566181192 0.28299109155232199 0 0.47339922498905412 0.28957317905125551 0 0.45862948442496421 0.28614990908334681 0 0.47339922498905412 0.28957317905125551 0 0.46362273255098507 0.29818022740310202 0 0.45862948442496421 0.28614990908334681 0 0.45862948442496421 0.28614990908334681 0 0.45920387566181192 0.28299109155232199 0 0.43236181605812679 0.29054375166780883 0 0.4422108156277017 0.28234445728391799 0 0.44574718710226252 0.29818948220534391 0 0.45862948442496421 0.28614990908334681 0 0.4422108156277017 0.28234445728391799 0 0.44574718710226252 0.29818948220534391 0 0.4422108156277017 0.28234445728391799 0 0.44574718710226252 0.29818948220534391 0 0.45862948442496421 0.28614990908334681 0 0.4422108156277017 0.28234445728391799 0 0.44574718710226252 0.29818948220534391 0 0.44928355857682289 0.31403450712677 0 0.45862948442496421 0.28614990908334681 0 0.44574718710226252 0.29818948220534391 0 0.45354476299295121 0.31411291786446782 0 0.44009469899214071 0.30655206128803902 0 0.44928355857682289 0.31403450712677 0 0.43300317306786368 0.31373493054863028 0 0.44574718710226252 0.29818948220534391 0 0.44928355857682289 0.31403450712677 0 0.45354476299295121 0.31411291786446782 0 0.44574718710226252 0.29818948220534391 0 0.44009469899214071 0.30655206128803902 0 0.44928355857682289 0.31403450712677 0 0.43379789991650902 0.30013515849384681 0 0.44574718710226252 0.29818948220534391 0 0.44009469899214071 0.30655206128803902 0 0.44354928499139201 0.31863785367264208 0 0.44928355857682289 0.31403450712677 0 0.43300317306786368 0.31373493054863028 0 0.44354928499139201 0.31863785367264208 0 0.44130907576219441 0.32564172086037457 0 0.43300317306786368 0.31373493054863028 0 0.44928355857682289 0.31403450712677 0 0.43300317306786368 0.31373493054863028 0 0.44354928499139201 0.31863785367264208 0 0.44130907576219441 0.32564172086037457 0 0.45069669760282099 0.32036620142005029 0 0.44130907576219441 0.32564172086037457 0 0.45069669760282099 0.32036620142005029 0 0.44130907576219441 0.32564172086037457 0 0.45163952451510497 0.32459062072361899 0 0.45069669760282099 0.32036620142005029 0 0.45163952451510497 0.32459062072361899 0 0.45260242095364539 0.31929525067705572 0 0.45163952451510497 0.32459062072361899 0 0.45069669760282099 0.32036620142005029 0 0.45163952451510497 0.32459062072361899 0 0.45069669760282099 0.32036620142005029 0 0.45260242095364539 0.31929525067705572 0 0.45260242095364539 0.31929525067705572 0 0.45354476299295121 0.31411291786446782 0 0.45069669760282099 0.32036620142005029 0 0.44928355857682289 0.31403450712677 0 0.45069669760282099 0.32036620142005029 0 0.45148602987336739 0.316792891473339 0 0.44928355857682289 0.31403450712677 0 0.45260242095364539 0.31929525067705572 0 0.45148602987336739 0.316792891473339 0 0.45354476299295121 0.31411291786446782 0 0.45069669760282099 0.32036620142005029 0 0.45260242095364539 0.31929525067705572 0 0.45148602987336739 0.316792891473339 0 0.45069669760282099 0.32036620142005029 0 0.45260242095364539 0.31929525067705572 0 0.44928355857682289 0.31403450712677 0 0.45354476299295121 0.31411291786446782 0 0.45148602987336739 0.316792891473339 0 0.44928355857682289 0.31403450712677 0 0.45354476299295121 0.31411291786446782 0 0.44354928499139201 0.31863785367264208 0 0.45069669760282099 0.32036620142005029 0 0.44928355857682289 0.31403450712677 0 0.45163952451510497 0.32459062072361899 0 0.44935187762582363 0.33717134729996012 0 0.45684459832323487 0.34791241392351391 0 0.43793221295340329 0.33787983279155942 0 0.44935187762582363 0.33717134729996012 0 0.44688696847741199 0.35072691314232002 0 0.44130907576219441 0.32564172086037457 0 0.43793221295340329 0.33787983279155942 0 0.44935187762582363 0.33717134729996012 0 0.44130907576219441 0.32564172086037457 0 0.44935187762582363 0.33717134729996012 0 0.44130907576219441 0.32564172086037457 0 0.45163952451510497 0.32459062072361899 0 0.44935187762582363 0.33717134729996012 0 0.45163952451510497 0.32459062072361899 0 0.44935187762582363 0.33717134729996012 0 0.44935187762582363 0.33717134729996012 0 0.45684459832323487 0.34791241392351391 0 0.45163952451510497 0.32459062072361899 0 0.45684459832323487 0.34791241392351391 0 0.45163952451510497 0.32459062072361899 0 0.46368310309005972 0.33151705003446769 0 0.45684459832323487 0.34791241392351391 0 0.46368310309005972 0.33151705003446769 0 0.46943204729737908 0.34508410331218459 0 0.45684459832323487 0.34791241392351391 0 0.46113315291726131 0.32254075506341517 0 0.46156171203811902 0.31426043833692557 0 0.48301118455711772 0.31465513166753439 0 0.45260242095364539 0.31929525067705572 0 0.46113315291726131 0.32254075506341517 0 0.46156171203811902 0.31426043833692557 0 0.45354476299295121 0.31411291786446782 0 0.46156171203811902 0.31426043833692557 0 0.45260242095364539 0.31929525067705572 0 0.45354476299295121 0.31411291786446782 0 0.46156171203811902 0.31426043833692557 0 0.45260242095364539 0.31929525067705572 0 0.46156171203811902 0.31426043833692557 0 0.45163952451510497 0.32459062072361899 0 0.46368310309005972 0.33151705003446769 0 0.46113315291726131 0.32254075506341517 0 0.45163952451510497 0.32459062072361899 0 0.45260242095364539 0.31929525067705572 0 0.46113315291726131 0.32254075506341517 0 0.47057213517790097 0.30919689154664609 0 0.46156171203811902 0.31426043833692557 0 0.48301118455711772 0.31465513166753439 0 0.46368310309005972 0.33151705003446769 0 0.46113315291726131 0.32254075506341517 0 0.48301118455711772 0.31465513166753439 0 0.46368310309005972 0.33151705003446769 0 0.48301118455711772 0.31465513166753439 0 0.47883363372590271 0.32937501489229237 0 0.46156171203811902 0.31426043833692557 0 0.48301118455711772 0.31465513166753439 0 0.46368310309005972 0.33151705003446769 0 0.48301118455711772 0.31465513166753439 0 0.48301118455711772 0.31465513166753439 0 0.47883363372590271 0.32937501489229237 0 0.48905156623732648 0.32837967605919188 0 0.48341301290361322 0.34197142502482791 0 0.47883363372590271 0.32937501489229237 0 0.46943204729737908 0.34508410331218459 0 0.46368310309005972 0.33151705003446769 0 0.47883363372590271 0.32937501489229237 0 0.46943204729737908 0.34508410331218459 0 0.48341301290361322 0.34197142502482791 0 0.47883363372590271 0.32937501489229237 0 0.48905156623732648 0.32837967605919188 0 0.48341301290361322 0.34197142502482791 0 0.48905156623732648 0.32837967605919188 0 0.5 0.34092906459401162 0 0.48301118455711772 0.31465513166753439 0 0.49999999999999839 0.31496774411729422 0 0.48905156623732648 0.32837967605919188 0 0.5 0.34092906459401162 0 0.49999999999999839 0.31496774411729422 0 0.48301118455711772 0.31465513166753439 0 0.48905156623732648 0.32837967605919188 0 0.49999999999999839 0.31496774411729422 0 0.50000000000000056 0.36689038507072919 0 0.47422045825109449 0.3728212923755268 0 0.49045114732762751 0.37920070738814732 0 0.50000000000000056 0.36689038507072919 0 0.48816842379673631 0.35363559982738663 0 0.48333910242963091 0.36496144646342371 0 0.50000000000000056 0.36689038507072919 0 0.47422045825109449 0.3728212923755268 0 0.48333910242963091 0.36496144646342371 0 0.50000000000000056 0.36689038507072919 0 0.47422045825109449 0.3728212923755268 0 0.5 0.34092906459401162 0 0.50000000000000056 0.36689038507072919 0 0.48816842379673631 0.35363559982738663 0 0.48341301290361322 0.34197142502482791 0 0.5 0.34092906459401162 0 0.48816842379673631 0.35363559982738663 0 0.47700850542985263 0.35293965249238829 0 0.48333910242963091 0.36496144646342371 0 0.46327099020404711 0.35712486239563862 0 0.48816842379673631 0.35363559982738663 0 0.47700850542985263 0.35293965249238829 0 0.48333910242963091 0.36496144646342371 0 0.48341301290361322 0.34197142502482791 0 0.48816842379673631 0.35363559982738663 0 0.47700850542985263 0.35293965249238829 0 0.48341301290361322 0.34197142502482791 0 0.47700850542985263 0.35293965249238829 0 0.46943204729737908 0.34508410331218459 0 0.47700850542985263 0.35293965249238829 0 0.46943204729737908 0.34508410331218459 0 0.46327099020404711 0.35712486239563862 0 0.47422045825109449 0.3728212923755268 0 0.48333910242963091 0.36496144646342371 0 0.46327099020404711 0.35712486239563862 0 0.48333910242963091 0.36496144646342371 0 0.46327099020404711 0.35712486239563862 0 0.47422045825109449 0.3728212923755268 0 0.46327099020404711 0.35712486239563862 0 0.47422045825109449 0.3728212923755268 0 0.46142195543357739 0.36842166698398471 0 0.46327099020404711 0.35712486239563862 0 0.47422045825109449 0.3728212923755268 0 0.45786051949276102 0.37658510172609022 0 0.47422045825109449 0.3728212923755268 0 0.46142195543357739 0.36842166698398471 0 0.45786051949276102 0.37658510172609022 0 0.46142195543357739 0.36842166698398471 0 0.46327099020404711 0.35712486239563862 0 0.45848342494715599 0.35525532144460542 0 0.46142195543357739 0.36842166698398471 0 0.45848342494715599 0.35525532144460542 0 0.46142195543357739 0.36842166698398471 0 0.45848342494715599 0.35525532144460542 0 0.44688696847741199 0.35072691314232002 0 0.46943204729737908 0.34508410331218459 0 0.46327099020404711 0.35712486239563862 0 0.45684459832323487 0.34791241392351391 0 0.46327099020404711 0.35712486239563862 0 0.45848342494715599 0.35525532144460542 0 0.45684459832323487 0.34791241392351391 0 0.46327099020404711 0.35712486239563862 0 0.45684459832323487 0.34791241392351391 0 0.46327099020404711 0.35712486239563862 0 0.45848342494715599 0.35525532144460542 0 0.45848342494715599 0.35525532144460542 0 0.45684459832323487 0.34791241392351391 0 0.45848342494715599 0.35525532144460542 0 0.45684459832323487 0.34791241392351391 0 0.44688696847741199 0.35072691314232002 0 0.44935187762582363 0.33717134729996012 0 0.44688696847741199 0.35072691314232002 0 0.44935187762582363 0.33717134729996012 0 0.45684459832323487 0.34791241392351391 0 0.44688696847741199 0.35072691314232002 0 0.45848342494715599 0.35525532144460542 0 0.44688696847741199 0.35072691314232002 0 0.44688696847741199 0.35072691314232002 0 0.43207289055386078 0.34494202586793971 0 0.43793221295340329 0.33787983279155942 0 0.44688696847741199 0.35072691314232002 0 0.43207289055386078 0.34494202586793971 0 0.44688696847741199 0.35072691314232002 0 0.4329762340756107 0.36325446723141852 0 0.44150058073442783 0.38034891107665442 0 0.44688696847741199 0.35072691314232002 0 0.44150058073442783 0.38034891107665442 0 0.46142195543357739 0.36842166698398471 0 0.44688696847741199 0.35072691314232002 0 0.44150058073442783 0.38034891107665442 0 0.4329762340756107 0.36325446723141852 0 0.41741159595325572 0.363504950807504 0 0.42210351351192571 0.38481144996900912 0 0.41741159595325572 0.363504950807504 0 0.39870313815319608 0.36554762070881902 0 0.41042717243977139 0.37563868173627202 0 0.41741159595325572 0.363504950807504 0 0.41042717243977139 0.37563868173627202 0 0.42210351351192571 0.38481144996900912 0 0.42126177434258949 0.35076682480436872 0 0.41725881263031062 0.33915713859355678 0 0.40228108091229181 0.34757410683021722 0 0.41741159595325572 0.363504950807504 0 0.42126177434258949 0.35076682480436872 0 0.40228108091229181 0.34757410683021722 0 0.4329762340756107 0.36325446723141852 0 0.42126177434258949 0.35076682480436872 0 0.43207289055386078 0.34494202586793971 0 0.42126177434258949 0.35076682480436872 0 0.43207289055386078 0.34494202586793971 0 0.41725881263031062 0.33915713859355678 0 0.44688696847741199 0.35072691314232002 0 0.4329762340756107 0.36325446723141852 0 0.43207289055386078 0.34494202586793971 0 0.4329762340756107 0.36325446723141852 0 0.41741159595325572 0.363504950807504 0 0.42126177434258949 0.35076682480436872 0 0.44130907576219441 0.32564172086037457 0 0.41714694297158073 0.3238114080130029 0 0.41725881263031062 0.33915713859355678 0 0.44130907576219441 0.32564172086037457 0 0.43793221295340329 0.33787983279155942 0 0.41725881263031062 0.33915713859355678 0 0.43793221295340329 0.33787983279155942 0 0.43207289055386078 0.34494202586793971 0 0.41725881263031062 0.33915713859355678 0 0.44130907576219441 0.32564172086037457 0 0.41725881263031062 0.33915713859355678 0 0.43207289055386078 0.34494202586793971 0 0.41725881263031062 0.33915713859355678 0 0.44130907576219441 0.32564172086037457 0 0.4286512155820083 0.31365484985698711 0 0.41714694297158073 0.3238114080130029 0 0.44130907576219441 0.32564172086037457 0 0.43300317306786368 0.31373493054863028 0 0.44130907576219441 0.32564172086037457 0 0.43300317306786368 0.31373493054863028 0 0.4286512155820083 0.31365484985698711 0 0.43300317306786368 0.31373493054863028 0 0.4286512155820083 0.31365484985698711 0 0.40690489414971442 0.31159481717133591 0 0.41714694297158073 0.3238114080130029 0 0.39498603232067869 0.33045963315021148 0 0.40690489414971442 0.31159481717133591 0 0.41874045150698919 0.31479334613986298 0 0.41714694297158073 0.3238114080130029 0 0.4286512155820083 0.31365484985698711 0 0.41874045150698919 0.31479334613986298 0 0.41714694297158073 0.3238114080130029 0 0.41714694297158073 0.3238114080130029 0 0.41725881263031062 0.33915713859355678 0 0.39498603232067869 0.33045963315021148 0 0.41725881263031062 0.33915713859355678 0 0.40228108091229181 0.34757410683021722 0 0.41725881263031062 0.33915713859355678 0 0.39498603232067869 0.33045963315021148 0 0.41725881263031062 0.33915713859355678 0 0.39498603232067869 0.33045963315021148 0 0.40228108091229181 0.34757410683021722 0 0.39498603232067869 0.33045963315021148 0 0.40228108091229181 0.34757410683021722 0 0.39107869777541371 0.349232370826149 0 0.3875814028885281 0.30950057308555812 0 0.40690489414971442 0.31159481717133591 0 0.39498603232067869 0.33045963315021148 0 0.37271325201104771 0.32176212770686402 0 0.3875814028885281 0.30950057308555812 0 0.39498603232067869 0.33045963315021148 0 0.37271325201104771 0.32176212770686402 0 0.39498603232067869 0.33045963315021148 0 0.39498603232067869 0.33045963315021148 0 0.37539764169578338 0.3338948889294866 0 0.38255803501433883 0.34174551885066928 0 0.39498603232067869 0.33045963315021148 0 0.38255803501433883 0.34174551885066928 0 0.39107869777541371 0.349232370826149 0 0.37271325201104771 0.32176212770686402 0 0.39498603232067869 0.33045963315021148 0 0.37539764169578338 0.3338948889294866 0 0.37305384309557271 0.34699511731599231 0 0.37539764169578338 0.3338948889294866 0 0.38255803501433883 0.34174551885066928 0 0.37305384309557271 0.34699511731599231 0 0.38255803501433883 0.34174551885066928 0 0.38348627666075319 0.3566603962467163 0 0.38255803501433883 0.34174551885066928 0 0.38348627666075319 0.3566603962467163 0 0.39107869777541371 0.349232370826149 0 0.37376509744084729 0.35993562871136181 0 0.37305384309557271 0.34699511731599231 0 0.38348627666075319 0.3566603962467163 0 0.37376509744084729 0.35993562871136181 0 0.38348627666075319 0.3566603962467163 0 0.3835067099232759 0.3770195829208372 0 0.38348627666075319 0.3566603962467163 0 0.39870313815319608 0.36554762070881902 0 0.3835067099232759 0.3770195829208372 0 0.38348627666075319 0.3566603962467163 0 0.39870313815319608 0.36554762070881902 0 0.39107869777541371 0.349232370826149 0 0.41741159595325572 0.363504950807504 0 0.39870313815319608 0.36554762070881902 0 0.40228108091229181 0.34757410683021722 0 0.39870313815319608 0.36554762070881902 0 0.40228108091229181 0.34757410683021722 0 0.39107869777541371 0.349232370826149 0 0.39799440349507781 0.40323401389009988 0 0.40270644628942259 0.38927398886136 0 0.38354038978219313 0.39368338083776178 0 0.40270644628942259 0.38927398886136 0 0.38354038978219313 0.39368338083776178 0 0.39870313815319608 0.36554762070881902 0 0.40270644628942259 0.38927398886136 0 0.3835067099232759 0.3770195829208372 0 0.39870313815319608 0.36554762070881902 0 0.40270644628942259 0.38927398886136 0 0.41042717243977139 0.37563868173627202 0 0.40270644628942259 0.38927398886136 0 0.3835067099232759 0.3770195829208372 0 0.40270644628942259 0.38927398886136 0 0.3835067099232759 0.3770195829208372 0 0.38354038978219313 0.39368338083776178 0 0.37266803431851148 0.38645422185544981 0 0.3835067099232759 0.3770195829208372 0 0.38354038978219313 0.39368338083776178 0 0.37266803431851148 0.38645422185544981 0 0.36996543361725859 0.37709852170534319 0 0.3835067099232759 0.3770195829208372 0 0.39799440349507781 0.40323401389009988 0 0.38354038978219313 0.39368338083776178 0 0.37953045560202608 0.40852348643003811 0 0.36437433327496282 0.3980927728141605 0 0.38354038978219313 0.39368338083776178 0 0.37953045560202608 0.40852348643003811 0 0.39799440349507781 0.40323401389009988 0 0.37953045560202608 0.40852348643003811 0 0.39412375273169481 0.41466563507375948 0 0.37272182308741741 0.42263353265252218 0 0.37953045560202608 0.40852348643003811 0 0.38369025626209169 0.419450128258891 0 0.37953045560202608 0.40852348643003811 0 0.38369025626209169 0.419450128258891 0 0.39412375273169481 0.41466563507375948 0 0.37272182308741741 0.42263353265252218 0 0.38369025626209169 0.419450128258891 0 0.38838499362722873 0.43197785887924428 0 0.37272182308741741 0.42263353265252218 0 0.37496066392291932 0.43554357024030838 0 0.38838499362722873 0.43197785887924428 0 0.38369025626209169 0.419450128258891 0 0.38838499362722873 0.43197785887924428 0 0.39412375273169481 0.41466563507375948 0 0.38838499362722873 0.43197785887924428 0 0.39412375273169481 0.41466563507375948 0 0.40747837656775332 0.43503540369871502 0 0.39412375273169481 0.41466563507375948 0 0.41224611080529561 0.41704395790803728 0 0.40747837656775332 0.43503540369871502 0 0.39799440349507781 0.40323401389009988 0 0.39412375273169481 0.41466563507375948 0 0.41224611080529561 0.41704395790803728 0 0.39799440349507781 0.40323401389009988 0 0.41224611080529561 0.41704395790803728 0 0.42229939011311879 0.4017793630293397 0 0.41224611080529561 0.41704395790803728 0 0.40747837656775332 0.43503540369871502 0 0.43217305169937392 0.43656977962071419 0 0.41224611080529561 0.41704395790803728 0 0.43217305169937392 0.43656977962071419 0 0.44189233393681271 0.41428473719732301 0 0.41224611080529561 0.41704395790803728 0 0.42229939011311879 0.4017793630293397 0 0.44189233393681271 0.41428473719732301 0 0.43725859913572351 0.40367734121386761 0 0.42229939011311879 0.4017793630293397 0 0.44189233393681271 0.41428473719732301 0 0.42229939011311879 0.4017793630293397 0 0.44189233393681271 0.41428473719732301 0 0.43725859913572351 0.40367734121386761 0 0.43079052087379899 0.39265426632221789 0 0.42229939011311879 0.4017793630293397 0 0.43725859913572351 0.40367734121386761 0 0.43079052087379899 0.39265426632221789 0 0.44150058073442783 0.38034891107665442 0 0.43079052087379899 0.39265426632221789 0 0.42229939011311879 0.4017793630293397 0 0.42210351351192571 0.38481144996900912 0 0.40270644628942259 0.38927398886136 0 0.42229939011311879 0.4017793630293397 0 0.39799440349507781 0.40323401389009988 0 0.40270644628942259 0.38927398886136 0 0.42229939011311879 0.4017793630293397 0 0.40270644628942259 0.38927398886136 0 0.42229939011311879 0.4017793630293397 0 0.42210351351192571 0.38481144996900912 0 0.40270644628942259 0.38927398886136 0 0.41042717243977139 0.37563868173627202 0 0.42210351351192571 0.38481144996900912 0 0.40270644628942259 0.38927398886136 0 0.42210351351192571 0.38481144996900912 0 0.4329762340756107 0.36325446723141852 0 0.42210351351192571 0.38481144996900912 0 0.44150058073442783 0.38034891107665442 0 0.43079052087379899 0.39265426632221789 0 0.42210351351192571 0.38481144996900912 0 0.44150058073442783 0.38034891107665442 0 0.42210351351192571 0.38481144996900912 0 0.44150058073442783 0.38034891107665442 0 0.44150058073442783 0.38034891107665442 0 0.45102185902953362 0.39250098886931961 0 0.45786051949276102 0.37658510172609022 0 0.44150058073442783 0.38034891107665442 0 0.45786051949276102 0.37658510172609022 0 0.43725859913572351 0.40367734121386761 0 0.44150058073442783 0.38034891107665442 0 0.45102185902953362 0.39250098886931961 0 0.43725859913572351 0.40367734121386761 0 0.44150058073442783 0.38034891107665442 0 0.43725859913572351 0.40367734121386761 0 0.45102185902953362 0.39250098886931961 0 0.44963157745492133 0.40481471115854278 0 0.45102185902953362 0.39250098886931961 0 0.4603903885146487 0.39988824880693241 0 0.46815290391150371 0.38800903612771132 0 0.44963157745492133 0.40481471115854278 0 0.4603903885146487 0.39988824880693241 0 0.46016395132412308 0.41151207851485322 0 0.45102185902953362 0.39250098886931961 0 0.44963157745492133 0.40481471115854278 0 0.4603903885146487 0.39988824880693241 0 0.4603903885146487 0.39988824880693241 0 0.46815290391150371 0.38800903612771132 0 0.47081296590829269 0.40066865363419418 0 0.4603903885146487 0.39988824880693241 0 0.47081296590829269 0.40066865363419418 0 0.46016395132412308 0.41151207851485322 0 0.45102185902953362 0.39250098886931961 0 0.45786051949276102 0.37658510172609022 0 0.46815290391150371 0.38800903612771132 0 0.47422045825109449 0.3728212923755268 0 0.45786051949276102 0.37658510172609022 0 0.46815290391150371 0.38800903612771132 0 0.46142195543357739 0.36842166698398471 0 0.44150058073442783 0.38034891107665442 0 0.45786051949276102 0.37658510172609022 0 0.47422045825109449 0.3728212923755268 0 0.46815290391150371 0.38800903612771132 0 0.48711022912554741 0.39129921158753761 0 0.47422045825109449 0.3728212923755268 0 0.48711022912554741 0.39129921158753761 0 0.49045114732762751 0.37920070738814732 0 0.47422045825109449 0.3728212923755268 0 0.48711022912554741 0.39129921158753761 0 0.46815290391150371 0.38800903612771132 0 0.47081296590829269 0.40066865363419418 0 0.48711022912554741 0.39129921158753761 0 0.47081296590829269 0.40066865363419418 0 0.48711022912554741 0.39129921158753761 0 0.47824735666564072 0.41263469313393619 0 0.48711022912554741 0.39129921158753761 0 0.5 0.38833375793513808 0 0.50000000000000222 0.40977713079954697 0 0.48711022912554741 0.39129921158753761 0 0.50000000000000222 0.40977713079954697 0 0.47824735666564072 0.41263469313393619 0 0.48711022912554741 0.39129921158753761 0 0.50000000000000222 0.40977713079954697 0 0.48711022912554741 0.39129921158753761 0 0.5 0.38833375793513808 0 0.49045114732762751 0.37920070738814732 0 0.50000000000000056 0.36689038507072919 0 0.5 0.38833375793513808 0 0.49045114732762751 0.37920070738814732 0 0.49999999999999928 0.43069155648795732 0 0.48107822158420083 0.43929548553328951 0 0.48612193194478809 0.425279252223491 0 0.49999999999999928 0.43069155648795732 0 0.48107822158420083 0.43929548553328951 0 0.48612193194478809 0.425279252223491 0 0.49999999999999928 0.43069155648795732 0 0.50000000000000222 0.40977713079954697 0 0.48612193194478809 0.425279252223491 0 0.50000000000000222 0.40977713079954697 0 0.47824735666564072 0.41263469313393619 0 0.48612193194478809 0.425279252223491 0 0.47824735666564072 0.41263469313393619 0 0.46148527776050657 0.42679011136530642 0 0.47081296590829269 0.40066865363419418 0 0.47824735666564072 0.41263469313393619 0 0.46016395132412308 0.41151207851485322 0 0.48612193194478809 0.425279252223491 0 0.46148527776050657 0.42679011136530642 0 0.48107822158420083 0.43929548553328951 0 0.46148527776050657 0.42679011136530642 0 0.48107822158420083 0.43929548553328951 0 0.47824735666564072 0.41263469313393619 0 0.46148527776050657 0.42679011136530642 0 0.46016395132412308 0.41151207851485322 0 0.46148527776050657 0.42679011136530642 0 0.46016395132412308 0.41151207851485322 0 0.44189233393681271 0.41428473719732301 0 0.46148527776050657 0.42679011136530642 0 0.44189233393681271 0.41428473719732301 0 0.44963157745492133 0.40481471115854278 0 0.46016395132412308 0.41151207851485322 0 0.44189233393681271 0.41428473719732301 0 0.43725859913572351 0.40367734121386761 0 0.44963157745492133 0.40481471115854278 0 0.44189233393681271 0.41428473719732301 0 0.43217305169937392 0.43656977962071419 0 0.46148527776050657 0.42679011136530642 0 0.44189233393681271 0.41428473719732301 0 0.43217305169937392 0.43656977962071419 0 0.45514707005054678 0.45108664928949332 0 0.42921591851689311 0.46287781304569781 0 0.43217305169937392 0.43656977962071419 0 0.46148527776050657 0.42679011136530642 0 0.45514707005054678 0.45108664928949332 0 0.45514707005054678 0.45108664928949332 0 0.44843783206395438 0.46959908651518778 0 0.42921591851689311 0.46287781304569781 0 0.45514707005054678 0.45108664928949332 0 0.42921591851689311 0.46287781304569781 0 0.45514707005054678 0.45108664928949332 0 0.47527730266119123 0.47024687123026182 0 0.44843783206395438 0.46959908651518778 0 0.46148527776050657 0.42679011136530642 0 0.45514707005054678 0.45108664928949332 0 0.48107822158420083 0.43929548553328951 0 0.45514707005054678 0.45108664928949332 0 0.48107822158420083 0.43929548553328951 0 0.45514707005054678 0.45108664928949332 0 0.48107822158420083 0.43929548553328951 0 0.47653927249215478 0.45446409211442679 0 0.48107822158420083 0.43929548553328951 0 0.47653927249215478 0.45446409211442679 0 0.49234646893348749 0.45537030684539309 0 0.49234646893348749 0.45537030684539309 0 0.47527730266119123 0.47024687123026182 0 0.45514707005054678 0.45108664928949332 0 0.47653927249215478 0.45446409211442679 0 0.47527730266119123 0.47024687123026182 0 0.47653927249215478 0.45446409211442679 0 0.49234646893348749 0.45537030684539309 0 0.47527730266119123 0.47024687123026182 0 0.48107822158420083 0.43929548553328951 0 0.4999999999999995 0.45137248229000382 0 0.48107822158420083 0.43929548553328951 0 0.49234646893348749 0.45537030684539309 0 0.4999999999999995 0.45137248229000382 0 0.49999999999999928 0.43069155648795732 0 0.48107822158420083 0.43929548553328951 0 0.4999999999999995 0.45137248229000382 0 0.49234646893348749 0.45537030684539309 0 0.5 0.5 0 0.47527730266119123 0.47024687123026182 0 0.49234646893348749 0.45537030684539309 0 0.4999999999999995 0.45137248229000382 0 0.5 0.5 0 0.5 0.5 0 0.47527730266119123 0.47024687123026182 0 0.45820813638889479 0.48512343561513038 0 0.5 0.5 0 0.45820813638889479 0.48512343561513038 0 0.44113897011659869 0.49999999999999928 0 0.47527730266119123 0.47024687123026182 0 0.45820813638889479 0.48512343561513038 0 0.47527730266119123 0.47024687123026182 0 0.45820813638889479 0.48512343561513038 0 0.44843783206395438 0.46959908651518778 0 0.44843783206395438 0.46959908651518778 0 0.4356982251212434 0.48275879065240762 0 0.42921591851689311 0.46287781304569781 0 0.45820813638889479 0.48512343561513038 0 0.44843783206395438 0.46959908651518778 0 0.4356982251212434 0.48275879065240762 0 0.45820813638889479 0.48512343561513038 0 0.44113897011659869 0.49999999999999928 0 0.4356982251212434 0.48275879065240762 0 0.45820813638889479 0.48512343561513038 0 0.44113897011659869 0.49999999999999928 0 0.44113897011659869 0.49999999999999928 0 0.42198052087153493 0.50000000000000033 0 0.4356982251212434 0.48275879065240762 0 0.42198052087153493 0.50000000000000033 0 0.41520797276958449 0.47895240873842909 0 0.4356982251212434 0.48275879065240762 0 0.42198052087153493 0.50000000000000033 0 0.3943521354240152 0.48910348302761242 0 0.40393532658940567 0.50000000000001577 0 0.42198052087153493 0.50000000000000033 0 0.3943521354240152 0.48910348302761242 0 0.42198052087153493 0.50000000000000033 0 0.41520797276958449 0.47895240873842909 0 0.3943521354240152 0.48910348302761242 0 0.41520797276958449 0.47895240873842909 0 0.4356982251212434 0.48275879065240762 0 0.42921591851689311 0.46287781304569781 0 0.43217305169937392 0.43656977962071419 0 0.42921591851689311 0.46287781304569781 0 0.41744713264646671 0.44803779083815048 0 0.40747837656775332 0.43503540369871502 0 0.41744713264646671 0.44803779083815048 0 0.40092118380184649 0.45766816698747531 0 0.40747837656775332 0.43503540369871502 0 0.43217305169937392 0.43656977962071419 0 0.41744713264646671 0.44803779083815048 0 0.41520797276958449 0.47895240873842909 0 0.42921591851689311 0.46287781304569781 0 0.40092118380184649 0.45766816698747531 0 0.42921591851689311 0.46287781304569781 0 0.41744713264646671 0.44803779083815048 0 0.40092118380184649 0.45766816698747531 0 0.38838499362722873 0.43197785887924428 0 0.40747837656775332 0.43503540369871502 0 0.40092118380184649 0.45766816698747531 0 0.38838499362722873 0.43197785887924428 0 0.40092118380184649 0.45766816698747531 0 0.38085702682071321 0.44702362668510748 0 0.37496066392291932 0.43554357024030838 0 0.38838499362722873 0.43197785887924428 0 0.38085702682071321 0.44702362668510748 0 0.40092118380184649 0.45766816698747531 0 0.38085702682071321 0.44702362668510748 0 0.37512159256099409 0.46723749568800771 0 0.41520797276958449 0.47895240873842909 0 0.40092118380184649 0.45766816698747531 0 0.3943521354240152 0.48910348302761242 0 0.40092118380184649 0.45766816698747531 0 0.37512159256099409 0.46723749568800771 0 0.3943521354240152 0.48910348302761242 0 0.37512159256099409 0.46723749568800771 0 0.3943521354240152 0.48910348302761242 0 0.37512159256099409 0.46723749568800771 0 0.38541588584636671 0.48557906444087939 0 0.3943521354240152 0.48910348302761242 0 0.37102616877421812 0.47990382161489231 0 0.37056231748715063 0.46549514162231442 0 0.38541588584636671 0.48557906444087939 0 0.37056231748715063 0.46549514162231442 0 0.37512159256099409 0.46723749568800771 0 0.38541588584636671 0.48557906444087939 0 0.37056231748715063 0.46549514162231442 0 0.38541588584636671 0.48557906444087939 0 0.37102616877421812 0.47990382161489231 0 0.38541588584636671 0.48557906444087939 0 0.36891360119238159 0.5 0 0.38541588584636671 0.48557906444087939 0 0.39608125008154771 0.50000000000000011 0 0.36891360119238159 0.5 0 0.37102616877421812 0.47990382161489231 0 0.38541588584636671 0.48557906444087939 0 0.38541588584636671 0.48557906444087939 0 0.3943521354240152 0.48910348302761242 0 0.38541588584636671 0.48557906444087939 0 0.3943521354240152 0.48910348302761242 0 0.39608125008154771 0.50000000000000011 0 0.3943521354240152 0.48910348302761242 0 0.39608125008154771 0.50000000000000011 0 0.40393532658940567 0.50000000000001577 0 0.38541588584636671 0.48557906444087939 0 0.39608125008154771 0.50000000000000011 0 0.3943521354240152 0.48910348302761242 0 0.40393532658940567 0.50000000000001577 0 0.34187897658060012 0.093440906559230305 0 0.33767974699843462 0.082813425507925947 0 0.33330573658971779 0.098662629186543255 0 0.33335591210560778 0.082241844653823809 0 0.32707029378705299 0.080325908467870119 0 0.32523511492895207 0.087459860002589318 0 0.33335591210560778 0.082241844653823809 0 0.33767974699843462 0.082813425507925947 0 0.32523511492895207 0.087459860002589318 0 0.33335591210560778 0.082241844653823809 0 0.33159644687155859 0.076135750475138056 0 0.32707029378705299 0.080325908467870119 0 0.34187897658060012 0.093440906559230305 0 0.33767974699843462 0.082813425507925947 0 0.34743821010737519 0.088029549889242845 0 0.33767974699843462 0.082813425507925947 0 0.34372379727923191 0.077867712162210251 0 0.34743821010737519 0.088029549889242845 0 0.33767974699843462 0.082813425507925947 0 0.34372379727923191 0.077867712162210251 0 0.33335591210560778 0.082241844653823809 0 0.33764003033130979 0.06962465743302873 0 0.35405935465125993 0.063067058123378761 0 0.33335591210560778 0.082241844653823809 0 0.33767974699843462 0.082813425507925947 0 0.35405935465125993 0.063067058123378761 0 0.33335591210560778 0.082241844653823809 0 0.35405935465125993 0.063067058123378761 0 0.33764003033130979 0.06962465743302873 0 0.3335921043376644 0.063901513071868435 0 0.34455939430151722 0.059459024714578118 0 0.33764003033130979 0.06962465743302873 0 0.3335921043376644 0.063901513071868435 0 0.32831955126226381 0.072350591345829593 0 0.33335591210560778 0.082241844653823809 0 0.33764003033130979 0.06962465743302873 0 0.33159644687155859 0.076135750475138056 0 0.32831955126226381 0.072350591345829593 0 0.33159644687155859 0.076135750475138056 0 0.32707029378705299 0.080325908467870119 0 0.33764003033130979 0.06962465743302873 0 0.32831955126226381 0.072350591345829593 0 0.33159644687155859 0.076135750475138056 0 0.32831955126226381 0.072350591345829593 0 0.31915262930334698 0.078609134654491514 0 0.32140236071283113 0.057403605372439707 0 0.31915262930334698 0.078609134654491514 0 0.32140236071283113 0.057403605372439707 0 0.3094590213654016 0.070342112939100962 0 0.32831955126226381 0.072350591345829593 0 0.31915262930334698 0.078609134654491514 0 0.32707029378705299 0.080325908467870119 0 0.31915262930334698 0.078609134654491514 0 0.32140236071283113 0.057403605372439707 0 0.3335921043376644 0.063901513071868435 0 0.32831955126226381 0.072350591345829593 0 0.32140236071283113 0.057403605372439707 0 0.31915262930334698 0.078609134654491514 0 0.31690289789386428 0.09981466393654348 0 0.30996687307048149 0.094295689728376486 0 0.31915262930334698 0.078609134654491514 0 0.31690289789386428 0.09981466393654348 0 0.33767974699843462 0.082813425507925947 0 0.31690289789386428 0.09981466393654348 0 0.31915262930334698 0.078609134654491514 0 0.32523511492895207 0.087459860002589318 0 0.31690289789386428 0.09981466393654348 0 0.33767974699843462 0.082813425507925947 0 0.32523511492895207 0.087459860002589318 0 0.31690289789386428 0.09981466393654348 0 0.31915262930334698 0.078609134654491514 0 0.32707029378705299 0.080325908467870119 0 0.32523511492895207 0.087459860002589318 0 0.31690289789386428 0.09981466393654348 0 0.32724112632684599 0.10453056449107589 0 0.33330573658971779 0.098662629186543255 0 0.31690289789386428 0.09981466393654348 0 0.30855998701574799 0.1066414843227199 0 0.31690289789386428 0.09981466393654348 0 0.32724112632684599 0.10453056449107589 0 0.32616520035271163 0.1114988279239446 0 0.31690289789386428 0.09981466393654348 0 0.32616520035271163 0.1114988279239446 0 0.32210559291249008 0.1177068571894886 0 0.31690289789386428 0.09981466393654348 0 0.31437318018996718 0.1236592893967839 0 0.32210559291249008 0.1177068571894886 0 0.31690289789386428 0.09981466393654348 0 0.31437318018996718 0.1236592893967839 0 0.31153360406396202 0.10948553064138911 0 0.31690289789386428 0.09981466393654348 0 0.31437318018996718 0.1236592893967839 0 0.32616520035271163 0.1114988279239446 0 0.32210559291249008 0.1177068571894886 0 0.33104634524143001 0.11824710053288461 0 0.32210559291249008 0.1177068571894886 0 0.33104634524143001 0.11824710053288461 0 0.32620385711210409 0.1267591519802356 0 0.31437318018996718 0.1236592893967839 0 0.32210559291249008 0.1177068571894886 0 0.32620385711210409 0.1267591519802356 0 0.33104634524143001 0.11824710053288461 0 0.33567235926055711 0.12643110993479159 0 0.32620385711210409 0.1267591519802356 0 0.32616520035271163 0.1114988279239446 0 0.33104634524143001 0.11824710053288461 0 0.33438373093900742 0.1089835611415479 0 0.33104634524143001 0.11824710053288461 0 0.3427693047329371 0.1157148194322609 0 0.33438373093900742 0.1089835611415479 0 0.3427693047329371 0.1157148194322609 0 0.33438373093900742 0.1089835611415479 0 0.34366163397007571 0.1037041578594803 0 0.3427693047329371 0.1157148194322609 0 0.33567235926055711 0.12643110993479159 0 0.34598674847975441 0.13040746309532461 0 0.33104634524143001 0.11824710053288461 0 0.3427693047329371 0.1157148194322609 0 0.33567235926055711 0.12643110993479159 0 0.33767974699843462 0.082813425507925947 0 0.31690289789386428 0.09981466393654348 0 0.33330573658971779 0.098662629186543255 0 0.32724112632684599 0.10453056449107589 0 0.33330573658971779 0.098662629186543255 0 0.33438373093900742 0.1089835611415479 0 0.32724112632684599 0.10453056449107589 0 0.32616520035271163 0.1114988279239446 0 0.33438373093900742 0.1089835611415479 0 0.33330573658971779 0.098662629186543255 0 0.33438373093900742 0.1089835611415479 0 0.34366163397007571 0.1037041578594803 0 0.34187897658060012 0.093440906559230305 0 0.33330573658971779 0.098662629186543255 0 0.34366163397007571 0.1037041578594803 0 0.34187897658060012 0.093440906559230305 0 0.34366163397007571 0.1037041578594803 0 0.34953175468915132 0.095839288201435349 0 0.34953175468915132 0.095839288201435349 0 0.35499631242245189 0.10743274381886971 0 0.36411889413773729 0.089871266353555551 0 0.34366163397007571 0.1037041578594803 0 0.34953175468915132 0.095839288201435349 0 0.35499631242245189 0.10743274381886971 0 0.3427693047329371 0.1157148194322609 0 0.34366163397007571 0.1037041578594803 0 0.35499631242245189 0.10743274381886971 0 0.3427693047329371 0.1157148194322609 0 0.3527704905258322 0.1198758945950185 0 0.34598674847975441 0.13040746309532461 0 0.3427693047329371 0.1157148194322609 0 0.35499631242245189 0.10743274381886971 0 0.3527704905258322 0.1198758945950185 0 0.35499631242245189 0.10743274381886971 0 0.3527704905258322 0.1198758945950185 0 0.36340676067177102 0.11906576568221849 0 0.3527704905258322 0.1198758945950185 0 0.36340676067177102 0.11906576568221849 0 0.35745352491216242 0.12859513935055261 0 0.35499631242245189 0.10743274381886971 0 0.36340676067177102 0.11906576568221849 0 0.36900559487620449 0.1069895393547772 0 0.36340676067177102 0.11906576568221849 0 0.36900559487620449 0.1069895393547772 0 0.37633624597385662 0.11787314924386549 0 0.36340676067177102 0.11906576568221849 0 0.36843820122724952 0.13253901076837041 0 0.37633624597385662 0.11787314924386549 0 0.36900559487620449 0.1069895393547772 0 0.36411889413773729 0.089871266353555551 0 0.38425611014452149 0.101559669883044 0 0.35499631242245189 0.10743274381886971 0 0.36900559487620449 0.1069895393547772 0 0.36411889413773729 0.089871266353555551 0 0.36411889413773729 0.089871266353555551 0 0.38425611014452149 0.101559669883044 0 0.36411889413773729 0.089871266353555551 0 0.36921975373312133 0.076088670573887268 0 0.38046958531655561 0.083315368016622496 0 0.36411889413773729 0.089871266353555551 0 0.3575817888948094 0.076578593908736836 0 0.36921975373312133 0.076088670573887268 0 0.34953175468915132 0.095839288201435349 0 0.36411889413773729 0.089871266353555551 0 0.34743821010737519 0.088029549889242845 0 0.34372379727923191 0.077867712162210251 0 0.36411889413773729 0.089871266353555551 0 0.34372379727923191 0.077867712162210251 0 0.36411889413773729 0.089871266353555551 0 0.3575817888948094 0.076578593908736836 0 0.34372379727923191 0.077867712162210251 0 0.36411889413773729 0.089871266353555551 0 0.34743821010737519 0.088029549889242845 0 0.34187897658060012 0.093440906559230305 0 0.34953175468915132 0.095839288201435349 0 0.34743821010737519 0.088029549889242845 0 0.33764003033130979 0.06962465743302873 0 0.35405935465125993 0.063067058123378761 0 0.34455939430151722 0.059459024714578118 0 0.33767974699843462 0.082813425507925947 0 0.34372379727923191 0.077867712162210251 0 0.35405935465125993 0.063067058123378761 0 0.34372379727923191 0.077867712162210251 0 0.3584565961030044 0.065812187079307638 0 0.34372379727923191 0.077867712162210251 0 0.3575817888948094 0.076578593908736836 0 0.3584565961030044 0.065812187079307638 0 0.34372379727923191 0.077867712162210251 0 0.3584565961030044 0.065812187079307638 0 0.35405935465125993 0.063067058123378761 0 0.3584565961030044 0.065812187079307638 0 0.36785073429063059 0.067080440981299685 0 0.37237415052946049 0.060647558952129962 0 0.3584565961030044 0.065812187079307638 0 0.36327721825539139 0.071389973135807847 0 0.36785073429063059 0.067080440981299685 0 0.3575817888948094 0.076578593908736836 0 0.3584565961030044 0.065812187079307638 0 0.36327721825539139 0.071389973135807847 0 0.3575817888948094 0.076578593908736836 0 0.36327721825539139 0.071389973135807847 0 0.36921975373312133 0.076088670573887268 0 0.36327721825539139 0.071389973135807847 0 0.36921975373312133 0.076088670573887268 0 0.36785073429063059 0.067080440981299685 0 0.36921975373312133 0.076088670573887268 0 0.36785073429063059 0.067080440981299685 0 0.37301306653167959 0.069456512048757718 0 0.36921975373312133 0.076088670573887268 0 0.37301306653167959 0.069456512048757718 0 0.37961539329696659 0.072097472282260489 0 0.37301306653167959 0.069456512048757718 0 0.37358971833934568 0.065173607592700508 0 0.37746586975022423 0.066971296969019156 0 0.36785073429063059 0.067080440981299685 0 0.37301306653167959 0.069456512048757718 0 0.37358971833934568 0.065173607592700508 0 0.36785073429063059 0.067080440981299685 0 0.37358971833934568 0.065173607592700508 0 0.37237415052946049 0.060647558952129962 0 0.37358971833934568 0.065173607592700508 0 0.37237415052946049 0.060647558952129962 0 0.37791465938860203 0.062638891402254926 0 0.3584565961030044 0.065812187079307638 0 0.37237415052946049 0.060647558952129962 0 0.37923344520757368 0.048810948650688697 0 0.3584565961030044 0.065812187079307638 0 0.36678556687727648 0.055361441334503839 0 0.37923344520757368 0.048810948650688697 0 0.3584565961030044 0.065812187079307638 0 0.37923344520757368 0.048810948650688697 0 0.35405935465125993 0.063067058123378761 0 0.37476279719691319 0.043892271592934878 0 0.35405935465125993 0.063067058123378761 0 0.36678556687727648 0.055361441334503839 0 0.37476279719691319 0.043892271592934878 0 0.35405935465125993 0.063067058123378761 0 0.36459347155320998 0.05077023092912071 0 0.37476279719691319 0.043892271592934878 0 0.3584565961030044 0.065812187079307638 0 0.35405935465125993 0.063067058123378761 0 0.36678556687727648 0.055361441334503839 0 0.36459347155320998 0.05077023092912071 0 0.36563333607644333 0.045380751377374219 0 0.35889479839192739 0.048814144112124813 0 0.36459347155320998 0.05077023092912071 0 0.3577701384023495 0.054750517747029347 0 0.35889479839192739 0.048814144112124813 0 0.36459347155320998 0.05077023092912071 0 0.36882366738910938 0.046226654184747702 0 0.36563333607644333 0.045380751377374219 0 0.36678556687727648 0.055361441334503839 0 0.37476279719691319 0.043892271592934878 0 0.37923344520757368 0.048810948650688697 0 0.36459347155320998 0.05077023092912071 0 0.37476279719691319 0.043892271592934878 0 0.36882366738910938 0.046226654184747702 0 0.37476279719691319 0.043892271592934878 0 0.37240847295540969 0.041302007137853439 0 0.37040706840446902 0.04420042107322749 0 0.37240847295540969 0.041302007137853439 0 0.36206838284241821 0.029118418787502851 0 0.38745126406920649 0.032140668296120882 0 0.37476279719691319 0.043892271592934878 0 0.37040706840446902 0.04420042107322749 0 0.36882366738910938 0.046226654184747702 0 0.37476279719691319 0.043892271592934878 0 0.37240847295540969 0.041302007137853439 0 0.37736030690649891 0.041486551187629589 0 0.37240847295540969 0.041302007137853439 0 0.37736030690649891 0.041486551187629589 0 0.37476279719691319 0.043892271592934878 0 0.37240847295540969 0.041302007137853439 0 0.37240847295540969 0.041302007137853439 0 0.37040706840446902 0.04420042107322749 0 0.36563333607644333 0.045380751377374219 0 0.37040706840446902 0.04420042107322749 0 0.36882366738910938 0.046226654184747702 0 0.36563333607644333 0.045380751377374219 0 0.37240847295540969 0.041302007137853439 0 0.36206838284241821 0.029118418787502851 0 0.37240847295540969 0.041302007137853439 0 0.35832503375167418 0.034707076265795639 0 0.36206838284241821 0.029118418787502851 0 0.37240847295540969 0.041302007137853439 0 0.35750488968813282 0.040746583099112978 0 0.35832503375167418 0.034707076265795639 0 0.37240847295540969 0.041302007137853439 0 0.36563333607644333 0.045380751377374219 0 0.35750488968813282 0.040746583099112978 0 0.37240847295540969 0.041302007137853439 0 0.35750488968813282 0.040746583099112978 0 0.36563333607644333 0.045380751377374219 0 0.35750488968813282 0.040746583099112978 0 0.35889479839192739 0.048814144112124813 0 0.35750488968813282 0.040746583099112978 0 0.35028470072919748 0.044948670677001909 0 0.35889479839192739 0.048814144112124813 0 0.35832503375167418 0.034707076265795639 0 0.34538630639128898 0.036814621579176081 0 0.35792607481866612 0.028625208884439649 0 0.35750488968813282 0.040746583099112978 0 0.35832503375167418 0.034707076265795639 0 0.34538630639128898 0.036814621579176081 0 0.34538630639128898 0.036814621579176081 0 0.35028470072919748 0.044948670677001909 0 0.34291332430198118 0.048298137213115939 0 0.35750488968813282 0.040746583099112978 0 0.34538630639128898 0.036814621579176081 0 0.35028470072919748 0.044948670677001909 0 0.35028470072919748 0.044948670677001909 0 0.35199186668673621 0.052453273569428263 0 0.34291332430198118 0.048298137213115939 0 0.34455939430151722 0.059459024714578118 0 0.35199186668673621 0.052453273569428263 0 0.34291332430198118 0.048298137213115939 0 0.35405935465125993 0.063067058123378761 0 0.34455939430151722 0.059459024714578118 0 0.35294815233267829 0.05751883862428997 0 0.34455939430151722 0.059459024714578118 0 0.35294815233267829 0.05751883862428997 0 0.35199186668673621 0.052453273569428263 0 0.35294815233267829 0.05751883862428997 0 0.3577701384023495 0.054750517747029347 0 0.35199186668673621 0.052453273569428263 0 0.35405935465125993 0.063067058123378761 0 0.35294815233267829 0.05751883862428997 0 0.3577701384023495 0.054750517747029347 0 0.35405935465125993 0.063067058123378761 0 0.36459347155320998 0.05077023092912071 0 0.3577701384023495 0.054750517747029347 0 0.3577701384023495 0.054750517747029347 0 0.35889479839192739 0.048814144112124813 0 0.35199186668673621 0.052453273569428263 0 0.35028470072919748 0.044948670677001909 0 0.35889479839192739 0.048814144112124813 0 0.35199186668673621 0.052453273569428263 0 0.36230355318305651 0.0078712884785177503 0 0.3580787192078857 0.01188297401524124 0 0.35843567287196809 0.0035144151888312882 0 0.36678757346642171 0.0041515566250526431 0 0.35843567287196809 0.0035144151888312882 0 0.35935228663599039 -0.0048114488478301484 0 0.36678757346642171 0.0041515566250526431 0 0.36230355318305651 0.0078712884785177503 0 0.35843567287196809 0.0035144151888312882 0 0.36678757346642171 0.0041515566250526431 0 0.37495508844019299 0.003652689079625755 0 0.36801745464278901 -0.0041454160857303983 0 0.36678757346642171 0.0041515566250526431 0 0.37495508844019299 0.003652689079625755 0 0.37462966441300449 0.01149328103671185 0 0.37462966441300449 0.01149328103671185 0 0.36616585384286138 0.012514918280761589 0 0.37285655976824289 0.01868474300795565 0 0.36678757346642171 0.0041515566250526431 0 0.37462966441300449 0.01149328103671185 0 0.36616585384286138 0.012514918280761589 0 0.36616585384286138 0.012514918280761589 0 0.36194659951897612 0.016239847304929979 0 0.3580787192078857 0.01188297401524124 0 0.36678757346642171 0.0041515566250526431 0 0.36616585384286138 0.012514918280761589 0 0.36230355318305651 0.0078712884785177503 0 0.36616585384286138 0.012514918280761589 0 0.36230355318305651 0.0078712884785177503 0 0.3580787192078857 0.01188297401524124 0 0.36206838284241821 0.029118418787502851 0 0.38745126406920649 0.032140668296120882 0 0.37109296736476011 0.024391215337483941 0 0.36206838284241821 0.029118418787502851 0 0.38745126406920649 0.032140668296120882 0 0.36268859610414778 0.022764822068231182 0 0.36631594570062531 0.0200992011736198 0 0.37109296736476011 0.024391215337483941 0 0.36194659951897612 0.016239847304929979 0 0.36268859610414778 0.022764822068231182 0 0.35842381030061687 0.019383155260906299 0 0.36194659951897612 0.016239847304929979 0 0.35842381030061687 0.019383155260906299 0 0.3580787192078857 0.01188297401524124 0 0.36194659951897612 0.016239847304929979 0 0.36268859610414778 0.022764822068231182 0 0.36631594570062531 0.0200992011736198 0 0.36616585384286138 0.012514918280761589 0 0.36194659951897612 0.016239847304929979 0 0.36631594570062531 0.0200992011736198 0 0.37285655976824289 0.01868474300795565 0 0.37109296736476011 0.024391215337483941 0 0.37931936372767239 0.02403264859453675 0 0.36616585384286138 0.012514918280761589 0 0.36631594570062531 0.0200992011736198 0 0.37285655976824289 0.01868474300795565 0 0.36631594570062531 0.0200992011736198 0 0.37285655976824289 0.01868474300795565 0 0.37109296736476011 0.024391215337483941 0 0.36268859610414778 0.022764822068231182 0 0.35792607481866612 0.028625208884439649 0 0.35842381030061687 0.019383155260906299 0 0.37109296736476011 0.024391215337483941 0 0.36206838284241821 0.029118418787502851 0 0.35792607481866612 0.028625208884439649 0 0.36268859610414778 0.022764822068231182 0 0.37109296736476011 0.024391215337483941 0 0.35792607481866612 0.028625208884439649 0 0.35832503375167418 0.034707076265795639 0 0.36206838284241821 0.029118418787502851 0 0.35792607481866612 0.028625208884439649 0 0.36206838284241821 0.029118418787502851 0 0.35792607481866612 0.028625208884439649 0 0.34538630639128898 0.036814621579176081 0 0.35792607481866612 0.028625208884439649 0 0.32840088556812558 0.02510974947275792 0 0.35792607481866612 0.028625208884439649 0 0.34530005210769149 0.01552980317236013 0 0.32840088556812558 0.02510974947275792 0 0.35792607481866612 0.028625208884439649 0 0.35314808621403732 0.016103238452065301 0 0.35842381030061687 0.019383155260906299 0 0.35792607481866612 0.028625208884439649 0 0.35314808621403732 0.016103238452065301 0 0.34530005210769149 0.01552980317236013 0 0.35314808621403732 0.016103238452065301 0 0.35842381030061687 0.019383155260906299 0 0.3580787192078857 0.01188297401524124 0 0.3580787192078857 0.01188297401524124 0 0.35256304724701992 0.0100057925348691 0 0.35843567287196809 0.0035144151888312882 0 0.35314808621403732 0.016103238452065301 0 0.3580787192078857 0.01188297401524124 0 0.35256304724701992 0.0100057925348691 0 0.35256304724701992 0.0100057925348691 0 0.34530005210769149 0.01552980317236013 0 0.3478527058335168 0.0029985318458475431 0 0.35314808621403732 0.016103238452065301 0 0.35256304724701992 0.0100057925348691 0 0.34530005210769149 0.01552980317236013 0 0.3478527058335168 0.0029985318458475431 0 0.35843567287196809 0.0035144151888312882 0 0.35174757496052972 -0.004401562338937336 0 0.35256304724701992 0.0100057925348691 0 0.3478527058335168 0.0029985318458475431 0 0.35843567287196809 0.0035144151888312882 0 0.34530005210769149 0.01552980317236013 0 0.33398308021336398 0.0037047267811294682 0 0.32840088556812558 0.02510974947275792 0 0.34530005210769149 0.01552980317236013 0 0.3478527058335168 0.0029985318458475431 0 0.33398308021336398 0.0037047267811294682 0 0.35792607481866612 0.028625208884439649 0 0.32840088556812558 0.02510974947275792 0 0.32840088556812558 0.02510974947275792 0 0.31913211362922289 0.0099371361858591415 0 0.30798216961211111 0.023134573966410551 0 0.32840088556812558 0.02510974947275792 0 0.31364796642220932 0.041650641092141047 0 0.30798216961211111 0.023134573966410551 0 0.33398308021336398 0.0037047267811294682 0 0.32840088556812558 0.02510974947275792 0 0.31913211362922289 0.0099371361858591415 0 0.31913211362922289 0.0099371361858591415 0 0.30588981492172601 0.002439841043038488 0 0.32153595636847943 -0.0024912293887817561 0 0.33398308021336398 0.0037047267811294682 0 0.31913211362922289 0.0099371361858591415 0 0.32153595636847943 -0.0024912293887817561 0 0.33469697818644062 0.054617784067265293 0 0.33101770727820867 0.044026639964324189 0 0.32140236071283113 0.057403605372439707 0 0.3335921043376644 0.063901513071868435 0 0.33469697818644062 0.054617784067265293 0 0.32140236071283113 0.057403605372439707 0 0.3335921043376644 0.063901513071868435 0 0.34455939430151722 0.059459024714578118 0 0.33469697818644062 0.054617784067265293 0 0.34455939430151722 0.059459024714578118 0 0.33469697818644062 0.054617784067265293 0 0.34291332430198118 0.048298137213115939 0 0.33469697818644062 0.054617784067265293 0 0.34291332430198118 0.048298137213115939 0 0.33101770727820867 0.044026639964324189 0 0.34538630639128898 0.036814621579176081 0 0.34291332430198118 0.048298137213115939 0 0.33101770727820867 0.044026639964324189 0 0.34538630639128898 0.036814621579176081 0 0.32840088556812558 0.02510974947275792 0 0.33101770727820867 0.044026639964324189 0 0.32840088556812558 0.02510974947275792 0 0.33101770727820867 0.044026639964324189 0 0.31364796642220932 0.041650641092141047 0 0.31364796642220932 0.041650641092141047 0 0.32140236071283113 0.057403605372439707 0 0.30375195907626312 0.056315672823856827 0 0.33101770727820867 0.044026639964324189 0 0.31364796642220932 0.041650641092141047 0 0.32140236071283113 0.057403605372439707 0 0.31364796642220932 0.041650641092141047 0 0.30375195907626312 0.056315672823856827 0 0.28933271628571627 0.043913604953057073 0 0.32140236071283113 0.057403605372439707 0 0.30375195907626312 0.056315672823856827 0 0.3094590213654016 0.070342112939100962 0 0.31364796642220932 0.041650641092141047 0 0.28933271628571627 0.043913604953057073 0 0.30798216961211111 0.023134573966410551 0 0.28933271628571627 0.043913604953057073 0 0.28259416226221717 0.015299469420085929 0 0.27757385097093989 0.036212522793807857 0 0.28933271628571627 0.043913604953057073 0 0.29607127030921537 0.072527740486028197 0 0.30375195907626312 0.056315672823856827 0 0.28933271628571627 0.043913604953057073 0 0.29607127030921537 0.072527740486028197 0 0.28933271628571627 0.043913604953057073 0 0.28047721615592403 0.065315343812970661 0 0.29607127030921537 0.072527740486028197 0 0.30588981492172601 0.002439841043038488 0 0.30798216961211111 0.023134573966410551 0 0.29526000164315958 0.01807089213341196 0 0.30588981492172601 0.002439841043038488 0 0.29526000164315958 0.01807089213341196 0 0.29050114513402753 0.0055669712844677597 0 0.31913211362922289 0.0099371361858591415 0 0.30588981492172601 0.002439841043038488 0 0.30798216961211111 0.023134573966410551 0 0.30588981492172601 0.002439841043038488 0 0.29050114513402753 0.0055669712844677597 0 0.29606097689681582 -0.0036238285357404151 0 0.28933271628571627 0.043913604953057073 0 0.30798216961211111 0.023134573966410551 0 0.29526000164315958 0.01807089213341196 0 0.28933271628571627 0.043913604953057073 0 0.29526000164315958 0.01807089213341196 0 0.28259416226221717 0.015299469420085929 0 0.28933271628571627 0.043913604953057073 0 0.28259416226221717 0.015299469420085929 0 0.29526000164315958 0.01807089213341196 0 0.28259416226221717 0.015299469420085929 0 0.29050114513402753 0.0055669712844677597 0 0.28259416226221717 0.015299469420085929 0 0.29050114513402753 0.0055669712844677597 0 0.27878433021538401 0.0042887798269855698 0 0.29050114513402753 0.0055669712844677597 0 0.27878433021538401 0.0042887798269855698 0 0.28515541689400048 -0.002871929595754245 0 0.27878433021538401 0.0042887798269855698 0 0.27365551633206331 0.024008271199047651 0 0.28259416226221717 0.015299469420085929 0 0.27878433021538401 0.0042887798269855698 0 0.27365551633206331 0.024008271199047651 0 0.27878433021538401 0.0042887798269855698 0 0.26878228537850762 0.01058887159798823 0 0.27365551633206331 0.024008271199047651 0 0.26747992533006892 0.0031544748770629999 0 0.27878433021538401 0.0042887798269855698 0 0.27384820699535511 -0.0038844471402397912 0 0.26747992533006892 0.0031544748770629999 0 0.27878433021538401 0.0042887798269855698 0 0.26878228537850762 0.01058887159798823 0 0.26747992533006892 0.0031544748770629999 0 0.26878228537850762 0.01058887159798823 0 0.26232223008327898 0.010014120329909349 0 0.28259416226221717 0.015299469420085929 0 0.27365551633206331 0.024008271199047651 0 0.27757385097093989 0.036212522793807857 0 0.26878228537850762 0.01058887159798823 0 0.27365551633206331 0.024008271199047651 0 0.26439016081983302 0.01753150471188673 0 0.27365551633206331 0.024008271199047651 0 0.26025105654195818 0.0253769145725187 0 0.26439016081983302 0.01753150471188673 0 0.26025105654195818 0.0253769145725187 0 0.26191493376928882 0.03463902601021443 0 0.25392148086072691 0.032220210432752298 0 0.27365551633206331 0.024008271199047651 0 0.26025105654195818 0.0253769145725187 0 0.26191493376928882 0.03463902601021443 0 0.26025105654195818 0.0253769145725187 0 0.25120105678908078 0.02419039512390813 0 0.25392148086072691 0.032220210432752298 0 0.24510305125085591 0.02993903034939497 0 0.25120105678908078 0.02419039512390813 0 0.25392148086072691 0.032220210432752298 0 0.2486024776200059 0.016654203094090929 0 0.25120105678908078 0.02419039512390813 0 0.25693971576335689 0.01766934585996971 0 0.26025105654195818 0.0253769145725187 0 0.25120105678908078 0.02419039512390813 0 0.25693971576335689 0.01766934585996971 0 0.26025105654195818 0.0253769145725187 0 0.25693971576335689 0.01766934585996971 0 0.26439016081983302 0.01753150471188673 0 0.26878228537850762 0.01058887159798823 0 0.26439016081983302 0.01753150471188673 0 0.26232223008327898 0.010014120329909349 0 0.25693971576335689 0.01766934585996971 0 0.26439016081983302 0.01753150471188673 0 0.26232223008327898 0.010014120329909349 0 0.25693971576335689 0.01766934585996971 0 0.26232223008327898 0.010014120329909349 0 0.25257232655810741 0.01222979089227948 0 0.26232223008327898 0.010014120329909349 0 0.25257232655810741 0.01222979089227948 0 0.25612279108826141 0.002394243423969229 0 0.2486024776200059 0.016654203094090929 0 0.25693971576335689 0.01766934585996971 0 0.25257232655810741 0.01222979089227948 0 0.24637522602358761 0.00088169354209314784 0 0.25612279108826141 0.002394243423969229 0 0.25040151105958658 0.0055971893843182576 0 0.25257232655810741 0.01222979089227948 0 0.25612279108826141 0.002394243423969229 0 0.25040151105958658 0.0055971893843182576 0 0.26747992533006892 0.0031544748770629999 0 0.25612279108826141 0.002394243423969229 0 0.26326902946290959 -0.004775168129690267 0 0.26747992533006892 0.0031544748770629999 0 0.26232223008327898 0.010014120329909349 0 0.25612279108826141 0.002394243423969229 0 0.27376015752596039 0.054113505825738907 0 0.26852670244874249 0.043727762571109732 0 0.26339788856542229 0.063447253943171911 0 0.26852670244874249 0.043727762571109732 0 0.26339788856542229 0.063447253943171911 0 0.28933271628571627 0.043913604953057073 0 0.27376015752596039 0.054113505825738907 0 0.28047721615592403 0.065315343812970661 0 0.27376015752596039 0.054113505825738907 0 0.26339788856542229 0.063447253943171911 0 0.28047721615592403 0.065315343812970661 0 0.27365551633206331 0.024008271199047651 0 0.26852670244874249 0.043727762571109732 0 0.26191493376928882 0.03463902601021443 0 0.27365551633206331 0.024008271199047651 0 0.26852670244874249 0.043727762571109732 0 0.27376015752596039 0.054113505825738907 0 0.27757385097093989 0.036212522793807857 0 0.26852670244874249 0.043727762571109732 0 0.27365551633206331 0.024008271199047651 0 0.27757385097093989 0.036212522793807857 0 0.26852670244874249 0.043727762571109732 0 0.28933271628571627 0.043913604953057073 0 0.27376015752596039 0.054113505825738907 0 0.27757385097093989 0.036212522793807857 0 0.26852670244874249 0.043727762571109732 0 0.25988967968627469 0.043263513241540867 0 0.26191493376928882 0.03463902601021443 0 0.25988967968627469 0.043263513241540867 0 0.26191493376928882 0.03463902601021443 0 0.25524516674596692 0.039237484044317338 0 0.26852670244874249 0.043727762571109732 0 0.25988967968627469 0.043263513241540867 0 0.25764626432991489 0.051424603781013892 0 0.26191493376928882 0.03463902601021443 0 0.25392148086072691 0.032220210432752298 0 0.25524516674596692 0.039237484044317338 0 0.24867026828239761 0.038097702182248623 0 0.25392148086072691 0.032220210432752298 0 0.25524516674596692 0.039237484044317338 0 0.24334429870242 0.044267468012004541 0 0.25301588290366778 0.043405118851215743 0 0.25764626432991489 0.051424603781013892 0 0.25988967968627469 0.043263513241540867 0 0.25301588290366778 0.043405118851215743 0 0.25764626432991489 0.051424603781013892 0 0.25988967968627469 0.043263513241540867 0 0.25524516674596692 0.039237484044317338 0 0.25301588290366778 0.043405118851215743 0 0.24867026828239761 0.038097702182248623 0 0.25524516674596692 0.039237484044317338 0 0.25301588290366778 0.043405118851215743 0 0.24334429870242 0.044267468012004541 0 0.26339788856542229 0.063447253943171911 0 0.2484312972887181 0.056541775366689723 0 0.24334429870242 0.044267468012004541 0 0.26339788856542229 0.063447253943171911 0 0.24334429870242 0.044267468012004541 0 0.25764626432991489 0.051424603781013892 0 0.26339788856542229 0.063447253943171911 0 0.26852670244874249 0.043727762571109732 0 0.25764626432991489 0.051424603781013892 0 0.26339788856542229 0.063447253943171911 0 0.2484312972887181 0.056541775366689723 0 0.26115090075317071 0.072086572464936965 0 0.26339788856542229 0.063447253943171911 0 0.24853635857035189 0.069490596889548964 0 0.2484312972887181 0.056541775366689723 0 0.26115090075317071 0.072086572464936965 0 0.2484312972887181 0.056541775366689723 0 0.26115090075317071 0.072086572464936965 0 0.24997250701208401 0.079471354332479371 0 0.24853635857035189 0.069490596889548964 0 0.26115090075317071 0.072086572464936965 0 0.26115090075317071 0.072086572464936965 0 0.26339788856542229 0.063447253943171911 0 0.27080068978687061 0.076878108429687814 0 0.26115090075317071 0.072086572464936965 0 0.26339788856542229 0.063447253943171911 0 0.26115090075317071 0.072086572464936965 0 0.27555011337982038 0.089684042329557415 0 0.25529564938109472 0.094599102952415665 0 0.24997250701208401 0.079471354332479371 0 0.26115090075317071 0.072086572464936965 0 0.25529564938109472 0.094599102952415665 0 0.26115090075317071 0.072086572464936965 0 0.25529564938109472 0.094599102952415665 0 0.26115090075317071 0.072086572464936965 0 0.27555011337982038 0.089684042329557415 0 0.27080068978687061 0.076878108429687814 0 0.26115090075317071 0.072086572464936965 0 0.27555011337982038 0.089684042329557415 0 0.27555011337982038 0.089684042329557415 0 0.27080068978687061 0.076878108429687814 0 0.28310385644906921 0.082294564981085033 0 0.26339788856542229 0.063447253943171911 0 0.27080068978687061 0.076878108429687814 0 0.28310385644906921 0.082294564981085033 0 0.26339788856542229 0.063447253943171911 0 0.28047721615592403 0.065315343812970661 0 0.28310385644906921 0.082294564981085033 0 0.26339788856542229 0.063447253943171911 0 0.28310385644906921 0.082294564981085033 0 0.28047721615592403 0.065315343812970661 0 0.29607127030921537 0.072527740486028197 0 0.28310385644906921 0.082294564981085033 0 0.28310385644906921 0.082294564981085033 0 0.30373587151890469 0.1020275721419699 0 0.28894182550581499 0.096125960704564459 0 0.29607127030921537 0.072527740486028197 0 0.28310385644906921 0.082294564981085033 0 0.30373587151890469 0.1020275721419699 0 0.28310385644906921 0.082294564981085033 0 0.30373587151890469 0.1020275721419699 0 0.27555011337982038 0.089684042329557415 0 0.28310385644906921 0.082294564981085033 0 0.28894182550581499 0.096125960704564459 0 0.31915262930334698 0.078609134654491514 0 0.30691688742535139 0.086854411358688488 0 0.30996687307048149 0.094295689728376486 0 0.31915262930334698 0.078609134654491514 0 0.30691688742535139 0.086854411358688488 0 0.3094590213654016 0.070342112939100962 0 0.29607127030921537 0.072527740486028197 0 0.30691688742535139 0.086854411358688488 0 0.30373587151890469 0.1020275721419699 0 0.29607127030921537 0.072527740486028197 0 0.30373587151890469 0.1020275721419699 0 0.30691688742535139 0.086854411358688488 0 0.30996687307048149 0.094295689728376486 0 0.30674576212054239 0.098489256085534424 0 0.29607127030921537 0.072527740486028197 0 0.30691688742535139 0.086854411358688488 0 0.3094590213654016 0.070342112939100962 0 0.30375195907626312 0.056315672823856827 0 0.29607127030921537 0.072527740486028197 0 0.3094590213654016 0.070342112939100962 0 0.31437318018996718 0.1236592893967839 0 0.31153360406396202 0.10948553064138911 0 0.30855998701574799 0.1066414843227199 0 0.30373587151890469 0.1020275721419699 0 0.29617853016998408 0.10379057161542379 0 0.2950231581298397 0.12522718834775401 0 0.31437318018996718 0.1236592893967839 0 0.30855998701574799 0.1066414843227199 0 0.30985313689903188 0.13105011741186609 0 0.30373587151890469 0.1020275721419699 0 0.30985313689903188 0.13105011741186609 0 0.2950231581298397 0.12522718834775401 0 0.30373587151890469 0.1020275721419699 0 0.30985313689903188 0.13105011741186609 0 0.30373587151890469 0.1020275721419699 0 0.2950231581298397 0.12522718834775401 0 0.30855998701574799 0.1066414843227199 0 0.30373587151890469 0.1020275721419699 0 0.30985313689903188 0.13105011741186609 0 0.31690289789386428 0.09981466393654348 0 0.30855998701574799 0.1066414843227199 0 0.30869042160641541 0.1007155724328772 0 0.31690289789386428 0.09981466393654348 0 0.31153360406396202 0.10948553064138911 0 0.30855998701574799 0.1066414843227199 0 0.31153360406396202 0.10948553064138911 0 0.30855998701574799 0.1066414843227199 0 0.30736345221542771 0.10306362777715899 0 0.30855998701574799 0.1066414843227199 0 0.30869042160641541 0.1007155724328772 0 0.30559174422968499 0.1023982553954795 0 0.30855998701574799 0.1066414843227199 0 0.30373587151890469 0.1020275721419699 0 0.30736345221542771 0.10306362777715899 0 0.30559174422968499 0.1023982553954795 0 0.30855998701574799 0.1066414843227199 0 0.30855998701574799 0.1066414843227199 0 0.30373587151890469 0.1020275721419699 0 0.30736345221542771 0.10306362777715899 0 0.30559174422968499 0.1023982553954795 0 0.30869042160641541 0.1007155724328772 0 0.30559174422968499 0.1023982553954795 0 0.30570223469915869 0.10030602978432759 0 0.30373587151890469 0.1020275721419699 0 0.30691688742535139 0.086854411358688488 0 0.30674576212054239 0.098489256085534424 0 0.30373587151890469 0.1020275721419699 0 0.31690289789386428 0.09981466393654348 0 0.30996687307048149 0.094295689728376486 0 0.30869042160641541 0.1007155724328772 0 0.30996687307048149 0.094295689728376486 0 0.30869042160641541 0.1007155724328772 0 0.30674576212054239 0.098489256085534424 0 0.30869042160641541 0.1007155724328772 0 0.30570223469915869 0.10030602978432759 0 0.30674576212054239 0.098489256085534424 0 0.30559174422968499 0.1023982553954795 0 0.30869042160641541 0.1007155724328772 0 0.30570223469915869 0.10030602978432759 0 0.30570223469915869 0.10030602978432759 0 0.30674576212054239 0.098489256085534424 0 0.30373587151890469 0.1020275721419699 0 0.27555011337982038 0.089684042329557415 0 0.28994932600646722 0.10728151219418031 0 0.28894182550581499 0.096125960704564459 0 0.27555011337982038 0.089684042329557415 0 0.28994932600646722 0.10728151219418031 0 0.28994932600646722 0.10728151219418031 0 0.29617853016998408 0.10379057161542379 0 0.28894182550581499 0.096125960704564459 0 0.30373587151890469 0.1020275721419699 0 0.29617853016998408 0.10379057161542379 0 0.28894182550581499 0.096125960704564459 0 0.28994932600646722 0.10728151219418031 0 0.29617853016998408 0.10379057161542379 0 0.2950231581298397 0.12522718834775401 0 0.28994932600646722 0.10728151219418031 0 0.28145761755113158 0.124157324361126 0 0.2950231581298397 0.12522718834775401 0 0.28145761755113158 0.124157324361126 0 0.26957723182764498 0.1092612275195704 0 0.26598696894727208 0.13176404221397811 0 0.28994932600646722 0.10728151219418031 0 0.28145761755113158 0.124157324361126 0 0.26957723182764498 0.1092612275195704 0 0.27555011337982038 0.089684042329557415 0 0.26957723182764498 0.1092612275195704 0 0.25529564938109472 0.094599102952415665 0 0.27555011337982038 0.089684042329557415 0 0.28994932600646722 0.10728151219418031 0 0.26957723182764498 0.1092612275195704 0 0.2494403980090209 0.1171116334398949 0 0.25529564938109472 0.094599102952415665 0 0.2494403980090209 0.1171116334398949 0 0.26957723182764498 0.1092612275195704 0 0.25529564938109472 0.094599102952415665 0 0.2494403980090209 0.1171116334398949 0 0.26957723182764498 0.1092612275195704 0 0.26598696894727208 0.13176404221397811 0 0.243585146636947 0.13962416392737431 0 0.2494403980090209 0.1171116334398949 0 0.26598696894727208 0.13176404221397811 0 0.28145761755113158 0.124157324361126 0 0.26598696894727208 0.13176404221397811 0 0.2867514028444339 0.14725265153014711 0 0.26598696894727208 0.13176404221397811 0 0.2602033980042267 0.15272867852389249 0 0.2867514028444339 0.14725265153014711 0 0.243585146636947 0.13962416392737431 0 0.26598696894727208 0.13176404221397811 0 0.2602033980042267 0.15272867852389249 0 0.2602033980042267 0.15272867852389249 0 0.25071325899215041 0.17221730569813209 0 0.27847964755902799 0.1692781147125402 0 0.24778755904117561 0.19261041655277891 0 0.25071325899215041 0.17221730569813209 0 0.27020789227362219 0.1913035778949333 0 0.25071325899215041 0.17221730569813209 0 0.27847964755902799 0.1692781147125402 0 0.27020789227362219 0.1913035778949333 0 0.27847964755902799 0.1692781147125402 0 0.27020789227362219 0.1913035778949333 0 0.289058168694731 0.18796158221219969 0 0.27847964755902799 0.1692781147125402 0 0.27020789227362219 0.1913035778949333 0 0.2602033980042267 0.15272867852389249 0 0.27847964755902799 0.1692781147125402 0 0.2867514028444339 0.14725265153014711 0 0.27847964755902799 0.1692781147125402 0 0.2867514028444339 0.14725265153014711 0 0.27847964755902799 0.1692781147125402 0 0.3093137447821756 0.1713485403172651 0 0.29826805441795667 0.15680401639297001 0 0.27847964755902799 0.1692781147125402 0 0.29826805441795667 0.15680401639297001 0 0.2867514028444339 0.14725265153014711 0 0.27847964755902799 0.1692781147125402 0 0.3093137447821756 0.1713485403172651 0 0.289058168694731 0.18796158221219969 0 0.3093137447821756 0.1713485403172651 0 0.30678402707827979 0.19519316577750559 0 0.3205133484592898 0.19094472295078449 0 0.3093137447821756 0.1713485403172651 0 0.289058168694731 0.18796158221219969 0 0.30678402707827979 0.19519316577750559 0 0.3093137447821756 0.1713485403172651 0 0.30678402707827979 0.19519316577750559 0 0.3093137447821756 0.1713485403172651 0 0.31184346248607142 0.1475039148570246 0 0.3093137447821756 0.1713485403172651 0 0.29826805441795667 0.15680401639297001 0 0.31184346248607142 0.1475039148570246 0 0.29826805441795667 0.15680401639297001 0 0.30053200981397099 0.14185034902154919 0 0.31184346248607142 0.1475039148570246 0 0.30053200981397099 0.14185034902154919 0 0.30985313689903188 0.13105011741186609 0 0.2950231581298397 0.12522718834775401 0 0.31437318018996718 0.1236592893967839 0 0.31184346248607142 0.1475039148570246 0 0.30985313689903188 0.13105011741186609 0 0.30053200981397099 0.14185034902154919 0 0.31184346248607142 0.1475039148570246 0 0.30985313689903188 0.13105011741186609 0 0.30053200981397099 0.14185034902154919 0 0.2950231581298397 0.12522718834775401 0 0.2867514028444339 0.14725265153014711 0 0.28145761755113158 0.124157324361126 0 0.2950231581298397 0.12522718834775401 0 0.2867514028444339 0.14725265153014711 0 0.2950231581298397 0.12522718834775401 0 0.2867514028444339 0.14725265153014711 0 0.29826805441795667 0.15680401639297001 0 0.30053200981397099 0.14185034902154919 0 0.2867514028444339 0.14725265153014711 0 0.27307748593554881 0.23770691408494371 0 0.25330306868854607 0.24974758695179611 0 0.28316477846165211 0.24967076173474309 0 0.27307748593554881 0.23770691408494371 0 0.25330306868854607 0.24974758695179611 0 0.25611452929584783 0.23210673768206719 0 0.24586651296841919 0.21342090670682359 0 0.25611452929584783 0.23210673768206719 0 0.27109979028774939 0.22238326984860879 0 0.27307748593554881 0.23770691408494371 0 0.27109979028774939 0.22238326984860879 0 0.28728925970993607 0.2250354225304714 0 0.27307748593554881 0.23770691408494371 0 0.25611452929584783 0.23210673768206719 0 0.27109979028774939 0.22238326984860879 0 0.27109979028774939 0.22238326984860879 0 0.26359539615420557 0.20583442208723979 0 0.2855538394707362 0.20695797068534219 0 0.24586651296841919 0.21342090670682359 0 0.27109979028774939 0.22238326984860879 0 0.26359539615420557 0.20583442208723979 0 0.24778755904117561 0.19261041655277891 0 0.24586651296841919 0.21342090670682359 0 0.26359539615420557 0.20583442208723979 0 0.24586651296841919 0.21342090670682359 0 0.27109979028774939 0.22238326984860879 0 0.24778755904117561 0.19261041655277891 0 0.26359539615420557 0.20583442208723979 0 0.27020789227362219 0.1913035778949333 0 0.26359539615420557 0.20583442208723979 0 0.27020789227362219 0.1913035778949333 0 0.2855538394707362 0.20695797068534219 0 0.27020789227362219 0.1913035778949333 0 0.289058168694731 0.18796158221219969 0 0.2855538394707362 0.20695797068534219 0 0.289058168694731 0.18796158221219969 0 0.30678402707827979 0.19519316577750559 0 0.2855538394707362 0.20695797068534219 0 0.30678402707827979 0.19519316577750559 0 0.30512975563115458 0.219964737291894 0 0.31944751541988708 0.2070985331264773 0 0.30678402707827979 0.19519316577750559 0 0.2855538394707362 0.20695797068534219 0 0.30512975563115458 0.219964737291894 0 0.27109979028774939 0.22238326984860879 0 0.2855538394707362 0.20695797068534219 0 0.28728925970993607 0.2250354225304714 0 0.2855538394707362 0.20695797068534219 0 0.28728925970993607 0.2250354225304714 0 0.30512975563115458 0.219964737291894 0 0.28728925970993607 0.2250354225304714 0 0.30512975563115458 0.219964737291894 0 0.29582390204477982 0.24047110352359821 0 0.29582390204477982 0.24047110352359821 0 0.31857031815401088 0.24323529296225249 0 0.30512975563115458 0.219964737291894 0 0.29582390204477982 0.24047110352359821 0 0.31857031815401088 0.24323529296225249 0 0.30391607325737691 0.25765648791281842 0 0.29582390204477982 0.24047110352359821 0 0.31857031815401088 0.24323529296225249 0 0.30391607325737691 0.25765648791281842 0 0.29582390204477982 0.24047110352359821 0 0.28316477846165211 0.24967076173474309 0 0.27307748593554881 0.23770691408494371 0 0.29582390204477982 0.24047110352359821 0 0.27307748593554881 0.23770691408494371 0 0.29582390204477982 0.24047110352359821 0 0.28316477846165211 0.24967076173474309 0 0.27307748593554881 0.23770691408494371 0 0.28728925970993607 0.2250354225304714 0 0.29582390204477982 0.24047110352359821 0 0.32854686329858718 0.25611047685695282 0 0.34131673426324188 0.24599948240090661 0 0.31857031815401088 0.24323529296225249 0 0.34131673426324188 0.24599948240090661 0 0.31857031815401088 0.24323529296225249 0 0.34131673426324188 0.24599948240090661 0 0.32942911378368789 0.23575528969102769 0 0.31857031815401088 0.24323529296225249 0 0.34131673426324188 0.24599948240090661 0 0.34082537861321732 0.24238771303395909 0 0.34131673426324188 0.24599948240090661 0 0.34082537861321732 0.24238771303395909 0 0.33600949099255129 0.23755557048803561 0 0.34082537861321732 0.24238771303395909 0 0.34157987514945259 0.23553488923105001 0 0.33600949099255129 0.23755557048803561 0 0.34131673426324188 0.24599948240090661 0 0.33600949099255129 0.23755557048803561 0 0.32942911378368789 0.23575528969102769 0 0.32942911378368789 0.23575528969102769 0 0.31857031815401088 0.24323529296225249 0 0.32103556795540328 0.22410803057565351 0 0.30512975563115458 0.219964737291894 0 0.31857031815401088 0.24323529296225249 0 0.32103556795540328 0.22410803057565351 0 0.32942911378368789 0.23575528969102769 0 0.32103556795540328 0.22410803057565351 0 0.33132167324693063 0.2239934637405776 0 0.32103556795540328 0.22410803057565351 0 0.33132167324693063 0.2239934637405776 0 0.33047339021253092 0.213612266303739 0 0.33600949099255129 0.23755557048803561 0 0.32942911378368789 0.23575528969102769 0 0.33948105489119318 0.22799881408872441 0 0.32942911378368789 0.23575528969102769 0 0.33132167324693063 0.2239934637405776 0 0.33948105489119318 0.22799881408872441 0 0.34157987514945259 0.23553488923105001 0 0.33948105489119318 0.22799881408872441 0 0.34921777841887869 0.23597328920842461 0 0.34157987514945259 0.23553488923105001 0 0.33600949099255129 0.23755557048803561 0 0.33948105489119318 0.22799881408872441 0 0.33948105489119318 0.22799881408872441 0 0.33921030112756828 0.2183571664198268 0 0.35138640466353899 0.22094759292870461 0 0.33132167324693063 0.2239934637405776 0 0.33948105489119318 0.22799881408872441 0 0.33921030112756828 0.2183571664198268 0 0.33921030112756828 0.2183571664198268 0 0.33047339021253092 0.213612266303739 0 0.34433031194384178 0.20772723350410369 0 0.33047339021253092 0.213612266303739 0 0.33199781998617511 0.19854284888254939 0 0.34433031194384178 0.20772723350410369 0 0.33132167324693063 0.2239934637405776 0 0.33921030112756828 0.2183571664198268 0 0.33047339021253092 0.213612266303739 0 0.32103556795540328 0.22410803057565351 0 0.33047339021253092 0.213612266303739 0 0.31944751541988708 0.2070985331264773 0 0.30512975563115458 0.219964737291894 0 0.32103556795540328 0.22410803057565351 0 0.31944751541988708 0.2070985331264773 0 0.33047339021253092 0.213612266303739 0 0.31944751541988708 0.2070985331264773 0 0.33199781998617511 0.19854284888254939 0 0.31944751541988708 0.2070985331264773 0 0.3205133484592898 0.19094472295078449 0 0.33199781998617511 0.19854284888254939 0 0.30678402707827979 0.19519316577750559 0 0.31944751541988708 0.2070985331264773 0 0.3205133484592898 0.19094472295078449 0 0.3205133484592898 0.19094472295078449 0 0.33199781998617511 0.19854284888254939 0 0.33141795568678017 0.18145847716178279 0 0.34271896399431712 0.19149916487831131 0 0.33199781998617511 0.19854284888254939 0 0.33141795568678017 0.18145847716178279 0 0.34271896399431712 0.19149916487831131 0 0.33199781998617511 0.19854284888254939 0 0.34433031194384178 0.20772723350410369 0 0.34271896399431712 0.19149916487831131 0 0.3545005939388825 0.19664954220204869 0 0.34953893704288119 0.17965103855650971 0 0.34271896399431712 0.19149916487831131 0 0.3545005939388825 0.19664954220204869 0 0.34433031194384178 0.20772723350410369 0 0.3545005939388825 0.19664954220204869 0 0.36772814303100942 0.19740799818709631 0 0.36381316300551469 0.18328455994800491 0 0.36772814303100942 0.19740799818709631 0 0.36381316300551469 0.18328455994800491 0 0.37784640986734092 0.18803847418595601 0 0.36772814303100942 0.19740799818709631 0 0.37274924287330802 0.21127902563260259 0 0.37959206550313651 0.20016221830289571 0 0.3545005939388825 0.19664954220204869 0 0.36772814303100942 0.19740799818709631 0 0.35925187558593602 0.20883085044332911 0 0.36772814303100942 0.19740799818709631 0 0.37274924287330802 0.21127902563260259 0 0.35925187558593602 0.20883085044332911 0 0.37274924287330802 0.21127902563260259 0 0.35925187558593602 0.20883085044332911 0 0.3646173926726291 0.22017664407414639 0 0.35925187558593602 0.20883085044332911 0 0.35138640466353899 0.22094759292870461 0 0.3646173926726291 0.22017664407414639 0 0.35925187558593602 0.20883085044332911 0 0.34433031194384178 0.20772723350410369 0 0.35138640466353899 0.22094759292870461 0 0.3545005939388825 0.19664954220204869 0 0.35925187558593602 0.20883085044332911 0 0.34433031194384178 0.20772723350410369 0 0.33921030112756828 0.2183571664198268 0 0.34433031194384178 0.20772723350410369 0 0.35138640466353899 0.22094759292870461 0 0.33948105489119318 0.22799881408872441 0 0.35138640466353899 0.22094759292870461 0 0.34921777841887869 0.23597328920842461 0 0.35138640466353899 0.22094759292870461 0 0.36237549348250991 0.23097691321243799 0 0.34921777841887869 0.23597328920842461 0 0.37274924287330802 0.21127902563260259 0 0.3646173926726291 0.22017664407414639 0 0.37732394675785258 0.22884883815365761 0 0.35138640466353899 0.22094759292870461 0 0.3646173926726291 0.22017664407414639 0 0.36237549348250991 0.23097691321243799 0 0.3646173926726291 0.22017664407414639 0 0.36237549348250991 0.23097691321243799 0 0.37732394675785258 0.22884883815365761 0 0.36237549348250991 0.23097691321243799 0 0.36515898826689819 0.24889684022616351 0 0.37732394675785258 0.22884883815365761 0 0.34131673426324188 0.24599948240090661 0 0.36515898826689819 0.24889684022616351 0 0.36237549348250991 0.23097691321243799 0 0.36515898826689819 0.24889684022616351 0 0.34921777841887869 0.23597328920842461 0 0.34131673426324188 0.24599948240090661 0 0.36515898826689819 0.24889684022616351 0 0.34921777841887869 0.23597328920842461 0 0.34131673426324188 0.24599948240090661 0 0.34082537861321732 0.24238771303395909 0 0.34921777841887869 0.23597328920842461 0 0.34082537861321732 0.24238771303395909 0 0.34157987514945259 0.23553488923105001 0 0.34921777841887869 0.23597328920842461 0 0.32948619774227372 0.14823098990139499 0 0.34260678955832891 0.1443941809816961 0 0.33370343165960559 0.1357432928994938 0 0.32948619774227372 0.14823098990139499 0 0.34260678955832891 0.1443941809816961 0 0.33989518591085088 0.15821241870029079 0 0.34260678955832891 0.1443941809816961 0 0.33370343165960559 0.1357432928994938 0 0.34598674847975441 0.13040746309532461 0 0.33567235926055711 0.12643110993479159 0 0.33370343165960559 0.1357432928994938 0 0.34598674847975441 0.13040746309532461 0 0.33567235926055711 0.12643110993479159 0 0.33370343165960559 0.1357432928994938 0 0.32620385711210409 0.1267591519802356 0 0.32948619774227372 0.14823098990139499 0 0.33370343165960559 0.1357432928994938 0 0.32258398486758277 0.1365532260660626 0 0.33370343165960559 0.1357432928994938 0 0.32258398486758277 0.1365532260660626 0 0.32620385711210409 0.1267591519802356 0 0.31437318018996718 0.1236592893967839 0 0.31184346248607142 0.1475039148570246 0 0.31437318018996718 0.1236592893967839 0 0.31184346248607142 0.1475039148570246 0 0.32258398486758277 0.1365532260660626 0 0.31437318018996718 0.1236592893967839 0 0.32258398486758277 0.1365532260660626 0 0.32620385711210409 0.1267591519802356 0 0.31184346248607142 0.1475039148570246 0 0.32948619774227372 0.14823098990139499 0 0.32258398486758277 0.1365532260660626 0 0.31184346248607142 0.1475039148570246 0 0.32948619774227372 0.14823098990139499 0 0.32581432326884802 0.16527448147375839 0 0.3093137447821756 0.1713485403172651 0 0.31184346248607142 0.1475039148570246 0 0.32581432326884802 0.16527448147375839 0 0.3093137447821756 0.1713485403172651 0 0.3205133484592898 0.19094472295078449 0 0.33141795568678017 0.18145847716178279 0 0.3093137447821756 0.1713485403172651 0 0.32581432326884802 0.16527448147375839 0 0.33141795568678017 0.18145847716178279 0 0.34271896399431712 0.19149916487831131 0 0.33141795568678017 0.18145847716178279 0 0.34953893704288119 0.17965103855650971 0 0.32581432326884802 0.16527448147375839 0 0.33141795568678017 0.18145847716178279 0 0.33932013559828023 0.17035252173347609 0 0.33141795568678017 0.18145847716178279 0 0.33932013559828023 0.17035252173347609 0 0.34953893704288119 0.17965103855650971 0 0.32948619774227372 0.14823098990139499 0 0.32581432326884802 0.16527448147375839 0 0.33989518591085088 0.15821241870029079 0 0.32581432326884802 0.16527448147375839 0 0.33932013559828023 0.17035252173347609 0 0.33989518591085088 0.15821241870029079 0 0.33932013559828023 0.17035252173347609 0 0.33989518591085088 0.15821241870029079 0 0.35050091989205479 0.16420037323970471 0 0.33989518591085088 0.15821241870029079 0 0.35050091989205479 0.16420037323970471 0 0.35000035119338357 0.1523800085413359 0 0.33932013559828023 0.17035252173347609 0 0.35050091989205479 0.16420037323970471 0 0.34953893704288119 0.17965103855650971 0 0.35050091989205479 0.16420037323970471 0 0.34953893704288119 0.17965103855650971 0 0.36342665885080871 0.16851381237189619 0 0.35050091989205479 0.16420037323970471 0 0.36342665885080871 0.16851381237189619 0 0.36076880545135498 0.15415584339985169 0 0.35050091989205479 0.16420037323970471 0 0.36076880545135498 0.15415584339985169 0 0.35000035119338357 0.1523800085413359 0 0.3545005939388825 0.19664954220204869 0 0.34953893704288119 0.17965103855650971 0 0.36381316300551469 0.18328455994800491 0 0.34953893704288119 0.17965103855650971 0 0.36381316300551469 0.18328455994800491 0 0.36342665885080871 0.16851381237189619 0 0.36381316300551469 0.18328455994800491 0 0.37170966351175871 0.17475250402012141 0 0.36342665885080871 0.16851381237189619 0 0.36381316300551469 0.18328455994800491 0 0.37170966351175871 0.17475250402012141 0 0.37784640986734092 0.18803847418595601 0 0.36342665885080871 0.16851381237189619 0 0.36907043412210372 0.1593882190312185 0 0.36076880545135498 0.15415584339985169 0 0.36342665885080871 0.16851381237189619 0 0.36907043412210372 0.1593882190312185 0 0.37689816934725079 0.1649013703646858 0 0.37170966351175871 0.17475250402012141 0 0.36342665885080871 0.16851381237189619 0 0.37689816934725079 0.1649013703646858 0 0.36907043412210372 0.1593882190312185 0 0.37394801009922729 0.15163211944078181 0 0.37689816934725079 0.1649013703646858 0 0.37394801009922729 0.15163211944078181 0 0.36698523753079743 0.14377851561163429 0 0.36076880545135498 0.15415584339985169 0 0.36907043412210372 0.1593882190312185 0 0.37394801009922729 0.15163211944078181 0 0.36076880545135498 0.15415584339985169 0 0.37394801009922729 0.15163211944078181 0 0.36698523753079743 0.14377851561163429 0 0.37947205812285639 0.1416145968885473 0 0.36698523753079743 0.14377851561163429 0 0.36076880545135498 0.15415584339985169 0 0.35623005515432837 0.1409372263851362 0 0.36076880545135498 0.15415584339985169 0 0.35623005515432837 0.1409372263851362 0 0.35000035119338357 0.1523800085413359 0 0.34260678955832891 0.1443941809816961 0 0.35623005515432837 0.1409372263851362 0 0.35000035119338357 0.1523800085413359 0 0.34260678955832891 0.1443941809816961 0 0.33989518591085088 0.15821241870029079 0 0.35000035119338357 0.1523800085413359 0 0.34260678955832891 0.1443941809816961 0 0.35623005515432837 0.1409372263851362 0 0.34598674847975441 0.13040746309532461 0 0.35623005515432837 0.1409372263851362 0 0.34598674847975441 0.13040746309532461 0 0.35745352491216242 0.12859513935055261 0 0.3527704905258322 0.1198758945950185 0 0.34598674847975441 0.13040746309532461 0 0.35745352491216242 0.12859513935055261 0 0.36340676067177102 0.11906576568221849 0 0.35745352491216242 0.12859513935055261 0 0.36843820122724952 0.13253901076837041 0 0.36698523753079743 0.14377851561163429 0 0.35623005515432837 0.1409372263851362 0 0.36843820122724952 0.13253901076837041 0 0.35623005515432837 0.1409372263851362 0 0.35745352491216242 0.12859513935055261 0 0.36843820122724952 0.13253901076837041 0 0.36698523753079743 0.14377851561163429 0 0.36843820122724952 0.13253901076837041 0 0.37947205812285639 0.1416145968885473 0 0.36843820122724952 0.13253901076837041 0 0.38337270446516453 0.12912044581138621 0 0.37633624597385662 0.11787314924386549 0 0.36843820122724952 0.13253901076837041 0 0.38337270446516453 0.12912044581138621 0 0.37947205812285639 0.1416145968885473 0 0.38337270446516453 0.12912044581138621 0 0.393491275902769 0.1363723703807069 0 0.37947205812285639 0.1416145968885473 0 0.3983590257911091 0.12646847041017109 0 0.393491275902769 0.1363723703807069 0 0.41010482929320341 0.13568850945743641 0 0.38337270446516453 0.12912044581138621 0 0.3983590257911091 0.12646847041017109 0 0.393491275902769 0.1363723703807069 0 0.393491275902769 0.1363723703807069 0 0.40282182525928067 0.1470075824098529 0 0.41010482929320341 0.13568850945743641 0 0.3983590257911091 0.12646847041017109 0 0.41010482929320341 0.13568850945743641 0 0.40439332615130569 0.11324807341253269 0 0.39320068722244572 0.14698739271444619 0 0.38567955232510309 0.1564219881259119 0 0.4014960014428845 0.15786069399433511 0 0.40282182525928067 0.1470075824098529 0 0.39320068722244572 0.14698739271444619 0 0.4014960014428845 0.15786069399433511 0 0.393491275902769 0.1363723703807069 0 0.40282182525928067 0.1470075824098529 0 0.39320068722244572 0.14698739271444619 0 0.393491275902769 0.1363723703807069 0 0.39320068722244572 0.14698739271444619 0 0.37947205812285639 0.1416145968885473 0 0.39320068722244572 0.14698739271444619 0 0.37947205812285639 0.1416145968885473 0 0.38567955232510309 0.1564219881259119 0 0.37394801009922729 0.15163211944078181 0 0.37947205812285639 0.1416145968885473 0 0.38567955232510309 0.1564219881259119 0 0.37394801009922729 0.15163211944078181 0 0.37689816934725079 0.1649013703646858 0 0.38567955232510309 0.1564219881259119 0 0.37689816934725079 0.1649013703646858 0 0.38222224285969358 0.17595091025420451 0 0.39194546648269651 0.16703749557521369 0 0.37689816934725079 0.1649013703646858 0 0.38567955232510309 0.1564219881259119 0 0.39194546648269651 0.16703749557521369 0 0.37170966351175871 0.17475250402012141 0 0.37689816934725079 0.1649013703646858 0 0.38222224285969358 0.17595091025420451 0 0.37170966351175871 0.17475250402012141 0 0.38222224285969358 0.17595091025420451 0 0.37784640986734092 0.18803847418595601 0 0.38222224285969358 0.17595091025420451 0 0.39186643844087532 0.181387592874936 0 0.39194546648269651 0.16703749557521369 0 0.38222224285969358 0.17595091025420451 0 0.39186643844087532 0.181387592874936 0 0.37784640986734092 0.18803847418595601 0 0.39186643844087532 0.181387592874936 0 0.40033245261945649 0.18675163248018259 0 0.39049362474529331 0.19402313909591759 0 0.39186643844087532 0.181387592874936 0 0.39194546648269651 0.16703749557521369 0 0.40673665102984657 0.17380343856122951 0 0.40033245261945649 0.18675163248018259 0 0.40673665102984657 0.17380343856122951 0 0.40919249678580571 0.18753015110824381 0 0.39186643844087532 0.181387592874936 0 0.40033245261945649 0.18675163248018259 0 0.40673665102984657 0.17380343856122951 0 0.39194546648269651 0.16703749557521369 0 0.4014960014428845 0.15786069399433511 0 0.40673665102984657 0.17380343856122951 0 0.38567955232510309 0.1564219881259119 0 0.39194546648269651 0.16703749557521369 0 0.4014960014428845 0.15786069399433511 0 0.39194546648269651 0.16703749557521369 0 0.40673665102984657 0.17380343856122951 0 0.41581633243510119 0.15812894550234011 0 0.42152783557699719 0.18056938154724411 0 0.41581633243510119 0.15812894550234011 0 0.40673665102984657 0.17380343856122951 0 0.42152783557699719 0.18056938154724411 0 0.4014960014428845 0.15786069399433511 0 0.41581633243510119 0.15812894550234011 0 0.40673665102984657 0.17380343856122951 0 0.41581633243510119 0.15812894550234011 0 0.42152783557699719 0.18056938154724411 0 0.42710510798032991 0.16840576923509731 0 0.40673665102984657 0.17380343856122951 0 0.41564512391046532 0.1843140362463718 0 0.40919249678580571 0.18753015110824381 0 0.40673665102984657 0.17380343856122951 0 0.42152783557699719 0.18056938154724411 0 0.41564512391046532 0.1843140362463718 0 0.40673665102984657 0.17380343856122951 0 0.42152783557699719 0.18056938154724411 0 0.42152783557699719 0.18056938154724411 0 0.41564512391046532 0.1843140362463718 0 0.42239674154510132 0.1839833039984452 0 0.42152783557699719 0.18056938154724411 0 0.44405109904735762 0.1908722153746302 0 0.42152783557699719 0.18056938154724411 0 0.43334261663636542 0.17817676641691749 0 0.44405109904735762 0.1908722153746302 0 0.42152783557699719 0.18056938154724411 0 0.42239674154510132 0.1839833039984452 0 0.44405109904735762 0.1908722153746302 0 0.42152783557699719 0.18056938154724411 0 0.42239674154510132 0.1839833039984452 0 0.42152783557699719 0.18056938154724411 0 0.43334261663636542 0.17817676641691749 0 0.42710510798032991 0.16840576923509731 0 0.43334261663636542 0.17817676641691749 0 0.42710510798032991 0.16840576923509731 0 0.44068642394077667 0.17285969951069821 0 0.41581633243510119 0.15812894550234011 0 0.42710510798032991 0.16840576923509731 0 0.43173006989368068 0.1560017924869106 0 0.42710510798032991 0.16840576923509731 0 0.43173006989368068 0.1560017924869106 0 0.44068642394077667 0.17285969951069821 0 0.43173006989368068 0.1560017924869106 0 0.42310141557498121 0.1418229126801924 0 0.43663842390990182 0.1299063334449567 0 0.41581633243510119 0.15812894550234011 0 0.43173006989368068 0.1560017924869106 0 0.42310141557498121 0.1418229126801924 0 0.43663842390990182 0.1299063334449567 0 0.42178849423668519 0.1290396678588287 0 0.42429118569117058 0.11840985397973409 0 0.42310141557498121 0.1418229126801924 0 0.43663842390990182 0.1299063334449567 0 0.42178849423668519 0.1290396678588287 0 0.42178849423668519 0.1290396678588287 0 0.41010482929320341 0.13568850945743641 0 0.41401998622703923 0.11883575184675491 0 0.42310141557498121 0.1418229126801924 0 0.42178849423668519 0.1290396678588287 0 0.41010482929320341 0.13568850945743641 0 0.41581633243510119 0.15812894550234011 0 0.41010482929320341 0.13568850945743641 0 0.40282182525928067 0.1470075824098529 0 0.41581633243510119 0.15812894550234011 0 0.41010482929320341 0.13568850945743641 0 0.41581633243510119 0.15812894550234011 0 0.42310141557498121 0.1418229126801924 0 0.41010482929320341 0.13568850945743641 0 0.40282182525928067 0.1470075824098529 0 0.4014960014428845 0.15786069399433511 0 0.41581633243510119 0.15812894550234011 0 0.3890012422705546 0.25179419805142012 0 0.39332724544463971 0.2256444906361314 0 0.41005693464694692 0.23139597289766389 0 0.3890012422705546 0.25179419805142012 0 0.41284349627421091 0.25469155587667658 0 0.41005693464694692 0.23139597289766389 0 0.3890012422705546 0.25179419805142012 0 0.36515898826689819 0.24889684022616351 0 0.37732394675785258 0.22884883815365761 0 0.3890012422705546 0.25179419805142012 0 0.37732394675785258 0.22884883815365761 0 0.39332724544463971 0.2256444906361314 0 0.37732394675785258 0.22884883815365761 0 0.39332724544463971 0.2256444906361314 0 0.38914290699873061 0.21006245441290591 0 0.39332724544463971 0.2256444906361314 0 0.40656919440010802 0.2116040590131521 0 0.41005693464694692 0.23139597289766389 0 0.38914290699873061 0.21006245441290591 0 0.40337305209546198 0.19701384076058631 0 0.40656919440010802 0.2116040590131521 0 0.39332724544463971 0.2256444906361314 0 0.38914290699873061 0.21006245441290591 0 0.40656919440010802 0.2116040590131521 0 0.37274924287330802 0.21127902563260259 0 0.38914290699873061 0.21006245441290591 0 0.37959206550313651 0.20016221830289571 0 0.37274924287330802 0.21127902563260259 0 0.37732394675785258 0.22884883815365761 0 0.38914290699873061 0.21006245441290591 0 0.38914290699873061 0.21006245441290591 0 0.37959206550313651 0.20016221830289571 0 0.39049362474529331 0.19402313909591759 0 0.36772814303100942 0.19740799818709631 0 0.37959206550313651 0.20016221830289571 0 0.37784640986734092 0.18803847418595601 0 0.37959206550313651 0.20016221830289571 0 0.37784640986734092 0.18803847418595601 0 0.39049362474529331 0.19402313909591759 0 0.39186643844087532 0.181387592874936 0 0.37784640986734092 0.18803847418595601 0 0.39049362474529331 0.19402313909591759 0 0.40033245261945649 0.18675163248018259 0 0.39049362474529331 0.19402313909591759 0 0.40337305209546198 0.19701384076058631 0 0.38914290699873061 0.21006245441290591 0 0.39049362474529331 0.19402313909591759 0 0.40337305209546198 0.19701384076058631 0 0.40033245261945649 0.18675163248018259 0 0.40337305209546198 0.19701384076058631 0 0.40919249678580571 0.18753015110824381 0 0.40337305209546198 0.19701384076058631 0 0.41837189461457608 0.19568390601669641 0 0.40656919440010802 0.2116040590131521 0 0.40337305209546198 0.19701384076058631 0 0.40919249678580571 0.18753015110824381 0 0.41837189461457608 0.19568390601669641 0 0.41564512391046532 0.1843140362463718 0 0.42239674154510132 0.1839833039984452 0 0.41837189461457608 0.19568390601669641 0 0.41564512391046532 0.1843140362463718 0 0.40919249678580571 0.18753015110824381 0 0.41837189461457608 0.19568390601669641 0 0.42239674154510132 0.1839833039984452 0 0.41837189461457608 0.19568390601669641 0 0.44405109904735762 0.1908722153746302 0 0.41837189461457608 0.19568390601669641 0 0.42628021548591671 0.21096599546912509 0 0.44405109904735762 0.1908722153746302 0 0.42628021548591671 0.21096599546912509 0 0.40656919440010802 0.2116040590131521 0 0.41005693464694692 0.23139597289766389 0 0.41837189461457608 0.19568390601669641 0 0.42628021548591671 0.21096599546912509 0 0.40656919440010802 0.2116040590131521 0 0.42628021548591671 0.21096599546912509 0 0.43148298288189357 0.23427745458552821 0 0.44514008563944679 0.21650502025438861 0 0.42628021548591671 0.21096599546912509 0 0.43148298288189357 0.23427745458552821 0 0.42628021548591671 0.21096599546912509 0 0.41005693464694692 0.23139597289766389 0 0.43148298288189357 0.23427745458552821 0 0.41284349627421091 0.25469155587667658 0 0.43668575027786721 0.25758891370193199 0 0.43148298288189357 0.23427745458552821 0 0.43668575027786721 0.25758891370193199 0 0.43148298288189357 0.23427745458552821 0 0.41284349627421091 0.25469155587667658 0 0.41005693464694692 0.23139597289766389 0 0.43148298288189357 0.23427745458552821 0 0.45283070825841942 0.24383381562730361 0 0.45145563581706238 0.22833315752901809 0 0.46884023837390099 0.2328999041853396 0 0.45283070825841942 0.24383381562730361 0 0.46884023837390099 0.2328999041853396 0 0.46919350202318177 0.2487520754501045 0 0.43668575027786721 0.25758891370193199 0 0.43148298288189357 0.23427745458552821 0 0.45283070825841942 0.24383381562730361 0 0.43148298288189357 0.23427745458552821 0 0.45283070825841942 0.24383381562730361 0 0.45145563581706238 0.22833315752901809 0 0.43148298288189357 0.23427745458552821 0 0.45145563581706238 0.22833315752901809 0 0.44514008563944679 0.21650502025438861 0 0.45145563581706238 0.22833315752901809 0 0.46020629138223967 0.22004880612356709 0 0.44514008563944679 0.21650502025438861 0 0.45145563581706238 0.22833315752901809 0 0.46020629138223967 0.22004880612356709 0 0.46884023837390099 0.2328999041853396 0 0.46020629138223967 0.22004880612356709 0 0.47328983685299719 0.21985915147455451 0 0.46884023837390099 0.2328999041853396 0 0.45900234204290269 0.20890923521900071 0 0.44822610372128319 0.20480179213394931 0 0.46657436251771872 0.2011750492020152 0 0.46020629138223967 0.22004880612356709 0 0.46847200281094331 0.2117624497645203 0 0.47328983685299719 0.21985915147455451 0 0.46020629138223967 0.22004880612356709 0 0.46847200281094331 0.2117624497645203 0 0.45900234204290269 0.20890923521900071 0 0.46847200281094331 0.2117624497645203 0 0.45900234204290269 0.20890923521900071 0 0.46657436251771872 0.2011750492020152 0 0.45900234204290269 0.20890923521900071 0 0.46657436251771872 0.2011750492020152 0 0.46020629138223967 0.22004880612356709 0 0.45900234204290269 0.20890923521900071 0 0.44514008563944679 0.21650502025438861 0 0.42628021548591671 0.21096599546912509 0 0.44514008563944679 0.21650502025438861 0 0.44822610372128319 0.20480179213394931 0 0.45900234204290269 0.20890923521900071 0 0.44514008563944679 0.21650502025438861 0 0.44822610372128319 0.20480179213394931 0 0.44822610372128319 0.20480179213394931 0 0.44405109904735762 0.1908722153746302 0 0.46657436251771872 0.2011750492020152 0 0.42628021548591671 0.21096599546912509 0 0.44822610372128319 0.20480179213394931 0 0.44405109904735762 0.1908722153746302 0 0.44405109904735762 0.1908722153746302 0 0.46657436251771872 0.2011750492020152 0 0.44405109904735762 0.1908722153746302 0 0.46657436251771872 0.2011750492020152 0 0.45969713735067053 0.18643877962062849 0 0.46657436251771872 0.2011750492020152 0 0.48745043529100762 0.19750353340972829 0 0.48328718125885822 0.20882000680346391 0 0.46657436251771872 0.2011750492020152 0 0.45969713735067053 0.18643877962062849 0 0.48328718125885839 0.18410430177838469 0 0.46657436251771872 0.2011750492020152 0 0.48745043529100762 0.19750353340972829 0 0.48328718125885839 0.18410430177838469 0 0.46657436251771872 0.2011750492020152 0 0.48328718125885839 0.18410430177838469 0 0.5 0.1917492593798332 0 0.48745043529100762 0.19750353340972829 0 0.48328718125885839 0.18410430177838469 0 0.5 0.1917492593798332 0 0.48745043529100762 0.19750353340972829 0 0.49999999999999789 0.2164649644049117 0 0.48745043529100762 0.19750353340972829 0 0.49999999999999789 0.2164649644049117 0 0.48328718125885822 0.20882000680346391 0 0.49999999999999789 0.2164649644049117 0 0.48328718125885822 0.20882000680346391 0 0.49999999999999789 0.2164649644049117 0 0.48328718125885822 0.20882000680346391 0 0.48503042921427469 0.22741421632931599 0 0.46847200281094331 0.2117624497645203 0 0.46657436251771872 0.2011750492020152 0 0.48328718125885822 0.20882000680346391 0 0.48328718125885822 0.20882000680346391 0 0.47328983685299719 0.21985915147455451 0 0.48503042921427469 0.22741421632931599 0 0.46657436251771872 0.2011750492020152 0 0.48328718125885822 0.20882000680346391 0 0.46847200281094331 0.2117624497645203 0 0.48328718125885822 0.20882000680346391 0 0.47328983685299719 0.21985915147455451 0 0.47328983685299719 0.21985915147455451 0 0.46884023837390099 0.2328999041853396 0 0.48503042921427469 0.22741421632931599 0 0.49999999999999789 0.2164649644049117 0 0.48503042921427469 0.22741421632931599 0 0.5 0.24425464330145341 0 0.47844367893881312 0.26266341971775459 0 0.5 0.24425464330145341 0 0.4815769265928514 0.2429082163709019 0 0.48503042921427469 0.22741421632931599 0 0.5 0.24425464330145341 0 0.4815769265928514 0.2429082163709019 0 0.46884023837390099 0.2328999041853396 0 0.46919350202318177 0.2487520754501045 0 0.4815769265928514 0.2429082163709019 0 0.46884023837390099 0.2328999041853396 0 0.48503042921427469 0.22741421632931599 0 0.4815769265928514 0.2429082163709019 0 0.45448671326245382 0.1474466883290069 0 0.47724335663122702 0.13889158417110309 0 0.45448671326245382 0.1474466883290069 0 0.46147882399944268 0.1251859118528921 0 0.47724335663122702 0.13889158417110309 0 0.43663842390990182 0.1299063334449567 0 0.45448671326245382 0.1474466883290069 0 0.46147882399944268 0.1251859118528921 0 0.43173006989368068 0.1560017924869106 0 0.45448671326245382 0.1474466883290069 0 0.43173006989368068 0.1560017924869106 0 0.43663842390990182 0.1299063334449567 0 0.45448671326245382 0.1474466883290069 0 0.43173006989368068 0.1560017924869106 0 0.45448671326245382 0.1474466883290069 0 0.44701837738169392 0.16111529111620931 0 0.44701837738169392 0.16111529111620931 0 0.44068642394077667 0.17285969951069821 0 0.46117030242986418 0.16815298413822169 0 0.43173006989368068 0.1560017924869106 0 0.44701837738169392 0.16111529111620931 0 0.44068642394077667 0.17285969951069821 0 0.44405109904735762 0.1908722153746302 0 0.44068642394077667 0.17285969951069821 0 0.45969713735067053 0.18643877962062849 0 0.43334261663636542 0.17817676641691749 0 0.44405109904735762 0.1908722153746302 0 0.44068642394077667 0.17285969951069821 0 0.45969713735067053 0.18643877962062849 0 0.46117030242986418 0.16815298413822169 0 0.48328718125885839 0.18410430177838469 0 0.44068642394077667 0.17285969951069821 0 0.45969713735067053 0.18643877962062849 0 0.46117030242986418 0.16815298413822169 0 0.45448671326245382 0.1474466883290069 0 0.44701837738169392 0.16111529111620931 0 0.46117030242986418 0.16815298413822169 0 0.45448671326245382 0.1474466883290069 0 0.46117030242986418 0.16815298413822169 0 0.47936459226373362 0.15905235499257461 0 0.46117030242986418 0.16815298413822169 0 0.47936459226373362 0.15905235499257461 0 0.48328718125885839 0.18410430177838469 0 0.48328718125885839 0.18410430177838469 0 0.49999999999999878 0.16703355435475489 0 0.5 0.1917492593798332 0 0.48328718125885839 0.18410430177838469 0 0.49999999999999878 0.16703355435475489 0 0.47936459226373362 0.15905235499257461 0 0.48328718125885839 0.18410430177838469 0 0.49999999999999878 0.16703355435475489 0 0.47936459226373362 0.15905235499257461 0 0.49999999999999878 0.16703355435475489 0 0.5 0.1486850171839772 0 0.47936459226373362 0.15905235499257461 0 0.5 0.1486850171839772 0 0.47724335663122702 0.13889158417110309 0 0.45448671326245382 0.1474466883290069 0 0.47936459226373362 0.15905235499257461 0 0.47724335663122702 0.13889158417110309 0 0.46147882399944268 0.1251859118528921 0 0.47724335663122702 0.13889158417110309 0 0.48287065214447811 0.1193162579019804 0 0.5 0.1486850171839772 0 0.47724335663122702 0.13889158417110309 0 0.50000000000000011 0.13033648001319939 0 0.47724335663122702 0.13889158417110309 0 0.50000000000000011 0.13033648001319939 0 0.47724335663122702 0.13889158417110309 0 0.50000000000000011 0.13033648001319939 0 0.48287065214447811 0.1193162579019804 0 0.5 0.10116600719845931 0 0.48287065214447811 0.1193162579019804 0 0.46827869727974009 0.1055288805659568 0 0.5 0.10116600719845931 0 0.47611781610698028 0.083824797529621631 0 0.46827869727974009 0.1055288805659568 0 0.50000000000000011 0.13033648001319939 0 0.5 0.10116600719845931 0 0.48287065214447811 0.1193162579019804 0 0.46147882399944268 0.1251859118528921 0 0.48287065214447811 0.1193162579019804 0 0.46827869727974009 0.1055288805659568 0 0.5 0.071995534383719084 0 0.47611781610698028 0.083824797529621631 0 0.4795409075756672 0.062908193001997903 0 0.5 0.10116600719845931 0 0.5 0.071995534383719084 0 0.47611781610698028 0.083824797529621631 0 0.47611781610698028 0.083824797529621631 0 0.4795409075756672 0.062908193001997903 0 0.45478776820432998 0.074295691495356156 0 0.4795409075756672 0.062908193001997903 0 0.45478776820432998 0.074295691495356156 0 0.45772777181770052 0.055415784619919313 0 0.47611781610698028 0.083824797529621631 0 0.45478776820432998 0.074295691495356156 0 0.4505822985290357 0.09388525880700975 0 0.45478776820432998 0.074295691495356156 0 0.4505822985290357 0.09388525880700975 0 0.43304439969592712 0.080453657587586894 0 0.45478776820432998 0.074295691495356156 0 0.43992998002053652 0.062022725091437407 0 0.45772777181770052 0.055415784619919313 0 0.45478776820432998 0.074295691495356156 0 0.43304439969592712 0.080453657587586894 0 0.43992998002053652 0.062022725091437407 0 0.46147882399944268 0.1251859118528921 0 0.46827869727974009 0.1055288805659568 0 0.44971186677116121 0.1113182260516572 0 0.47611781610698028 0.083824797529621631 0 0.46827869727974009 0.1055288805659568 0 0.4505822985290357 0.09388525880700975 0 0.46827869727974009 0.1055288805659568 0 0.4505822985290357 0.09388525880700975 0 0.44971186677116121 0.1113182260516572 0 0.4505822985290357 0.09388525880700975 0 0.4332935669487511 0.1082887424545495 0 0.43304439969592712 0.080453657587586894 0 0.4505822985290357 0.09388525880700975 0 0.44971186677116121 0.1113182260516572 0 0.4332935669487511 0.1082887424545495 0 0.43663842390990182 0.1299063334449567 0 0.44971186677116121 0.1113182260516572 0 0.4332935669487511 0.1082887424545495 0 0.43663842390990182 0.1299063334449567 0 0.46147882399944268 0.1251859118528921 0 0.44971186677116121 0.1113182260516572 0 0.42429118569117058 0.11840985397973409 0 0.41571545713347541 0.1059787742935805 0 0.4332935669487511 0.1082887424545495 0 0.43663842390990182 0.1299063334449567 0 0.42429118569117058 0.11840985397973409 0 0.4332935669487511 0.1082887424545495 0 0.41010482929320341 0.13568850945743641 0 0.40439332615130569 0.11324807341253269 0 0.41010482929320341 0.13568850945743641 0 0.41401998622703923 0.11883575184675491 0 0.40439332615130569 0.11324807341253269 0 0.42178849423668519 0.1290396678588287 0 0.42429118569117058 0.11840985397973409 0 0.41401998622703923 0.11883575184675491 0 0.42429118569117058 0.11840985397973409 0 0.41401998622703923 0.11883575184675491 0 0.41571545713347541 0.1059787742935805 0 0.41401998622703923 0.11883575184675491 0 0.40439332615130569 0.11324807341253269 0 0.41401998622703923 0.11883575184675491 0 0.41571545713347541 0.1059787742935805 0 0.40439332615130569 0.11324807341253269 0 0.41571545713347541 0.1059787742935805 0 0.40439332615130569 0.11324807341253269 0 0.39954836358834178 0.094212266229555017 0 0.41571545713347541 0.1059787742935805 0 0.41527352636835863 0.088462811186595894 0 0.39954836358834178 0.094212266229555017 0 0.41571545713347541 0.1059787742935805 0 0.4332935669487511 0.1082887424545495 0 0.41527352636835863 0.088462811186595894 0 0.4332935669487511 0.1082887424545495 0 0.41527352636835863 0.088462811186595894 0 0.4332935669487511 0.1082887424545495 0 0.43304439969592712 0.080453657587586894 0 0.41527352636835863 0.088462811186595894 0 0.43304439969592712 0.080453657587586894 0 0.42091441706711019 0.076697901571496779 0 0.41527352636835863 0.088462811186595894 0 0.43304439969592712 0.080453657587586894 0 0.42120829795794851 0.064966334518534008 0 0.43992998002053652 0.062022725091437407 0 0.43304439969592712 0.080453657587586894 0 0.42120829795794851 0.064966334518534008 0 0.42091441706711019 0.076697901571496779 0 0.41241061716172678 0.073008688827198007 0 0.41527352636835863 0.088462811186595894 0 0.39725348578796621 0.068636879918642313 0 0.42120829795794851 0.064966334518534008 0 0.42091441706711019 0.076697901571496779 0 0.41241061716172678 0.073008688827198007 0 0.42120829795794851 0.064966334518534008 0 0.41241061716172678 0.073008688827198007 0 0.40828946065134508 0.064927887639501955 0 0.42091441706711019 0.076697901571496779 0 0.41241061716172678 0.073008688827198007 0 0.41527352636835863 0.088462811186595894 0 0.39470340102537799 0.075176459046577243 0 0.39954836358834178 0.094212266229555017 0 0.41527352636835863 0.088462811186595894 0 0.39725348578796621 0.068636879918642313 0 0.41527352636835863 0.088462811186595894 0 0.39470340102537799 0.075176459046577243 0 0.39954836358834178 0.094212266229555017 0 0.39470340102537799 0.075176459046577243 0 0.39060886842902892 0.085938971049501517 0 0.39954836358834178 0.094212266229555017 0 0.39470340102537799 0.075176459046577243 0 0.38748297929006259 0.075914056174600189 0 0.39060886842902892 0.085938971049501517 0 0.41527352636835863 0.088462811186595894 0 0.39470340102537799 0.075176459046577243 0 0.39725348578796621 0.068636879918642313 0 0.41241061716172678 0.073008688827198007 0 0.40828946065134508 0.064927887639501955 0 0.39725348578796621 0.068636879918642313 0 0.40828946065134508 0.064927887639501955 0 0.39725348578796621 0.068636879918642313 0 0.40109951527299542 0.060269951741770279 0 0.39470340102537799 0.075176459046577243 0 0.39167627997771409 0.072059097118241447 0 0.38748297929006259 0.075914056174600189 0 0.39470340102537799 0.075176459046577243 0 0.39167627997771409 0.072059097118241447 0 0.39725348578796621 0.068636879918642313 0 0.39167627997771409 0.072059097118241447 0 0.39725348578796621 0.068636879918642313 0 0.38726525380744969 0.068508993333146057 0 0.39725348578796621 0.068636879918642313 0 0.38726525380744969 0.068508993333146057 0 0.38371006232658478 0.061432818185848018 0 0.38726525380744969 0.068508993333146057 0 0.38221757646618443 0.06543525012849799 0 0.38371006232658478 0.061432818185848018 0 0.38726525380744969 0.068508993333146057 0 0.37961539329696659 0.072097472282260489 0 0.38221757646618443 0.06543525012849799 0 0.38726525380744969 0.068508993333146057 0 0.38748297929006259 0.075914056174600189 0 0.37961539329696659 0.072097472282260489 0 0.39167627997771409 0.072059097118241447 0 0.38726525380744969 0.068508993333146057 0 0.38748297929006259 0.075914056174600189 0 0.36921975373312133 0.076088670573887268 0 0.37961539329696659 0.072097472282260489 0 0.38046958531655561 0.083315368016622496 0 0.38748297929006259 0.075914056174600189 0 0.37961539329696659 0.072097472282260489 0 0.38046958531655561 0.083315368016622496 0 0.37961539329696659 0.072097472282260489 0 0.37746586975022423 0.066971296969019156 0 0.38221757646618443 0.06543525012849799 0 0.37301306653167959 0.069456512048757718 0 0.37961539329696659 0.072097472282260489 0 0.37746586975022423 0.066971296969019156 0 0.37358971833934568 0.065173607592700508 0 0.37746586975022423 0.066971296969019156 0 0.37791465938860203 0.062638891402254926 0 0.37746586975022423 0.066971296969019156 0 0.37791465938860203 0.062638891402254926 0 0.38221757646618443 0.06543525012849799 0 0.37791465938860203 0.062638891402254926 0 0.38221757646618443 0.06543525012849799 0 0.38371006232658478 0.061432818185848018 0 0.39060886842902892 0.085938971049501517 0 0.38046958531655561 0.083315368016622496 0 0.38425611014452149 0.101559669883044 0 0.36411889413773729 0.089871266353555551 0 0.38046958531655561 0.083315368016622496 0 0.38425611014452149 0.101559669883044 0 0.38748297929006259 0.075914056174600189 0 0.39060886842902892 0.085938971049501517 0 0.38046958531655561 0.083315368016622496 0 0.36900559487620449 0.1069895393547772 0 0.38425611014452149 0.101559669883044 0 0.37633624597385662 0.11787314924386549 0 0.38425611014452149 0.101559669883044 0 0.37633624597385662 0.11787314924386549 0 0.38953810445822862 0.11796446396339649 0 0.38337270446516453 0.12912044581138621 0 0.37633624597385662 0.11787314924386549 0 0.38953810445822862 0.11796446396339649 0 0.38337270446516453 0.12912044581138621 0 0.3983590257911091 0.12646847041017109 0 0.38953810445822862 0.11796446396339649 0 0.38425611014452149 0.101559669883044 0 0.38953810445822862 0.11796446396339649 0 0.40439332615130569 0.11324807341253269 0 0.3983590257911091 0.12646847041017109 0 0.38953810445822862 0.11796446396339649 0 0.40439332615130569 0.11324807341253269 0 0.40439332615130569 0.11324807341253269 0 0.39954836358834178 0.094212266229555017 0 0.38425611014452149 0.101559669883044 0 0.40439332615130569 0.11324807341253269 0 0.38425611014452149 0.101559669883044 0 0.40439332615130569 0.11324807341253269 0 0.39954836358834178 0.094212266229555017 0 0.39060886842902892 0.085938971049501517 0 0.38425611014452149 0.101559669883044 0 0.39954836358834178 0.094212266229555017 0 0.40307101273951829 0.017674216847188371 0 0.38745126406920649 0.032140668296120882 0 0.39806189934447578 0.033404038949766117 0 0.40307101273951829 0.017674216847188371 0 0.3874144277584966 0.022153025360115399 0 0.38745126406920649 0.032140668296120882 0 0.40307101273951829 0.017674216847188371 0 0.38997660757523622 0.015125708964624189 0 0.3874144277584966 0.022153025360115399 0 0.40307101273951829 0.017674216847188371 0 0.39806189934447578 0.033404038949766117 0 0.41221338659120382 0.021824188338626122 0 0.40307101273951829 0.017674216847188371 0 0.38745126406920649 0.032140668296120882 0 0.39806189934447578 0.033404038949766117 0 0.41221338659120382 0.021824188338626122 0 0.40307101273951829 0.017674216847188371 0 0.40122830446044472 0.002068313897143383 0 0.41221338659120382 0.021824188338626122 0 0.40122830446044472 0.002068313897143383 0 0.39581782670029109 0.01061891317573163 0 0.38543343968564991 0.0063181098929067127 0 0.40122830446044472 0.002068313897143383 0 0.38543343968564991 0.0063181098929067127 0 0.38681010594574161 -0.0058873617999826754 0 0.40307101273951829 0.017674216847188371 0 0.40122830446044472 0.002068313897143383 0 0.39581782670029109 0.01061891317573163 0 0.40307101273951829 0.017674216847188371 0 0.39581782670029109 0.01061891317573163 0 0.38997660757523622 0.015125708964624189 0 0.38997660757523622 0.015125708964624189 0 0.38543343968564991 0.0063181098929067127 0 0.3812703089644196 0.016723609062446781 0 0.39581782670029109 0.01061891317573163 0 0.38997660757523622 0.015125708964624189 0 0.38543343968564991 0.0063181098929067127 0 0.37495508844019299 0.003652689079625755 0 0.37462966441300449 0.01149328103671185 0 0.38543343968564991 0.0063181098929067127 0 0.37495508844019299 0.003652689079625755 0 0.38543343968564991 0.0063181098929067127 0 0.37792891785728472 -0.0044163141075700763 0 0.37462966441300449 0.01149328103671185 0 0.38543343968564991 0.0063181098929067127 0 0.3812703089644196 0.016723609062446781 0 0.37109296736476011 0.024391215337483941 0 0.37931936372767239 0.02403264859453675 0 0.38745126406920649 0.032140668296120882 0 0.37285655976824289 0.01868474300795565 0 0.3812703089644196 0.016723609062446781 0 0.37931936372767239 0.02403264859453675 0 0.37462966441300449 0.01149328103671185 0 0.37285655976824289 0.01868474300795565 0 0.3812703089644196 0.016723609062446781 0 0.3812703089644196 0.016723609062446781 0 0.3874144277584966 0.022153025360115399 0 0.37931936372767239 0.02403264859453675 0 0.38997660757523622 0.015125708964624189 0 0.3812703089644196 0.016723609062446781 0 0.3874144277584966 0.022153025360115399 0 0.3874144277584966 0.022153025360115399 0 0.37931936372767239 0.02403264859453675 0 0.38745126406920649 0.032140668296120882 0 0.37736030690649891 0.041486551187629589 0 0.38745126406920649 0.032140668296120882 0 0.37240847295540969 0.041302007137853439 0 0.37736030690649891 0.041486551187629589 0 0.38745126406920649 0.032140668296120882 0 0.37736030690649891 0.041486551187629589 0 0.38771293230016463 0.041872370953561507 0 0.37736030690649891 0.041486551187629589 0 0.38771293230016463 0.041872370953561507 0 0.37923344520757368 0.048810948650688697 0 0.37476279719691319 0.043892271592934878 0 0.37736030690649891 0.041486551187629589 0 0.37476279719691319 0.043892271592934878 0 0.37736030690649891 0.041486551187629589 0 0.37923344520757368 0.048810948650688697 0 0.37476279719691319 0.043892271592934878 0 0.37923344520757368 0.048810948650688697 0 0.38771293230016463 0.041872370953561507 0 0.37923344520757368 0.048810948650688697 0 0.38771293230016463 0.041872370953561507 0 0.37923344520757368 0.048810948650688697 0 0.38865219917243199 0.048678709514218661 0 0.37736030690649891 0.041486551187629589 0 0.38771293230016463 0.041872370953561507 0 0.38745126406920649 0.032140668296120882 0 0.39725348578796621 0.068636879918642313 0 0.37923344520757368 0.048810948650688697 0 0.39725348578796621 0.068636879918642313 0 0.37923344520757368 0.048810948650688697 0 0.39178763841517977 0.055502570533772118 0 0.39725348578796621 0.068636879918642313 0 0.37923344520757368 0.048810948650688697 0 0.38371006232658478 0.061432818185848018 0 0.37830807936305533 0.058382554297730392 0 0.37923344520757368 0.048810948650688697 0 0.38371006232658478 0.061432818185848018 0 0.37237415052946049 0.060647558952129962 0 0.37830807936305533 0.058382554297730392 0 0.37923344520757368 0.048810948650688697 0 0.37791465938860203 0.062638891402254926 0 0.37830807936305533 0.058382554297730392 0 0.38371006232658478 0.061432818185848018 0 0.37237415052946049 0.060647558952129962 0 0.37791465938860203 0.062638891402254926 0 0.37830807936305533 0.058382554297730392 0 0.37923344520757368 0.048810948650688697 0 0.38865219917243199 0.048678709514218661 0 0.39178763841517977 0.055502570533772118 0 0.39587478076680899 0.048528947918851241 0 0.40169785614436532 0.052529099234015282 0 0.41150554949873491 0.042759069897005182 0 0.39178763841517977 0.055502570533772118 0 0.40169785614436532 0.052529099234015282 0 0.40109951527299542 0.060269951741770279 0 0.39725348578796621 0.068636879918642313 0 0.39178763841517977 0.055502570533772118 0 0.40109951527299542 0.060269951741770279 0 0.39178763841517977 0.055502570533772118 0 0.39587478076680899 0.048528947918851241 0 0.40169785614436532 0.052529099234015282 0 0.38865219917243199 0.048678709514218661 0 0.39178763841517977 0.055502570533772118 0 0.39587478076680899 0.048528947918851241 0 0.40169785614436532 0.052529099234015282 0 0.40109951527299542 0.060269951741770279 0 0.41032456944246071 0.056628714858314791 0 0.38771293230016463 0.041872370953561507 0 0.39806189934447578 0.033404038949766117 0 0.41150554949873491 0.042759069897005182 0 0.38771293230016463 0.041872370953561507 0 0.39587478076680899 0.048528947918851241 0 0.41150554949873491 0.042759069897005182 0 0.38771293230016463 0.041872370953561507 0 0.41150554949873491 0.042759069897005182 0 0.38745126406920649 0.032140668296120882 0 0.39806189934447578 0.033404038949766117 0 0.38771293230016463 0.041872370953561507 0 0.39806189934447578 0.033404038949766117 0 0.38771293230016463 0.041872370953561507 0 0.38745126406920649 0.032140668296120882 0 0.39806189934447578 0.033404038949766117 0 0.38771293230016463 0.041872370953561507 0 0.38865219917243199 0.048678709514218661 0 0.39587478076680899 0.048528947918851241 0 0.39806189934447578 0.033404038949766117 0 0.42420028089165179 0.03651624319802145 0 0.41405246182815941 0.025131631927776951 0 0.39806189934447578 0.033404038949766117 0 0.42420028089165179 0.03651624319802145 0 0.39806189934447578 0.033404038949766117 0 0.41150554949873491 0.042759069897005182 0 0.42420028089165179 0.03651624319802145 0 0.42120829795794851 0.064966334518534008 0 0.40828946065134508 0.064927887639501955 0 0.41032456944246071 0.056628714858314791 0 0.40828946065134508 0.064927887639501955 0 0.40109951527299542 0.060269951741770279 0 0.41032456944246071 0.056628714858314791 0 0.40169785614436532 0.052529099234015282 0 0.41150554949873491 0.042759069897005182 0 0.41032456944246071 0.056628714858314791 0 0.41150554949873491 0.042759069897005182 0 0.41032456944246071 0.056628714858314791 0 0.42349939702849421 0.0531204161665585 0 0.42120829795794851 0.064966334518534008 0 0.41032456944246071 0.056628714858314791 0 0.42349939702849421 0.0531204161665585 0 0.42120829795794851 0.064966334518534008 0 0.42349939702849421 0.0531204161665585 0 0.43992998002053652 0.062022725091437407 0 0.42349939702849421 0.0531204161665585 0 0.43529816669730498 0.043645768840450759 0 0.43992998002053652 0.062022725091437407 0 0.41150554949873491 0.042759069897005182 0 0.43529816669730498 0.043645768840450759 0 0.42420028089165179 0.03651624319802145 0 0.45033866243882759 0.039628447446279212 0 0.42420028089165179 0.03651624319802145 0 0.43529816669730498 0.043645768840450759 0 0.45033866243882759 0.039628447446279212 0 0.41150554949873491 0.042759069897005182 0 0.42349939702849421 0.0531204161665585 0 0.43529816669730498 0.043645768840450759 0 0.41150554949873491 0.042759069897005182 0 0.42420028089165179 0.03651624319802145 0 0.43529816669730498 0.043645768840450759 0 0.42872812450081682 0.022265291926841652 0 0.41221338659120382 0.021824188338626122 0 0.42989252497845631 0.0073577384249998356 0 0.42872812450081682 0.022265291926841652 0 0.42989252497845631 0.0073577384249998356 0 0.45012090269970301 0.017769439488159181 0 0.42420028089165179 0.03651624319802145 0 0.42872812450081682 0.022265291926841652 0 0.4391815018586363 0.028971531970915759 0 0.42420028089165179 0.03651624319802145 0 0.42872812450081682 0.022265291926841652 0 0.41405246182815941 0.025131631927776951 0 0.42872812450081682 0.022265291926841652 0 0.41221338659120382 0.021824188338626122 0 0.41405246182815941 0.025131631927776951 0 0.39806189934447578 0.033404038949766117 0 0.41221338659120382 0.021824188338626122 0 0.41405246182815941 0.025131631927776951 0 0.41221338659120382 0.021824188338626122 0 0.41405246182815941 0.025131631927776951 0 0.40122830446044472 0.002068313897143383 0 0.4150837533209728 0.0072961289856662429 0 0.41784801912435438 -0.0046579659203742421 0 0.41221338659120382 0.021824188338626122 0 0.42989252497845631 0.0073577384249998356 0 0.40122830446044472 0.002068313897143383 0 0.41221338659120382 0.021824188338626122 0 0.40122830446044472 0.002068313897143383 0 0.41221338659120382 0.021824188338626122 0 0.4150837533209728 0.0072961289856662429 0 0.41221338659120382 0.021824188338626122 0 0.4150837533209728 0.0072961289856662429 0 0.42989252497845631 0.0073577384249998356 0 0.4150837533209728 0.0072961289856662429 0 0.42989252497845631 0.0073577384249998356 0 0.41784801912435438 -0.0046579659203742421 0 0.45012090269970301 0.017769439488159181 0 0.45958880631411658 0.004937099069041175 0 0.44757166336570908 -0.0071087114886261146 0 0.42989252497845631 0.0073577384249998356 0 0.45012090269970301 0.017769439488159181 0 0.44757166336570908 -0.0071087114886261146 0 0.42989252497845631 0.0073577384249998356 0 0.44757166336570908 -0.0071087114886261146 0 0.42872812450081682 0.022265291926841652 0 0.45012090269970301 0.017769439488159181 0 0.4391815018586363 0.028971531970915759 0 0.45012090269970301 0.017769439488159181 0 0.4391815018586363 0.028971531970915759 0 0.45033866243882759 0.039628447446279212 0 0.45012090269970301 0.017769439488159181 0 0.46599370914406019 0.03067338648427614 0 0.47197993556995882 0.01798468398682208 0 0.45012090269970301 0.017769439488159181 0 0.46599370914406019 0.03067338648427614 0 0.45033866243882759 0.039628447446279212 0 0.45958880631411658 0.004937099069041175 0 0.47197993556995882 0.01798468398682208 0 0.4686827236210952 -0.0088970157101904458 0 0.45012090269970301 0.017769439488159181 0 0.45958880631411658 0.004937099069041175 0 0.47197993556995882 0.01798468398682208 0 0.43992998002053652 0.062022725091437407 0 0.44582364524359241 0.050178181499521669 0 0.45772777181770052 0.055415784619919313 0 0.43529816669730498 0.043645768840450759 0 0.43992998002053652 0.062022725091437407 0 0.44582364524359241 0.050178181499521669 0 0.44582364524359241 0.050178181499521669 0 0.45033866243882759 0.039628447446279212 0 0.45772777181770052 0.055415784619919313 0 0.42420028089165179 0.03651624319802145 0 0.4391815018586363 0.028971531970915759 0 0.45033866243882759 0.039628447446279212 0 0.43529816669730498 0.043645768840450759 0 0.44582364524359241 0.050178181499521669 0 0.45033866243882759 0.039628447446279212 0 0.45033866243882759 0.039628447446279212 0 0.47647704398600332 0.042740651694536981 0 0.46599370914406019 0.03067338648427614 0 0.45033866243882759 0.039628447446279212 0 0.47647704398600332 0.042740651694536981 0 0.45033866243882759 0.039628447446279212 0 0.45772777181770052 0.055415784619919313 0 0.47647704398600332 0.042740651694536981 0 0.4795409075756672 0.062908193001997903 0 0.45772777181770052 0.055415784619919313 0 0.47647704398600332 0.042740651694536981 0 0.46599370914406019 0.03067338648427614 0 0.47647704398600332 0.042740651694536981 0 0.4856287205812137 0.026650378399210011 0 0.47647704398600332 0.042740651694536981 0 0.5 0.042825061568978813 0 0.4856287205812137 0.026650378399210011 0 0.4795409075756672 0.062908193001997903 0 0.47647704398600332 0.042740651694536981 0 0.5 0.042825061568978813 0 0.5 0.071995534383719084 0 0.4795409075756672 0.062908193001997903 0 0.5 0.042825061568978813 0 0.48398858570914938 0.0028686845549908292 0 0.47197993556995882 0.01798468398682208 0 0.4686827236210952 -0.0088970157101904458 0 0.47197993556995882 0.01798468398682208 0 0.4686827236210952 -0.0088970157101904458 0 0.46599370914406019 0.03067338648427614 0 0.47197993556995882 0.01798468398682208 0 0.4856287205812137 0.026650378399210011 0 0.48398858570914938 0.0028686845549908292 0 0.47197993556995882 0.01798468398682208 0 0.4856287205812137 0.026650378399210011 0 0.5 0.042825061568978813 0 0.4856287205812137 0.026650378399210011 0 0.5 0.013654588754238641 0 0.48398858570914938 0.0028686845549908292 0 0.4856287205812137 0.026650378399210011 0 0.5 0.013654588754238641 0 0.48398858570914938 0.0028686845549908292 0 0.5 0.013654588754238641 0 0.5 -0.01551588406050153 0 0.48398858570914938 0.0028686845549908292 0 0.5 -0.01551588406050153 0 0.48209169104648081 -0.025220606485343699 0 0.48398858570914938 0.0028686845549908292 0 0.48209169104648081 -0.025220606485343699 0 0.4686827236210952 -0.0088970157101904458 0 0.48209169104648081 -0.025220606485343699 0 0.46538551167223152 -0.03577871540720301 0 0.4686827236210952 -0.0088970157101904458 0 0.5 -0.01551588406050153 0 0.48209169104648081 -0.025220606485343699 0 0.5 -0.044686356875241813 0 0.48209169104648081 -0.025220606485343699 0 0.5 -0.044686356875241813 0 0.47449332527640847 -0.049314351413916227 0 0.5 -0.044686356875241813 0 0.5 -0.073856829689982195 0 0.48357906485005359 -0.065065584091123591 0 0.5 -0.044686356875241813 0 0.47449332527640847 -0.049314351413916227 0 0.48357906485005359 -0.065065584091123591 0 0.47449332527640847 -0.049314351413916227 0 0.48357906485005359 -0.065065584091123591 0 0.47138406132687888 -0.064209057792543725 0 0.47449332527640847 -0.049314351413916227 0 0.47138406132687888 -0.064209057792543725 0 0.46208829972336801 -0.062660415104215716 0 0.48209169104648081 -0.025220606485343699 0 0.47449332527640847 -0.049314351413916227 0 0.46538551167223152 -0.03577871540720301 0 0.46538551167223152 -0.03577871540720301 0 0.45301439124091708 -0.048418461119625333 0 0.44361516441739529 -0.030949755834389369 0 0.46538551167223152 -0.03577871540720301 0 0.45301439124091708 -0.048418461119625333 0 0.46208829972336801 -0.062660415104215716 0 0.47449332527640847 -0.049314351413916227 0 0.46538551167223152 -0.03577871540720301 0 0.46208829972336801 -0.062660415104215716 0 0.46538551167223152 -0.03577871540720301 0 0.46208829972336801 -0.062660415104215716 0 0.4482644699802143 -0.062240922428110267 0 0.45301439124091708 -0.048418461119625333 0 0.46208829972336801 -0.062660415104215716 0 0.4482644699802143 -0.062240922428110267 0 0.45301439124091708 -0.048418461119625333 0 0.44053099928321521 -0.050854376816761068 0 0.4482644699802143 -0.062240922428110267 0 0.44053099928321521 -0.050854376816761068 0 0.43579702809154841 -0.064824295006519039 0 0.44053099928321521 -0.050854376816761068 0 0.44361516441739529 -0.030949755834389369 0 0.43133127445710151 -0.041690360722400677 0 0.45301439124091708 -0.048418461119625333 0 0.44053099928321521 -0.050854376816761068 0 0.44361516441739529 -0.030949755834389369 0 0.44361516441739529 -0.030949755834389369 0 0.44757166336570908 -0.0071087114886261146 0 0.42903945270355798 -0.01278563119115647 0 0.44361516441739529 -0.030949755834389369 0 0.44757166336570908 -0.0071087114886261146 0 0.45631376576910782 -0.020683549610102232 0 0.45958880631411658 0.004937099069041175 0 0.44757166336570908 -0.0071087114886261146 0 0.4686827236210952 -0.0088970157101904458 0 0.44757166336570908 -0.0071087114886261146 0 0.4686827236210952 -0.0088970157101904458 0 0.45631376576910782 -0.020683549610102232 0 0.46538551167223152 -0.03577871540720301 0 0.44361516441739529 -0.030949755834389369 0 0.45631376576910782 -0.020683549610102232 0 0.46538551167223152 -0.03577871540720301 0 0.4686827236210952 -0.0088970157101904458 0 0.46538551167223152 -0.03577871540720301 0 0.4686827236210952 -0.0088970157101904458 0 0.45631376576910782 -0.020683549610102232 0 0.48457862702696852 -0.1208743639486619 0 0.47508422907954673 -0.098398006226008777 0 0.47723327333029569 -0.1094494455293441 0 0.48457862702696852 -0.1208743639486619 0 0.47508422907954673 -0.098398006226008777 0 0.47192062706496962 -0.1173200866933788 0 0.46693628525757808 -0.1229235944934005 0 0.47402246665898218 -0.12784694419781251 0 0.47192062706496962 -0.1173200866933788 0 0.47723327333029569 -0.1094494455293441 0 0.46628919778871297 -0.1111378898664917 0 0.47192062706496962 -0.1173200866933788 0 0.47723327333029569 -0.1094494455293441 0 0.48457862702696852 -0.1208743639486619 0 0.47192062706496962 -0.1173200866933788 0 0.48457862702696852 -0.1208743639486619 0 0.47402246665898218 -0.12784694419781251 0 0.4915325987189334 -0.107338269672688 0 0.5 -0.1030273025047226 0 0.5 -0.13219777531946311 0 0.48457862702696852 -0.1208743639486619 0 0.4915325987189334 -0.107338269672688 0 0.5 -0.13219777531946311 0 0.4915325987189334 -0.107338269672688 0 0.47508422907954673 -0.098398006226008777 0 0.48913248712011048 -0.092152960514693086 0 0.4915325987189334 -0.107338269672688 0 0.5 -0.1030273025047226 0 0.48913248712011048 -0.092152960514693086 0 0.48457862702696852 -0.1208743639486619 0 0.4915325987189334 -0.107338269672688 0 0.47508422907954673 -0.098398006226008777 0 0.47723327333029569 -0.1094494455293441 0 0.47508422907954673 -0.098398006226008777 0 0.45738843594470813 -0.1009777355173966 0 0.4915325987189334 -0.107338269672688 0 0.47508422907954673 -0.098398006226008777 0 0.47508422907954673 -0.098398006226008777 0 0.48174942239086532 -0.081257156658953111 0 0.48913248712011048 -0.092152960514693086 0 0.47508422907954673 -0.098398006226008777 0 0.4691430925686309 -0.084333385147560558 0 0.48174942239086532 -0.081257156658953111 0 0.47508422907954673 -0.098398006226008777 0 0.4691430925686309 -0.084333385147560558 0 0.4691430925686309 -0.084333385147560558 0 0.48174942239086532 -0.081257156658953111 0 0.47355766072685013 -0.073736174284350517 0 0.48174942239086532 -0.081257156658953111 0 0.48913248712011048 -0.092152960514693086 0 0.5 -0.073856829689982195 0 0.5 -0.1030273025047226 0 0.48913248712011048 -0.092152960514693086 0 0.5 -0.073856829689982195 0 0.48174942239086532 -0.081257156658953111 0 0.5 -0.073856829689982195 0 0.48357906485005359 -0.065065584091123591 0 0.48174942239086532 -0.081257156658953111 0 0.48357906485005359 -0.065065584091123591 0 0.47355766072685013 -0.073736174284350517 0 0.47355766072685013 -0.073736174284350517 0 0.47138406132687888 -0.064209057792543725 0 0.46320195605771458 -0.070268764069112588 0 0.48357906485005359 -0.065065584091123591 0 0.47355766072685013 -0.073736174284350517 0 0.47138406132687888 -0.064209057792543725 0 0.46208829972336801 -0.062660415104215716 0 0.45879108777450373 -0.089542114801228298 0 0.46208829972336801 -0.062660415104215716 0 0.45207641778013918 -0.074305488561805855 0 0.45879108777450373 -0.089542114801228298 0 0.46208829972336801 -0.062660415104215716 0 0.46320195605771458 -0.070268764069112588 0 0.45879108777450373 -0.089542114801228298 0 0.47138406132687888 -0.064209057792543725 0 0.46208829972336801 -0.062660415104215716 0 0.46320195605771458 -0.070268764069112588 0 0.4691430925686309 -0.084333385147560558 0 0.46320195605771458 -0.070268764069112588 0 0.4691430925686309 -0.084333385147560558 0 0.47355766072685013 -0.073736174284350517 0 0.46320195605771458 -0.070268764069112588 0 0.4482644699802143 -0.062240922428110267 0 0.46208829972336801 -0.062660415104215716 0 0.45207641778013918 -0.074305488561805855 0 0.4482644699802143 -0.062240922428110267 0 0.44352473462833347 -0.069897738201696355 0 0.45207641778013918 -0.074305488561805855 0 0.4482644699802143 -0.062240922428110267 0 0.44352473462833347 -0.069897738201696355 0 0.43579702809154841 -0.064824295006519039 0 0.44352473462833347 -0.069897738201696355 0 0.45207641778013918 -0.074305488561805855 0 0.43796102266143222 -0.07822024681035028 0 0.44352473462833347 -0.069897738201696355 0 0.43796102266143222 -0.07822024681035028 0 0.43579702809154841 -0.064824295006519039 0 0.43796102266143222 -0.07822024681035028 0 0.44631882215236279 -0.089627549589832864 0 0.45879108777450373 -0.089542114801228298 0 0.45207641778013918 -0.074305488561805855 0 0.43796102266143222 -0.07822024681035028 0 0.45879108777450373 -0.089542114801228298 0 0.44631882215236279 -0.089627549589832864 0 0.45738843594470813 -0.1009777355173966 0 0.4311347422288071 -0.089770101230356295 0 0.43796102266143222 -0.07822024681035028 0 0.45879108777450373 -0.089542114801228298 0 0.43796102266143222 -0.07822024681035028 0 0.44631882215236279 -0.089627549589832864 0 0.4311347422288071 -0.089770101230356295 0 0.47508422907954673 -0.098398006226008777 0 0.4691430925686309 -0.084333385147560558 0 0.45879108777450373 -0.089542114801228298 0 0.4691430925686309 -0.084333385147560558 0 0.46320195605771458 -0.070268764069112588 0 0.45879108777450373 -0.089542114801228298 0 0.44631882215236279 -0.089627549589832864 0 0.45879108777450373 -0.089542114801228298 0 0.45738843594470813 -0.1009777355173966 0 0.47723327333029569 -0.1094494455293441 0 0.45738843594470813 -0.1009777355173966 0 0.46628919778871297 -0.1111378898664917 0 0.47723327333029569 -0.1094494455293441 0 0.45738843594470813 -0.1009777355173966 0 0.47508422907954673 -0.098398006226008777 0 0.45879108777450373 -0.089542114801228298 0 0.47508422907954673 -0.098398006226008777 0 0.45879108777450373 -0.089542114801228298 0 0.45738843594470813 -0.1009777355173966 0 0.45879108777450373 -0.089542114801228298 0 0.45738843594470813 -0.1009777355173966 0 0.45738843594470813 -0.1009777355173966 0 0.4311347422288071 -0.089770101230356295 0 0.45738843594470813 -0.1009777355173966 0 0.4450479382872865 -0.1099499002461672 0 0.43538815384813068 -0.1034995440441569 0 0.45738843594470813 -0.1009777355173966 0 0.43538815384813068 -0.1034995440441569 0 0.4311347422288071 -0.089770101230356295 0 0.45738843594470813 -0.1009777355173966 0 0.4450479382872865 -0.1099499002461672 0 0.44761794442740532 -0.1176854689017939 0 0.4450479382872865 -0.1099499002461672 0 0.44043790397136301 -0.1161361918813667 0 0.43538815384813068 -0.1034995440441569 0 0.4450479382872865 -0.1099499002461672 0 0.44043790397136301 -0.1161361918813667 0 0.44761794442740532 -0.1176854689017939 0 0.44043790397136301 -0.1161361918813667 0 0.44036752807406149 -0.124174720653648 0 0.44761794442740532 -0.1176854689017939 0 0.44036752807406149 -0.124174720653648 0 0.44761794442740532 -0.1176854689017939 0 0.4545843404174752 -0.1238391272185856 0 0.45738843594470813 -0.1009777355173966 0 0.44761794442740532 -0.1176854689017939 0 0.4545843404174752 -0.1238391272185856 0 0.4545843404174752 -0.1238391272185856 0 0.45657541594837803 -0.1219931254317069 0 0.45959864987757848 -0.1272507255884725 0 0.45738843594470813 -0.1009777355173966 0 0.4545843404174752 -0.1238391272185856 0 0.45738843594470813 -0.1009777355173966 0 0.45657541594837803 -0.1219931254317069 0 0.46289782867834889 -0.11638669477691339 0 0.45738843594470813 -0.1009777355173966 0 0.4545843404174752 -0.1238391272185856 0 0.45657541594837803 -0.1219931254317069 0 0.4545843404174752 -0.1238391272185856 0 0.45657541594837803 -0.1219931254317069 0 0.45657541594837803 -0.1219931254317069 0 0.46196153120451999 -0.1240358528360395 0 0.45959864987757848 -0.1272507255884725 0 0.45657541594837803 -0.1219931254317069 0 0.46289782867834889 -0.11638669477691339 0 0.46196153120451999 -0.1240358528360395 0 0.47192062706496962 -0.1173200866933788 0 0.46628919778871297 -0.1111378898664917 0 0.46289782867834889 -0.11638669477691339 0 0.45738843594470813 -0.1009777355173966 0 0.46628919778871297 -0.1111378898664917 0 0.46289782867834889 -0.11638669477691339 0 0.47192062706496962 -0.1173200866933788 0 0.46289782867834889 -0.11638669477691339 0 0.46693628525757808 -0.1229235944934005 0 0.46289782867834889 -0.11638669477691339 0 0.46693628525757808 -0.1229235944934005 0 0.46196153120451999 -0.1240358528360395 0 0.41637395449485209 -0.11489435306022699 0 0.41015873109902989 -0.104701731025877 0 0.39884518377176909 -0.1120040457010137 0 0.41637395449485209 -0.11489435306022699 0 0.42532884689079092 -0.12799747830401659 0 0.4072697773528508 -0.12796357876984479 0 0.41637395449485209 -0.11489435306022699 0 0.39884518377176909 -0.1120040457010137 0 0.4072697773528508 -0.12796357876984479 0 0.41637395449485209 -0.11489435306022699 0 0.43004432613858989 -0.1156252845566037 0 0.41858695685651648 -0.1001817212590168 0 0.41637395449485209 -0.11489435306022699 0 0.43004432613858989 -0.1156252845566037 0 0.42532884689079092 -0.12799747830401659 0 0.44043790397136301 -0.1161361918813667 0 0.44036752807406149 -0.124174720653648 0 0.43004432613858989 -0.1156252845566037 0 0.44036752807406149 -0.124174720653648 0 0.43004432613858989 -0.1156252845566037 0 0.42532884689079092 -0.12799747830401659 0 0.44043790397136301 -0.1161361918813667 0 0.43004432613858989 -0.1156252845566037 0 0.43538815384813068 -0.1034995440441569 0 0.43538815384813068 -0.1034995440441569 0 0.41858695685651648 -0.1001817212590168 0 0.4311347422288071 -0.089770101230356295 0 0.43004432613858989 -0.1156252845566037 0 0.43538815384813068 -0.1034995440441569 0 0.41858695685651648 -0.1001817212590168 0 0.41858695685651648 -0.1001817212590168 0 0.41015873109902989 -0.104701731025877 0 0.40212774167329829 -0.094218567952583807 0 0.41637395449485209 -0.11489435306022699 0 0.41858695685651648 -0.1001817212590168 0 0.41015873109902989 -0.104701731025877 0 0.41858695685651648 -0.1001817212590168 0 0.4048810485129074 -0.078562466943313231 0 0.40212774167329829 -0.094218567952583807 0 0.41858695685651648 -0.1001817212590168 0 0.4311347422288071 -0.089770101230356295 0 0.4048810485129074 -0.078562466943313231 0 0.4311347422288071 -0.089770101230356295 0 0.4048810485129074 -0.078562466943313231 0 0.4311347422288071 -0.089770101230356295 0 0.42454391497583588 -0.078082555133495768 0 0.4048810485129074 -0.078562466943313231 0 0.43796102266143222 -0.07822024681035028 0 0.4311347422288071 -0.089770101230356295 0 0.42454391497583588 -0.078082555133495768 0 0.43796102266143222 -0.07822024681035028 0 0.41713095754836138 -0.066898378819470986 0 0.43579702809154841 -0.064824295006519039 0 0.41713095754836138 -0.066898378819470986 0 0.42854083725045761 -0.056317685560221473 0 0.43796102266143222 -0.07822024681035028 0 0.43579702809154841 -0.064824295006519039 0 0.41713095754836138 -0.066898378819470986 0 0.43796102266143222 -0.07822024681035028 0 0.42454391497583588 -0.078082555133495768 0 0.41713095754836138 -0.066898378819470986 0 0.42454391497583588 -0.078082555133495768 0 0.41713095754836138 -0.066898378819470986 0 0.4048810485129074 -0.078562466943313231 0 0.37862735479700771 -0.067354832656270153 0 0.4048810485129074 -0.078562466943313231 0 0.39630089243529071 -0.055576510828591691 0 0.37862735479700771 -0.067354832656270153 0 0.4048810485129074 -0.078562466943313231 0 0.41713095754836138 -0.066898378819470986 0 0.4048810485129074 -0.078562466943313231 0 0.39630089243529071 -0.055576510828591691 0 0.37862735479700771 -0.067354832656270153 0 0.39006616988692389 -0.084301444358046054 0 0.4048810485129074 -0.078562466943313231 0 0.37862735479700771 -0.067354832656270153 0 0.37815043740894472 -0.084583127608809455 0 0.37035327860582412 -0.075415065674986681 0 0.37862735479700771 -0.067354832656270153 0 0.39006616988692389 -0.084301444358046054 0 0.37815043740894472 -0.084583127608809455 0 0.37815043740894472 -0.084583127608809455 0 0.38666442237439708 -0.097820417594717296 0 0.37369949284351162 -0.093812405013078276 0 0.39006616988692389 -0.084301444358046054 0 0.37815043740894472 -0.084583127608809455 0 0.38666442237439708 -0.097820417594717296 0 0.39006616988692389 -0.084301444358046054 0 0.40212774167329829 -0.094218567952583807 0 0.38666442237439708 -0.097820417594717296 0 0.39006616988692389 -0.084301444358046054 0 0.4048810485129074 -0.078562466943313231 0 0.40212774167329829 -0.094218567952583807 0 0.41015873109902989 -0.104701731025877 0 0.40212774167329829 -0.094218567952583807 0 0.39884518377176909 -0.1120040457010137 0 0.40212774167329829 -0.094218567952583807 0 0.38666442237439708 -0.097820417594717296 0 0.39884518377176909 -0.1120040457010137 0 0.38666442237439708 -0.097820417594717296 0 0.37660073223622048 -0.1028698213011737 0 0.37369949284351162 -0.093812405013078276 0 0.38666442237439708 -0.097820417594717296 0 0.37660073223622048 -0.1028698213011737 0 0.3838475539429913 -0.1120724215525547 0 0.38666442237439708 -0.097820417594717296 0 0.3838475539429913 -0.1120724215525547 0 0.39884518377176909 -0.1120040457010137 0 0.3838475539429913 -0.1120724215525547 0 0.37083223527879772 -0.1142633183272949 0 0.38416403906739932 -0.12943642960261181 0 0.3838475539429913 -0.1120724215525547 0 0.39884518377176909 -0.1120040457010137 0 0.38416403906739932 -0.12943642960261181 0 0.37660073223622048 -0.1028698213011737 0 0.3838475539429913 -0.1120724215525547 0 0.37083223527879772 -0.1142633183272949 0 0.37083223527879772 -0.1142633183272949 0 0.38416403906739932 -0.12943642960261181 0 0.39884518377176909 -0.1120040457010137 0 0.38416403906739932 -0.12943642960261181 0 0.4072697773528508 -0.12796357876984479 0 0.40987314776111761 -0.015670592922045621 0 0.42233475248573399 -0.03097126410080386 0 0.4057768215563522 -0.032075693096151561 0 0.40987314776111761 -0.015670592922045621 0 0.42903945270355798 -0.01278563119115647 0 0.42233475248573399 -0.03097126410080386 0 0.40987314776111761 -0.015670592922045621 0 0.41784801912435438 -0.0046579659203742421 0 0.42903945270355798 -0.01278563119115647 0 0.40122830446044472 0.002068313897143383 0 0.40987314776111761 -0.015670592922045621 0 0.41784801912435438 -0.0046579659203742421 0 0.42989252497845631 0.0073577384249998356 0 0.44757166336570908 -0.0071087114886261146 0 0.42903945270355798 -0.01278563119115647 0 0.42989252497845631 0.0073577384249998356 0 0.41784801912435438 -0.0046579659203742421 0 0.42903945270355798 -0.01278563119115647 0 0.44361516441739529 -0.030949755834389369 0 0.42903945270355798 -0.01278563119115647 0 0.42233475248573399 -0.03097126410080386 0 0.42233475248573399 -0.03097126410080386 0 0.43133127445710151 -0.041690360722400677 0 0.42060650288810242 -0.049061363332593658 0 0.44361516441739529 -0.030949755834389369 0 0.42233475248573399 -0.03097126410080386 0 0.43133127445710151 -0.041690360722400677 0 0.41713095754836138 -0.066898378819470986 0 0.42854083725045761 -0.056317685560221473 0 0.42060650288810242 -0.049061363332593658 0 0.44053099928321521 -0.050854376816761068 0 0.43579702809154841 -0.064824295006519039 0 0.42854083725045761 -0.056317685560221473 0 0.44053099928321521 -0.050854376816761068 0 0.43133127445710151 -0.041690360722400677 0 0.42854083725045761 -0.056317685560221473 0 0.43133127445710151 -0.041690360722400677 0 0.42854083725045761 -0.056317685560221473 0 0.42060650288810242 -0.049061363332593658 0 0.41713095754836138 -0.066898378819470986 0 0.40743943650443071 -0.046293721345521621 0 0.39630089243529071 -0.055576510828591691 0 0.41713095754836138 -0.066898378819470986 0 0.39630089243529071 -0.055576510828591691 0 0.41713095754836138 -0.066898378819470986 0 0.42060650288810242 -0.049061363332593658 0 0.40743943650443071 -0.046293721345521621 0 0.42233475248573399 -0.03097126410080386 0 0.40743943650443071 -0.046293721345521621 0 0.4057768215563522 -0.032075693096151561 0 0.42233475248573399 -0.03097126410080386 0 0.42060650288810242 -0.049061363332593658 0 0.40743943650443071 -0.046293721345521621 0 0.4057768215563522 -0.032075693096151561 0 0.39244709684550938 -0.042123049299836332 0 0.3974481922347024 -0.025286734903171581 0 0.39244709684550938 -0.042123049299836332 0 0.38766014046769182 -0.028972672263781699 0 0.3974481922347024 -0.025286734903171581 0 0.40743943650443071 -0.046293721345521621 0 0.4057768215563522 -0.032075693096151561 0 0.39244709684550938 -0.042123049299836332 0 0.40743943650443071 -0.046293721345521621 0 0.39244709684550938 -0.042123049299836332 0 0.39630089243529071 -0.055576510828591691 0 0.39630089243529071 -0.055576510828591691 0 0.37909706308483587 -0.056314844888528427 0 0.37547082732221992 -0.044254642837712403 0 0.39630089243529071 -0.055576510828591691 0 0.37547082732221992 -0.044254642837712403 0 0.37862735479700771 -0.067354832656270153 0 0.39630089243529071 -0.055576510828591691 0 0.37909706308483587 -0.056314844888528427 0 0.39244709684550938 -0.042123049299836332 0 0.39630089243529071 -0.055576510828591691 0 0.37547082732221992 -0.044254642837712403 0 0.39244709684550938 -0.042123049299836332 0 0.37547082732221992 -0.044254642837712403 0 0.37925814019892218 -0.037443434985819833 0 0.39244709684550938 -0.042123049299836332 0 0.37925814019892218 -0.037443434985819833 0 0.38766014046769182 -0.028972672263781699 0 0.37925814019892218 -0.037443434985819833 0 0.38766014046769182 -0.028972672263781699 0 0.37925814019892218 -0.037443434985819833 0 0.37354206353685931 -0.043206292347931448 0 0.37547082732221992 -0.044254642837712403 0 0.37925814019892218 -0.037443434985819833 0 0.37354206353685931 -0.043206292347931448 0 0.37547082732221992 -0.044254642837712403 0 0.37925814019892218 -0.037443434985819833 0 0.37925814019892218 -0.037443434985819833 0 0.37354206353685931 -0.043206292347931448 0 0.37300326549672308 -0.036075847138713382 0 0.37925814019892218 -0.037443434985819833 0 0.37581526355103467 -0.03063422975164154 0 0.37300326549672308 -0.036075847138713382 0 0.37925814019892218 -0.037443434985819833 0 0.37581526355103467 -0.03063422975164154 0 0.38137713003761098 -0.02499404653119236 0 0.37925814019892218 -0.037443434985819833 0 0.38137713003761098 -0.02499404653119236 0 0.3902432223296835 -0.017687560544338239 0 0.37925814019892218 -0.037443434985819833 0 0.3902432223296835 -0.017687560544338239 0 0.38766014046769182 -0.028972672263781699 0 0.37925814019892218 -0.037443434985819833 0 0.3902432223296835 -0.017687560544338239 0 0.37581526355103467 -0.03063422975164154 0 0.38137713003761098 -0.02499404653119236 0 0.37490207298898531 -0.025215075483239681 0 0.38137713003761098 -0.02499404653119236 0 0.37921664539564542 -0.01571935813805515 0 0.37490207298898531 -0.025215075483239681 0 0.38137713003761098 -0.02499404653119236 0 0.37921664539564542 -0.01571935813805515 0 0.3902432223296835 -0.017687560544338239 0 0.40987314776111761 -0.015670592922045621 0 0.4057768215563522 -0.032075693096151561 0 0.3974481922347024 -0.025286734903171581 0 0.3902432223296835 -0.017687560544338239 0 0.38766014046769182 -0.028972672263781699 0 0.3974481922347024 -0.025286734903171581 0 0.3902432223296835 -0.017687560544338239 0 0.3974481922347024 -0.025286734903171581 0 0.39995578905581558 -0.015682518524812759 0 0.40987314776111761 -0.015670592922045621 0 0.3974481922347024 -0.025286734903171581 0 0.39995578905581558 -0.015682518524812759 0 0.40122830446044472 0.002068313897143383 0 0.40987314776111761 -0.015670592922045621 0 0.39995578905581558 -0.015682518524812759 0 0.40122830446044472 0.002068313897143383 0 0.3902432223296835 -0.017687560544338239 0 0.39995578905581558 -0.015682518524812759 0 0.40122830446044472 0.002068313897143383 0 0.3902432223296835 -0.017687560544338239 0 0.40122830446044472 0.002068313897143383 0 0.3902432223296835 -0.017687560544338239 0 0.38681010594574161 -0.0058873617999826754 0 0.38543343968564991 0.0063181098929067127 0 0.38681010594574161 -0.0058873617999826754 0 0.37792891785728472 -0.0044163141075700763 0 0.37921664539564542 -0.01571935813805515 0 0.3902432223296835 -0.017687560544338239 0 0.38681010594574161 -0.0058873617999826754 0 0.37921664539564542 -0.01571935813805515 0 0.38681010594574161 -0.0058873617999826754 0 0.37792891785728472 -0.0044163141075700763 0 0.37921664539564542 -0.01571935813805515 0 0.37792891785728472 -0.0044163141075700763 0 0.37137092831076002 -0.01151058589817338 0 0.37792891785728472 -0.0044163141075700763 0 0.36801745464278901 -0.0041454160857303983 0 0.37137092831076002 -0.01151058589817338 0 0.37495508844019299 0.003652689079625755 0 0.37792891785728472 -0.0044163141075700763 0 0.36801745464278901 -0.0041454160857303983 0 0.36801745464278901 -0.0041454160857303983 0 0.37137092831076002 -0.01151058589817338 0 0.36307114698497528 -0.014109989248248181 0 0.37137092831076002 -0.01151058589817338 0 0.36307114698497528 -0.014109989248248181 0 0.37052099469490402 -0.020199405540563629 0 0.36801745464278901 -0.0041454160857303983 0 0.36307114698497528 -0.014109989248248181 0 0.35935228663599039 -0.0048114488478301484 0 0.36678757346642171 0.0041515566250526431 0 0.36801745464278901 -0.0041454160857303983 0 0.35935228663599039 -0.0048114488478301484 0 0.37053570903293198 -0.029442744619242438 0 0.37490207298898531 -0.025215075483239681 0 0.37052099469490402 -0.020199405540563629 0 0.37053570903293198 -0.029442744619242438 0 0.37052099469490402 -0.020199405540563629 0 0.36316400628722578 -0.02565437818207205 0 0.37581526355103467 -0.03063422975164154 0 0.37053570903293198 -0.029442744619242438 0 0.37490207298898531 -0.025215075483239681 0 0.37921664539564542 -0.01571935813805515 0 0.37490207298898531 -0.025215075483239681 0 0.37052099469490402 -0.020199405540563629 0 0.37921664539564542 -0.01571935813805515 0 0.37137092831076002 -0.01151058589817338 0 0.37052099469490402 -0.020199405540563629 0 0.36307114698497528 -0.014109989248248181 0 0.36316400628722578 -0.02565437818207205 0 0.35540019743968948 -0.020946478144897841 0 0.36307114698497528 -0.014109989248248181 0 0.37052099469490402 -0.020199405540563629 0 0.36316400628722578 -0.02565437818207205 0 0.36316400628722578 -0.02565437818207205 0 0.35559124272102871 -0.03017918813093997 0 0.36390380479447121 -0.03796756205347996 0 0.37053570903293198 -0.029442744619242438 0 0.36316400628722578 -0.02565437818207205 0 0.36390380479447121 -0.03796756205347996 0 0.35559124272102871 -0.03017918813093997 0 0.35540019743968948 -0.020946478144897841 0 0.34861595247796251 -0.024658334240011449 0 0.36316400628722578 -0.02565437818207205 0 0.35559124272102871 -0.03017918813093997 0 0.35540019743968948 -0.020946478144897841 0 0.35540019743968948 -0.020946478144897841 0 0.34541657957365418 -0.0170438157353037 0 0.3531076195632793 -0.01169200417873709 0 0.35540019743968948 -0.020946478144897841 0 0.34541657957365418 -0.0170438157353037 0 0.34861595247796251 -0.024658334240011449 0 0.34541657957365418 -0.0170438157353037 0 0.34861595247796251 -0.024658334240011449 0 0.33904986281313892 -0.024598374645882371 0 0.34861595247796251 -0.024658334240011449 0 0.33904986281313892 -0.024598374645882371 0 0.3481937725527573 -0.032926241063543922 0 0.35559124272102871 -0.03017918813093997 0 0.34861595247796251 -0.024658334240011449 0 0.3481937725527573 -0.032926241063543922 0 0.35843567287196809 0.0035144151888312882 0 0.35174757496052972 -0.004401562338937336 0 0.35935228663599039 -0.0048114488478301484 0 0.35174757496052972 -0.004401562338937336 0 0.35935228663599039 -0.0048114488478301484 0 0.3531076195632793 -0.01169200417873709 0 0.36307114698497528 -0.014109989248248181 0 0.35540019743968948 -0.020946478144897841 0 0.3531076195632793 -0.01169200417873709 0 0.36307114698497528 -0.014109989248248181 0 0.35935228663599039 -0.0048114488478301484 0 0.3531076195632793 -0.01169200417873709 0 0.35174757496052972 -0.004401562338937336 0 0.3531076195632793 -0.01169200417873709 0 0.34359161373870423 -0.0079143431722975451 0 0.34541657957365418 -0.0170438157353037 0 0.3531076195632793 -0.01169200417873709 0 0.34359161373870423 -0.0079143431722975451 0 0.3478527058335168 0.0029985318458475431 0 0.35174757496052972 -0.004401562338937336 0 0.34359161373870423 -0.0079143431722975451 0 0.33398308021336398 0.0037047267811294682 0 0.33273423140915148 -0.012453360029995879 0 0.32153595636847943 -0.0024912293887817561 0 0.3478527058335168 0.0029985318458475431 0 0.33398308021336398 0.0037047267811294682 0 0.34359161373870423 -0.0079143431722975451 0 0.33398308021336398 0.0037047267811294682 0 0.33273423140915148 -0.012453360029995879 0 0.34359161373870423 -0.0079143431722975451 0 0.34541657957365418 -0.0170438157353037 0 0.33273423140915148 -0.012453360029995879 0 0.34359161373870423 -0.0079143431722975451 0 0.34541657957365418 -0.0170438157353037 0 0.33273423140915148 -0.012453360029995879 0 0.33904986281313892 -0.024598374645882371 0 0.33904986281313892 -0.024598374645882371 0 0.33978542704927239 -0.034514944730254779 0 0.3481937725527573 -0.032926241063543922 0 0.33904986281313892 -0.024598374645882371 0 0.33005806417573819 -0.029791516830785351 0 0.33978542704927239 -0.034514944730254779 0 0.33904986281313892 -0.024598374645882371 0 0.33005806417573819 -0.029791516830785351 0 0.32779220461820141 -0.021852582218092709 0 0.33273423140915148 -0.012453360029995879 0 0.33904986281313892 -0.024598374645882371 0 0.32779220461820141 -0.021852582218092709 0 0.32779220461820141 -0.021852582218092709 0 0.32011265375519982 -0.027441159132489439 0 0.31700621093777859 -0.0149785004513105 0 0.33273423140915148 -0.012453360029995879 0 0.32779220461820141 -0.021852582218092709 0 0.31700621093777859 -0.0149785004513105 0 0.33005806417573819 -0.029791516830785351 0 0.32779220461820141 -0.021852582218092709 0 0.32011265375519982 -0.027441159132489439 0 0.33005806417573819 -0.029791516830785351 0 0.32011265375519982 -0.027441159132489439 0 0.32286656594845931 -0.035950499284148812 0 0.32011265375519982 -0.027441159132489439 0 0.31436541653503342 -0.037847209100729758 0 0.3096823084425116 -0.02513066571267741 0 0.32011265375519982 -0.027441159132489439 0 0.31700621093777859 -0.0149785004513105 0 0.3096823084425116 -0.02513066571267741 0 0.33273423140915148 -0.012453360029995879 0 0.31700621093777859 -0.0149785004513105 0 0.32153595636847943 -0.0024912293887817561 0 0.30588981492172601 0.002439841043038488 0 0.31700621093777859 -0.0149785004513105 0 0.32153595636847943 -0.0024912293887817561 0 0.32506564663451087 -0.062175727390415728 0 0.31113295128629848 -0.046318733075493397 0 0.31036746154564732 -0.062027684197694027 0 0.32506564663451087 -0.062175727390415728 0 0.32277327848006138 -0.044859011319668941 0 0.33378349612105218 -0.04854115539460796 0 0.32506564663451087 -0.062175727390415728 0 0.31113295128629848 -0.046318733075493397 0 0.32506564663451087 -0.062175727390415728 0 0.32277327848006138 -0.044859011319668941 0 0.31113295128629848 -0.046318733075493397 0 0.31436541653503342 -0.037847209100729758 0 0.32277327848006138 -0.044859011319668941 0 0.31113295128629848 -0.046318733075493397 0 0.31436541653503342 -0.037847209100729758 0 0.32286656594845931 -0.035950499284148812 0 0.32277327848006138 -0.044859011319668941 0 0.32011265375519982 -0.027441159132489439 0 0.31436541653503342 -0.037847209100729758 0 0.32286656594845931 -0.035950499284148812 0 0.33005806417573819 -0.029791516830785351 0 0.32286656594845931 -0.035950499284148812 0 0.3300577463441593 -0.037927886734604219 0 0.32286656594845931 -0.035950499284148812 0 0.32277327848006138 -0.044859011319668941 0 0.3300577463441593 -0.037927886734604219 0 0.32277327848006138 -0.044859011319668941 0 0.3300577463441593 -0.037927886734604219 0 0.33378349612105218 -0.04854115539460796 0 0.3300577463441593 -0.037927886734604219 0 0.33978542704927239 -0.034514944730254779 0 0.33378349612105218 -0.04854115539460796 0 0.33005806417573819 -0.029791516830785351 0 0.3300577463441593 -0.037927886734604219 0 0.33978542704927239 -0.034514944730254779 0 0.33978542704927239 -0.034514944730254779 0 0.33378349612105218 -0.04854115539460796 0 0.34579273532640598 -0.044835322437751859 0 0.33378349612105218 -0.04854115539460796 0 0.34056358843413809 -0.059305518396024728 0 0.34579273532640598 -0.044835322437751859 0 0.32506564663451087 -0.062175727390415728 0 0.33378349612105218 -0.04854115539460796 0 0.34056358843413809 -0.059305518396024728 0 0.34056358843413809 -0.059305518396024728 0 0.34916116467956299 -0.053794456825601231 0 0.35627020275978938 -0.060619507026634781 0 0.34916116467956299 -0.053794456825601231 0 0.35587238325576309 -0.047286778119967877 0 0.34579273532640598 -0.044835322437751859 0 0.34056358843413809 -0.059305518396024728 0 0.34916116467956299 -0.053794456825601231 0 0.34579273532640598 -0.044835322437751859 0 0.35587238325576309 -0.047286778119967877 0 0.35627020275978938 -0.060619507026634781 0 0.36239711358672061 -0.04727003488700366 0 0.34916116467956299 -0.053794456825601231 0 0.35587238325576309 -0.047286778119967877 0 0.35627020275978938 -0.060619507026634781 0 0.33978542704927239 -0.034514944730254779 0 0.3481937725527573 -0.032926241063543922 0 0.34579273532640598 -0.044835322437751859 0 0.3481937725527573 -0.032926241063543922 0 0.34579273532640598 -0.044835322437751859 0 0.35426972277406599 -0.038922135101634607 0 0.35587238325576309 -0.047286778119967877 0 0.35426972277406599 -0.038922135101634607 0 0.36390380479447121 -0.03796756205347996 0 0.35587238325576309 -0.047286778119967877 0 0.34579273532640598 -0.044835322437751859 0 0.35426972277406599 -0.038922135101634607 0 0.35559124272102871 -0.03017918813093997 0 0.3481937725527573 -0.032926241063543922 0 0.35426972277406599 -0.038922135101634607 0 0.35559124272102871 -0.03017918813093997 0 0.35426972277406599 -0.038922135101634607 0 0.36390380479447121 -0.03796756205347996 0 0.36390380479447121 -0.03796756205347996 0 0.37354206353685931 -0.043206292347931448 0 0.36239711358672061 -0.04727003488700366 0 0.35587238325576309 -0.047286778119967877 0 0.36390380479447121 -0.03796756205347996 0 0.36239711358672061 -0.04727003488700366 0 0.36390380479447121 -0.03796756205347996 0 0.37354206353685931 -0.043206292347931448 0 0.37547082732221992 -0.044254642837712403 0 0.37354206353685931 -0.043206292347931448 0 0.36390380479447121 -0.03796756205347996 0 0.37354206353685931 -0.043206292347931448 0 0.37300326549672308 -0.036075847138713382 0 0.37053570903293198 -0.029442744619242438 0 0.36390380479447121 -0.03796756205347996 0 0.37300326549672308 -0.036075847138713382 0 0.37581526355103467 -0.03063422975164154 0 0.37053570903293198 -0.029442744619242438 0 0.37300326549672308 -0.036075847138713382 0 0.35627020275978938 -0.060619507026634781 0 0.37354206353685931 -0.043206292347931448 0 0.36717428205574448 -0.059175378489163967 0 0.35627020275978938 -0.060619507026634781 0 0.37354206353685931 -0.043206292347931448 0 0.35627020275978938 -0.060619507026634781 0 0.37354206353685931 -0.043206292347931448 0 0.36239711358672061 -0.04727003488700366 0 0.37547082732221992 -0.044254642837712403 0 0.37354206353685931 -0.043206292347931448 0 0.36717428205574448 -0.059175378489163967 0 0.37909706308483587 -0.056314844888528427 0 0.37547082732221992 -0.044254642837712403 0 0.36717428205574448 -0.059175378489163967 0 0.37547082732221992 -0.044254642837712403 0 0.36717428205574448 -0.059175378489163967 0 0.37862735479700771 -0.067354832656270153 0 0.37909706308483587 -0.056314844888528427 0 0.36717428205574448 -0.059175378489163967 0 0.36717428205574448 -0.059175378489163967 0 0.37035327860582412 -0.075415065674986681 0 0.35887773678926849 -0.074096114140615288 0 0.37862735479700771 -0.067354832656270153 0 0.36717428205574448 -0.059175378489163967 0 0.37035327860582412 -0.075415065674986681 0 0.35627020275978938 -0.060619507026634781 0 0.36717428205574448 -0.059175378489163967 0 0.35887773678926849 -0.074096114140615288 0 0.36717428205574448 -0.059175378489163967 0 0.35887773678926849 -0.074096114140615288 0 0.37815043740894472 -0.084583127608809455 0 0.37035327860582412 -0.075415065674986681 0 0.36664220709714651 -0.086394837120612966 0 0.37815043740894472 -0.084583127608809455 0 0.36664220709714651 -0.086394837120612966 0 0.37369949284351162 -0.093812405013078276 0 0.36664220709714651 -0.086394837120612966 0 0.37369949284351162 -0.093812405013078276 0 0.36493999534927252 -0.096641073223385027 0 0.36664220709714651 -0.086394837120612966 0 0.3616448355603889 -0.092170281115243016 0 0.35749670830494001 -0.086555007064996428 0 0.36664220709714651 -0.086394837120612966 0 0.3616448355603889 -0.092170281115243016 0 0.36493999534927252 -0.096641073223385027 0 0.37035327860582412 -0.075415065674986681 0 0.36664220709714651 -0.086394837120612966 0 0.35887773678926849 -0.074096114140615288 0 0.36664220709714651 -0.086394837120612966 0 0.35749670830494001 -0.086555007064996428 0 0.35887773678926849 -0.074096114140615288 0 0.35749670830494001 -0.086555007064996428 0 0.34959320818317752 -0.079372941561664093 0 0.35750043149019672 -0.099090207051977658 0 0.35750043149019672 -0.099090207051977658 0 0.33899834198272139 -0.078032721705339786 0 0.35750043149019672 -0.099090207051977658 0 0.33878701840273112 -0.094312116824765771 0 0.33899834198272139 -0.078032721705339786 0 0.35749670830494001 -0.086555007064996428 0 0.34959320818317752 -0.079372941561664093 0 0.35887773678926849 -0.074096114140615288 0 0.34959320818317752 -0.079372941561664093 0 0.35750043149019672 -0.099090207051977658 0 0.33899834198272139 -0.078032721705339786 0 0.3616448355603889 -0.092170281115243016 0 0.35749670830494001 -0.086555007064996428 0 0.35750043149019672 -0.099090207051977658 0 0.35627020275978938 -0.060619507026634781 0 0.34959320818317752 -0.079372941561664093 0 0.33899834198272139 -0.078032721705339786 0 0.35627020275978938 -0.060619507026634781 0 0.33899834198272139 -0.078032721705339786 0 0.35627020275978938 -0.060619507026634781 0 0.34959320818317752 -0.079372941561664093 0 0.35887773678926849 -0.074096114140615288 0 0.34056358843413809 -0.059305518396024728 0 0.35627020275978938 -0.060619507026634781 0 0.33899834198272139 -0.078032721705339786 0 0.37083223527879772 -0.1142633183272949 0 0.3645220312317623 -0.12711866232442429 0 0.38416403906739932 -0.12943642960261181 0 0.37083223527879772 -0.1142633183272949 0 0.35330618538989689 -0.1150346783735349 0 0.3645220312317623 -0.12711866232442429 0 0.37083223527879772 -0.1142633183272949 0 0.35750043149019672 -0.099090207051977658 0 0.35330618538989689 -0.1150346783735349 0 0.37660073223622048 -0.1028698213011737 0 0.37083223527879772 -0.1142633183272949 0 0.36493999534927252 -0.096641073223385027 0 0.37083223527879772 -0.1142633183272949 0 0.36493999534927252 -0.096641073223385027 0 0.35750043149019672 -0.099090207051977658 0 0.37083223527879772 -0.1142633183272949 0 0.35750043149019672 -0.099090207051977658 0 0.37660073223622048 -0.1028698213011737 0 0.37369949284351162 -0.093812405013078276 0 0.36493999534927252 -0.096641073223385027 0 0.36493999534927252 -0.096641073223385027 0 0.35750043149019672 -0.099090207051977658 0 0.3616448355603889 -0.092170281115243016 0 0.36493999534927252 -0.096641073223385027 0 0.35750043149019672 -0.099090207051977658 0 0.35750043149019672 -0.099090207051977658 0 0.33517779536459952 -0.1064389070986628 0 0.33878701840273112 -0.094312116824765771 0 0.35750043149019672 -0.099090207051977658 0 0.33517779536459952 -0.1064389070986628 0 0.35750043149019672 -0.099090207051977658 0 0.35330618538989689 -0.1150346783735349 0 0.33517779536459952 -0.1064389070986628 0 0.34194721545948442 -0.11813474255047859 0 0.34171275992893951 -0.12855883172445051 0 0.35272473646533092 -0.12592332995563141 0 0.35330618538989689 -0.1150346783735349 0 0.34194721545948442 -0.11813474255047859 0 0.35272473646533092 -0.12592332995563141 0 0.35330618538989689 -0.1150346783735349 0 0.35272473646533092 -0.12592332995563141 0 0.3645220312317623 -0.12711866232442429 0 0.35330618538989689 -0.1150346783735349 0 0.34194721545948442 -0.11813474255047859 0 0.33517779536459952 -0.1064389070986628 0 0.34194721545948442 -0.11813474255047859 0 0.32709037834302501 -0.11925294025698301 0 0.34171275992893951 -0.12855883172445051 0 0.34194721545948442 -0.11813474255047859 0 0.33517779536459952 -0.1064389070986628 0 0.32709037834302501 -0.11925294025698301 0 0.33517779536459952 -0.1064389070986628 0 0.33878701840273112 -0.094312116824765771 0 0.32347150477340703 -0.093686631443082868 0 0.31285515923900281 -0.11378760714534961 0 0.32347150477340703 -0.093686631443082868 0 0.30794466756409289 -0.10934054118082601 0 0.32347150477340703 -0.093686631443082868 0 0.30794466756409289 -0.10934054118082601 0 0.33517779536459952 -0.1064389070986628 0 0.31285515923900281 -0.11378760714534961 0 0.32347150477340703 -0.093686631443082868 0 0.33517779536459952 -0.1064389070986628 0 0.31285515923900281 -0.11378760714534961 0 0.32709037834302501 -0.11925294025698301 0 0.33517779536459952 -0.1064389070986628 0 0.31285515923900281 -0.11378760714534961 0 0.31285515923900281 -0.11378760714534961 0 0.31263206581756581 -0.1246184782079808 0 0.32709037834302501 -0.11925294025698301 0 0.32506564663451087 -0.062175727390415728 0 0.34056358843413809 -0.059305518396024728 0 0.33899834198272139 -0.078032721705339786 0 0.32506564663451087 -0.062175727390415728 0 0.33899834198272139 -0.078032721705339786 0 0.33899834198272139 -0.078032721705339786 0 0.32347150477340703 -0.093686631443082868 0 0.33878701840273112 -0.094312116824765771 0 0.33899834198272139 -0.078032721705339786 0 0.32347150477340703 -0.093686631443082868 0 0.33899834198272139 -0.078032721705339786 0 0.32347150477340703 -0.093686631443082868 0 0.3164947429594272 -0.076387574759410146 0 0.32347150477340703 -0.093686631443082868 0 0.3164947429594272 -0.076387574759410146 0 0.30623039874679048 -0.087340288008887934 0 0.32506564663451087 -0.062175727390415728 0 0.33899834198272139 -0.078032721705339786 0 0.3164947429594272 -0.076387574759410146 0 0.32506564663451087 -0.062175727390415728 0 0.3164947429594272 -0.076387574759410146 0 0.31036746154564732 -0.062027684197694027 0 0.3164947429594272 -0.076387574759410146 0 0.29637320172173481 -0.07193385738136876 0 0.31036746154564732 -0.062027684197694027 0 0.29637320172173481 -0.07193385738136876 0 0.31036746154564732 -0.062027684197694027 0 0.30197889413066781 -0.053856732328805217 0 0.3164947429594272 -0.076387574759410146 0 0.30623039874679048 -0.087340288008887934 0 0.29637320172173481 -0.07193385738136876 0 0.30623039874679048 -0.087340288008887934 0 0.29318377961615227 -0.090205640281894983 0 0.29637320172173481 -0.07193385738136876 0 0.32347150477340703 -0.093686631443082868 0 0.30623039874679048 -0.087340288008887934 0 0.30419749820388292 -0.099330126385906409 0 0.30623039874679048 -0.087340288008887934 0 0.29318377961615227 -0.090205640281894983 0 0.30419749820388292 -0.099330126385906409 0 0.28131879187908659 -0.079804578183908709 0 0.29318377961615227 -0.090205640281894983 0 0.27758228432752607 -0.09690403761899688 0 0.28131879187908659 -0.079804578183908709 0 0.29318377961615227 -0.090205640281894983 0 0.29637320172173481 -0.07193385738136876 0 0.28131879187908659 -0.079804578183908709 0 0.29637320172173481 -0.07193385738136876 0 0.272923741657424 -0.057628665127676428 0 0.31285515923900281 -0.11378760714534961 0 0.30030916661130502 -0.1120277604189073 0 0.29053252311340377 -0.12113630719202929 0 0.31285515923900281 -0.11378760714534961 0 0.30689958682404239 -0.1199387678679668 0 0.29053252311340377 -0.12113630719202929 0 0.30395117826758877 -0.12348624817723459 0 0.30689958682404239 -0.1199387678679668 0 0.29053252311340377 -0.12113630719202929 0 0.31285515923900281 -0.11378760714534961 0 0.29053252311340377 -0.12113630719202929 0 0.30395117826758877 -0.12348624817723459 0 0.29053252311340377 -0.12113630719202929 0 0.30287604890511521 -0.12989837909869181 0 0.31263206581756581 -0.1246184782079808 0 0.30395117826758877 -0.12348624817723459 0 0.30689958682404239 -0.1199387678679668 0 0.31285515923900281 -0.11378760714534961 0 0.31263206581756581 -0.1246184782079808 0 0.30689958682404239 -0.1199387678679668 0 0.31285515923900281 -0.11378760714534961 0 0.30030916661130502 -0.1120277604189073 0 0.30794466756409289 -0.10934054118082601 0 0.32347150477340703 -0.093686631443082868 0 0.30794466756409289 -0.10934054118082601 0 0.30419749820388292 -0.099330126385906409 0 0.30142954617030021 -0.10648453790793749 0 0.30419749820388292 -0.099330126385906409 0 0.29326685230191962 -0.1052397236461103 0 0.30030916661130502 -0.1120277604189073 0 0.30142954617030021 -0.10648453790793749 0 0.29326685230191962 -0.1052397236461103 0 0.30142954617030021 -0.10648453790793749 0 0.30794466756409289 -0.10934054118082601 0 0.30419749820388292 -0.099330126385906409 0 0.30030916661130502 -0.1120277604189073 0 0.30142954617030021 -0.10648453790793749 0 0.30794466756409289 -0.10934054118082601 0 0.29318377961615227 -0.090205640281894983 0 0.29326685230191962 -0.1052397236461103 0 0.27758228432752607 -0.09690403761899688 0 0.29053252311340377 -0.12113630719202929 0 0.27758228432752607 -0.09690403761899688 0 0.29326685230191962 -0.1052397236461103 0 0.29053252311340377 -0.12113630719202929 0 0.27758228432752607 -0.09690403761899688 0 0.29318377961615227 -0.090205640281894983 0 0.30419749820388292 -0.099330126385906409 0 0.29326685230191962 -0.1052397236461103 0 0.30030916661130502 -0.1120277604189073 0 0.29326685230191962 -0.1052397236461103 0 0.29053252311340377 -0.12113630719202929 0 0.29053252311340377 -0.12113630719202929 0 0.26621299636361728 -0.1109602703181366 0 0.27758228432752607 -0.09690403761899688 0 0.29053252311340377 -0.12113630719202929 0 0.26779886846306861 -0.1286203161616909 0 0.29053252311340377 -0.12113630719202929 0 0.26621299636361728 -0.1109602703181366 0 0.26779886846306861 -0.1286203161616909 0 0.26621299636361728 -0.1109602703181366 0 0.27758228432752607 -0.09690403761899688 0 0.25961984685612011 -0.093126683285004813 0 0.26621299636361728 -0.1109602703181366 0 0.25961984685612011 -0.093126683285004813 0 0.24897545887496439 -0.10594155461709021 0 0.25961984685612011 -0.093126683285004813 0 0.2417216083416906 -0.088042422810306248 0 0.24897545887496439 -0.10594155461709021 0 0.26621299636361728 -0.1109602703181366 0 0.25319152970752512 -0.1199813278217059 0 0.26779886846306861 -0.1286203161616909 0 0.26621299636361728 -0.1109602703181366 0 0.25319152970752512 -0.1199813278217059 0 0.24897545887496439 -0.10594155461709021 0 0.28131879187908659 -0.079804578183908709 0 0.26463204554164721 -0.072671768045964993 0 0.272923741657424 -0.057628665127676428 0 0.27758228432752607 -0.09690403761899688 0 0.25961984685612011 -0.093126683285004813 0 0.26463204554164721 -0.072671768045964993 0 0.27758228432752607 -0.09690403761899688 0 0.26463204554164721 -0.072671768045964993 0 0.28131879187908659 -0.079804578183908709 0 0.27758228432752607 -0.09690403761899688 0 0.26463204554164721 -0.072671768045964993 0 0.25961984685612011 -0.093126683285004813 0 0.26463204554164721 -0.072671768045964993 0 0.2417216083416906 -0.088042422810306248 0 0.26463204554164721 -0.072671768045964993 0 0.25168180675576829 -0.0484394984729331 0 0.235224419053954 -0.069314274665983888 0 0.26463204554164721 -0.072671768045964993 0 0.25168180675576829 -0.0484394984729331 0 0.272923741657424 -0.057628665127676428 0 0.25168180675576829 -0.0484394984729331 0 0.272923741657424 -0.057628665127676428 0 0.27234608096301699 -0.040461444094301392 0 0.26463204554164721 -0.072671768045964993 0 0.25168180675576829 -0.0484394984729331 0 0.272923741657424 -0.057628665127676428 0 0.27234608096301699 -0.040461444094301392 0 0.28807507437399182 -0.050209357418049057 0 0.27234608096301699 -0.040461444094301392 0 0.27381977251918882 -0.020402067844379441 0 0.28602428649565248 -0.036949082311414909 0 0.25168180675576829 -0.0484394984729331 0 0.27234608096301699 -0.040461444094301392 0 0.25740370346163088 -0.0287705272479407 0 0.25740370346163088 -0.0287705272479407 0 0.25043928910029101 -0.01034239692818836 0 0.27381977251918882 -0.020402067844379441 0 0.25043928910029101 -0.01034239692818836 0 0.27381977251918882 -0.020402067844379441 0 0.25043928910029101 -0.01034239692818836 0 0.26326902946290959 -0.004775168129690267 0 0.27381977251918882 -0.020402067844379441 0 0.25612279108826141 0.002394243423969229 0 0.25043928910029101 -0.01034239692818836 0 0.26326902946290959 -0.004775168129690267 0 0.24637522602358761 0.00088169354209314784 0 0.25612279108826141 0.002394243423969229 0 0.25043928910029101 -0.01034239692818836 0 0.26326902946290959 -0.004775168129690267 0 0.27384820699535511 -0.0038844471402397912 0 0.27381977251918882 -0.020402067844379441 0 0.27384820699535511 -0.0038844471402397912 0 0.27381977251918882 -0.020402067844379441 0 0.28552423146672062 -0.01717309295040545 0 0.26747992533006892 0.0031544748770629999 0 0.26326902946290959 -0.004775168129690267 0 0.27384820699535511 -0.0038844471402397912 0 0.27384820699535511 -0.0038844471402397912 0 0.28552423146672062 -0.01717309295040545 0 0.27878433021538401 0.0042887798269855698 0 0.27384820699535511 -0.0038844471402397912 0 0.28515541689400048 -0.002871929595754245 0 0.27234608096301699 -0.040461444094301392 0 0.25740370346163088 -0.0287705272479407 0 0.27381977251918882 -0.020402067844379441 0 0.27381977251918882 -0.020402067844379441 0 0.29720025593808641 -0.030461738760570831 0 0.27381977251918882 -0.020402067844379441 0 0.28552423146672062 -0.01717309295040545 0 0.29720025593808641 -0.030461738760570831 0 0.28552423146672062 -0.01717309295040545 0 0.30147996767922508 -0.014396542609430119 0 0.29720025593808641 -0.030461738760570831 0 0.27381977251918882 -0.020402067844379441 0 0.29720025593808641 -0.030461738760570831 0 0.28602428649565248 -0.036949082311414909 0 0.28552423146672062 -0.01717309295040545 0 0.29720025593808641 -0.030461738760570831 0 0.28552423146672062 -0.01717309295040545 0 0.29606097689681582 -0.0036238285357404151 0 0.30147996767922508 -0.014396542609430119 0 0.28552423146672062 -0.01717309295040545 0 0.28515541689400048 -0.002871929595754245 0 0.29606097689681582 -0.0036238285357404151 0 0.27384820699535511 -0.0038844471402397912 0 0.28552423146672062 -0.01717309295040545 0 0.28515541689400048 -0.002871929595754245 0 0.29050114513402753 0.0055669712844677597 0 0.28515541689400048 -0.002871929595754245 0 0.29606097689681582 -0.0036238285357404151 0 0.30588981492172601 0.002439841043038488 0 0.29606097689681582 -0.0036238285357404151 0 0.30147996767922508 -0.014396542609430119 0 0.30588981492172601 0.002439841043038488 0 0.31700621093777859 -0.0149785004513105 0 0.30147996767922508 -0.014396542609430119 0 0.31436541653503342 -0.037847209100729758 0 0.29720025593808641 -0.030461738760570831 0 0.3096823084425116 -0.02513066571267741 0 0.30147996767922508 -0.014396542609430119 0 0.29720025593808641 -0.030461738760570831 0 0.3096823084425116 -0.02513066571267741 0 0.31700621093777859 -0.0149785004513105 0 0.30147996767922508 -0.014396542609430119 0 0.3096823084425116 -0.02513066571267741 0 0.31436541653503342 -0.037847209100729758 0 0.29720025593808641 -0.030461738760570831 0 0.31113295128629848 -0.046318733075493397 0 0.31436541653503342 -0.037847209100729758 0 0.29720025593808641 -0.030461738760570831 0 0.29720025593808641 -0.030461738760570831 0 0.31113295128629848 -0.046318733075493397 0 0.29720025593808641 -0.030461738760570831 0 0.29704066664405893 -0.043452287989462067 0 0.31113295128629848 -0.046318733075493397 0 0.31113295128629848 -0.046318733075493397 0 0.31036746154564732 -0.062027684197694027 0 0.30197889413066781 -0.053856732328805217 0 0.29704066664405893 -0.043452287989462067 0 0.31113295128629848 -0.046318733075493397 0 0.30197889413066781 -0.053856732328805217 0 0.29704066664405893 -0.043452287989462067 0 0.30197889413066781 -0.053856732328805217 0 0.28807507437399182 -0.050209357418049057 0 0.29637320172173481 -0.07193385738136876 0 0.272923741657424 -0.057628665127676428 0 0.28807507437399182 -0.050209357418049057 0 0.29637320172173481 -0.07193385738136876 0 0.30197889413066781 -0.053856732328805217 0 0.28807507437399182 -0.050209357418049057 0 0.27234608096301699 -0.040461444094301392 0 0.28807507437399182 -0.050209357418049057 0 0.28602428649565248 -0.036949082311414909 0 0.29720025593808641 -0.030461738760570831 0 0.29704066664405893 -0.043452287989462067 0 0.28602428649565248 -0.036949082311414909 0 0.29704066664405893 -0.043452287989462067 0 0.28807507437399182 -0.050209357418049057 0 0.28602428649565248 -0.036949082311414909 0 0.28312812166476148 -0.21625319370565871 0 0.30316688160309052 -0.21845427707228279 0 0.30077284986598413 -0.20405568166375429 0 0.28312812166476148 -0.21625319370565871 0 0.29134006210115698 -0.19408848385949301 0 0.30077284986598413 -0.20405568166375429 0 0.29134006210115698 -0.19408848385949301 0 0.30086945709688651 -0.18809180106188239 0 0.30077284986598413 -0.20405568166375429 0 0.30086945709688651 -0.18809180106188239 0 0.30077284986598413 -0.20405568166375429 0 0.31393352345355541 -0.19733853709613011 0 0.30086945709688651 -0.18809180106188239 0 0.31256067029280521 -0.18333578159869821 0 0.31393352345355541 -0.19733853709613011 0 0.31214470089965118 -0.20084680944662969 0 0.30077284986598413 -0.20405568166375429 0 0.31393352345355541 -0.19733853709613011 0 0.31214470089965118 -0.20084680944662969 0 0.30316688160309052 -0.21845427707228279 0 0.31214470089965118 -0.20084680944662969 0 0.30316688160309052 -0.21845427707228279 0 0.31591583260612449 -0.21676549703571771 0 0.31214470089965118 -0.20084680944662969 0 0.30316688160309052 -0.21845427707228279 0 0.30077284986598413 -0.20405568166375429 0 0.30316688160309052 -0.21845427707228279 0 0.29240023975262569 -0.23957001704843539 0 0.30316688160309052 -0.21845427707228279 0 0.29240023975262569 -0.23957001704843539 0 0.31589985389236408 -0.23613744592621541 0 0.30316688160309052 -0.21845427707228279 0 0.31591583260612449 -0.21676549703571771 0 0.31589985389236408 -0.23613744592621541 0 0.29240023975262569 -0.23957001704843539 0 0.31589985389236408 -0.23613744592621541 0 0.30476182525195827 -0.25957377036775842 0 0.29240023975262569 -0.23957001704843539 0 0.27143109150891648 -0.2415107638217012 0 0.2816335979021608 -0.26068575702458813 0 0.28312812166476148 -0.21625319370565871 0 0.30316688160309052 -0.21845427707228279 0 0.29240023975262569 -0.23957001704843539 0 0.28312812166476148 -0.21625319370565871 0 0.29240023975262569 -0.23957001704843539 0 0.27143109150891648 -0.2415107638217012 0 0.28312812166476148 -0.21625319370565871 0 0.27143109150891648 -0.2415107638217012 0 0.25704903750092761 -0.21882432125349521 0 0.27143109150891648 -0.2415107638217012 0 0.24526921964682971 -0.24063744974456469 0 0.27143109150891648 -0.2415107638217012 0 0.2594473866772527 -0.25292556575876157 0 0.24526921964682971 -0.24063744974456469 0 0.27143109150891648 -0.2415107638217012 0 0.25704903750092761 -0.21882432125349521 0 0.24526921964682971 -0.24063744974456469 0 0.25704903750092761 -0.21882432125349521 0 0.26577383853197878 -0.19611783256229881 0 0.2402076149628006 -0.19814718126510469 0 0.28312812166476148 -0.21625319370565871 0 0.25704903750092761 -0.21882432125349521 0 0.26577383853197878 -0.19611783256229881 0 0.29134006210115698 -0.19408848385949301 0 0.26577383853197878 -0.19611783256229881 0 0.29134006210115698 -0.19408848385949301 0 0.26577383853197878 -0.19611783256229881 0 0.28418252934652072 -0.1794232442945746 0 0.28312812166476148 -0.21625319370565871 0 0.29134006210115698 -0.19408848385949301 0 0.26577383853197878 -0.19611783256229881 0 0.26577383853197878 -0.19611783256229881 0 0.24996303159379901 -0.183188987894852 0 0.2402076149628006 -0.19814718126510469 0 0.26577383853197878 -0.19611783256229881 0 0.2402076149628006 -0.19814718126510469 0 0.26577383853197878 -0.19611783256229881 0 0.26310009752486901 -0.16998338846823521 0 0.24996303159379901 -0.183188987894852 0 0.26310009752486901 -0.16998338846823521 0 0.24070752816411781 -0.16844925241014941 0 0.24996303159379901 -0.183188987894852 0 0.26310009752486901 -0.16998338846823521 0 0.2490460831933104 -0.15352089187826709 0 0.24070752816411781 -0.16844925241014941 0 0.26310009752486901 -0.16998338846823521 0 0.26496851004081567 -0.14794164194619361 0 0.2490460831933104 -0.15352089187826709 0 0.26310009752486901 -0.16998338846823521 0 0.26496851004081567 -0.14794164194619361 0 0.28487180626890057 -0.159778958761044 0 0.26310009752486901 -0.16998338846823521 0 0.28418252934652072 -0.1794232442945746 0 0.28487180626890057 -0.159778958761044 0 0.26577383853197878 -0.19611783256229881 0 0.26310009752486901 -0.16998338846823521 0 0.28418252934652072 -0.1794232442945746 0 0.26779886846306861 -0.1286203161616909 0 0.2450652138127303 -0.13610432513134399 0 0.25319152970752512 -0.1199813278217059 0 0.26779886846306861 -0.1286203161616909 0 0.2450652138127303 -0.13610432513134399 0 0.26496851004081567 -0.14794164194619361 0 0.26779886846306861 -0.1286203161616909 0 0.2450652138127303 -0.13610432513134399 0 0.26496851004081567 -0.14794164194619361 0 0.2450652138127303 -0.13610432513134399 0 0.2490460831933104 -0.15352089187826709 0 0.26496851004081567 -0.14794164194619361 0 0.2450652138127303 -0.13610432513134399 0 0.26496851004081567 -0.14794164194619361 0 0.28424919640204382 -0.1451839790957932 0 0.28487180626890057 -0.159778958761044 0 0.26496851004081567 -0.14794164194619361 0 0.27782013194212118 -0.1351732077024749 0 0.28424919640204382 -0.1451839790957932 0 0.26496851004081567 -0.14794164194619361 0 0.28487180626890057 -0.159778958761044 0 0.29053252311340377 -0.12113630719202929 0 0.26779886846306861 -0.1286203161616909 0 0.28254002240345499 -0.1256610480603649 0 0.26496851004081567 -0.14794164194619361 0 0.27782013194212118 -0.1351732077024749 0 0.26779886846306861 -0.1286203161616909 0 0.27782013194212118 -0.1351732077024749 0 0.26779886846306861 -0.1286203161616909 0 0.28254002240345499 -0.1256610480603649 0 0.28254002240345499 -0.1256610480603649 0 0.28701265600015952 -0.13639661184581561 0 0.29777883694706048 -0.1346954880790604 0 0.29053252311340377 -0.12113630719202929 0 0.28254002240345499 -0.1256610480603649 0 0.29777883694706048 -0.1346954880790604 0 0.28254002240345499 -0.1256610480603649 0 0.29777883694706048 -0.1346954880790604 0 0.29053252311340377 -0.12113630719202929 0 0.29777883694706048 -0.1346954880790604 0 0.27782013194212118 -0.1351732077024749 0 0.28254002240345499 -0.1256610480603649 0 0.28701265600015952 -0.13639661184581561 0 0.27782013194212118 -0.1351732077024749 0 0.28701265600015952 -0.13639661184581561 0 0.28424919640204382 -0.1451839790957932 0 0.28701265600015952 -0.13639661184581561 0 0.29360384721635308 -0.14217764367733851 0 0.29777883694706048 -0.1346954880790604 0 0.29360384721635308 -0.14217764367733851 0 0.28424919640204382 -0.1451839790957932 0 0.29737412037113919 -0.15275827255002961 0 0.28701265600015952 -0.13639661184581561 0 0.29360384721635308 -0.14217764367733851 0 0.28424919640204382 -0.1451839790957932 0 0.28424919640204382 -0.1451839790957932 0 0.29737412037113919 -0.15275827255002961 0 0.28487180626890057 -0.159778958761044 0 0.29777883694706048 -0.1346954880790604 0 0.32310965583117318 -0.1497130449354819 0 0.29737412037113919 -0.15275827255002961 0 0.30160442636136231 -0.1418538668159938 0 0.3103126940729361 -0.15843285139947541 0 0.30160442636136231 -0.1418538668159938 0 0.29777883694706048 -0.1346954880790604 0 0.32310965583117318 -0.1497130449354819 0 0.30160442636136231 -0.1418538668159938 0 0.3103126940729361 -0.15843285139947541 0 0.32310965583117318 -0.1497130449354819 0 0.29360384721635308 -0.14217764367733851 0 0.29737412037113919 -0.15275827255002961 0 0.30160442636136231 -0.1418538668159938 0 0.29777883694706048 -0.1346954880790604 0 0.31167343167080069 -0.13415813992631301 0 0.32310965583117318 -0.1497130449354819 0 0.29360384721635308 -0.14217764367733851 0 0.30160442636136231 -0.1418538668159938 0 0.29777883694706048 -0.1346954880790604 0 0.29777883694706048 -0.1346954880790604 0 0.31167343167080069 -0.13415813992631301 0 0.30287604890511521 -0.12989837909869181 0 0.30160442636136231 -0.1418538668159938 0 0.29777883694706048 -0.1346954880790604 0 0.31263206581756581 -0.1246184782079808 0 0.30395117826758877 -0.12348624817723459 0 0.30287604890511521 -0.12989837909869181 0 0.31263206581756581 -0.1246184782079808 0 0.31167343167080069 -0.13415813992631301 0 0.30287604890511521 -0.12989837909869181 0 0.29053252311340377 -0.12113630719202929 0 0.29777883694706048 -0.1346954880790604 0 0.30287604890511521 -0.12989837909869181 0 0.30086945709688651 -0.18809180106188239 0 0.28418252934652072 -0.1794232442945746 0 0.30477510249698542 -0.17161627557589451 0 0.29134006210115698 -0.19408848385949301 0 0.30086945709688651 -0.18809180106188239 0 0.28418252934652072 -0.1794232442945746 0 0.28487180626890057 -0.159778958761044 0 0.30477510249698542 -0.17161627557589451 0 0.28418252934652072 -0.1794232442945746 0 0.28487180626890057 -0.159778958761044 0 0.30477510249698542 -0.17161627557589451 0 0.29737412037113919 -0.15275827255002961 0 0.28487180626890057 -0.159778958761044 0 0.30477510249698542 -0.17161627557589451 0 0.29737412037113919 -0.15275827255002961 0 0.30477510249698542 -0.17161627557589451 0 0.3103126940729361 -0.15843285139947541 0 0.30086945709688651 -0.18809180106188239 0 0.30477510249698542 -0.17161627557589451 0 0.31256067029280521 -0.18333578159869821 0 0.31256067029280521 -0.18333578159869821 0 0.32470016530402029 -0.17622279711997729 0 0.31393352345355541 -0.19733853709613011 0 0.32470016530402029 -0.17622279711997729 0 0.31393352345355541 -0.19733853709613011 0 0.30477510249698542 -0.17161627557589451 0 0.31256067029280521 -0.18333578159869821 0 0.32470016530402029 -0.17622279711997729 0 0.30477510249698542 -0.17161627557589451 0 0.3103126940729361 -0.15843285139947541 0 0.32470016530402029 -0.17622279711997729 0 0.3103126940729361 -0.15843285139947541 0 0.32470016530402029 -0.17622279711997729 0 0.32310965583117318 -0.1497130449354819 0 0.32310965583117318 -0.1497130449354819 0 0.34844047471528677 -0.16473060179190141 0 0.32470016530402029 -0.17622279711997729 0 0.32310965583117318 -0.1497130449354819 0 0.34844047471528677 -0.16473060179190141 0 0.32470016530402029 -0.17622279711997729 0 0.33608959819895579 -0.19398910558975241 0 0.32453844635545742 -0.1918879709756626 0 0.32470016530402029 -0.17622279711997729 0 0.34844047471528677 -0.16473060179190141 0 0.33608959819895579 -0.19398910558975241 0 0.32709037834302501 -0.11925294025698301 0 0.32109236995812318 -0.13265975697570359 0 0.33559854085949958 -0.1390988339808982 0 0.31167343167080069 -0.13415813992631301 0 0.32109236995812318 -0.13265975697570359 0 0.32310965583117318 -0.1497130449354819 0 0.32109236995812318 -0.13265975697570359 0 0.32310965583117318 -0.1497130449354819 0 0.33559854085949958 -0.1390988339808982 0 0.31263206581756581 -0.1246184782079808 0 0.32709037834302501 -0.11925294025698301 0 0.32109236995812318 -0.13265975697570359 0 0.31263206581756581 -0.1246184782079808 0 0.31167343167080069 -0.13415813992631301 0 0.32109236995812318 -0.13265975697570359 0 0.32310965583117318 -0.1497130449354819 0 0.33559854085949958 -0.1390988339808982 0 0.34844047471528677 -0.16473060179190141 0 0.32709037834302501 -0.11925294025698301 0 0.33559854085949958 -0.1390988339808982 0 0.34171275992893951 -0.12855883172445051 0 0.33559854085949958 -0.1390988339808982 0 0.34171275992893951 -0.12855883172445051 0 0.35214560638045023 -0.13967782820086919 0 0.35272473646533092 -0.12592332995563141 0 0.35214560638045023 -0.13967782820086919 0 0.3645220312317623 -0.12711866232442429 0 0.34171275992893951 -0.12855883172445051 0 0.35272473646533092 -0.12592332995563141 0 0.35214560638045023 -0.13967782820086919 0 0.35214560638045023 -0.13967782820086919 0 0.37170013598968732 -0.15267947513826091 0 0.34844047471528677 -0.16473060179190141 0 0.33559854085949958 -0.1390988339808982 0 0.35214560638045023 -0.13967782820086919 0 0.34844047471528677 -0.16473060179190141 0 0.37170013598968732 -0.15267947513826091 0 0.3645220312317623 -0.12711866232442429 0 0.38416403906739932 -0.12943642960261181 0 0.35214560638045023 -0.13967782820086919 0 0.37170013598968732 -0.15267947513826091 0 0.3645220312317623 -0.12711866232442429 0 0.37170013598968732 -0.15267947513826091 0 0.3645220312317623 -0.12711866232442429 0 0.34844047471528677 -0.16473060179190141 0 0.36045398808751139 -0.178707247814896 0 0.33608959819895579 -0.19398910558975241 0 0.37170013598968732 -0.15267947513826091 0 0.34844047471528677 -0.16473060179190141 0 0.36045398808751139 -0.178707247814896 0 0.37170013598968732 -0.15267947513826091 0 0.36045398808751139 -0.178707247814896 0 0.37887824074761228 -0.1782402879520974 0 0.36045398808751139 -0.178707247814896 0 0.36339845469548743 -0.19766700368826651 0 0.37887824074761228 -0.1782402879520974 0 0.36339845469548743 -0.19766700368826651 0 0.37173943603492399 -0.22184664825150091 0 0.38605634550553719 -0.20380110076593411 0 0.36339845469548743 -0.19766700368826651 0 0.35023463715948139 -0.21153480860225149 0 0.37173943603492399 -0.22184664825150091 0 0.36339845469548743 -0.19766700368826651 0 0.35023463715948139 -0.21153480860225149 0 0.33608959819895579 -0.19398910558975241 0 0.36045398808751139 -0.178707247814896 0 0.36339845469548743 -0.19766700368826651 0 0.33608959819895579 -0.19398910558975241 0 0.33608959819895579 -0.19398910558975241 0 0.33081612086022028 -0.21506687218071119 0 0.32343049846529831 -0.20000144409679069 0 0.35023463715948139 -0.21153480860225149 0 0.33608959819895579 -0.19398910558975241 0 0.33081612086022028 -0.21506687218071119 0 0.35023463715948139 -0.21153480860225149 0 0.33081612086022028 -0.21506687218071119 0 0.34912957600781958 -0.2291044133010266 0 0.31214470089965118 -0.20084680944662969 0 0.33081612086022028 -0.21506687218071119 0 0.32343049846529831 -0.20000144409679069 0 0.31214470089965118 -0.20084680944662969 0 0.33081612086022028 -0.21506687218071119 0 0.31214470089965118 -0.20084680944662969 0 0.33081612086022028 -0.21506687218071119 0 0.31591583260612449 -0.21676549703571771 0 0.31214470089965118 -0.20084680944662969 0 0.31393352345355541 -0.19733853709613011 0 0.32343049846529831 -0.20000144409679069 0 0.32470016530402029 -0.17622279711997729 0 0.31393352345355541 -0.19733853709613011 0 0.32453844635545742 -0.1918879709756626 0 0.31214470089965118 -0.20084680944662969 0 0.31393352345355541 -0.19733853709613011 0 0.33608959819895579 -0.19398910558975241 0 0.32453844635545742 -0.1918879709756626 0 0.32343049846529831 -0.20000144409679069 0 0.31393352345355541 -0.19733853709613011 0 0.32453844635545742 -0.1918879709756626 0 0.32343049846529831 -0.20000144409679069 0 0.31589985389236408 -0.23613744592621541 0 0.33567366894457662 -0.240294157883194 0 0.32718197596664278 -0.26536067425496052 0 0.33081612086022028 -0.21506687218071119 0 0.31591583260612449 -0.21676549703571771 0 0.31589985389236408 -0.23613744592621541 0 0.33081612086022028 -0.21506687218071119 0 0.31589985389236408 -0.23613744592621541 0 0.33567366894457662 -0.240294157883194 0 0.33081612086022028 -0.21506687218071119 0 0.34912957600781958 -0.2291044133010266 0 0.33081612086022028 -0.21506687218071119 0 0.33567366894457662 -0.240294157883194 0 0.34912957600781958 -0.2291044133010266 0 0.34912957600781958 -0.2291044133010266 0 0.36744303115541888 -0.24314195442134201 0 0.33567366894457662 -0.240294157883194 0 0.34912957600781958 -0.2291044133010266 0 0.34704615863022192 -0.2537686885145734 0 0.34912957600781958 -0.2291044133010266 0 0.36744303115541888 -0.24314195442134201 0 0.34704615863022192 -0.2537686885145734 0 0.35023463715948139 -0.21153480860225149 0 0.34912957600781958 -0.2291044133010266 0 0.37173943603492399 -0.22184664825150091 0 0.34912957600781958 -0.2291044133010266 0 0.37173943603492399 -0.22184664825150091 0 0.36744303115541888 -0.24314195442134201 0 0.37173943603492399 -0.22184664825150091 0 0.36744303115541888 -0.24314195442134201 0 0.3859251326645482 -0.24096032397227021 0 0.36744303115541888 -0.24314195442134201 0 0.3859251326645482 -0.24096032397227021 0 0.38575648630301818 -0.25717949554165742 0 0.3859251326645482 -0.24096032397227021 0 0.40248009157848758 -0.22926916540829639 0 0.40220661825089221 -0.25336435623855441 0 0.37173943603492399 -0.22184664825150091 0 0.3859251326645482 -0.24096032397227021 0 0.40248009157848758 -0.22926916540829639 0 0.37173943603492399 -0.22184664825150091 0 0.40248009157848758 -0.22926916540829639 0 0.38605634550553719 -0.20380110076593411 0 0.36339845469548743 -0.19766700368826651 0 0.38605634550553719 -0.20380110076593411 0 0.37887824074761228 -0.1782402879520974 0 0.38605634550553719 -0.20380110076593411 0 0.39961796455389331 -0.1922674143806947 0 0.37887824074761228 -0.1782402879520974 0 0.38605634550553719 -0.20380110076593411 0 0.37887824074761228 -0.1782402879520974 0 0.38605634550553719 -0.20380110076593411 0 0.39961796455389331 -0.1922674143806947 0 0.40448450924811252 -0.20946869000050361 0 0.40248009157848758 -0.22926916540829639 0 0.38605634550553719 -0.20380110076593411 0 0.40448450924811252 -0.20946869000050361 0 0.40248009157848758 -0.22926916540829639 0 0.40448450924811252 -0.20946869000050361 0 0.42388064247197399 -0.20731116846063979 0 0.39961796455389331 -0.1922674143806947 0 0.40448450924811252 -0.20946869000050361 0 0.41578607552086178 -0.188920369687675 0 0.40448450924811252 -0.20946869000050361 0 0.41578607552086178 -0.188920369687675 0 0.42388064247197399 -0.20731116846063979 0 0.42388064247197399 -0.20731116846063979 0 0.43721407627090397 -0.18203099945244519 0 0.44625851268894562 -0.19647480572808149 0 0.42388064247197399 -0.20731116846063979 0 0.43721407627090397 -0.18203099945244519 0 0.41578607552086178 -0.188920369687675 0 0.42388064247197399 -0.20731116846063979 0 0.43721407627090397 -0.18203099945244519 0 0.42388064247197399 -0.20731116846063979 0 0.43322622938527078 -0.2337405811247521 0 0.45016668601619553 -0.2153112061130312 0 0.43322622938527078 -0.2337405811247521 0 0.43897716117048308 -0.26301066855777683 0 0.42261833832217532 -0.25235314954125387 0 0.40248009157848758 -0.22926916540829639 0 0.43322622938527078 -0.2337405811247521 0 0.42261833832217532 -0.25235314954125387 0 0.40248009157848758 -0.22926916540829639 0 0.40220661825089221 -0.25336435623855441 0 0.42261833832217532 -0.25235314954125387 0 0.40248009157848758 -0.22926916540829639 0 0.42388064247197399 -0.20731116846063979 0 0.43322622938527078 -0.2337405811247521 0 0.38416403906739932 -0.12943642960261181 0 0.39829717305439399 -0.14779067191054759 0 0.4072697773528508 -0.12796357876984479 0 0.37170013598968732 -0.15267947513826091 0 0.38416403906739932 -0.12943642960261181 0 0.39829717305439399 -0.14779067191054759 0 0.37170013598968732 -0.15267947513826091 0 0.39829717305439399 -0.14779067191054759 0 0.38689677415827028 -0.16220018603426861 0 0.39829717305439399 -0.14779067191054759 0 0.39997651196716433 -0.17446812010821799 0 0.41817912145060121 -0.15759178914500699 0 0.39829717305439399 -0.14779067191054759 0 0.38689677415827028 -0.16220018603426861 0 0.39997651196716433 -0.17446812010821799 0 0.37170013598968732 -0.15267947513826091 0 0.37887824074761228 -0.1782402879520974 0 0.37170013598968732 -0.15267947513826091 0 0.38689677415827028 -0.16220018603426861 0 0.37887824074761228 -0.1782402879520974 0 0.38689677415827028 -0.16220018603426861 0 0.37887824074761228 -0.1782402879520974 0 0.39997651196716433 -0.17446812010821799 0 0.39961796455389331 -0.1922674143806947 0 0.37887824074761228 -0.1782402879520974 0 0.39997651196716433 -0.17446812010821799 0 0.39961796455389331 -0.1922674143806947 0 0.41578607552086178 -0.188920369687675 0 0.39997651196716433 -0.17446812010821799 0 0.41578607552086178 -0.188920369687675 0 0.39997651196716433 -0.17446812010821799 0 0.42321421476540533 -0.1744532979865821 0 0.41578607552086178 -0.188920369687675 0 0.43721407627090397 -0.18203099945244519 0 0.42321421476540533 -0.1744532979865821 0 0.43721407627090397 -0.18203099945244519 0 0.42321421476540533 -0.1744532979865821 0 0.43429149948128171 -0.16460633216066839 0 0.42321421476540533 -0.1744532979865821 0 0.43429149948128171 -0.16460633216066839 0 0.41817912145060121 -0.15759178914500699 0 0.43429149948128171 -0.16460633216066839 0 0.41817912145060121 -0.15759178914500699 0 0.43880420531040198 -0.15285019324733179 0 0.39997651196716433 -0.17446812010821799 0 0.41817912145060121 -0.15759178914500699 0 0.39997651196716433 -0.17446812010821799 0 0.42321421476540533 -0.1744532979865821 0 0.41817912145060121 -0.15759178914500699 0 0.39829717305439399 -0.14779067191054759 0 0.41817912145060121 -0.15759178914500699 0 0.41709132993653492 -0.1404117952622424 0 0.41817912145060121 -0.15759178914500699 0 0.43638173093403798 -0.14071545818179609 0 0.43880420531040198 -0.15285019324733179 0 0.41817912145060121 -0.15759178914500699 0 0.43638173093403798 -0.14071545818179609 0 0.41817912145060121 -0.15759178914500699 0 0.43638173093403798 -0.14071545818179609 0 0.41709132993653492 -0.1404117952622424 0 0.43638173093403798 -0.14071545818179609 0 0.42532884689079092 -0.12799747830401659 0 0.41709132993653492 -0.1404117952622424 0 0.44036752807406149 -0.124174720653648 0 0.43638173093403798 -0.14071545818179609 0 0.42532884689079092 -0.12799747830401659 0 0.39829717305439399 -0.14779067191054759 0 0.41709132993653492 -0.1404117952622424 0 0.4072697773528508 -0.12796357876984479 0 0.42532884689079092 -0.12799747830401659 0 0.41709132993653492 -0.1404117952622424 0 0.4072697773528508 -0.12796357876984479 0 0.4545843404174752 -0.1238391272185856 0 0.45256592524365469 -0.140294978831418 0 0.4545843404174752 -0.1238391272185856 0 0.45959864987757848 -0.1272507255884725 0 0.45256592524365469 -0.140294978831418 0 0.46379947626071633 -0.1316251238897044 0 0.46376177257197598 -0.14887432349026031 0 0.47206486252468172 -0.14102213766414601 0 0.46693628525757808 -0.1229235944934005 0 0.46379947626071633 -0.1316251238897044 0 0.47402246665898218 -0.12784694419781251 0 0.46693628525757808 -0.1229235944934005 0 0.46196153120451999 -0.1240358528360395 0 0.46379947626071633 -0.1316251238897044 0 0.46196153120451999 -0.1240358528360395 0 0.46379947626071633 -0.1316251238897044 0 0.45959864987757848 -0.1272507255884725 0 0.46379947626071633 -0.1316251238897044 0 0.45959864987757848 -0.1272507255884725 0 0.45256592524365469 -0.140294978831418 0 0.4545843404174752 -0.1238391272185856 0 0.43638173093403798 -0.14071545818179609 0 0.45256592524365469 -0.140294978831418 0 0.44036752807406149 -0.124174720653648 0 0.4545843404174752 -0.1238391272185856 0 0.43638173093403798 -0.14071545818179609 0 0.4545843404174752 -0.1238391272185856 0 0.43638173093403798 -0.14071545818179609 0 0.45256592524365469 -0.140294978831418 0 0.45054751006983368 -0.15675083044425039 0 0.43638173093403798 -0.14071545818179609 0 0.45256592524365469 -0.140294978831418 0 0.43880420531040198 -0.15285019324733179 0 0.45256592524365469 -0.140294978831418 0 0.43880420531040198 -0.15285019324733179 0 0.45054751006983368 -0.15675083044425039 0 0.46379947626071633 -0.1316251238897044 0 0.45054751006983368 -0.15675083044425039 0 0.46379947626071633 -0.1316251238897044 0 0.45256592524365469 -0.140294978831418 0 0.45054751006983368 -0.15675083044425039 0 0.46376177257197598 -0.14887432349026031 0 0.46266460570117529 -0.16193061886067439 0 0.45054751006983368 -0.15675083044425039 0 0.46379947626071633 -0.1316251238897044 0 0.46376177257197598 -0.14887432349026031 0 0.45054751006983368 -0.15675083044425039 0 0.46376177257197598 -0.14887432349026031 0 0.46266460570117529 -0.16193061886067439 0 0.47308974458770431 -0.1525826316726222 0 0.46266460570117529 -0.16193061886067439 0 0.45883862055006108 -0.17134585948566169 0 0.46929781148266431 -0.1744956853771846 0 0.46266460570117529 -0.16193061886067439 0 0.46929781148266431 -0.1744956853771846 0 0.47260847541826012 -0.1634147616176013 0 0.46266460570117529 -0.16193061886067439 0 0.45883862055006108 -0.17134585948566169 0 0.44923723215256411 -0.16743333980001029 0 0.46266460570117529 -0.16193061886067439 0 0.45054751006983368 -0.15675083044425039 0 0.44923723215256411 -0.16743333980001029 0 0.45054751006983368 -0.15675083044425039 0 0.44923723215256411 -0.16743333980001029 0 0.43429149948128171 -0.16460633216066839 0 0.43880420531040198 -0.15285019324733179 0 0.45054751006983368 -0.15675083044425039 0 0.43721407627090397 -0.18203099945244519 0 0.45054751006983368 -0.15675083044425039 0 0.43721407627090397 -0.18203099945244519 0 0.43429149948128171 -0.16460633216066839 0 0.45054751006983368 -0.15675083044425039 0 0.43721407627090397 -0.18203099945244519 0 0.45054751006983368 -0.15675083044425039 0 0.44923723215256411 -0.16743333980001029 0 0.43721407627090397 -0.18203099945244519 0 0.45415483286384078 -0.18152379390477771 0 0.44625851268894562 -0.19647480572808149 0 0.43721407627090397 -0.18203099945244519 0 0.44923723215256411 -0.16743333980001029 0 0.45415483286384078 -0.18152379390477771 0 0.45415483286384078 -0.18152379390477771 0 0.46929781148266431 -0.1744956853771846 0 0.46587632582181399 -0.19619686070951331 0 0.45883862055006108 -0.17134585948566169 0 0.44923723215256411 -0.16743333980001029 0 0.45415483286384078 -0.18152379390477771 0 0.45883862055006108 -0.17134585948566169 0 0.45415483286384078 -0.18152379390477771 0 0.46929781148266431 -0.1744956853771846 0 0.48402172884681732 -0.18181991527000299 0 0.46929781148266431 -0.1744956853771846 0 0.46587632582181399 -0.19619686070951331 0 0.48402172884681732 -0.18181991527000299 0 0.46929781148266431 -0.1744956853771846 0 0.48387434757441022 -0.16515523042799299 0 0.48402172884681732 -0.18181991527000299 0 0.5 -0.1613682481342035 0 0.5 -0.19053872094894389 0 0.5 -0.1613682481342035 0 0.48387434757441022 -0.16515523042799299 0 0.48388315841141921 -0.15004577608733319 0 0.48402172884681732 -0.18181991527000299 0 0.5 -0.1613682481342035 0 0.48387434757441022 -0.16515523042799299 0 0.46929781148266431 -0.1744956853771846 0 0.48387434757441022 -0.16515523042799299 0 0.47260847541826012 -0.1634147616176013 0 0.46266460570117529 -0.16193061886067439 0 0.47260847541826012 -0.1634147616176013 0 0.47308974458770431 -0.1525826316726222 0 0.48387434757441022 -0.16515523042799299 0 0.47260847541826012 -0.1634147616176013 0 0.47308974458770431 -0.1525826316726222 0 0.47308974458770431 -0.1525826316726222 0 0.47206486252468172 -0.14102213766414601 0 0.48388315841141921 -0.15004577608733319 0 0.46376177257197598 -0.14887432349026031 0 0.47308974458770431 -0.1525826316726222 0 0.47206486252468172 -0.14102213766414601 0 0.47206486252468172 -0.14102213766414601 0 0.48388315841141921 -0.15004577608733319 0 0.48019697080732898 -0.13679568695371949 0 0.48387434757441022 -0.16515523042799299 0 0.47308974458770431 -0.1525826316726222 0 0.48388315841141921 -0.15004577608733319 0 0.5 -0.1613682481342035 0 0.48388315841141921 -0.15004577608733319 0 0.4940730249743896 -0.1433507216713153 0 0.5 -0.1613682481342035 0 0.4940730249743896 -0.1433507216713153 0 0.5 -0.13219777531946311 0 0.48388315841141921 -0.15004577608733319 0 0.4940730249743896 -0.1433507216713153 0 0.48019697080732898 -0.13679568695371949 0 0.48457862702696852 -0.1208743639486619 0 0.4940730249743896 -0.1433507216713153 0 0.48457862702696852 -0.1208743639486619 0 0.4940730249743896 -0.1433507216713153 0 0.5 -0.13219777531946311 0 0.48457862702696852 -0.1208743639486619 0 0.4940730249743896 -0.1433507216713153 0 0.48019697080732898 -0.13679568695371949 0 0.48457862702696852 -0.1208743639486619 0 0.48019697080732898 -0.13679568695371949 0 0.47402246665898218 -0.12784694419781251 0 0.46379947626071633 -0.1316251238897044 0 0.47206486252468172 -0.14102213766414601 0 0.47402246665898218 -0.12784694419781251 0 0.47206486252468172 -0.14102213766414601 0 0.48019697080732898 -0.13679568695371949 0 0.47402246665898218 -0.12784694419781251 0 0.45842887216400441 -0.23971464764598449 0 0.45016668601619553 -0.2153112061130312 0 0.47419973680132521 -0.21939882590554829 0 0.43322622938527078 -0.2337405811247521 0 0.45842887216400441 -0.23971464764598449 0 0.43897716117048308 -0.26301066855777683 0 0.43322622938527078 -0.2337405811247521 0 0.45842887216400441 -0.23971464764598449 0 0.45016668601619553 -0.2153112061130312 0 0.42388064247197399 -0.20731116846063979 0 0.45016668601619553 -0.2153112061130312 0 0.44625851268894562 -0.19647480572808149 0 0.45016668601619553 -0.2153112061130312 0 0.44625851268894562 -0.19647480572808149 0 0.46587632582181399 -0.19619686070951331 0 0.45415483286384078 -0.18152379390477771 0 0.44625851268894562 -0.19647480572808149 0 0.46587632582181399 -0.19619686070951331 0 0.45016668601619553 -0.2153112061130312 0 0.46587632582181399 -0.19619686070951331 0 0.47419973680132521 -0.21939882590554829 0 0.46587632582181399 -0.19619686070951331 0 0.4850818882020157 -0.20316474602217979 0 0.47419973680132521 -0.21939882590554829 0 0.48402172884681732 -0.18181991527000299 0 0.46587632582181399 -0.19619686070951331 0 0.4850818882020157 -0.20316474602217979 0 0.48402172884681732 -0.18181991527000299 0 0.5 -0.19053872094894389 0 0.4850818882020157 -0.20316474602217979 0 0.5 -0.19053872094894389 0 0.4850818882020157 -0.20316474602217979 0 0.5 -0.2197091937636842 0 0.4850818882020157 -0.20316474602217979 0 0.5 -0.2197091937636842 0 0.47419973680132521 -0.21939882590554829 0 0.5 -0.2197091937636842 0 0.47419973680132521 -0.21939882590554829 0 0.48229726631115932 -0.2371760859088112 0 0.45842887216400441 -0.23971464764598449 0 0.47419973680132521 -0.21939882590554829 0 0.48229726631115932 -0.2371760859088112 0 0.45842887216400441 -0.23971464764598449 0 0.48229726631115932 -0.2371760859088112 0 0.47885772259046661 -0.25817809565041472 0 0.5 -0.2197091937636842 0 0.48229726631115932 -0.2371760859088112 0 0.5 -0.2488796665784245 0 0.48229726631115932 -0.2371760859088112 0 0.5 -0.2488796665784245 0 0.47885772259046661 -0.25817809565041472 0 0.5 -0.2488796665784245 0 0.49999999999999872 -0.27805013939316492 0 0.47885772259046661 -0.25817809565041472 0 0.49999999999999872 -0.27805013939316492 0 0.47303326206656549 -0.27962620973078561 0 0.49999999999999872 -0.27805013939316492 0 0.47303326206656549 -0.27962620973078561 0 0.47885772259046661 -0.25817809565041472 0 0.47303326206656549 -0.27962620973078561 0 0.47885772259046661 -0.25817809565041472 0 0.45936534916764232 -0.26447454082894117 0 0.45842887216400441 -0.23971464764598449 0 0.47885772259046661 -0.25817809565041472 0 0.45936534916764232 -0.26447454082894117 0 0.47303326206656549 -0.27962620973078561 0 0.45936534916764232 -0.26447454082894117 0 0.44606652413313241 -0.28120228006840631 0 0.47303326206656549 -0.27962620973078561 0 0.44606652413313241 -0.28120228006840631 0 0.45936534916764232 -0.26447454082894117 0 0.44606652413313241 -0.28120228006840631 0 0.43897716117048308 -0.26301066855777683 0 0.45842887216400441 -0.23971464764598449 0 0.45936534916764232 -0.26447454082894117 0 0.43897716117048308 -0.26301066855777683 0 0.44113296603686519 -0.29751323667061502 0 0.44893265244590419 -0.31448345842003989 0 0.42911397646561511 -0.30837151532587381 0 0.44113296603686519 -0.29751323667061502 0 0.45873850458667959 -0.29620831054673269 0 0.44893265244590419 -0.31448345842003989 0 0.44606652413313241 -0.28120228006840631 0 0.44113296603686519 -0.29751323667061502 0 0.45873850458667959 -0.29620831054673269 0 0.47303326206656549 -0.27962620973078561 0 0.44606652413313241 -0.28120228006840631 0 0.45873850458667959 -0.29620831054673269 0 0.45873850458667959 -0.29620831054673269 0 0.46371716571889882 -0.31074562291920549 0 0.44893265244590419 -0.31448345842003989 0 0.45873850458667959 -0.29620831054673269 0 0.46371716571889882 -0.31074562291920549 0 0.47936925229334088 -0.30925787688942119 0 0.45873850458667959 -0.29620831054673269 0 0.47936925229334088 -0.30925787688942119 0 0.45873850458667959 -0.29620831054673269 0 0.47936925229334088 -0.30925787688942119 0 0.4843915806396133 -0.29269074767369169 0 0.47303326206656549 -0.27962620973078561 0 0.45873850458667959 -0.29620831054673269 0 0.4843915806396133 -0.29269074767369169 0 0.49999999999999872 -0.27805013939316492 0 0.47303326206656549 -0.27962620973078561 0 0.4843915806396133 -0.29269074767369169 0 0.49999999999999872 -0.27805013939316492 0 0.4843915806396133 -0.29269074767369169 0 0.5 -0.30017879131263769 0 0.47936925229334088 -0.30925787688942119 0 0.4843915806396133 -0.29269074767369169 0 0.5 -0.30017879131263769 0 0.47936925229334088 -0.30925787688942119 0 0.5 -0.30017879131263769 0 0.50000000000000178 -0.32230744323211052 0 0.50000000000000178 -0.32230744323211052 0 0.48246276500133828 -0.35299407453115328 0 0.5 -0.38718678963051117 0 0.47936925229334088 -0.30925787688942119 0 0.50000000000000178 -0.32230744323211052 0 0.47868124085481661 -0.33004704259879292 0 0.47936925229334088 -0.30925787688942119 0 0.50000000000000178 -0.32230744323211052 0 0.50000000000000178 -0.32230744323211052 0 0.47868124085481661 -0.33004704259879292 0 0.48246276500133828 -0.35299407453115328 0 0.47868124085481661 -0.33004704259879292 0 0.48246276500133828 -0.35299407453115328 0 0.46374593342973269 -0.34264297252065101 0 0.47868124085481661 -0.33004704259879292 0 0.46782825354967061 -0.32303284582062858 0 0.46374593342973269 -0.34264297252065101 0 0.47936925229334088 -0.30925787688942119 0 0.47868124085481661 -0.33004704259879292 0 0.46782825354967061 -0.32303284582062858 0 0.46371716571889882 -0.31074562291920549 0 0.47936925229334088 -0.30925787688942119 0 0.46782825354967061 -0.32303284582062858 0 0.48246276500133828 -0.35299407453115328 0 0.5 -0.38718678963051117 0 0.46403374170748879 -0.38323310035397351 0 0.48246276500133828 -0.35299407453115328 0 0.45302466098171401 -0.36330264189320338 0 0.46403374170748879 -0.38323310035397351 0 0.45302466098171401 -0.36330264189320338 0 0.44400200054878131 -0.37388719447789343 0 0.46403374170748879 -0.38323310035397351 0 0.48246276500133828 -0.35299407453115328 0 0.45302466098171401 -0.36330264189320338 0 0.46374593342973269 -0.34264297252065101 0 0.44941780113002461 -0.34966970776142348 0 0.45302466098171401 -0.36330264189320338 0 0.46374593342973269 -0.34264297252065101 0 0.44941780113002461 -0.34966970776142348 0 0.44452580122755192 -0.33644342075465489 0 0.43712400494357367 -0.35657831879094332 0 0.44941780113002461 -0.34966970776142348 0 0.45302466098171401 -0.36330264189320338 0 0.43712400494357367 -0.35657831879094332 0 0.45302466098171401 -0.36330264189320338 0 0.43712400494357367 -0.35657831879094332 0 0.45302466098171401 -0.36330264189320338 0 0.44400200054878131 -0.37388719447789343 0 0.43712400494357367 -0.35657831879094332 0 0.46371716571889882 -0.31074562291920549 0 0.46782825354967061 -0.32303284582062858 0 0.44893265244590419 -0.31448345842003989 0 0.46782825354967061 -0.32303284582062858 0 0.44452580122755192 -0.33644342075465489 0 0.44893265244590419 -0.31448345842003989 0 0.46782825354967061 -0.32303284582062858 0 0.44452580122755192 -0.33644342075465489 0 0.46782825354967061 -0.32303284582062858 0 0.46374593342973269 -0.34264297252065101 0 0.44452580122755192 -0.33644342075465489 0 0.44941780113002461 -0.34966970776142348 0 0.46374593342973269 -0.34264297252065101 0 0.44452580122755192 -0.33644342075465489 0 0.44893265244590419 -0.31448345842003989 0 0.43560637983272182 -0.32170033352030208 0 0.42911397646561511 -0.30837151532587381 0 0.44452580122755192 -0.33644342075465489 0 0.44893265244590419 -0.31448345842003989 0 0.43560637983272182 -0.32170033352030208 0 0.43560637983272182 -0.32170033352030208 0 0.41985308919181591 -0.32750293958063997 0 0.42911397646561511 -0.30837151532587381 0 0.44452580122755192 -0.33644342075465489 0 0.41985308919181591 -0.32750293958063997 0 0.42122334890543378 -0.34985399568868247 0 0.44452580122755192 -0.33644342075465489 0 0.42122334890543378 -0.34985399568868247 0 0.44452580122755192 -0.33644342075465489 0 0.43560637983272182 -0.32170033352030208 0 0.41985308919181591 -0.32750293958063997 0 0.41985308919181591 -0.32750293958063997 0 0.42122334890543378 -0.34985399568868247 0 0.40201658922389583 -0.34173153473258627 0 0.41985308919181591 -0.32750293958063997 0 0.39721644750754859 -0.31841697498793159 0 0.40201658922389583 -0.34173153473258627 0 0.41985308919181591 -0.32750293958063997 0 0.42911397646561511 -0.30837151532587381 0 0.41279967254661482 -0.30799295903981089 0 0.41985308919181591 -0.32750293958063997 0 0.39721644750754859 -0.31841697498793159 0 0.41279967254661482 -0.30799295903981089 0 0.42245978649298099 -0.36342501769900282 0 0.4312668279380758 -0.37476687698253752 0 0.43712400494357367 -0.35657831879094332 0 0.42245978649298099 -0.36342501769900282 0 0.4312668279380758 -0.37476687698253752 0 0.41801362277382481 -0.37980015093191222 0 0.44400200054878131 -0.37388719447789343 0 0.4312668279380758 -0.37476687698253752 0 0.43712400494357367 -0.35657831879094332 0 0.42245978649298099 -0.36342501769900282 0 0.43712400494357367 -0.35657831879094332 0 0.42122334890543378 -0.34985399568868247 0 0.43712400494357367 -0.35657831879094332 0 0.42122334890543378 -0.34985399568868247 0 0.44452580122755192 -0.33644342075465489 0 0.43712400494357367 -0.35657831879094332 0 0.42122334890543378 -0.34985399568868247 0 0.42122334890543378 -0.34985399568868247 0 0.40394883971288309 -0.35979548582769721 0 0.40201658922389583 -0.34173153473258627 0 0.42122334890543378 -0.34985399568868247 0 0.40201658922389583 -0.34173153473258627 0 0.42245978649298099 -0.36342501769900282 0 0.42122334890543378 -0.34985399568868247 0 0.40394883971288309 -0.35979548582769721 0 0.42122334890543378 -0.34985399568868247 0 0.40394883971288309 -0.35979548582769721 0 0.42245978649298099 -0.36342501769900282 0 0.41184873499587837 -0.36958165421369182 0 0.41801362277382481 -0.37980015093191222 0 0.42245978649298099 -0.36342501769900282 0 0.41184873499587837 -0.36958165421369182 0 0.40394883971288309 -0.35979548582769721 0 0.41184873499587837 -0.36958165421369182 0 0.40394883971288309 -0.35979548582769721 0 0.41184873499587837 -0.36958165421369182 0 0.40131679309654927 -0.36907442298859439 0 0.40588071922485902 -0.37585083043731699 0 0.40131679309654927 -0.36907442298859439 0 0.40394883971288309 -0.35979548582769721 0 0.38075929691825522 -0.37314108126264328 0 0.40131679309654927 -0.36907442298859439 0 0.38075929691825522 -0.37314108126264328 0 0.39648117338784822 -0.3752339274408254 0 0.40394883971288309 -0.35979548582769721 0 0.38075929691825522 -0.37314108126264328 0 0.40394883971288309 -0.35979548582769721 0 0.38761221196339912 -0.35807010630989589 0 0.38075929691825522 -0.37314108126264328 0 0.40131679309654927 -0.36907442298859439 0 0.40588071922485902 -0.37585083043731699 0 0.39648117338784822 -0.3752339274408254 0 0.41184873499587837 -0.36958165421369182 0 0.40131679309654927 -0.36907442298859439 0 0.40394883971288309 -0.35979548582769721 0 0.40394883971288309 -0.35979548582769721 0 0.39337933462761959 -0.34670227980209412 0 0.40201658922389583 -0.34173153473258627 0 0.40394883971288309 -0.35979548582769721 0 0.39337933462761959 -0.34670227980209412 0 0.38761221196339912 -0.35807010630989589 0 0.40394883971288309 -0.35979548582769721 0 0.39337933462761959 -0.34670227980209412 0 0.39337933462761959 -0.34670227980209412 0 0.38761221196339912 -0.35807010630989589 0 0.3746690352680444 -0.35036594953474198 0 0.38075929691825522 -0.37314108126264328 0 0.3746690352680444 -0.35036594953474198 0 0.38761221196339912 -0.35807010630989589 0 0.38075929691825522 -0.37314108126264328 0 0.3746690352680444 -0.35036594953474198 0 0.40201658922389583 -0.34173153473258627 0 0.38280982954235809 -0.33360907377648952 0 0.39721644750754859 -0.31841697498793159 0 0.40201658922389583 -0.34173153473258627 0 0.38280982954235809 -0.33360907377648952 0 0.39337933462761959 -0.34670227980209412 0 0.40201658922389583 -0.34173153473258627 0 0.38280982954235809 -0.33360907377648952 0 0.39337933462761959 -0.34670227980209412 0 0.38280982954235809 -0.33360907377648952 0 0.3746690352680444 -0.35036594953474198 0 0.38280982954235809 -0.33360907377648952 0 0.36857877361783298 -0.32759081780684068 0 0.3746690352680444 -0.35036594953474198 0 0.39337933462761959 -0.34670227980209412 0 0.38280982954235809 -0.33360907377648952 0 0.38280982954235809 -0.33360907377648952 0 0.36857877361783298 -0.32759081780684068 0 0.39721644750754859 -0.31841697498793159 0 0.38064121864366218 -0.31536543698069558 0 0.38478486503811832 -0.30392655108923311 0 0.39721644750754859 -0.31841697498793159 0 0.38280982954235809 -0.33360907377648952 0 0.38064121864366218 -0.31536543698069558 0 0.38280982954235809 -0.33360907377648952 0 0.38064121864366218 -0.31536543698069558 0 0.36404478450140298 -0.31036346304836071 0 0.38478486503811832 -0.30392655108923311 0 0.37519233250025458 -0.28742322934635028 0 0.37333747175387211 -0.30073574079472498 0 0.38064121864366218 -0.31536543698069558 0 0.38478486503811832 -0.30392655108923311 0 0.37333747175387211 -0.30073574079472498 0 0.39721644750754859 -0.31841697498793159 0 0.38478486503811832 -0.30392655108923311 0 0.3975368547852538 -0.29769137333646262 0 0.39721644750754859 -0.31841697498793159 0 0.3975368547852538 -0.29769137333646262 0 0.41279967254661482 -0.30799295903981089 0 0.3975368547852538 -0.29769137333646262 0 0.38809507931481452 -0.28070585993704988 0 0.39959209080275671 -0.27397924900749038 0 0.3975368547852538 -0.29769137333646262 0 0.37519233250025458 -0.28742322934635028 0 0.3975368547852538 -0.29769137333646262 0 0.37815027749241431 -0.28549680323647331 0 0.37519233250025458 -0.28742322934635028 0 0.38478486503811832 -0.30392655108923311 0 0.3975368547852538 -0.29769137333646262 0 0.37519233250025458 -0.28742322934635028 0 0.3975368547852538 -0.29769137333646262 0 0.37815027749241431 -0.28549680323647331 0 0.38809507931481452 -0.28070585993704988 0 0.37815027749241431 -0.28549680323647331 0 0.38144471256600609 -0.27961829355502937 0 0.38809507931481452 -0.28070585993704988 0 0.37815027749241431 -0.28549680323647331 0 0.37519233250025458 -0.28742322934635028 0 0.37689862621175851 -0.2792746807397844 0 0.37815027749241431 -0.28549680323647331 0 0.37519233250025458 -0.28742322934635028 0 0.37815027749241431 -0.28549680323647331 0 0.37689862621175851 -0.2792746807397844 0 0.38144471256600609 -0.27961829355502937 0 0.38216534951540931 -0.27139508523828659 0 0.38575648630301818 -0.25717949554165742 0 0.36754045898470822 -0.27243999232278249 0 0.38216534951540931 -0.27139508523828659 0 0.38575648630301818 -0.25717949554165742 0 0.39959209080275671 -0.27397924900749038 0 0.37689862621175851 -0.2792746807397844 0 0.38216534951540931 -0.27139508523828659 0 0.36754045898470822 -0.27243999232278249 0 0.38216534951540931 -0.27139508523828659 0 0.38809507931481452 -0.28070585993704988 0 0.39959209080275671 -0.27397924900749038 0 0.37689862621175851 -0.2792746807397844 0 0.38144471256600609 -0.27961829355502937 0 0.38216534951540931 -0.27139508523828659 0 0.38144471256600609 -0.27961829355502937 0 0.38216534951540931 -0.27139508523828659 0 0.38809507931481452 -0.28070585993704988 0 0.36744303115541888 -0.24314195442134201 0 0.38575648630301818 -0.25717949554165742 0 0.3859251326645482 -0.24096032397227021 0 0.38575648630301818 -0.25717949554165742 0 0.40220661825089221 -0.25336435623855441 0 0.38575648630301818 -0.25717949554165742 0 0.40220661825089221 -0.25336435623855441 0 0.39959209080275671 -0.27397924900749038 0 0.39959209080275671 -0.27397924900749038 0 0.41754548191359109 -0.2674614199230661 0 0.42281317255299439 -0.28730061899202208 0 0.40220661825089221 -0.25336435623855441 0 0.41754548191359109 -0.2674614199230661 0 0.42261833832217532 -0.25235314954125387 0 0.40220661825089221 -0.25336435623855441 0 0.39959209080275671 -0.27397924900749038 0 0.41754548191359109 -0.2674614199230661 0 0.43897716117048308 -0.26301066855777683 0 0.41754548191359109 -0.2674614199230661 0 0.42261833832217532 -0.25235314954125387 0 0.43897716117048308 -0.26301066855777683 0 0.41754548191359109 -0.2674614199230661 0 0.42281317255299439 -0.28730061899202208 0 0.44606652413313241 -0.28120228006840631 0 0.43897716117048308 -0.26301066855777683 0 0.42281317255299439 -0.28730061899202208 0 0.44606652413313241 -0.28120228006840631 0 0.44113296603686519 -0.29751323667061502 0 0.42281317255299439 -0.28730061899202208 0 0.44113296603686519 -0.29751323667061502 0 0.42281317255299439 -0.28730061899202208 0 0.42911397646561511 -0.30837151532587381 0 0.3975368547852538 -0.29769137333646262 0 0.42281317255299439 -0.28730061899202208 0 0.41279967254661482 -0.30799295903981089 0 0.42281317255299439 -0.28730061899202208 0 0.42911397646561511 -0.30837151532587381 0 0.41279967254661482 -0.30799295903981089 0 0.3975368547852538 -0.29769137333646262 0 0.39959209080275671 -0.27397924900749038 0 0.42281317255299439 -0.28730061899202208 0 0.5 -0.5 0 0.47981055076334328 -0.45914924072773428 0 0.5 -0.43584139244379438 0 0.44990320948981349 -0.5 0 0.44652158285945748 -0.47288874860322427 0 0.42039094905436802 -0.47159507155143171 0 0.44990320948981349 -0.5 0 0.44652158285945748 -0.47288874860322427 0 0.4707446317673557 -0.47905568818606042 0 0.44652158285945748 -0.47288874860322427 0 0.4707446317673557 -0.47905568818606042 0 0.45602241983646252 -0.45558283402644489 0 0.44990320948981349 -0.5 0 0.5 -0.5 0 0.4707446317673557 -0.47905568818606042 0 0.5 -0.5 0 0.4707446317673557 -0.47905568818606042 0 0.47981055076334328 -0.45914924072773428 0 0.47981055076334328 -0.45914924072773428 0 0.46717463679221127 -0.43273802970993469 0 0.5 -0.43584139244379438 0 0.4707446317673557 -0.47905568818606042 0 0.47981055076334328 -0.45914924072773428 0 0.45602241983646252 -0.45558283402644489 0 0.47981055076334328 -0.45914924072773428 0 0.45602241983646252 -0.45558283402644489 0 0.46717463679221127 -0.43273802970993469 0 0.45602241983646252 -0.45558283402644489 0 0.44130020790556918 -0.43210997986682947 0 0.46717463679221127 -0.43273802970993469 0 0.4707446317673557 -0.47905568818606042 0 0.45602241983646252 -0.45558283402644489 0 0.44652158285945748 -0.47288874860322427 0 0.45602241983646252 -0.45558283402644489 0 0.43554670414928781 -0.45821014925218401 0 0.45602241983646252 -0.45558283402644489 0 0.44130020790556918 -0.43210997986682947 0 0.45602241983646252 -0.45558283402644489 0 0.44130020790556918 -0.43210997986682947 0 0.43554670414928781 -0.45821014925218401 0 0.44130020790556918 -0.43210997986682947 0 0.45041889235077032 -0.40934695193714982 0 0.46717463679221127 -0.43273802970993469 0 0.44130020790556918 -0.43210997986682947 0 0.45041889235077032 -0.40934695193714982 0 0.42657799597467588 -0.40863712570721389 0 0.45041889235077032 -0.40934695193714982 0 0.46717463679221127 -0.43273802970993469 0 0.47632545417009409 -0.40966925281507272 0 0.46717463679221127 -0.43273802970993469 0 0.5 -0.43584139244379438 0 0.47632545417009409 -0.40966925281507272 0 0.5 -0.43584139244379438 0 0.47632545417009409 -0.40966925281507272 0 0.5 -0.38718678963051117 0 0.47632545417009409 -0.40966925281507272 0 0.5 -0.38718678963051117 0 0.46403374170748879 -0.38323310035397351 0 0.45041889235077032 -0.40934695193714982 0 0.46403374170748879 -0.38323310035397351 0 0.44538765588303908 -0.38778040038646672 0 0.45041889235077032 -0.40934695193714982 0 0.47632545417009409 -0.40966925281507272 0 0.46403374170748879 -0.38323310035397351 0 0.45041889235077032 -0.40934695193714982 0 0.44538765588303908 -0.38778040038646672 0 0.43140380744026707 -0.39401105211451881 0 0.44400200054878131 -0.37388719447789343 0 0.46403374170748879 -0.38323310035397351 0 0.44538765588303908 -0.38778040038646672 0 0.44400200054878131 -0.37388719447789343 0 0.4312668279380758 -0.37476687698253752 0 0.44538765588303908 -0.38778040038646672 0 0.4312668279380758 -0.37476687698253752 0 0.44538765588303908 -0.38778040038646672 0 0.43140380744026707 -0.39401105211451881 0 0.4312668279380758 -0.37476687698253752 0 0.43140380744026707 -0.39401105211451881 0 0.41801362277382481 -0.37980015093191222 0 0.43140380744026707 -0.39401105211451881 0 0.41737739010887109 -0.39498091355836729 0 0.41801362277382481 -0.37980015093191222 0 0.45041889235077032 -0.40934695193714982 0 0.43140380744026707 -0.39401105211451881 0 0.42657799597467588 -0.40863712570721389 0 0.43140380744026707 -0.39401105211451881 0 0.41737739010887109 -0.39498091355836729 0 0.42657799597467588 -0.40863712570721389 0 0.41737739010887109 -0.39498091355836729 0 0.40099236020556078 -0.39698410333219508 0 0.40410751787597571 -0.41012567492382312 0 0.41737739010887109 -0.39498091355836729 0 0.40563683398417499 -0.38493023838088192 0 0.40099236020556078 -0.39698410333219508 0 0.41737739010887109 -0.39498091355836729 0 0.41801362277382481 -0.37980015093191222 0 0.40563683398417499 -0.38493023838088192 0 0.41184873499587837 -0.36958165421369182 0 0.41801362277382481 -0.37980015093191222 0 0.40588071922485902 -0.37585083043731699 0 0.41801362277382481 -0.37980015093191222 0 0.40588071922485902 -0.37585083043731699 0 0.40563683398417499 -0.38493023838088192 0 0.40588071922485902 -0.37585083043731699 0 0.40563683398417499 -0.38493023838088192 0 0.39648117338784822 -0.3752339274408254 0 0.40563683398417499 -0.38493023838088192 0 0.39820213520511122 -0.38919008131289867 0 0.40099236020556078 -0.39698410333219508 0 0.40563683398417499 -0.38493023838088192 0 0.39820213520511122 -0.38919008131289867 0 0.39264387179431859 -0.38276145317610988 0 0.39820213520511122 -0.38919008131289867 0 0.39264387179431859 -0.38276145317610988 0 0.39053878301854172 -0.39291323196607558 0 0.40563683398417499 -0.38493023838088192 0 0.39648117338784822 -0.3752339274408254 0 0.39264387179431859 -0.38276145317610988 0 0.39648117338784822 -0.3752339274408254 0 0.39264387179431859 -0.38276145317610988 0 0.38837632626436341 -0.37874475610368291 0 0.39264387179431859 -0.38276145317610988 0 0.38837632626436341 -0.37874475610368291 0 0.3836209629570318 -0.38384256253515259 0 0.38075929691825522 -0.37314108126264328 0 0.38837632626436341 -0.37874475610368291 0 0.3836209629570318 -0.38384256253515259 0 0.38075929691825522 -0.37314108126264328 0 0.39648117338784822 -0.3752339274408254 0 0.38837632626436341 -0.37874475610368291 0 0.39264387179431859 -0.38276145317610988 0 0.38699733470268632 -0.38659968513638998 0 0.3836209629570318 -0.38384256253515259 0 0.38699733470268632 -0.38659968513638998 0 0.38118572104085269 -0.3868814928682216 0 0.39053878301854172 -0.39291323196607558 0 0.39264387179431859 -0.38276145317610988 0 0.38699733470268632 -0.38659968513638998 0 0.39053878301854172 -0.39291323196607558 0 0.38699733470268632 -0.38659968513638998 0 0.3836209629570318 -0.38384256253515259 0 0.38118572104085269 -0.3868814928682216 0 0.38075929691825522 -0.37314108126264328 0 0.3836209629570318 -0.38384256253515259 0 0.38118572104085269 -0.3868814928682216 0 0.38075929691825522 -0.37314108126264328 0 0.3836209629570318 -0.38384256253515259 0 0.38118572104085269 -0.3868814928682216 0 0.38415242553389539 -0.41337303409949899 0 0.37224484264380842 -0.39773967704345942 0 0.38118572104085269 -0.3868814928682216 0 0.39053878301854172 -0.39291323196607558 0 0.38415242553389539 -0.41337303409949899 0 0.38118572104085269 -0.3868814928682216 0 0.38415242553389539 -0.41337303409949899 0 0.39053878301854172 -0.39291323196607558 0 0.40099236020556078 -0.39698410333219508 0 0.38415242553389539 -0.41337303409949899 0 0.39820213520511122 -0.38919008131289867 0 0.39053878301854172 -0.39291323196607558 0 0.40099236020556078 -0.39698410333219508 0 0.40099236020556078 -0.39698410333219508 0 0.40410751787597571 -0.41012567492382312 0 0.38415242553389539 -0.41337303409949899 0 0.40410751787597571 -0.41012567492382312 0 0.38415242553389539 -0.41337303409949899 0 0.40107315963134538 -0.42757473459414791 0 0.38415242553389539 -0.41337303409949899 0 0.38711913002693821 -0.43986457533077672 0 0.36964639770883467 -0.43152355928672459 0 0.38415242553389539 -0.41337303409949899 0 0.38711913002693821 -0.43986457533077672 0 0.38415242553389539 -0.41337303409949899 0 0.40107315963134538 -0.42757473459414791 0 0.38711913002693821 -0.43986457533077672 0 0.40107315963134538 -0.42757473459414791 0 0.41838190975737011 -0.42051896622272211 0 0.41938642940586912 -0.44605701888707677 0 0.41838190975737011 -0.42051896622272211 0 0.41938642940586912 -0.44605701888707677 0 0.40410751787597571 -0.41012567492382312 0 0.40107315963134538 -0.42757473459414791 0 0.41838190975737011 -0.42051896622272211 0 0.41737739010887109 -0.39498091355836729 0 0.41838190975737011 -0.42051896622272211 0 0.41737739010887109 -0.39498091355836729 0 0.41838190975737011 -0.42051896622272211 0 0.42657799597467588 -0.40863712570721389 0 0.41737739010887109 -0.39498091355836729 0 0.40410751787597571 -0.41012567492382312 0 0.41838190975737011 -0.42051896622272211 0 0.44130020790556918 -0.43210997986682947 0 0.42657799597467588 -0.40863712570721389 0 0.44130020790556918 -0.43210997986682947 0 0.41838190975737011 -0.42051896622272211 0 0.42657799597467588 -0.40863712570721389 0 0.44130020790556918 -0.43210997986682947 0 0.41838190975737011 -0.42051896622272211 0 0.41938642940586912 -0.44605701888707677 0 0.44990320948981349 -0.5 0 0.40324169843890822 -0.482491290103225 0 0.38355723912334772 -0.50000000000000355 0 0.44130020790556918 -0.43210997986682947 0 0.43554670414928781 -0.45821014925218401 0 0.41938642940586912 -0.44605701888707677 0 0.43554670414928781 -0.45821014925218401 0 0.41938642940586912 -0.44605701888707677 0 0.42039094905436802 -0.47159507155143171 0 0.44652158285945748 -0.47288874860322427 0 0.43554670414928781 -0.45821014925218401 0 0.42039094905436802 -0.47159507155143171 0 0.41938642940586912 -0.44605701888707677 0 0.40232271569584932 -0.45115838103892092 0 0.42039094905436802 -0.47159507155143171 0 0.41938642940586912 -0.44605701888707677 0 0.42039094905436802 -0.47159507155143171 0 0.40107315963134538 -0.42757473459414791 0 0.41938642940586912 -0.44605701888707677 0 0.40232271569584932 -0.45115838103892092 0 0.40107315963134538 -0.42757473459414791 0 0.40232271569584932 -0.45115838103892092 0 0.38711913002693821 -0.43986457533077672 0 0.40232271569584932 -0.45115838103892092 0 0.38711913002693821 -0.43986457533077672 0 0.39008583451998091 -0.46635611656205422 0 0.38711913002693821 -0.43986457533077672 0 0.37365738185297809 -0.44379120506177788 0 0.36964639770883467 -0.43152355928672459 0 0.38711913002693821 -0.43986457533077672 0 0.39008583451998091 -0.46635611656205422 0 0.38711913002693821 -0.43986457533077672 0 0.376878718785425 -0.45476616082433668 0 0.37365738185297809 -0.44379120506177788 0 0.38711913002693821 -0.43986457533077672 0 0.39008583451998091 -0.46635611656205422 0 0.376878718785425 -0.45476616082433668 0 0.39008583451998091 -0.46635611656205422 0 0.376878718785425 -0.45476616082433668 0 0.37227126000703048 -0.47450526240263913 0 0.40232271569584932 -0.45115838103892092 0 0.39008583451998091 -0.46635611656205422 0 0.42039094905436802 -0.47159507155143171 0 0.39008583451998091 -0.46635611656205422 0 0.40324169843890822 -0.482491290103225 0 0.42039094905436802 -0.47159507155143171 0 0.39008583451998091 -0.46635611656205422 0 0.40324169843890822 -0.482491290103225 0 0.37227126000703048 -0.47450526240263913 0 0.38355723912334772 -0.50000000000000355 0 0.37227126000703048 -0.47450526240263913 0 0.40324169843890822 -0.482491290103225 0 0.38355723912334772 -0.50000000000000355 0 0.37227126000703048 -0.47450526240263913 0 0.44990320948981349 -0.5 0 0.40324169843890822 -0.482491290103225 0 0.42039094905436802 -0.47159507155143171 0 0.32437280247586381 -0.48822277930022018 0 0.31581425375088418 -0.49816091645046218 0 0.31487957854472071 -0.47506475079335259 0 0.31581425375088418 -0.49816091645046218 0 0.31487957854472071 -0.47506475079335259 0 0.32437280247586381 -0.48822277930022018 0 0.32212381714565891 -0.5 0 0.33482594849438663 -0.48973557597787498 0 0.32437280247586381 -0.48822277930022018 0 0.32212381714565891 -0.5 0 0.31581425375088418 -0.49816091645046218 0 0.31487957854472071 -0.47506475079335259 0 0.33220265572777652 -0.47820034934429573 0 0.33154148844814069 -0.46326284894539582 0 0.32437280247586381 -0.48822277930022018 0 0.31487957854472071 -0.47506475079335259 0 0.33220265572777652 -0.47820034934429573 0 0.33220265572777652 -0.47820034934429573 0 0.33482594849438663 -0.48973557597787498 0 0.3478332917462324 -0.47817474095902918 0 0.33220265572777652 -0.47820034934429573 0 0.3478332917462324 -0.47817474095902918 0 0.33154148844814069 -0.46326284894539582 0 0.32212381714565891 -0.5 0 0.33482594849438663 -0.48973557597787498 0 0.34491287275735721 -0.49999999999999939 0 0.33482594849438663 -0.48973557597787498 0 0.34491287275735721 -0.49999999999999939 0 0.3478332917462324 -0.47817474095902918 0 0.32437280247586381 -0.48822277930022018 0 0.33220265572777652 -0.47820034934429573 0 0.33482594849438663 -0.48973557597787498 0 0.34491287275735721 -0.49999999999999939 0 0.36136483292322918 -0.48508136014698028 0 0.3478332917462324 -0.47817474095902918 0 0.34491287275735721 -0.49999999999999939 0 0.3478332917462324 -0.47817474095902918 0 0.34491287275735721 -0.49999999999999939 0 0.36423505594035238 -0.5 0 0.36136483292322918 -0.48508136014698028 0 0.38355723912334772 -0.50000000000000355 0 0.36423505594035238 -0.5 0 0.36136483292322918 -0.48508136014698028 0 0.38355723912334772 -0.50000000000000355 0 0.36136483292322918 -0.48508136014698028 0 0.37227126000703048 -0.47450526240263913 0 0.36136483292322918 -0.48508136014698028 0 0.37227126000703048 -0.47450526240263913 0 0.3478332917462324 -0.47817474095902918 0 0.37227126000703048 -0.47450526240263913 0 0.3478332917462324 -0.47817474095902918 0 0.35075371073510758 -0.45634948191805902 0 0.3478332917462324 -0.47817474095902918 0 0.35075371073510758 -0.45634948191805902 0 0.37227126000703048 -0.47450526240263913 0 0.36098528089071452 -0.44901052480527393 0 0.376878718785425 -0.45476616082433668 0 0.37227126000703048 -0.47450526240263913 0 0.36098528089071452 -0.44901052480527393 0 0.37227126000703048 -0.47450526240263913 0 0.35075371073510758 -0.45634948191805902 0 0.36098528089071452 -0.44901052480527393 0 0.37365738185297809 -0.44379120506177788 0 0.36098528089071452 -0.44901052480527393 0 0.36964639770883467 -0.43152355928672459 0 0.36098528089071452 -0.44901052480527393 0 0.35442529987269661 -0.43419169579855721 0 0.36964639770883467 -0.43152355928672459 0 0.376878718785425 -0.45476616082433668 0 0.37365738185297809 -0.44379120506177788 0 0.36098528089071452 -0.44901052480527393 0 0.35075371073510758 -0.45634948191805902 0 0.343116764060588 -0.44414501554252811 0 0.35442529987269661 -0.43419169579855721 0 0.36098528089071452 -0.44901052480527393 0 0.35442529987269661 -0.43419169579855721 0 0.35075371073510758 -0.45634948191805902 0 0.36098528089071452 -0.44901052480527393 0 0.35442529987269661 -0.43419169579855721 0 0.35075371073510758 -0.45634948191805902 0 0.35442529987269661 -0.43419169579855721 0 0.35075371073510758 -0.45634948191805902 0 0.343116764060588 -0.44414501554252811 0 0.33908156657363819 -0.45237216078945769 0 0.3308655236991076 -0.44288772908962792 0 0.33908156657363819 -0.45237216078945769 0 0.33154148844814069 -0.46326284894539582 0 0.343116764060588 -0.44414501554252811 0 0.3308655236991076 -0.44288772908962792 0 0.34117840247634801 -0.43281425324951928 0 0.343116764060588 -0.44414501554252811 0 0.3308655236991076 -0.44288772908962792 0 0.33908156657363819 -0.45237216078945769 0 0.3478332917462324 -0.47817474095902918 0 0.35075371073510758 -0.45634948191805902 0 0.33154148844814069 -0.46326284894539582 0 0.35075371073510758 -0.45634948191805902 0 0.33908156657363819 -0.45237216078945769 0 0.33154148844814069 -0.46326284894539582 0 0.31487957854472071 -0.47506475079335259 0 0.31394490333855718 -0.45196858513624288 0 0.31487957854472071 -0.47506475079335259 0 0.33154148844814069 -0.46326284894539582 0 0.31394490333855718 -0.45196858513624288 0 0.3308655236991076 -0.44288772908962792 0 0.33154148844814069 -0.46326284894539582 0 0.31394490333855718 -0.45196858513624288 0 0.3308655236991076 -0.44288772908962792 0 0.31394490333855718 -0.45196858513624288 0 0.31301022813239371 -0.42887241947913318 0 0.31394490333855718 -0.45196858513624288 0 0.31301022813239371 -0.42887241947913318 0 0.3308655236991076 -0.44288772908962792 0 0.31301022813239371 -0.42887241947913318 0 0.33087372194442682 -0.42198124874312609 0 0.31301022813239371 -0.42887241947913318 0 0.33087372194442682 -0.42198124874312609 0 0.31207555292623013 -0.40577625382202348 0 0.33087372194442682 -0.42198124874312609 0 0.33841332265808272 -0.39802104961054391 0 0.31207555292623013 -0.40577625382202348 0 0.31301022813239371 -0.42887241947913318 0 0.31207555292623013 -0.40577625382202348 0 0.33087372194442682 -0.42198124874312609 0 0.34969930177439862 -0.42351578720790889 0 0.33841332265808272 -0.39802104961054391 0 0.3308655236991076 -0.44288772908962792 0 0.33087372194442682 -0.42198124874312609 0 0.34117840247634801 -0.43281425324951928 0 0.33087372194442682 -0.42198124874312609 0 0.34117840247634801 -0.43281425324951928 0 0.34969930177439862 -0.42351578720790889 0 0.343116764060588 -0.44414501554252811 0 0.34117840247634801 -0.43281425324951928 0 0.35442529987269661 -0.43419169579855721 0 0.34969930177439862 -0.42351578720790889 0 0.35442529987269661 -0.43419169579855721 0 0.36964639770883467 -0.43152355928672459 0 0.34117840247634801 -0.43281425324951928 0 0.34969930177439862 -0.42351578720790889 0 0.35442529987269661 -0.43419169579855721 0 0.34969930177439862 -0.42351578720790889 0 0.35442529987269661 -0.43419169579855721 0 0.34969930177439862 -0.42351578720790889 0 0.36964639770883467 -0.43152355928672459 0 0.36524993203417527 -0.41882378958633598 0 0.38415242553389539 -0.41337303409949899 0 0.36524993203417527 -0.41882378958633598 0 0.36271723910289139 -0.40614786627982918 0 0.38415242553389539 -0.41337303409949899 0 0.36964639770883467 -0.43152355928672459 0 0.36524993203417527 -0.41882378958633598 0 0.34969930177439862 -0.42351578720790889 0 0.33841332265808272 -0.39802104961054391 0 0.34969930177439862 -0.42351578720790889 0 0.36271723910289139 -0.40614786627982918 0 0.33841332265808272 -0.39802104961054391 0 0.34969930177439862 -0.42351578720790889 0 0.36524993203417527 -0.41882378958633598 0 0.36271723910289139 -0.40614786627982918 0 0.36271723910289139 -0.40614786627982918 0 0.36092398489759381 -0.38455631492628772 0 0.33841332265808272 -0.39802104961054391 0 0.38415242553389539 -0.41337303409949899 0 0.37224484264380842 -0.39773967704345942 0 0.36271723910289139 -0.40614786627982918 0 0.37224484264380842 -0.39773967704345942 0 0.36271723910289139 -0.40614786627982918 0 0.36092398489759381 -0.38455631492628772 0 0.38118572104085269 -0.3868814928682216 0 0.37224484264380842 -0.39773967704345942 0 0.36092398489759381 -0.38455631492628772 0 0.38075929691825522 -0.37314108126264328 0 0.36092398489759381 -0.38455631492628772 0 0.36473034313665248 -0.36968874496257642 0 0.38075929691825522 -0.37314108126264328 0 0.36092398489759381 -0.38455631492628772 0 0.38075929691825522 -0.37314108126264328 0 0.38118572104085269 -0.3868814928682216 0 0.36092398489759381 -0.38455631492628772 0 0.36092398489759381 -0.38455631492628772 0 0.34548730561691099 -0.37591428766200302 0 0.33841332265808272 -0.39802104961054391 0 0.36092398489759381 -0.38455631492628772 0 0.34548730561691099 -0.37591428766200302 0 0.36473034313665248 -0.36968874496257642 0 0.34548730561691099 -0.37591428766200302 0 0.33841332265808272 -0.39802104961054391 0 0.32712734354176659 -0.37252631201317882 0 0.33841332265808272 -0.39802104961054391 0 0.32712734354176659 -0.37252631201317882 0 0.33841332265808272 -0.39802104961054391 0 0.3105824067190644 -0.38506848706742891 0 0.31207555292623013 -0.40577625382202348 0 0.33841332265808272 -0.39802104961054391 0 0.3105824067190644 -0.38506848706742891 0 0.32712734354176659 -0.37252631201317882 0 0.3105824067190644 -0.38506848706742891 0 0.32712734354176659 -0.37252631201317882 0 0.29668884470463269 -0.36964091356704343 0 0.3105824067190644 -0.38506848706742891 0 0.31207555292623013 -0.40577625382202348 0 0.28200432926146463 -0.39470565903980231 0 0.28200432926146463 -0.39470565903980231 0 0.29668884470463269 -0.36964091356704343 0 0.27572585523170928 -0.37408705933719461 0 0.3105824067190644 -0.38506848706742891 0 0.28200432926146463 -0.39470565903980231 0 0.29668884470463269 -0.36964091356704343 0 0.28200432926146463 -0.39470565903980231 0 0.29668884470463269 -0.36964091356704343 0 0.28200432926146463 -0.39470565903980231 0 0.2659212665642271 -0.38814992128129527 0 0.27572585523170928 -0.37408705933719461 0 0.2659212665642271 -0.38814992128129527 0 0.27572585523170928 -0.37408705933719461 0 0.26134499116997428 -0.3713958081505585 0 0.28200432926146463 -0.39470565903980231 0 0.2659212665642271 -0.38814992128129527 0 0.2673198138182965 -0.41977040451256109 0 0.2659212665642271 -0.38814992128129527 0 0.25186898246318867 -0.39708843324282372 0 0.2673198138182965 -0.41977040451256109 0 0.2659212665642271 -0.38814992128129527 0 0.25186898246318867 -0.39708843324282372 0 0.24446699196463481 -0.3787350506051812 0 0.2659212665642271 -0.38814992128129527 0 0.26134499116997428 -0.3713958081505585 0 0.24446699196463481 -0.3787350506051812 0 0.28200432926146463 -0.39470565903980231 0 0.2673198138182965 -0.41977040451256109 0 0.28200432926146463 -0.39470565903980231 0 0.2673198138182965 -0.41977040451256109 0 0.29190894056088412 -0.42206220661327598 0 0.25186898246318867 -0.39708843324282372 0 0.2673198138182965 -0.41977040451256109 0 0.2436958264271526 -0.408051313151996 0 0.2673198138182965 -0.41977040451256109 0 0.2436958264271526 -0.408051313151996 0 0.2419996013455222 -0.42165693498934059 0 0.2673198138182965 -0.41977040451256109 0 0.24827358551642789 -0.43362636784661318 0 0.2419996013455222 -0.42165693498934059 0 0.2673198138182965 -0.41977040451256109 0 0.26526205694459892 -0.4412652080535821 0 0.25263529837512833 -0.44483514998531992 0 0.2673198138182965 -0.41977040451256109 0 0.25263529837512833 -0.44483514998531992 0 0.2673198138182965 -0.41977040451256109 0 0.25263529837512833 -0.44483514998531992 0 0.24827358551642789 -0.43362636784661318 0 0.2673198138182965 -0.41977040451256109 0 0.27932920946223988 -0.44100502997337732 0 0.26526205694459892 -0.4412652080535821 0 0.2673198138182965 -0.41977040451256109 0 0.29190894056088412 -0.42206220661327598 0 0.27932920946223988 -0.44100502997337732 0 0.29190894056088412 -0.42206220661327598 0 0.29785977271704128 -0.44040336910804651 0 0.27932920946223988 -0.44100502997337732 0 0.31207555292623013 -0.40577625382202348 0 0.28200432926146463 -0.39470565903980231 0 0.29190894056088412 -0.42206220661327598 0 0.31301022813239371 -0.42887241947913318 0 0.31207555292623013 -0.40577625382202348 0 0.29190894056088412 -0.42206220661327598 0 0.31301022813239371 -0.42887241947913318 0 0.29190894056088412 -0.42206220661327598 0 0.29785977271704128 -0.44040336910804651 0 0.31394490333855718 -0.45196858513624288 0 0.29785977271704128 -0.44040336910804651 0 0.29110558209113202 -0.45810860433820288 0 0.31394490333855718 -0.45196858513624288 0 0.31301022813239371 -0.42887241947913318 0 0.29785977271704128 -0.44040336910804651 0 0.31487957854472071 -0.47506475079335259 0 0.31394490333855718 -0.45196858513624288 0 0.30243233700083472 -0.46787792090096147 0 0.31394490333855718 -0.45196858513624288 0 0.30243233700083472 -0.46787792090096147 0 0.29110558209113202 -0.45810860433820288 0 0.30243233700083472 -0.46787792090096147 0 0.29110558209113202 -0.45810860433820288 0 0.2918468391647423 -0.477727203414332 0 0.29110558209113202 -0.45810860433820288 0 0.27799989806913389 -0.45560728956315533 0 0.27506589031477507 -0.4691427592466334 0 0.29110558209113202 -0.45810860433820288 0 0.27506589031477507 -0.4691427592466334 0 0.2918468391647423 -0.477727203414332 0 0.29785977271704128 -0.44040336910804651 0 0.29110558209113202 -0.45810860433820288 0 0.27932920946223988 -0.44100502997337732 0 0.29110558209113202 -0.45810860433820288 0 0.27932920946223988 -0.44100502997337732 0 0.27799989806913389 -0.45560728956315533 0 0.27932920946223988 -0.44100502997337732 0 0.26649891040838858 -0.4541727646944077 0 0.27799989806913389 -0.45560728956315533 0 0.27932920946223988 -0.44100502997337732 0 0.26526205694459892 -0.4412652080535821 0 0.26649891040838858 -0.4541727646944077 0 0.26526205694459892 -0.4412652080535821 0 0.25976530489853772 -0.44905536405345658 0 0.25263529837512833 -0.44483514998531992 0 0.25976530489853772 -0.44905536405345658 0 0.25466495386603472 -0.45594833348051678 0 0.26649891040838858 -0.4541727646944077 0 0.26526205694459892 -0.4412652080535821 0 0.25976530489853772 -0.44905536405345658 0 0.26649891040838858 -0.4541727646944077 0 0.25976530489853772 -0.44905536405345658 0 0.25263529837512833 -0.44483514998531992 0 0.25466495386603472 -0.45594833348051678 0 0.25571272495575492 -0.46429116616253269 0 0.25466495386603472 -0.45594833348051678 0 0.26649891040838858 -0.4541727646944077 0 0.25571272495575492 -0.46429116616253269 0 0.26649891040838858 -0.4541727646944077 0 0.26325989238450948 -0.46952332866781182 0 0.26649891040838858 -0.4541727646944077 0 0.27506589031477507 -0.4691427592466334 0 0.26325989238450948 -0.46952332866781182 0 0.26649891040838858 -0.4541727646944077 0 0.27799989806913389 -0.45560728956315533 0 0.27506589031477507 -0.4691427592466334 0 0.27506589031477507 -0.4691427592466334 0 0.27904976540520338 -0.48389393294856842 0 0.26403086415747312 -0.48404051328633779 0 0.27506589031477507 -0.4691427592466334 0 0.26325989238450948 -0.46952332866781182 0 0.26403086415747312 -0.48404051328633779 0 0.26325989238450948 -0.46952332866781182 0 0.26403086415747312 -0.48404051328633779 0 0.25499107208615562 -0.47596943994914748 0 0.26403086415747312 -0.48404051328633779 0 0.25499107208615562 -0.47596943994914748 0 0.24585371662126221 -0.48494994772904099 0 0.25571272495575492 -0.46429116616253269 0 0.26325989238450948 -0.46952332866781182 0 0.25499107208615562 -0.47596943994914748 0 0.26403086415747312 -0.48404051328633779 0 0.25375665031056382 -0.500000000000003 0 0.27654570592226208 -0.5 0 0.26403086415747312 -0.48404051328633779 0 0.25375665031056382 -0.500000000000003 0 0.24585371662126221 -0.48494994772904099 0 0.27904976540520338 -0.48389393294856842 0 0.26403086415747312 -0.48404051328633779 0 0.27654570592226208 -0.5 0 0.27904976540520338 -0.48389393294856842 0 0.27654570592226208 -0.5 0 0.28978280782814247 -0.48931826519308902 0 0.27654570592226208 -0.5 0 0.28978280782814247 -0.48931826519308902 0 0.29933476153396049 -0.5 0 0.27506589031477507 -0.4691427592466334 0 0.27904976540520338 -0.48389393294856842 0 0.2918468391647423 -0.477727203414332 0 0.27904976540520338 -0.48389393294856842 0 0.28978280782814247 -0.48931826519308902 0 0.2918468391647423 -0.477727203414332 0 0.28978280782814247 -0.48931826519308902 0 0.2918468391647423 -0.477727203414332 0 0.30213696711454452 -0.48497018960254468 0 0.31487957854472071 -0.47506475079335259 0 0.30243233700083472 -0.46787792090096147 0 0.30213696711454452 -0.48497018960254468 0 0.30243233700083472 -0.46787792090096147 0 0.2918468391647423 -0.477727203414332 0 0.30213696711454452 -0.48497018960254468 0 0.31581425375088418 -0.49816091645046218 0 0.29933476153396049 -0.5 0 0.30213696711454452 -0.48497018960254468 0 0.31581425375088418 -0.49816091645046218 0 0.31487957854472071 -0.47506475079335259 0 0.30213696711454452 -0.48497018960254468 0 0.32212381714565891 -0.5 0 0.31581425375088418 -0.49816091645046218 0 0.29933476153396049 -0.5 0 0.28978280782814247 -0.48931826519308902 0 0.29933476153396049 -0.5 0 0.30213696711454452 -0.48497018960254468 0 0.33723071509829522 -0.2865120851202434 0 0.33618570570157053 -0.29870676342742092 0 0.32330242941689341 -0.29339547233441848 0 0.33723071509829522 -0.2865120851202434 0 0.33618570570157053 -0.29870676342742092 0 0.34931246609612809 -0.29880966962151068 0 0.33618570570157053 -0.29870676342742092 0 0.34321461816681031 -0.3082494123853754 0 0.34931246609612809 -0.29880966962151068 0 0.34321461816681031 -0.3082494123853754 0 0.32813638946585599 -0.30557368799106072 0 0.32605787559096899 -0.31951142262152582 0 0.33618570570157053 -0.29870676342742092 0 0.34321461816681031 -0.3082494123853754 0 0.32813638946585599 -0.30557368799106072 0 0.33618570570157053 -0.29870676342742092 0 0.32813638946585599 -0.30557368799106072 0 0.32330242941689341 -0.29339547233441848 0 0.32813638946585599 -0.30557368799106072 0 0.31320814918646372 -0.30323661870098462 0 0.32605787559096899 -0.31951142262152582 0 0.32813638946585599 -0.30557368799106072 0 0.31320814918646372 -0.30323661870098462 0 0.32330242941689341 -0.29339547233441848 0 0.33723071509829522 -0.2865120851202434 0 0.32330242941689341 -0.29339547233441848 0 0.31953589004324229 -0.27769964521392942 0 0.31320814918646372 -0.30323661870098462 0 0.32330242941689341 -0.29339547233441848 0 0.30520250448242198 -0.28365622399226631 0 0.32330242941689341 -0.29339547233441848 0 0.31953589004324229 -0.27769964521392942 0 0.30520250448242198 -0.28365622399226631 0 0.31953589004324229 -0.27769964521392942 0 0.32718197596664278 -0.26536067425496052 0 0.30476182525195827 -0.25957377036775842 0 0.33723071509829522 -0.2865120851202434 0 0.31953589004324229 -0.27769964521392942 0 0.32718197596664278 -0.26536067425496052 0 0.31589985389236408 -0.23613744592621541 0 0.32718197596664278 -0.26536067425496052 0 0.30476182525195827 -0.25957377036775842 0 0.33567366894457662 -0.240294157883194 0 0.32718197596664278 -0.26536067425496052 0 0.34704615863022192 -0.2537686885145734 0 0.32718197596664278 -0.26536067425496052 0 0.35118715423344821 -0.27639195180065651 0 0.34704615863022192 -0.2537686885145734 0 0.33723071509829522 -0.2865120851202434 0 0.32718197596664278 -0.26536067425496052 0 0.35118715423344821 -0.27639195180065651 0 0.32718197596664278 -0.26536067425496052 0 0.35118715423344821 -0.27639195180065651 0 0.35118715423344821 -0.27639195180065651 0 0.34704615863022192 -0.2537686885145734 0 0.3621177634158278 -0.25780884403524379 0 0.36744303115541888 -0.24314195442134201 0 0.34704615863022192 -0.2537686885145734 0 0.3621177634158278 -0.25780884403524379 0 0.36744303115541888 -0.24314195442134201 0 0.38575648630301818 -0.25717949554165742 0 0.3621177634158278 -0.25780884403524379 0 0.38575648630301818 -0.25717949554165742 0 0.3621177634158278 -0.25780884403524379 0 0.36754045898470822 -0.27243999232278249 0 0.35118715423344821 -0.27639195180065651 0 0.3621177634158278 -0.25780884403524379 0 0.36754045898470822 -0.27243999232278249 0 0.37519233250025458 -0.28742322934635028 0 0.35118715423344821 -0.27639195180065651 0 0.36754045898470822 -0.27243999232278249 0 0.37519233250025458 -0.28742322934635028 0 0.37689862621175851 -0.2792746807397844 0 0.36754045898470822 -0.27243999232278249 0 0.37519233250025458 -0.28742322934635028 0 0.35118715423344821 -0.27639195180065651 0 0.37519233250025458 -0.28742322934635028 0 0.35118715423344821 -0.27639195180065651 0 0.3598089102425403 -0.29479505219287672 0 0.37519233250025458 -0.28742322934635028 0 0.36041174430233319 -0.29704940937987517 0 0.37519233250025458 -0.28742322934635028 0 0.36041174430233319 -0.29704940937987517 0 0.37333747175387211 -0.30073574079472498 0 0.37519233250025458 -0.28742322934635028 0 0.3598089102425403 -0.29479505219287672 0 0.36041174430233319 -0.29704940937987517 0 0.3598089102425403 -0.29479505219287672 0 0.36041174430233319 -0.29704940937987517 0 0.35118715423344821 -0.27639195180065651 0 0.3598089102425403 -0.29479505219287672 0 0.34931246609612809 -0.29880966962151068 0 0.33723071509829522 -0.2865120851202434 0 0.35118715423344821 -0.27639195180065651 0 0.34931246609612809 -0.29880966962151068 0 0.3598089102425403 -0.29479505219287672 0 0.34931246609612809 -0.29880966962151068 0 0.36041174430233319 -0.29704940937987517 0 0.34321461816681031 -0.3082494123853754 0 0.36041174430233319 -0.29704940937987517 0 0.34321461816681031 -0.3082494123853754 0 0.35417660735847067 -0.30875877693295189 0 0.36041174430233319 -0.29704940937987517 0 0.34321461816681031 -0.3082494123853754 0 0.34931246609612809 -0.29880966962151068 0 0.36041174430233319 -0.29704940937987517 0 0.34321461816681031 -0.3082494123853754 0 0.35417660735847067 -0.30875877693295189 0 0.34910317779718097 -0.31935466713526262 0 0.35417660735847067 -0.30875877693295189 0 0.36404478450140298 -0.31036346304836071 0 0.36041174430233319 -0.29704940937987517 0 0.38064121864366218 -0.31536543698069558 0 0.36404478450140298 -0.31036346304836071 0 0.37333747175387211 -0.30073574079472498 0 0.36404478450140298 -0.31036346304836071 0 0.36041174430233319 -0.29704940937987517 0 0.36404478450140298 -0.31036346304836071 0 0.36041174430233319 -0.29704940937987517 0 0.37333747175387211 -0.30073574079472498 0 0.38280982954235809 -0.33360907377648952 0 0.36404478450140298 -0.31036346304836071 0 0.36857877361783298 -0.32759081780684068 0 0.38280982954235809 -0.33360907377648952 0 0.36404478450140298 -0.31036346304836071 0 0.36404478450140298 -0.31036346304836071 0 0.36857877361783298 -0.32759081780684068 0 0.34910317779718097 -0.31935466713526262 0 0.36404478450140298 -0.31036346304836071 0 0.36857877361783298 -0.32759081780684068 0 0.36857877361783298 -0.32759081780684068 0 0.3746690352680444 -0.35036594953474198 0 0.36857877361783298 -0.32759081780684068 0 0.35344903623973672 -0.33794522825258011 0 0.3746690352680444 -0.35036594953474198 0 0.35344903623973672 -0.33794522825258011 0 0.34910317779718097 -0.31935466713526262 0 0.33900330365980152 -0.32835684620857652 0 0.36857877361783298 -0.32759081780684068 0 0.35344903623973672 -0.33794522825258011 0 0.34910317779718097 -0.31935466713526262 0 0.36857877361783298 -0.32759081780684068 0 0.34910317779718097 -0.31935466713526262 0 0.35417660735847067 -0.30875877693295189 0 0.36404478450140298 -0.31036346304836071 0 0.34910317779718097 -0.31935466713526262 0 0.36473034313665248 -0.36968874496257642 0 0.3746690352680444 -0.35036594953474198 0 0.35295878252217688 -0.35865160264113699 0 0.38075929691825522 -0.37314108126264328 0 0.36473034313665248 -0.36968874496257642 0 0.3746690352680444 -0.35036594953474198 0 0.35344903623973672 -0.33794522825258011 0 0.3746690352680444 -0.35036594953474198 0 0.35295878252217688 -0.35865160264113699 0 0.35344903623973672 -0.33794522825258011 0 0.35295878252217688 -0.35865160264113699 0 0.33774212785038238 -0.34319073000159428 0 0.34548730561691099 -0.37591428766200302 0 0.36473034313665248 -0.36968874496257642 0 0.35295878252217688 -0.35865160264113699 0 0.34548730561691099 -0.37591428766200302 0 0.35295878252217688 -0.35865160264113699 0 0.33769382823975991 -0.36110136824368139 0 0.34548730561691099 -0.37591428766200302 0 0.33769382823975991 -0.36110136824368139 0 0.32712734354176659 -0.37252631201317882 0 0.33769382823975991 -0.36110136824368139 0 0.3251535816675627 -0.35522390890049382 0 0.32712734354176659 -0.37252631201317882 0 0.33769382823975991 -0.36110136824368139 0 0.3251535816675627 -0.35522390890049382 0 0.33774212785038238 -0.34319073000159428 0 0.35295878252217688 -0.35865160264113699 0 0.33769382823975991 -0.36110136824368139 0 0.33774212785038238 -0.34319073000159428 0 0.3251535816675627 -0.35522390890049382 0 0.33774212785038238 -0.34319073000159428 0 0.32786604978330319 -0.33817181516529488 0 0.3251535816675627 -0.35522390890049382 0 0.32786604978330319 -0.33817181516529488 0 0.31137336014780093 -0.3445761680942846 0 0.3251535816675627 -0.35522390890049382 0 0.32712734354176659 -0.37252631201317882 0 0.29668884470463269 -0.36964091356704343 0 0.34321461816681031 -0.3082494123853754 0 0.33900330365980152 -0.32835684620857652 0 0.32605787559096899 -0.31951142262152582 0 0.34321461816681031 -0.3082494123853754 0 0.34910317779718097 -0.31935466713526262 0 0.33900330365980152 -0.32835684620857652 0 0.34321461816681031 -0.3082494123853754 0 0.32605787559096899 -0.31951142262152582 0 0.35344903623973672 -0.33794522825258011 0 0.33900330365980152 -0.32835684620857652 0 0.33774212785038238 -0.34319073000159428 0 0.33900330365980152 -0.32835684620857652 0 0.32786604978330319 -0.33817181516529488 0 0.32605787559096899 -0.31951142262152582 0 0.33900330365980152 -0.32835684620857652 0 0.33774212785038238 -0.34319073000159428 0 0.32786604978330319 -0.33817181516529488 0 0.32786604978330319 -0.33817181516529488 0 0.32605787559096899 -0.31951142262152582 0 0.31137336014780093 -0.3445761680942846 0 0.32605787559096899 -0.31951142262152582 0 0.31137336014780093 -0.3445761680942846 0 0.32605787559096899 -0.31951142262152582 0 0.30757783391548887 -0.33145864441494871 0 0.31137336014780093 -0.3445761680942846 0 0.32605787559096899 -0.31951142262152582 0 0.30401205052713359 -0.31553628635644437 0 0.30757783391548887 -0.33145864441494871 0 0.31320814918646372 -0.30323661870098462 0 0.32605787559096899 -0.31951142262152582 0 0.30401205052713359 -0.31553628635644437 0 0.32605787559096899 -0.31951142262152582 0 0.30757783391548887 -0.33145864441494871 0 0.30401205052713359 -0.31553628635644437 0 0.30757783391548887 -0.33145864441494871 0 0.29297354867597608 -0.3259473074410808 0 0.30757783391548887 -0.33145864441494871 0 0.28913817579968931 -0.34346787343902002 0 0.30757783391548887 -0.33145864441494871 0 0.30079840573677608 -0.34113583356524307 0 0.28913817579968931 -0.34346787343902002 0 0.30757783391548887 -0.33145864441494871 0 0.30079840573677608 -0.34113583356524307 0 0.31137336014780093 -0.3445761680942846 0 0.28913817579968931 -0.34346787343902002 0 0.29297354867597608 -0.3259473074410808 0 0.27734516765934702 -0.3260044354304994 0 0.30757783391548887 -0.33145864441494871 0 0.28913817579968931 -0.34346787343902002 0 0.29297354867597608 -0.3259473074410808 0 0.28913817579968931 -0.34346787343902002 0 0.27734516765934702 -0.3260044354304994 0 0.30079840573677608 -0.34113583356524307 0 0.28913817579968931 -0.34346787343902002 0 0.29546561630371537 -0.34580766910325161 0 0.28861897270940401 -0.31279063263500428 0 0.29297354867597608 -0.3259473074410808 0 0.27734516765934702 -0.3260044354304994 0 0.30401205052713359 -0.31553628635644437 0 0.28861897270940401 -0.31279063263500428 0 0.29297354867597608 -0.3259473074410808 0 0.3251535816675627 -0.35522390890049382 0 0.31137336014780093 -0.3445761680942846 0 0.29668884470463269 -0.36964091356704343 0 0.31137336014780093 -0.3445761680942846 0 0.29668884470463269 -0.36964091356704343 0 0.31137336014780093 -0.3445761680942846 0 0.29830033952539309 -0.35154531218404023 0 0.29668884470463269 -0.36964091356704343 0 0.30079840573677608 -0.34113583356524307 0 0.29830033952539309 -0.35154531218404023 0 0.29546561630371537 -0.34580766910325161 0 0.30079840573677608 -0.34113583356524307 0 0.31137336014780093 -0.3445761680942846 0 0.29830033952539309 -0.35154531218404023 0 0.29830033952539309 -0.35154531218404023 0 0.29546561630371537 -0.34580766910325161 0 0.2925197811405284 -0.3515643994762061 0 0.29546561630371537 -0.34580766910325161 0 0.2925197811405284 -0.3515643994762061 0 0.29084998869190443 -0.34600277699964083 0 0.2925197811405284 -0.3515643994762061 0 0.29084998869190443 -0.34600277699964083 0 0.28544661835506879 -0.35320743006869099 0 0.28913817579968931 -0.34346787343902002 0 0.29546561630371537 -0.34580766910325161 0 0.29084998869190443 -0.34600277699964083 0 0.28913817579968931 -0.34346787343902002 0 0.29084998869190443 -0.34600277699964083 0 0.28913817579968931 -0.34346787343902002 0 0.29084998869190443 -0.34600277699964083 0 0.28544661835506879 -0.35320743006869099 0 0.28544661835506879 -0.35320743006869099 0 0.29171850287479151 -0.35730090803063358 0 0.2831232986440359 -0.36161907486230188 0 0.2925197811405284 -0.3515643994762061 0 0.28544661835506879 -0.35320743006869099 0 0.29171850287479151 -0.35730090803063358 0 0.29830033952539309 -0.35154531218404023 0 0.2925197811405284 -0.3515643994762061 0 0.29171850287479151 -0.35730090803063358 0 0.2831232986440359 -0.36161907486230188 0 0.29668884470463269 -0.36964091356704343 0 0.27572585523170928 -0.37408705933719461 0 0.29830033952539309 -0.35154531218404023 0 0.29171850287479151 -0.35730090803063358 0 0.29668884470463269 -0.36964091356704343 0 0.29171850287479151 -0.35730090803063358 0 0.2831232986440359 -0.36161907486230188 0 0.29668884470463269 -0.36964091356704343 0 0.2831232986440359 -0.36161907486230188 0 0.27572585523170928 -0.37408705933719461 0 0.26527240104592159 -0.35901097912216662 0 0.27572585523170928 -0.37408705933719461 0 0.26527240104592159 -0.35901097912216662 0 0.26134499116997428 -0.3713958081505585 0 0.28913817579968931 -0.34346787343902002 0 0.26527240104592159 -0.35901097912216662 0 0.28913817579968931 -0.34346787343902002 0 0.26527240104592159 -0.35901097912216662 0 0.27173057903878739 -0.34168401871284471 0 0.28544661835506879 -0.35320743006869099 0 0.2831232986440359 -0.36161907486230188 0 0.26527240104592159 -0.35901097912216662 0 0.26274738061965131 -0.35044420457436531 0 0.26527240104592159 -0.35901097912216662 0 0.27173057903878739 -0.34168401871284471 0 0.28913817579968931 -0.34346787343902002 0 0.28544661835506879 -0.35320743006869099 0 0.26527240104592159 -0.35901097912216662 0 0.26274738061965131 -0.35044420457436531 0 0.25032263630442081 -0.35008157720292121 0 0.25613587229754547 -0.33790463840568002 0 0.26274738061965131 -0.35044420457436531 0 0.25032263630442081 -0.35008157720292121 0 0.25086883960272288 -0.3622536114626545 0 0.26274738061965131 -0.35044420457436531 0 0.25086883960272288 -0.3622536114626545 0 0.26134499116997428 -0.3713958081505585 0 0.25086883960272288 -0.3622536114626545 0 0.26134499116997428 -0.3713958081505585 0 0.24446699196463481 -0.3787350506051812 0 0.26274738061965131 -0.35044420457436531 0 0.26527240104592159 -0.35901097912216662 0 0.26134499116997428 -0.3713958081505585 0 0.26274738061965131 -0.35044420457436531 0 0.26134499116997428 -0.3713958081505585 0 0.27734516765934702 -0.3260044354304994 0 0.26555215951900479 -0.30854099742197871 0 0.27738966176237428 -0.30848369137867809 0 0.28861897270940401 -0.31279063263500428 0 0.27734516765934702 -0.3260044354304994 0 0.27738966176237428 -0.30848369137867809 0 0.27734516765934702 -0.3260044354304994 0 0.26555215951900479 -0.30854099742197871 0 0.27734516765934702 -0.3260044354304994 0 0.26414977006932833 -0.32949260099817201 0 0.26555215951900479 -0.30854099742197871 0 0.26274738061965131 -0.35044420457436531 0 0.27173057903878739 -0.34168401871284471 0 0.26414977006932833 -0.32949260099817201 0 0.27734516765934702 -0.3260044354304994 0 0.27173057903878739 -0.34168401871284471 0 0.26414977006932833 -0.32949260099817201 0 0.28913817579968931 -0.34346787343902002 0 0.27734516765934702 -0.3260044354304994 0 0.27173057903878739 -0.34168401871284471 0 0.25613587229754547 -0.33790463840568002 0 0.2496268880601259 -0.31894486535450689 0 0.2458462188327416 -0.33644000311294758 0 0.26274738061965131 -0.35044420457436531 0 0.26414977006932833 -0.32949260099817201 0 0.25613587229754547 -0.33790463840568002 0 0.26274738061965131 -0.35044420457436531 0 0.26414977006932833 -0.32949260099817201 0 0.26414977006932833 -0.32949260099817201 0 0.25613587229754547 -0.33790463840568002 0 0.2496268880601259 -0.31894486535450689 0 0.25032263630442081 -0.35008157720292121 0 0.25613587229754547 -0.33790463840568002 0 0.2458462188327416 -0.33644000311294758 0 0.26414977006932833 -0.32949260099817201 0 0.26555215951900479 -0.30854099742197871 0 0.2496268880601259 -0.31894486535450689 0 0.26414977006932833 -0.32949260099817201 0 0.26555215951900479 -0.30854099742197871 0 0.26555215951900479 -0.30854099742197871 0 0.25699295834393748 -0.29586627716872038 0 0.25940224876281037 -0.29256921091542382 0 0.25464020935113851 -0.30718240022799531 0 0.24638883148148591 -0.30537746096677498 0 0.2496268880601259 -0.31894486535450689 0 0.25464020935113851 -0.30718240022799531 0 0.26555215951900479 -0.30854099742197871 0 0.2496268880601259 -0.31894486535450689 0 0.25464020935113851 -0.30718240022799531 0 0.25699295834393748 -0.29586627716872038 0 0.24638883148148591 -0.30537746096677498 0 0.26555215951900479 -0.30854099742197871 0 0.25699295834393748 -0.29586627716872038 0 0.25464020935113851 -0.30718240022799531 0 0.26555215951900479 -0.30854099742197871 0 0.25699295834393748 -0.29586627716872038 0 0.26555215951900479 -0.30854099742197871 0 0.25940224876281037 -0.29256921091542382 0 0.26694633117944738 -0.28771216706142871 0 0.25940224876281037 -0.29256921091542382 0 0.2484337571688702 -0.28319155691546211 0 0.25940224876281037 -0.29256921091542382 0 0.25914962772555028 -0.27967209955443251 0 0.2484337571688702 -0.28319155691546211 0 0.25699295834393748 -0.29586627716872038 0 0.25940224876281037 -0.29256921091542382 0 0.2484337571688702 -0.28319155691546211 0 0.25699295834393748 -0.29586627716872038 0 0.2484337571688702 -0.28319155691546211 0 0.25940224876281037 -0.29256921091542382 0 0.26694633117944738 -0.28771216706142871 0 0.25914962772555028 -0.27967209955443251 0 0.26694633117944738 -0.28771216706142871 0 0.27927808298048268 -0.28898708992635219 0 0.27452216006970859 -0.29871106192329239 0 0.27927808298048268 -0.28898708992635219 0 0.27452216006970859 -0.29871106192329239 0 0.28344456490723402 -0.29983136382802422 0 0.27927808298048268 -0.28898708992635219 0 0.28767186852285698 -0.28017222751665932 0 0.27632589015940989 -0.27858911428801941 0 0.26694633117944738 -0.28771216706142871 0 0.27927808298048268 -0.28898708992635219 0 0.27632589015940989 -0.27858911428801941 0 0.26555215951900479 -0.30854099742197871 0 0.26694633117944738 -0.28771216706142871 0 0.26555215951900479 -0.30854099742197871 0 0.26694633117944738 -0.28771216706142871 0 0.27452216006970859 -0.29871106192329239 0 0.26555215951900479 -0.30854099742197871 0 0.27452216006970859 -0.29871106192329239 0 0.27738966176237428 -0.30848369137867809 0 0.27452216006970859 -0.29871106192329239 0 0.27738966176237428 -0.30848369137867809 0 0.28344456490723402 -0.29983136382802422 0 0.28861897270940401 -0.31279063263500428 0 0.27738966176237428 -0.30848369137867809 0 0.28344456490723402 -0.29983136382802422 0 0.30401205052713359 -0.31553628635644437 0 0.28861897270940401 -0.31279063263500428 0 0.29765748573654432 -0.29993020882471161 0 0.28344456490723402 -0.29983136382802422 0 0.28998551247912829 -0.291422141087886 0 0.29765748573654432 -0.29993020882471161 0 0.28861897270940401 -0.31279063263500428 0 0.28344456490723402 -0.29983136382802422 0 0.29765748573654432 -0.29993020882471161 0 0.28998551247912829 -0.291422141087886 0 0.30520250448242198 -0.28365622399226631 0 0.28767186852285698 -0.28017222751665932 0 0.27927808298048268 -0.28898708992635219 0 0.28344456490723402 -0.29983136382802422 0 0.28998551247912829 -0.291422141087886 0 0.27927808298048268 -0.28898708992635219 0 0.28998551247912829 -0.291422141087886 0 0.28767186852285698 -0.28017222751665932 0 0.31320814918646372 -0.30323661870098462 0 0.30520250448242198 -0.28365622399226631 0 0.29765748573654432 -0.29993020882471161 0 0.28998551247912829 -0.291422141087886 0 0.30520250448242198 -0.28365622399226631 0 0.29765748573654432 -0.29993020882471161 0 0.31320814918646372 -0.30323661870098462 0 0.30401205052713359 -0.31553628635644437 0 0.29765748573654432 -0.29993020882471161 0 0.31953589004324229 -0.27769964521392942 0 0.30520250448242198 -0.28365622399226631 0 0.30476182525195827 -0.25957377036775842 0 0.30520250448242198 -0.28365622399226631 0 0.30476182525195827 -0.25957377036775842 0 0.293213510197192 -0.26942469252435469 0 0.30520250448242198 -0.28365622399226631 0 0.293213510197192 -0.26942469252435469 0 0.28767186852285698 -0.28017222751665932 0 0.293213510197192 -0.26942469252435469 0 0.28767186852285698 -0.28017222751665932 0 0.28344159356751492 -0.27141705929380072 0 0.28767186852285698 -0.28017222751665932 0 0.28344159356751492 -0.27141705929380072 0 0.27632589015940989 -0.27858911428801941 0 0.293213510197192 -0.26942469252435469 0 0.28344159356751492 -0.27141705929380072 0 0.2816335979021608 -0.26068575702458813 0 0.29240023975262569 -0.23957001704843539 0 0.30476182525195827 -0.25957377036775842 0 0.2816335979021608 -0.26068575702458813 0 0.29240023975262569 -0.23957001704843539 0 0.2816335979021608 -0.26068575702458813 0 0.30476182525195827 -0.25957377036775842 0 0.293213510197192 -0.26942469252435469 0 0.2816335979021608 -0.26068575702458813 0 0.27143109150891648 -0.2415107638217012 0 0.2816335979021608 -0.26068575702458813 0 0.2594473866772527 -0.25292556575876157 0 0.2816335979021608 -0.26068575702458813 0 0.26834050283988953 -0.26688333670087883 0 0.2594473866772527 -0.25292556575876157 0 0.26694633117944738 -0.28771216706142871 0 0.26834050283988953 -0.26688333670087883 0 0.26694633117944738 -0.28771216706142871 0 0.27632589015940989 -0.27858911428801941 0 0.26834050283988953 -0.26688333670087883 0 0.28344159356751492 -0.27141705929380072 0 0.2816335979021608 -0.26068575702458813 0 0.26834050283988953 -0.26688333670087883 0 0.28344159356751492 -0.27141705929380072 0 0.27632589015940989 -0.27858911428801941 0 0.26834050283988953 -0.26688333670087883 0 0.26694633117944738 -0.28771216706142871 0 0.26834050283988953 -0.26688333670087883 0 0.25914962772555028 -0.27967209955443251 0 0.26834050283988953 -0.26688333670087883 0 0.25914962772555028 -0.27967209955443251 0 0.25262529867673411 -0.26800422617896952 0 0.25914962772555028 -0.27967209955443251 0 0.25262529867673411 -0.26800422617896952 0 0.2484337571688702 -0.28319155691546211 0 0.26834050283988953 -0.26688333670087883 0 0.25262529867673411 -0.26800422617896952 0 0.2594473866772527 -0.25292556575876157 0 0.25262529867673411 -0.26800422617896952 0 0.2594473866772527 -0.25292556575876157 0 0.2337705524768075 -0.26147784629144322 0 0.2594473866772527 -0.25292556575876157 0 0.2337705524768075 -0.26147784629144322 0 0.24526921964682971 -0.24063744974456469 0 0.25262529867673411 -0.26800422617896952 0 0.2337705524768075 -0.26147784629144322 0 0.2484337571688702 -0.28319155691546211 0 0.23121150279175909 -0.26846716739802928 0 0.22881375730060349 -0.28576811004761382 0 0.2484337571688702 -0.28319155691546211 0 0.2337705524768075 -0.26147784629144322 0 0.2484337571688702 -0.28319155691546211 0 0.23121150279175909 -0.26846716739802928 0 0.2484337571688702 -0.28319155691546211 0 0.23121150279175909 -0.26846716739802928 0 0.2337705524768075 -0.26147784629144322 0 0.2484337571688702 -0.28319155691546211 0 0.23121150279175909 -0.26846716739802928 0 0.20646288860942641 -0.26998265799118221 0 0.22881375730060349 -0.28576811004761382 0 0.2337705524768075 -0.26147784629144322 0 0.21398924841464809 -0.25374277788059629 0 0.2222999292097457 -0.24783714094851481 0 0.2337705524768075 -0.26147784629144322 0 0.21910734778474311 -0.23976413566742549 0 0.23121150279175909 -0.26846716739802928 0 0.2337705524768075 -0.26147784629144322 0 0.21398924841464809 -0.25374277788059629 0 0.23121150279175909 -0.26846716739802928 0 0.21398924841464809 -0.25374277788059629 0 0.21398924841464809 -0.25374277788059629 0 0.20646288860942641 -0.26998265799118221 0 0.18977212596430351 -0.25276072220782819 0 0.23121150279175909 -0.26846716739802928 0 0.21398924841464809 -0.25374277788059629 0 0.20646288860942641 -0.26998265799118221 0 0.20646288860942641 -0.26998265799118221 0 0.2086376826818867 -0.28774920151169431 0 0.22881375730060349 -0.28576811004761382 0 0.20646288860942641 -0.26998265799118221 0 0.1927027996422947 -0.28097584908312873 0 0.2086376826818867 -0.28774920151169431 0 0.20646288860942641 -0.26998265799118221 0 0.1927027996422947 -0.28097584908312873 0 0.1863994636234069 -0.26634255969885928 0 0.20646288860942641 -0.26998265799118221 0 0.18977212596430351 -0.25276072220782819 0 0.1863994636234069 -0.26634255969885928 0 0.19123927818816239 -0.29936826362363478 0 0.2086376826818867 -0.28774920151169431 0 0.20516736985157871 -0.31300302689421072 0 0.19123927818816239 -0.29936826362363478 0 0.20516736985157871 -0.31300302689421072 0 0.17445293575001111 -0.32234291034255319 0 0.1927027996422947 -0.28097584908312873 0 0.19123927818816239 -0.29936826362363478 0 0.2086376826818867 -0.28774920151169431 0 0.2086376826818867 -0.28774920151169431 0 0.2200633390293226 -0.29924950058790922 0 0.20516736985157871 -0.31300302689421072 0 0.22305450390795939 -0.31185705717169959 0 0.2200633390293226 -0.29924950058790922 0 0.20516736985157871 -0.31300302689421072 0 0.22305450390795939 -0.31185705717169959 0 0.2200633390293226 -0.29924950058790922 0 0.23400373991600371 -0.30174240855519879 0 0.22305450390795939 -0.31185705717169959 0 0.23400373991600371 -0.30174240855519879 0 0.23558730033335831 -0.31353830098130159 0 0.2200633390293226 -0.29924950058790922 0 0.23400373991600371 -0.30174240855519879 0 0.22881375730060349 -0.28576811004761382 0 0.2086376826818867 -0.28774920151169431 0 0.2200633390293226 -0.29924950058790922 0 0.22881375730060349 -0.28576811004761382 0 0.22881375730060349 -0.28576811004761382 0 0.2435690729302126 -0.29422524708165421 0 0.2484337571688702 -0.28319155691546211 0 0.23400373991600371 -0.30174240855519879 0 0.22881375730060349 -0.28576811004761382 0 0.2435690729302126 -0.29422524708165421 0 0.25699295834393748 -0.29586627716872038 0 0.2435690729302126 -0.29422524708165421 0 0.2484337571688702 -0.28319155691546211 0 0.23400373991600371 -0.30174240855519879 0 0.24638883148148591 -0.30537746096677498 0 0.23558730033335831 -0.31353830098130159 0 0.23400373991600371 -0.30174240855519879 0 0.2435690729302126 -0.29422524708165421 0 0.24638883148148591 -0.30537746096677498 0 0.25699295834393748 -0.29586627716872038 0 0.2435690729302126 -0.29422524708165421 0 0.24638883148148591 -0.30537746096677498 0 0.24638883148148591 -0.30537746096677498 0 0.2496268880601259 -0.31894486535450689 0 0.23558730033335831 -0.31353830098130159 0 0.2496268880601259 -0.31894486535450689 0 0.2248625383012165 -0.32976971285832762 0 0.2496268880601259 -0.31894486535450689 0 0.23558730033335831 -0.31353830098130159 0 0.2248625383012165 -0.32976971285832762 0 0.2496268880601259 -0.31894486535450689 0 0.2458462188327416 -0.33644000311294758 0 0.2248625383012165 -0.32976971285832762 0 0.2458462188327416 -0.33644000311294758 0 0.2248625383012165 -0.32976971285832762 0 0.2309842069453085 -0.34609800352352121 0 0.2248625383012165 -0.32976971285832762 0 0.2309842069453085 -0.34609800352352121 0 0.21812907978992691 -0.3552893399374159 0 0.22305450390795939 -0.31185705717169959 0 0.23558730033335831 -0.31353830098130159 0 0.2248625383012165 -0.32976971285832762 0 0.25086883960272288 -0.3622536114626545 0 0.23509899085734889 -0.36289295818539369 0 0.24446699196463481 -0.3787350506051812 0 0.2458462188327416 -0.33644000311294758 0 0.23509899085734889 -0.36289295818539369 0 0.25032263630442081 -0.35008157720292121 0 0.25086883960272288 -0.3622536114626545 0 0.23509899085734889 -0.36289295818539369 0 0.25032263630442081 -0.35008157720292121 0 0.2458462188327416 -0.33644000311294758 0 0.23509899085734889 -0.36289295818539369 0 0.2458462188327416 -0.33644000311294758 0 0.23509899085734889 -0.36289295818539369 0 0.2309842069453085 -0.34609800352352121 0 0.23509899085734889 -0.36289295818539369 0 0.2309842069453085 -0.34609800352352121 0 0.21812907978992691 -0.3552893399374159 0 0.23509899085734889 -0.36289295818539369 0 0.22197715464324411 -0.3727082184059376 0 0.2243517628819561 -0.38934591325783968 0 0.23509899085734889 -0.36289295818539369 0 0.22197715464324411 -0.3727082184059376 0 0.21812907978992691 -0.3552893399374159 0 0.21812907978992691 -0.3552893399374159 0 0.20930086591837949 -0.38246577413112037 0 0.20415430725050321 -0.36098115877853432 0 0.19689027694237041 -0.37199823457542758 0 0.20930086591837949 -0.38246577413112037 0 0.20415430725050321 -0.36098115877853432 0 0.21812907978992691 -0.3552893399374159 0 0.20930086591837949 -0.38246577413112037 0 0.22197715464324411 -0.3727082184059376 0 0.21812907978992691 -0.3552893399374159 0 0.20930086591837949 -0.38246577413112037 0 0.20415430725050321 -0.36098115877853432 0 0.21812907978992691 -0.3552893399374159 0 0.20009818854230721 -0.34059456036214819 0 0.19341391277759939 -0.35792725864219199 0 0.20009818854230721 -0.34059456036214819 0 0.17533383878339789 -0.35141940786596909 0 0.20009818854230721 -0.34059456036214819 0 0.17533383878339789 -0.35141940786596909 0 0.20415430725050321 -0.36098115877853432 0 0.19341391277759939 -0.35792725864219199 0 0.20009818854230721 -0.34059456036214819 0 0.20415430725050321 -0.36098115877853432 0 0.19341391277759939 -0.35792725864219199 0 0.19689027694237041 -0.37199823457542758 0 0.19341391277759939 -0.35792725864219199 0 0.19689027694237041 -0.37199823457542758 0 0.18536412316407949 -0.36687654181349399 0 0.19689027694237041 -0.37199823457542758 0 0.18536412316407949 -0.36687654181349399 0 0.19043031547029729 -0.37934042881566399 0 0.22305450390795939 -0.31185705717169959 0 0.2248625383012165 -0.32976971285832762 0 0.20516736985157871 -0.31300302689421072 0 0.2248625383012165 -0.32976971285832762 0 0.20516736985157871 -0.31300302689421072 0 0.20009818854230721 -0.34059456036214819 0 0.2248625383012165 -0.32976971285832762 0 0.21812907978992691 -0.3552893399374159 0 0.20009818854230721 -0.34059456036214819 0 0.2248625383012165 -0.32976971285832762 0 0.20009818854230721 -0.34059456036214819 0 0.20516736985157871 -0.31300302689421072 0 0.20009818854230721 -0.34059456036214819 0 0.17445293575001111 -0.32234291034255319 0 0.17445293575001111 -0.32234291034255319 0 0.17533383878339789 -0.35141940786596909 0 0.20009818854230721 -0.34059456036214819 0 0.17445293575001111 -0.32234291034255319 0 0.17533383878339789 -0.35141940786596909 0 0.17445293575001111 -0.32234291034255319 0 0.16113531838319781 -0.3372979742520712 0 0.17533383878339789 -0.35141940786596909 0 0.17445293575001111 -0.32234291034255319 0 0.16113531838319781 -0.3372979742520712 0 0.15386359468184971 -0.31552579027915462 0 0.17588761253622309 -0.36969815199816353 0 0.17533383878339789 -0.35141940786596909 0 0.17588761253622309 -0.36969815199816353 0 0.17533383878339789 -0.35141940786596909 0 0.17031550963697761 -0.36242921484301033 0 0.17588761253622309 -0.36969815199816353 0 0.18536412316407949 -0.36687654181349399 0 0.17533383878339789 -0.35141940786596909 0 0.17588761253622309 -0.36969815199816353 0 0.17031550963697761 -0.36242921484301033 0 0.17310874902495649 -0.3765904306241995 0 0.17588761253622309 -0.36969815199816353 0 0.17310874902495649 -0.3765904306241995 0 0.1823787960384492 -0.37743544494837949 0 0.17588761253622309 -0.36969815199816353 0 0.18536412316407949 -0.36687654181349399 0 0.1823787960384492 -0.37743544494837949 0 0.18536412316407949 -0.36687654181349399 0 0.19043031547029729 -0.37934042881566399 0 0.1823787960384492 -0.37743544494837949 0 0.19341391277759939 -0.35792725864219199 0 0.18536412316407949 -0.36687654181349399 0 0.17533383878339789 -0.35141940786596909 0 0.17533383878339789 -0.35141940786596909 0 0.15911431805322321 -0.35850918975802237 0 0.17031550963697761 -0.36242921484301033 0 0.16113531838319781 -0.3372979742520712 0 0.17533383878339789 -0.35141940786596909 0 0.15911431805322321 -0.35850918975802237 0 0.17533383878339789 -0.35141940786596909 0 0.15911431805322321 -0.35850918975802237 0 0.15911431805322321 -0.35850918975802237 0 0.17310874902495649 -0.3765904306241995 0 0.15911431805322321 -0.35850918975802237 0 0.17031550963697761 -0.36242921484301033 0 0.17310874902495649 -0.3765904306241995 0 0.15911431805322321 -0.35850918975802237 0 0.16049845358428891 -0.36509126704871248 0 0.17310874902495649 -0.3765904306241995 0 0.15911431805322321 -0.35850918975802237 0 0.16049845358428891 -0.36509126704871248 0 0.1506535389967619 -0.36580345785204038 0 0.16049845358428891 -0.36509126704871248 0 0.1589245510183889 -0.37192046755229119 0 0.1506535389967619 -0.36580345785204038 0 0.16049845358428891 -0.36509126704871248 0 0.1589245510183889 -0.37192046755229119 0 0.17310874902495649 -0.3765904306241995 0 0.1506535389967619 -0.36580345785204038 0 0.1430935863833192 -0.35187115740869263 0 0.13051310213717859 -0.36754656043808909 0 0.13051310213717859 -0.36754656043808909 0 0.1527662536114468 -0.37944978555343112 0 0.1506535389967619 -0.36580345785204038 0 0.13051310213717859 -0.36754656043808909 0 0.1527662536114468 -0.37944978555343112 0 0.1589245510183889 -0.37192046755229119 0 0.1506535389967619 -0.36580345785204038 0 0.1527662536114468 -0.37944978555343112 0 0.15911431805322321 -0.35850918975802237 0 0.1430935863833192 -0.35187115740869263 0 0.14120327428943161 -0.3353675631272649 0 0.15911431805322321 -0.35850918975802237 0 0.1506535389967619 -0.36580345785204038 0 0.1430935863833192 -0.35187115740869263 0 0.15911431805322321 -0.35850918975802237 0 0.14120327428943161 -0.3353675631272649 0 0.1430935863833192 -0.35187115740869263 0 0.12521623110419669 -0.35069627961407202 0 0.14120327428943161 -0.3353675631272649 0 0.1430935863833192 -0.35187115740869263 0 0.12521623110419669 -0.35069627961407202 0 0.13051310213717859 -0.36754656043808909 0 0.16113531838319781 -0.3372979742520712 0 0.15911431805322321 -0.35850918975802237 0 0.14120327428943161 -0.3353675631272649 0 0.16113531838319781 -0.3372979742520712 0 0.15386359468184971 -0.31552579027915462 0 0.14120327428943161 -0.3353675631272649 0 0.12521623110419669 -0.35069627961407202 0 0.14120327428943161 -0.3353675631272649 0 0.1203527444544976 -0.33440109300481358 0 0.15386359468184971 -0.31552579027915462 0 0.14120327428943161 -0.3353675631272649 0 0.1232922305256398 -0.31222593649650732 0 0.14120327428943161 -0.3353675631272649 0 0.1232922305256398 -0.31222593649650732 0 0.1203527444544976 -0.33440109300481358 0 0.14120327428943161 -0.3353675631272649 0 0.1232922305256398 -0.31222593649650732 0 0.14952577642619391 -0.2926539446373938 0 0.12755474367724071 -0.28641496218900248 0 0.1232922305256398 -0.31222593649650732 0 0.15386359468184971 -0.31552579027915462 0 0.14952577642619391 -0.2926539446373938 0 0.1232922305256398 -0.31222593649650732 0 0.14952577642619391 -0.2926539446373938 0 0.12755474367724071 -0.28641496218900248 0 0.14729305821045541 -0.27167855240190641 0 0.12755474367724071 -0.28641496218900248 0 0.14729305821045541 -0.27167855240190641 0 0.1247109941767834 -0.26487205333737063 0 0.14385042888010149 -0.25110660899300591 0 0.1247109941767834 -0.26487205333737063 0 0.12667741575706271 -0.2414737984356386 0 0.14385042888010149 -0.25110660899300591 0 0.14729305821045541 -0.27167855240190641 0 0.1247109941767834 -0.26487205333737063 0 0.14385042888010149 -0.25110660899300591 0 0.14729305821045541 -0.27167855240190641 0 0.16759502608367921 -0.2565130419660393 0 0.14952577642619391 -0.2926539446373938 0 0.14729305821045541 -0.27167855240190641 0 0.17249785243163329 -0.27433700647487103 0 0.14729305821045541 -0.27167855240190641 0 0.16759502608367921 -0.2565130419660393 0 0.17249785243163329 -0.27433700647487103 0 0.18977212596430351 -0.25276072220782819 0 0.16759502608367921 -0.2565130419660393 0 0.17418733597878611 -0.24446685408066859 0 0.18977212596430351 -0.25276072220782819 0 0.16759502608367921 -0.2565130419660393 0 0.1863994636234069 -0.26634255969885928 0 0.16759502608367921 -0.2565130419660393 0 0.17249785243163329 -0.27433700647487103 0 0.1863994636234069 -0.26634255969885928 0 0.1927027996422947 -0.28097584908312873 0 0.17249785243163329 -0.27433700647487103 0 0.1863994636234069 -0.26634255969885928 0 0.1927027996422947 -0.28097584908312873 0 0.17249785243163329 -0.27433700647487103 0 0.17357203271662419 -0.29326641281913729 0 0.1927027996422947 -0.28097584908312873 0 0.19123927818816239 -0.29936826362363478 0 0.17357203271662419 -0.29326641281913729 0 0.19123927818816239 -0.29936826362363478 0 0.17445293575001111 -0.32234291034255319 0 0.17357203271662419 -0.29326641281913729 0 0.17445293575001111 -0.32234291034255319 0 0.17357203271662419 -0.29326641281913729 0 0.17445293575001111 -0.32234291034255319 0 0.15386359468184971 -0.31552579027915462 0 0.17357203271662419 -0.29326641281913729 0 0.15386359468184971 -0.31552579027915462 0 0.14952577642619391 -0.2926539446373938 0 0.17357203271662419 -0.29326641281913729 0 0.14952577642619391 -0.2926539446373938 0 0.17249785243163329 -0.27433700647487103 0 0.17357203271662419 -0.29326641281913729 0 0.20005363574267959 -0.5 0 0.1915311769682061 -0.47012967318325061 0 0.18020504700524159 -0.49800752296376938 0 0.20005363574267959 -0.5 0 0.1915311769682061 -0.47012967318325061 0 0.20916213003883879 -0.48163771706048741 0 0.1915311769682061 -0.47012967318325061 0 0.20916213003883879 -0.48163771706048741 0 0.21003783955674421 -0.46230079400857171 0 0.20916213003883879 -0.48163771706048741 0 0.2221355499160699 -0.47024437201250252 0 0.21003783955674421 -0.46230079400857171 0 0.20005363574267959 -0.5 0 0.20916213003883879 -0.48163771706048741 0 0.21592097080152439 -0.49231709581759919 0 0.20916213003883879 -0.48163771706048741 0 0.21592097080152439 -0.49231709581759919 0 0.22756297439795761 -0.48763066620990908 0 0.20005363574267959 -0.5 0 0.21592097080152439 -0.49231709581759919 0 0.22690514302662171 -0.5 0 0.21592097080152439 -0.49231709581759919 0 0.22756297439795761 -0.48763066620990908 0 0.22690514302662171 -0.5 0 0.22756297439795761 -0.48763066620990908 0 0.22690514302662171 -0.5 0 0.24585371662126221 -0.48494994772904099 0 0.25375665031056382 -0.500000000000003 0 0.22690514302662171 -0.5 0 0.24585371662126221 -0.48494994772904099 0 0.25375665031056382 -0.500000000000003 0 0.24585371662126221 -0.48494994772904099 0 0.22756297439795761 -0.48763066620990908 0 0.24585371662126221 -0.48494994772904099 0 0.23795078293196081 -0.46989989545807909 0 0.25499107208615562 -0.47596943994914748 0 0.24585371662126221 -0.48494994772904099 0 0.23795078293196081 -0.46989989545807909 0 0.25571272495575492 -0.46429116616253269 0 0.25499107208615562 -0.47596943994914748 0 0.23795078293196081 -0.46989989545807909 0 0.24585371662126221 -0.48494994772904099 0 0.23795078293196081 -0.46989989545807909 0 0.22756297439795761 -0.48763066620990908 0 0.23795078293196081 -0.46989989545807909 0 0.22756297439795761 -0.48763066620990908 0 0.23795078293196081 -0.46989989545807909 0 0.2221355499160699 -0.47024437201250252 0 0.20916213003883879 -0.48163771706048741 0 0.22756297439795761 -0.48763066620990908 0 0.2221355499160699 -0.47024437201250252 0 0.23795078293196081 -0.46989989545807909 0 0.22451048220216521 -0.44430468784615551 0 0.23795078293196081 -0.46989989545807909 0 0.2221355499160699 -0.47024437201250252 0 0.22451048220216521 -0.44430468784615551 0 0.2221355499160699 -0.47024437201250252 0 0.22451048220216521 -0.44430468784615551 0 0.21003783955674421 -0.46230079400857171 0 0.25263529837512833 -0.44483514998531992 0 0.23795078293196081 -0.46989989545807909 0 0.24797189258948071 -0.44652898495611432 0 0.23795078293196081 -0.46989989545807909 0 0.24797189258948071 -0.44652898495611432 0 0.22451048220216521 -0.44430468784615551 0 0.25263529837512833 -0.44483514998531992 0 0.23795078293196081 -0.46989989545807909 0 0.25571272495575492 -0.46429116616253269 0 0.25466495386603472 -0.45594833348051678 0 0.23795078293196081 -0.46989989545807909 0 0.25263529837512833 -0.44483514998531992 0 0.25466495386603472 -0.45594833348051678 0 0.23795078293196081 -0.46989989545807909 0 0.24797189258948071 -0.44652898495611432 0 0.23919535229391539 -0.43905783787065938 0 0.22451048220216521 -0.44430468784615551 0 0.24797189258948071 -0.44652898495611432 0 0.22451048220216521 -0.44430468784615551 0 0.24701903219373811 -0.44101208516467671 0 0.24797189258948071 -0.44652898495611432 0 0.23919535229391539 -0.43905783787065938 0 0.25263529837512833 -0.44483514998531992 0 0.24701903219373811 -0.44101208516467671 0 0.24827358551642789 -0.43362636784661318 0 0.24701903219373811 -0.44101208516467671 0 0.23919535229391539 -0.43905783787065938 0 0.24827358551642789 -0.43362636784661318 0 0.25263529837512833 -0.44483514998531992 0 0.24701903219373811 -0.44101208516467671 0 0.24797189258948071 -0.44652898495611432 0 0.23919535229391539 -0.43905783787065938 0 0.22451048220216521 -0.44430468784615551 0 0.22921947730699679 -0.4354083635323226 0 0.22451048220216521 -0.44430468784615551 0 0.2198175771413067 -0.43536769441494377 0 0.22451048220216521 -0.44430468784615551 0 0.2198175771413067 -0.43536769441494377 0 0.22921947730699679 -0.4354083635323226 0 0.22451048220216521 -0.44430468784615551 0 0.21003783955674421 -0.46230079400857171 0 0.2028573069311701 -0.44225182340273173 0 0.22451048220216521 -0.44430468784615551 0 0.2028573069311701 -0.44225182340273173 0 0.22451048220216521 -0.44430468784615551 0 0.2028573069311701 -0.44225182340273173 0 0.2198175771413067 -0.43536769441494377 0 0.1915311769682061 -0.47012967318325061 0 0.21003783955674421 -0.46230079400857171 0 0.2028573069311701 -0.44225182340273173 0 0.1915311769682061 -0.47012967318325061 0 0.2028573069311701 -0.44225182340273173 0 0.18668188755457199 -0.45290458390687471 0 0.1915311769682061 -0.47012967318325061 0 0.2028573069311701 -0.44225182340273173 0 0.2028573069311701 -0.44225182340273173 0 0.18685428604859949 -0.44073463102119359 0 0.2028573069311701 -0.44225182340273173 0 0.18685428604859949 -0.44073463102119359 0 0.18668188755457199 -0.45290458390687471 0 0.2028573069311701 -0.44225182340273173 0 0.19164443817528459 -0.43681864251852992 0 0.18685428604859949 -0.44073463102119359 0 0.19164443817528459 -0.43681864251852992 0 0.20047265204683209 -0.40964220832482517 0 0.2028573069311701 -0.44225182340273173 0 0.20214473301496261 -0.42612788564409321 0 0.19164443817528459 -0.43681864251852992 0 0.19164443817528459 -0.43681864251852992 0 0.1922701558911718 -0.42060656962014531 0 0.18556558978508331 -0.42801384641365359 0 0.19164443817528459 -0.43681864251852992 0 0.1922701558911718 -0.42060656962014531 0 0.20047265204683209 -0.40964220832482517 0 0.20214473301496261 -0.42612788564409321 0 0.19164443817528459 -0.43681864251852992 0 0.20047265204683209 -0.40964220832482517 0 0.1922701558911718 -0.42060656962014531 0 0.20047265204683209 -0.40964220832482517 0 0.18690515398158311 -0.40683904523045128 0 0.20214473301496261 -0.42612788564409321 0 0.20047265204683209 -0.40964220832482517 0 0.21360453490656339 -0.41579886833028579 0 0.20047265204683209 -0.40964220832482517 0 0.21360453490656339 -0.41579886833028579 0 0.21222188491842289 -0.39954412181928212 0 0.21360453490656339 -0.41579886833028579 0 0.21580217853724259 -0.42939796240240669 0 0.2269292951699303 -0.42417346346166551 0 0.2028573069311701 -0.44225182340273173 0 0.21360453490656339 -0.41579886833028579 0 0.2028573069311701 -0.44225182340273173 0 0.21580217853724259 -0.42939796240240669 0 0.2198175771413067 -0.43536769441494377 0 0.2028573069311701 -0.44225182340273173 0 0.20214473301496261 -0.42612788564409321 0 0.21360453490656339 -0.41579886833028579 0 0.2028573069311701 -0.44225182340273173 0 0.21360453490656339 -0.41579886833028579 0 0.21580217853724259 -0.42939796240240669 0 0.2198175771413067 -0.43536769441494377 0 0.2269292951699303 -0.42417346346166551 0 0.22921947730699679 -0.4354083635323226 0 0.21580217853724259 -0.42939796240240669 0 0.2198175771413067 -0.43536769441494377 0 0.2269292951699303 -0.42417346346166551 0 0.2269292951699303 -0.42417346346166551 0 0.22921947730699679 -0.4354083635323226 0 0.23719998690784291 -0.43187554435228559 0 0.23919535229391539 -0.43905783787065938 0 0.22921947730699679 -0.4354083635323226 0 0.23719998690784291 -0.43187554435228559 0 0.23919535229391539 -0.43905783787065938 0 0.23719998690784291 -0.43187554435228559 0 0.24827358551642789 -0.43362636784661318 0 0.2269292951699303 -0.42417346346166551 0 0.23719998690784291 -0.43187554435228559 0 0.2419996013455222 -0.42165693498934059 0 0.23719998690784291 -0.43187554435228559 0 0.24827358551642789 -0.43362636784661318 0 0.2419996013455222 -0.42165693498934059 0 0.2436958264271526 -0.408051313151996 0 0.2419996013455222 -0.42165693498934059 0 0.23071792503288521 -0.40753268715402408 0 0.21360453490656339 -0.41579886833028579 0 0.2269292951699303 -0.42417346346166551 0 0.23071792503288521 -0.40753268715402408 0 0.2269292951699303 -0.42417346346166551 0 0.2419996013455222 -0.42165693498934059 0 0.23071792503288521 -0.40753268715402408 0 0.21360453490656339 -0.41579886833028579 0 0.23071792503288521 -0.40753268715402408 0 0.2243517628819561 -0.38934591325783968 0 0.21360453490656339 -0.41579886833028579 0 0.2243517628819561 -0.38934591325783968 0 0.23071792503288521 -0.40753268715402408 0 0.23871193083615469 -0.39460347867686218 0 0.2243517628819561 -0.38934591325783968 0 0.2436958264271526 -0.408051313151996 0 0.23071792503288521 -0.40753268715402408 0 0.23871193083615469 -0.39460347867686218 0 0.25186898246318867 -0.39708843324282372 0 0.2436958264271526 -0.408051313151996 0 0.23871193083615469 -0.39460347867686218 0 0.23509899085734889 -0.36289295818539369 0 0.24446699196463481 -0.3787350506051812 0 0.2243517628819561 -0.38934591325783968 0 0.23871193083615469 -0.39460347867686218 0 0.24446699196463481 -0.3787350506051812 0 0.2243517628819561 -0.38934591325783968 0 0.25186898246318867 -0.39708843324282372 0 0.23871193083615469 -0.39460347867686218 0 0.24446699196463481 -0.3787350506051812 0 0.23509899085734889 -0.36289295818539369 0 0.2243517628819561 -0.38934591325783968 0 0.2243517628819561 -0.38934591325783968 0 0.20930086591837949 -0.38246577413112037 0 0.21222188491842289 -0.39954412181928212 0 0.22197715464324411 -0.3727082184059376 0 0.2243517628819561 -0.38934591325783968 0 0.20930086591837949 -0.38246577413112037 0 0.21360453490656339 -0.41579886833028579 0 0.2243517628819561 -0.38934591325783968 0 0.21222188491842289 -0.39954412181928212 0 0.20047265204683209 -0.40964220832482517 0 0.20930086591837949 -0.38246577413112037 0 0.20047265204683209 -0.40964220832482517 0 0.20930086591837949 -0.38246577413112037 0 0.21222188491842289 -0.39954412181928212 0 0.20047265204683209 -0.40964220832482517 0 0.20930086591837949 -0.38246577413112037 0 0.19619807657517629 -0.39594032626523029 0 0.20047265204683209 -0.40964220832482517 0 0.19619807657517629 -0.39594032626523029 0 0.18690515398158311 -0.40683904523045128 0 0.19619807657517629 -0.39594032626523029 0 0.18710317999668971 -0.39467167149037669 0 0.18690515398158311 -0.40683904523045128 0 0.19619807657517629 -0.39594032626523029 0 0.19720853093239721 -0.38608293214937822 0 0.18710317999668971 -0.39467167149037669 0 0.19043031547029729 -0.37934042881566399 0 0.19720853093239721 -0.38608293214937822 0 0.18710317999668971 -0.39467167149037669 0 0.19689027694237041 -0.37199823457542758 0 0.19043031547029729 -0.37934042881566399 0 0.19720853093239721 -0.38608293214937822 0 0.19689027694237041 -0.37199823457542758 0 0.20930086591837949 -0.38246577413112037 0 0.19720853093239721 -0.38608293214937822 0 0.20930086591837949 -0.38246577413112037 0 0.19619807657517629 -0.39594032626523029 0 0.19720853093239721 -0.38608293214937822 0 0.17310874902495649 -0.3765904306241995 0 0.18710317999668971 -0.39467167149037669 0 0.17501940508571501 -0.39135301066877309 0 0.17310874902495649 -0.3765904306241995 0 0.18710317999668971 -0.39467167149037669 0 0.17310874902495649 -0.3765904306241995 0 0.1823787960384492 -0.37743544494837949 0 0.18710317999668971 -0.39467167149037669 0 0.19043031547029729 -0.37934042881566399 0 0.1823787960384492 -0.37743544494837949 0 0.18710317999668971 -0.39467167149037669 0 0.18710317999668971 -0.39467167149037669 0 0.1798517919870867 -0.39963361675349252 0 0.17501940508571501 -0.39135301066877309 0 0.18710317999668971 -0.39467167149037669 0 0.1798517919870867 -0.39963361675349252 0 0.18690515398158311 -0.40683904523045128 0 0.1798517919870867 -0.39963361675349252 0 0.17145091355929851 -0.40531695761778258 0 0.18690515398158311 -0.40683904523045128 0 0.1798517919870867 -0.39963361675349252 0 0.17501940508571501 -0.39135301066877309 0 0.17145091355929851 -0.40531695761778258 0 0.17501940508571501 -0.39135301066877309 0 0.17145091355929851 -0.40531695761778258 0 0.16023327855805161 -0.39579848230895148 0 0.17145091355929851 -0.40531695761778258 0 0.16023327855805161 -0.39579848230895148 0 0.15752252533736941 -0.40847121437701461 0 0.1589245510183889 -0.37192046755229119 0 0.17310874902495649 -0.3765904306241995 0 0.1527662536114468 -0.37944978555343112 0 0.17501940508571501 -0.39135301066877309 0 0.16023327855805161 -0.39579848230895148 0 0.1527662536114468 -0.37944978555343112 0 0.17501940508571501 -0.39135301066877309 0 0.1527662536114468 -0.37944978555343112 0 0.17310874902495649 -0.3765904306241995 0 0.17501940508571501 -0.39135301066877309 0 0.1527662536114468 -0.37944978555343112 0 0.16023327855805161 -0.39579848230895148 0 0.1527662536114468 -0.37944978555343112 0 0.1444072951964282 -0.39440144332775612 0 0.13051310213717859 -0.36754656043808909 0 0.1527662536114468 -0.37944978555343112 0 0.1444072951964282 -0.39440144332775612 0 0.13051310213717859 -0.36754656043808909 0 0.1271295551360567 -0.39420498256280928 0 0.1444072951964282 -0.39440144332775612 0 0.1271295551360567 -0.39420498256280928 0 0.1444072951964282 -0.39440144332775612 0 0.14399564629234129 -0.40751756902157787 0 0.1271295551360567 -0.39420498256280928 0 0.14399564629234129 -0.40751756902157787 0 0.13240106959053241 -0.41517194668310881 0 0.16023327855805161 -0.39579848230895148 0 0.1444072951964282 -0.39440144332775612 0 0.15752252533736941 -0.40847121437701461 0 0.1444072951964282 -0.39440144332775612 0 0.14399564629234129 -0.40751756902157787 0 0.15752252533736941 -0.40847121437701461 0 0.14399564629234129 -0.40751756902157787 0 0.14800446824338021 -0.42387990016654709 0 0.15752252533736941 -0.40847121437701461 0 0.14399564629234129 -0.40751756902157787 0 0.13240106959053241 -0.41517194668310881 0 0.14800446824338021 -0.42387990016654709 0 0.14800446824338021 -0.42387990016654709 0 0.16269242445885229 -0.42388974343562619 0 0.15752252533736941 -0.40847121437701461 0 0.13344201599251879 -0.43532582983253731 0 0.1224111102215333 -0.44467792579444021 0 0.1207242030152797 -0.42729137993425442 0 0.13240106959053241 -0.41517194668310881 0 0.13344201599251879 -0.43532582983253731 0 0.14800446824338021 -0.42387990016654709 0 0.13240106959053241 -0.41517194668310881 0 0.13344201599251879 -0.43532582983253731 0 0.1207242030152797 -0.42729137993425442 0 0.14800446824338021 -0.42387990016654709 0 0.15842192868248281 -0.43596859069599231 0 0.1469948287597958 -0.4408990351065174 0 0.13344201599251879 -0.43532582983253731 0 0.14800446824338021 -0.42387990016654709 0 0.1469948287597958 -0.4408990351065174 0 0.15842192868248281 -0.43596859069599231 0 0.16269242445885229 -0.42388974343562619 0 0.17085126516602861 -0.43921743863965762 0 0.16269242445885229 -0.42388974343562619 0 0.17250490771399599 -0.42528612233783991 0 0.17085126516602861 -0.43921743863965762 0 0.14800446824338021 -0.42387990016654709 0 0.15842192868248281 -0.43596859069599231 0 0.16269242445885229 -0.42388974343562619 0 0.16269242445885229 -0.42388974343562619 0 0.15752252533736941 -0.40847121437701461 0 0.1687218727878759 -0.41538154782849263 0 0.17145091355929851 -0.40531695761778258 0 0.15752252533736941 -0.40847121437701461 0 0.1687218727878759 -0.41538154782849263 0 0.16269242445885229 -0.42388974343562619 0 0.1687218727878759 -0.41538154782849263 0 0.17250490771399599 -0.42528612233783991 0 0.1687218727878759 -0.41538154782849263 0 0.1804905784321191 -0.41882008732886372 0 0.17250490771399599 -0.42528612233783991 0 0.17145091355929851 -0.40531695761778258 0 0.1687218727878759 -0.41538154782849263 0 0.1804905784321191 -0.41882008732886372 0 0.17145091355929851 -0.40531695761778258 0 0.18690515398158311 -0.40683904523045128 0 0.1804905784321191 -0.41882008732886372 0 0.1922701558911718 -0.42060656962014531 0 0.18690515398158311 -0.40683904523045128 0 0.1804905784321191 -0.41882008732886372 0 0.1922701558911718 -0.42060656962014531 0 0.1804905784321191 -0.41882008732886372 0 0.18556558978508331 -0.42801384641365359 0 0.1804905784321191 -0.41882008732886372 0 0.17976839772510411 -0.42912179445655901 0 0.18556558978508331 -0.42801384641365359 0 0.19164443817528459 -0.43681864251852992 0 0.18365437870173679 -0.4347021381441703 0 0.18685428604859949 -0.44073463102119359 0 0.19164443817528459 -0.43681864251852992 0 0.18556558978508331 -0.42801384641365359 0 0.18365437870173679 -0.4347021381441703 0 0.17976839772510411 -0.42912179445655901 0 0.18556558978508331 -0.42801384641365359 0 0.18365437870173679 -0.4347021381441703 0 0.17976839772510411 -0.42912179445655901 0 0.18365437870173679 -0.4347021381441703 0 0.17085126516602861 -0.43921743863965762 0 0.17976839772510411 -0.42912179445655901 0 0.17250490771399599 -0.42528612233783991 0 0.17085126516602861 -0.43921743863965762 0 0.1804905784321191 -0.41882008732886372 0 0.17976839772510411 -0.42912179445655901 0 0.17250490771399599 -0.42528612233783991 0 0.17631717317614309 -0.44975589597711652 0 0.18685428604859949 -0.44073463102119359 0 0.17085126516602861 -0.43921743863965762 0 0.18365437870173679 -0.4347021381441703 0 0.18685428604859949 -0.44073463102119359 0 0.17085126516602861 -0.43921743863965762 0 0.18685428604859949 -0.44073463102119359 0 0.17085126516602861 -0.43921743863965762 0 0.17631717317614309 -0.44975589597711652 0 0.18685428604859949 -0.44073463102119359 0 0.18668188755457199 -0.45290458390687471 0 0.1915311769682061 -0.47012967318325061 0 0.18668188755457199 -0.45290458390687471 0 0.17584949464874131 -0.46165089595008107 0 0.17631717317614309 -0.44975589597711652 0 0.18668188755457199 -0.45290458390687471 0 0.17584949464874131 -0.46165089595008107 0 0.17631717317614309 -0.44975589597711652 0 0.17584949464874131 -0.46165089595008107 0 0.15890542422653381 -0.45401727103783368 0 0.17584949464874131 -0.46165089595008107 0 0.15890542422653381 -0.45401727103783368 0 0.16195934490803221 -0.47215723566967149 0 0.17631717317614309 -0.44975589597711652 0 0.15890542422653381 -0.45401727103783368 0 0.17085126516602861 -0.43921743863965762 0 0.15842192868248281 -0.43596859069599231 0 0.15890542422653381 -0.45401727103783368 0 0.17085126516602861 -0.43921743863965762 0 0.15842192868248281 -0.43596859069599231 0 0.15890542422653381 -0.45401727103783368 0 0.1469948287597958 -0.4408990351065174 0 0.15890542422653381 -0.45401727103783368 0 0.1469948287597958 -0.4408990351065174 0 0.1354236525146138 -0.46047691704941512 0 0.13344201599251879 -0.43532582983253731 0 0.1469948287597958 -0.4408990351065174 0 0.1354236525146138 -0.46047691704941512 0 0.13344201599251879 -0.43532582983253731 0 0.1354236525146138 -0.46047691704941512 0 0.1224111102215333 -0.44467792579444021 0 0.1354236525146138 -0.46047691704941512 0 0.12746138320273351 -0.48023845852470698 0 0.113189568141478 -0.45859552203128229 0 0.15890542422653381 -0.45401727103783368 0 0.1354236525146138 -0.46047691704941512 0 0.14569321230895041 -0.47566457410252672 0 0.15890542422653381 -0.45401727103783368 0 0.14569321230895041 -0.47566457410252672 0 0.16195934490803221 -0.47215723566967149 0 0.14569321230895041 -0.47566457410252672 0 0.15949114326838851 -0.48754319556822689 0 0.16195934490803221 -0.47215723566967149 0 0.1354236525146138 -0.46047691704941512 0 0.12746138320273351 -0.48023845852470698 0 0.1354236525146138 -0.46047691704941512 0 0.14569321230895041 -0.47566457410252672 0 0.12746138320273351 -0.48023845852470698 0 0.14569321230895041 -0.47566457410252672 0 0.12746138320273351 -0.48023845852470698 0 0.1463506211747955 -0.5 0 0.12746138320273351 -0.48023845852470698 0 0.1463506211747955 -0.5 0 0.1194991138908534 -0.49999999999999911 0 0.14569321230895041 -0.47566457410252672 0 0.1463506211747955 -0.5 0 0.15949114326838851 -0.48754319556822689 0 0.1463506211747955 -0.5 0 0.15949114326838851 -0.48754319556822689 0 0.17320212845873759 -0.5 0 0.15949114326838851 -0.48754319556822689 0 0.1725119777858716 -0.48427159518956142 0 0.17320212845873759 -0.5 0 0.17584949464874131 -0.46165089595008107 0 0.16195934490803221 -0.47215723566967149 0 0.1725119777858716 -0.48427159518956142 0 0.15949114326838851 -0.48754319556822689 0 0.16195934490803221 -0.47215723566967149 0 0.1725119777858716 -0.48427159518956142 0 0.1915311769682061 -0.47012967318325061 0 0.18020504700524159 -0.49800752296376938 0 0.1915311769682061 -0.47012967318325061 0 0.17584949464874131 -0.46165089595008107 0 0.1725119777858716 -0.48427159518956142 0 0.1915311769682061 -0.47012967318325061 0 0.1725119777858716 -0.48427159518956142 0 0.18020504700524159 -0.49800752296376938 0 0.20005363574267959 -0.5 0 0.17320212845873759 -0.5 0 0.18020504700524159 -0.49800752296376938 0 0.1725119777858716 -0.48427159518956142 0 0.17320212845873759 -0.5 0 0.18020504700524159 -0.49800752296376938 0 0.065103422714369308 -0.5 0 0.073324087130090601 -0.48540711124660008 0 0.054903448894268361 -0.47937521450655279 0 0.065103422714369308 -0.5 0 0.073324087130090601 -0.48540711124660008 0 0.087954554136954188 -0.5 0 0.073324087130090601 -0.48540711124660008 0 0.07182495370891516 -0.46837484974445232 0 0.054903448894268361 -0.47937521450655279 0 0.073324087130090601 -0.48540711124660008 0 0.086834056195946002 -0.47928549198199549 0 0.07182495370891516 -0.46837484974445232 0 0.086834056195946002 -0.47928549198199549 0 0.08683754292265522 -0.46073049747511041 0 0.07182495370891516 -0.46837484974445232 0 0.086834056195946002 -0.47928549198199549 0 0.10426813496943289 -0.47447878906635199 0 0.08683754292265522 -0.46073049747511041 0 0.073324087130090601 -0.48540711124660008 0 0.086834056195946002 -0.47928549198199549 0 0.087954554136954188 -0.5 0 0.086834056195946002 -0.47928549198199549 0 0.087954554136954188 -0.5 0 0.097465607715468028 -0.48844107026208688 0 0.087954554136954188 -0.5 0 0.097465607715468028 -0.48844107026208688 0 0.1108056855595391 -0.49999999999999972 0 0.097465607715468028 -0.48844107026208688 0 0.1108056855595391 -0.49999999999999972 0 0.10426813496943289 -0.47447878906635199 0 0.1108056855595391 -0.49999999999999972 0 0.10426813496943289 -0.47447878906635199 0 0.12746138320273351 -0.48023845852470698 0 0.1194991138908534 -0.49999999999999911 0 0.1108056855595391 -0.49999999999999972 0 0.1151523997251962 -0.48676379389871632 0 0.10426813496943289 -0.47447878906635199 0 0.1108056855595391 -0.49999999999999972 0 0.1151523997251962 -0.48676379389871632 0 0.1194991138908534 -0.49999999999999911 0 0.12746138320273351 -0.48023845852470698 0 0.1151523997251962 -0.48676379389871632 0 0.1194991138908534 -0.49999999999999911 0 0.12746138320273351 -0.48023845852470698 0 0.1151523997251962 -0.48676379389871632 0 0.10426813496943289 -0.47447878906635199 0 0.12746138320273351 -0.48023845852470698 0 0.10426813496943289 -0.47447878906635199 0 0.113189568141478 -0.45859552203128229 0 0.086834056195946002 -0.47928549198199549 0 0.097465607715468028 -0.48844107026208688 0 0.10426813496943289 -0.47447878906635199 0 0.10426813496943289 -0.47447878906635199 0 0.113189568141478 -0.45859552203128229 0 0.097730584379326579 -0.4489575781327042 0 0.10426813496943289 -0.47447878906635199 0 0.097730584379326579 -0.4489575781327042 0 0.08683754292265522 -0.46073049747511041 0 0.10426813496943289 -0.47447878906635199 0 0.097730584379326579 -0.4489575781327042 0 0.1354236525146138 -0.46047691704941512 0 0.113189568141478 -0.45859552203128229 0 0.1224111102215333 -0.44467792579444021 0 0.1224111102215333 -0.44467792579444021 0 0.10927883550336551 -0.44085759050986012 0 0.1207242030152797 -0.42729137993425442 0 0.113189568141478 -0.45859552203128229 0 0.1224111102215333 -0.44467792579444021 0 0.10927883550336551 -0.44085759050986012 0 0.10927883550336551 -0.44085759050986012 0 0.097730584379326579 -0.4489575781327042 0 0.097925689873200078 -0.4365424904418691 0 0.113189568141478 -0.45859552203128229 0 0.10927883550336551 -0.44085759050986012 0 0.097730584379326579 -0.4489575781327042 0 0.097730584379326579 -0.4489575781327042 0 0.087231262133171228 -0.44251177238591072 0 0.097925689873200078 -0.4365424904418691 0 0.087231262133171228 -0.44251177238591072 0 0.08683754292265522 -0.46073049747511041 0 0.073804935431522639 -0.45154380014289131 0 0.097730584379326579 -0.4489575781327042 0 0.087231262133171228 -0.44251177238591072 0 0.08683754292265522 -0.46073049747511041 0 0.087231262133171228 -0.44251177238591072 0 0.073547023199318121 -0.43972844077220219 0 0.073804935431522639 -0.45154380014289131 0 0.07182495370891516 -0.46837484974445232 0 0.073804935431522639 -0.45154380014289131 0 0.05978486853259006 -0.45761018829386663 0 0.08683754292265522 -0.46073049747511041 0 0.07182495370891516 -0.46837484974445232 0 0.073804935431522639 -0.45154380014289131 0 0.065259175641918882 -0.44566739578098719 0 0.073804935431522639 -0.45154380014289131 0 0.05978486853259006 -0.45761018829386663 0 0.065259175641918882 -0.44566739578098719 0 0.073547023199318121 -0.43972844077220219 0 0.066211117733072589 -0.43603709250012967 0 0.065259175641918882 -0.44566739578098719 0 0.073547023199318121 -0.43972844077220219 0 0.073804935431522639 -0.45154380014289131 0 0.073547023199318121 -0.43972844077220219 0 0.069896473786004484 -0.42204046017193031 0 0.066211117733072589 -0.43603709250012967 0 0.087231262133171228 -0.44251177238591072 0 0.073547023199318121 -0.43972844077220219 0 0.069896473786004484 -0.42204046017193031 0 0.069896473786004484 -0.42204046017193031 0 0.083872643525673266 -0.40586970224329649 0 0.068366080923945513 -0.40434983966925803 0 0.069896473786004484 -0.42204046017193031 0 0.068366080923945513 -0.40434983966925803 0 0.052561685438837741 -0.40156914795794979 0 0.090351191920293145 -0.42412449290448218 0 0.09881700781710763 -0.41148126655886852 0 0.083872643525673266 -0.40586970224329649 0 0.069896473786004484 -0.42204046017193031 0 0.090351191920293145 -0.42412449290448218 0 0.083872643525673266 -0.40586970224329649 0 0.087231262133171228 -0.44251177238591072 0 0.069896473786004484 -0.42204046017193031 0 0.090351191920293145 -0.42412449290448218 0 0.087231262133171228 -0.44251177238591072 0 0.090351191920293145 -0.42412449290448218 0 0.097925689873200078 -0.4365424904418691 0 0.087231262133171228 -0.44251177238591072 0 0.069896473786004484 -0.42204046017193031 0 0.090351191920293145 -0.42412449290448218 0 0.1059970883158927 -0.42424699795622911 0 0.097925689873200078 -0.4365424904418691 0 0.10927883550336551 -0.44085759050986012 0 0.1059970883158927 -0.42424699795622911 0 0.097925689873200078 -0.4365424904418691 0 0.10927883550336551 -0.44085759050986012 0 0.1059970883158927 -0.42424699795622911 0 0.1207242030152797 -0.42729137993425442 0 0.13240106959053241 -0.41517194668310881 0 0.1207242030152797 -0.42729137993425442 0 0.1138445232088411 -0.40800144148281831 0 0.1059970883158927 -0.42424699795622911 0 0.1207242030152797 -0.42729137993425442 0 0.1138445232088411 -0.40800144148281831 0 0.1059970883158927 -0.42424699795622911 0 0.1138445232088411 -0.40800144148281831 0 0.09881700781710763 -0.41148126655886852 0 0.090351191920293145 -0.42412449290448218 0 0.1059970883158927 -0.42424699795622911 0 0.09881700781710763 -0.41148126655886852 0 0.1138445232088411 -0.40800144148281831 0 0.09881700781710763 -0.41148126655886852 0 0.100019592114838 -0.39516369820751662 0 0.1138445232088411 -0.40800144148281831 0 0.100019592114838 -0.39516369820751662 0 0.1125265821136805 -0.38848715890165247 0 0.09881700781710763 -0.41148126655886852 0 0.100019592114838 -0.39516369820751662 0 0.083872643525673266 -0.40586970224329649 0 0.1271295551360567 -0.39420498256280928 0 0.1138445232088411 -0.40800144148281831 0 0.1125265821136805 -0.38848715890165247 0 0.1271295551360567 -0.39420498256280928 0 0.13240106959053241 -0.41517194668310881 0 0.1138445232088411 -0.40800144148281831 0 0.13051310213717859 -0.36754656043808909 0 0.1271295551360567 -0.39420498256280928 0 0.1125265821136805 -0.38848715890165247 0 0.13051310213717859 -0.36754656043808909 0 0.1125265821136805 -0.38848715890165247 0 0.10526129348521621 -0.37420965642663939 0 0.100019592114838 -0.39516369820751662 0 0.1125265821136805 -0.38848715890165247 0 0.10526129348521621 -0.37420965642663939 0 0.100019592114838 -0.39516369820751662 0 0.092937257131231521 -0.38108199574319529 0 0.10526129348521621 -0.37420965642663939 0 0.092937257131231521 -0.38108199574319529 0 0.082223994090069044 -0.37903146932620713 0 0.089140180544142883 -0.36676520956777953 0 0.082223994090069044 -0.37903146932620713 0 0.086567766809477281 -0.39074860806406297 0 0.073785347185574612 -0.39259617480009917 0 0.100019592114838 -0.39516369820751662 0 0.092937257131231521 -0.38108199574319529 0 0.086567766809477281 -0.39074860806406297 0 0.092937257131231521 -0.38108199574319529 0 0.082223994090069044 -0.37903146932620713 0 0.086567766809477281 -0.39074860806406297 0 0.100019592114838 -0.39516369820751662 0 0.086567766809477281 -0.39074860806406297 0 0.083872643525673266 -0.40586970224329649 0 0.086567766809477281 -0.39074860806406297 0 0.083872643525673266 -0.40586970224329649 0 0.073785347185574612 -0.39259617480009917 0 0.083872643525673266 -0.40586970224329649 0 0.073785347185574612 -0.39259617480009917 0 0.068366080923945513 -0.40434983966925803 0 0.073785347185574612 -0.39259617480009917 0 0.060293847976171239 -0.38669187640898511 0 0.062118148236372239 -0.39602464323671988 0 0.073785347185574612 -0.39259617480009917 0 0.068366080923945513 -0.40434983966925803 0 0.062118148236372239 -0.39602464323671988 0 0.073785347185574612 -0.39259617480009917 0 0.070781789378480467 -0.37970355015002782 0 0.060293847976171239 -0.38669187640898511 0 0.070781789378480467 -0.37970355015002782 0 0.059098870892386579 -0.37682530815890142 0 0.066574804624867909 -0.37081013146750502 0 0.070781789378480467 -0.37970355015002782 0 0.059098870892386579 -0.37682530815890142 0 0.060293847976171239 -0.38669187640898511 0 0.082223994090069044 -0.37903146932620713 0 0.070781789378480467 -0.37970355015002782 0 0.076617488481454041 -0.36707769799892698 0 0.082223994090069044 -0.37903146932620713 0 0.073785347185574612 -0.39259617480009917 0 0.070781789378480467 -0.37970355015002782 0 0.049351188314067762 -0.38708238941692807 0 0.052862704060863283 -0.38042178129951382 0 0.060293847976171239 -0.38669187640898511 0 0.052862704060863283 -0.38042178129951382 0 0.059098870892386579 -0.37682530815890142 0 0.050251492880901423 -0.37289633439820441 0 0.049351188314067762 -0.38708238941692807 0 0.052862704060863283 -0.38042178129951382 0 0.045318120240789392 -0.37861299811455001 0 0.052862704060863283 -0.38042178129951382 0 0.045318120240789392 -0.37861299811455001 0 0.050251492880901423 -0.37289633439820441 0 0.052862704060863283 -0.38042178129951382 0 0.059098870892386579 -0.37682530815890142 0 0.060293847976171239 -0.38669187640898511 0 0.049351188314067762 -0.38708238941692807 0 0.060293847976171239 -0.38669187640898511 0 0.056081217491362252 -0.3928420142551457 0 0.060293847976171239 -0.38669187640898511 0 0.062118148236372239 -0.39602464323671988 0 0.056081217491362252 -0.3928420142551457 0 0.062118148236372239 -0.39602464323671988 0 0.056081217491362252 -0.3928420142551457 0 0.052561685438837741 -0.40156914795794979 0 0.068366080923945513 -0.40434983966925803 0 0.062118148236372239 -0.39602464323671988 0 0.052561685438837741 -0.40156914795794979 0 0.049351188314067762 -0.38708238941692807 0 0.056081217491362252 -0.3928420142551457 0 0.052561685438837741 -0.40156914795794979 0 0.052561685438837741 -0.40156914795794979 0 0.03522689709167115 -0.3810978357439696 0 0.037096927083253177 -0.40267520161553749 0 0.034125464078810237 -0.38786822092598539 0 0.050168290905941451 -0.41195265671305759 0 0.034125464078810237 -0.38786822092598539 0 0.050168290905941451 -0.41195265671305759 0 0.052561685438837741 -0.40156914795794979 0 0.034125464078810237 -0.38786822092598539 0 0.050168290905941451 -0.41195265671305759 0 0.037096927083253177 -0.40267520161553749 0 0.030564923844285989 -0.39670593954238292 0 0.030321993771234599 -0.40427492137098731 0 0.034125464078810237 -0.38786822092598539 0 0.029525221198283481 -0.39113438944256551 0 0.030564923844285989 -0.39670593954238292 0 0.037096927083253177 -0.40267520161553749 0 0.034125464078810237 -0.38786822092598539 0 0.030564923844285989 -0.39670593954238292 0 0.049351188314067762 -0.38708238941692807 0 0.052561685438837741 -0.40156914795794979 0 0.03522689709167115 -0.3810978357439696 0 0.052561685438837741 -0.40156914795794979 0 0.034125464078810237 -0.38786822092598539 0 0.03522689709167115 -0.3810978357439696 0 0.049351188314067762 -0.38708238941692807 0 0.045318120240789392 -0.37861299811455001 0 0.03522689709167115 -0.3810978357439696 0 0.045318120240789392 -0.37861299811455001 0 0.03522689709167115 -0.3810978357439696 0 0.040393679305873183 -0.37214177666348031 0 0.034125464078810237 -0.38786822092598539 0 0.03522689709167115 -0.3810978357439696 0 0.031101114544173261 -0.37224831155107851 0 0.03522689709167115 -0.3810978357439696 0 0.040393679305873183 -0.37214177666348031 0 0.031101114544173261 -0.37224831155107851 0 0.034125464078810237 -0.38786822092598539 0 0.01808263725167919 -0.36378378513891352 0 0.034125464078810237 -0.38786822092598539 0 0.022369484585921071 -0.37929554194519888 0 0.01808263725167919 -0.36378378513891352 0 0.034125464078810237 -0.38786822092598539 0 0.024871844481241051 -0.38794437745703209 0 0.029525221198283481 -0.39113438944256551 0 0.034125464078810237 -0.38786822092598539 0 0.024871844481241051 -0.38794437745703209 0 0.022369484585921071 -0.37929554194519888 0 0.024871844481241051 -0.38794437745703209 0 0.016862964720009029 -0.38330831011025318 0 0.014843963304895531 -0.39211223106426951 0 0.024871844481241051 -0.38794437745703209 0 0.016862964720009029 -0.38330831011025318 0 0.022369484585921071 -0.37929554194519888 0 0.016862964720009029 -0.38330831011025318 0 0.022369484585921071 -0.37929554194519888 0 0.01790451239786588 -0.37357301609381022 0 0.016862964720009029 -0.38330831011025318 0 0.013161563691787731 -0.37830627156774532 0 0.01790451239786588 -0.37357301609381022 0 0.016862964720009029 -0.38330831011025318 0 0.013161563691787731 -0.37830627156774532 0 0.008128558531585995 -0.3857719851584242 0 0.013161563691787731 -0.37830627156774532 0 0.008128558531585995 -0.3857719851584242 0 0.0072716361955047232 -0.37739596970801342 0 0.013161563691787731 -0.37830627156774532 0 0.0072716361955047232 -0.37739596970801342 0 0.012113544340059739 -0.37262793853163961 0 0.016862964720009029 -0.38330831011025318 0 0.008128558531585995 -0.3857719851584242 0 0.014843963304895531 -0.39211223106426951 0 -0.0019023268811386069 -0.38812108031404702 0 0.008128558531585995 -0.3857719851584242 0 0.0046112937987620997 -0.39629612094955691 0 -0.0019023268811386069 -0.38812108031404702 0 0.008128558531585995 -0.3857719851584242 0 0.0023126715974343039 -0.38121453777462277 0 0.008128558531585995 -0.3857719851584242 0 0.0023126715974343039 -0.38121453777462277 0 0.0072716361955047232 -0.37739596970801342 0 0.0023126715974343039 -0.38121453777462277 0 0.0072716361955047232 -0.37739596970801342 0 0.00083080919627883981 -0.37495933448478602 0 -0.0040835555638557286 -0.39851387390366932 0 0.0046086086085545663 -0.4058911627348869 0 0.0046112937987620997 -0.39629612094955691 0 0.0046086086085545663 -0.4058911627348869 0 0.0046112937987620997 -0.39629612094955691 0 0.011565495098515731 -0.39869910333154179 0 0.0046112937987620997 -0.39629612094955691 0 0.014843963304895531 -0.39211223106426951 0 0.011565495098515731 -0.39869910333154179 0 0.008128558531585995 -0.3857719851584242 0 0.0046112937987620997 -0.39629612094955691 0 0.014843963304895531 -0.39211223106426951 0 0.0046086086085545663 -0.4058911627348869 0 0.011565495098515731 -0.39869910333154179 0 0.01493505906973425 -0.40592388012888903 0 0.01493505906973425 -0.40592388012888903 0 0.022508104658168961 -0.39732000227645459 0 0.024964806412868131 -0.41158737045031352 0 0.011565495098515731 -0.39869910333154179 0 0.01493505906973425 -0.40592388012888903 0 0.022508104658168961 -0.39732000227645459 0 0.014843963304895531 -0.39211223106426951 0 0.011565495098515731 -0.39869910333154179 0 0.022508104658168961 -0.39732000227645459 0 0.024871844481241051 -0.38794437745703209 0 0.014843963304895531 -0.39211223106426951 0 0.022508104658168961 -0.39732000227645459 0 0.024871844481241051 -0.38794437745703209 0 0.022508104658168961 -0.39732000227645459 0 0.029525221198283481 -0.39113438944256551 0 0.022508104658168961 -0.39732000227645459 0 0.029525221198283481 -0.39113438944256551 0 0.030564923844285989 -0.39670593954238292 0 0.022508104658168961 -0.39732000227645459 0 0.030564923844285989 -0.39670593954238292 0 0.030321993771234599 -0.40427492137098731 0 0.022508104658168961 -0.39732000227645459 0 0.030321993771234599 -0.40427492137098731 0 0.024964806412868131 -0.41158737045031352 0 0.024964806412868131 -0.41158737045031352 0 0.01804802526854124 -0.42642337400008679 0 0.034321808785502811 -0.4240338008032189 0 0.030321993771234599 -0.40427492137098731 0 0.024964806412868131 -0.41158737045031352 0 0.037981389994237863 -0.41257216880948011 0 0.024964806412868131 -0.41158737045031352 0 0.01424648788479733 -0.41499726253337049 0 0.01804802526854124 -0.42642337400008679 0 0.01493505906973425 -0.40592388012888903 0 0.024964806412868131 -0.41158737045031352 0 0.01424648788479733 -0.41499726253337049 0 0.0046086086085545663 -0.4058911627348869 0 0.01493505906973425 -0.40592388012888903 0 0.01424648788479733 -0.41499726253337049 0 0.01424648788479733 -0.41499726253337049 0 0.0028022247942034251 -0.41946384022854472 0 0.01804802526854124 -0.42642337400008679 0 0.0046086086085545663 -0.4058911627348869 0 0.01424648788479733 -0.41499726253337049 0 0.0028022247942034251 -0.41946384022854472 0 -0.006097273337609779 -0.40725715184949118 0 0.0046086086085545663 -0.4058911627348869 0 0.0028022247942034251 -0.41946384022854472 0 -0.0082599908264913632 -0.42809619331814092 0 0.0028022247942034251 -0.41946384022854472 0 0.0075572732535143317 -0.43656391431578739 0 0.0028022247942034251 -0.41946384022854472 0 0.0075572732535143317 -0.43656391431578739 0 0.01804802526854124 -0.42642337400008679 0 0.0075572732535143317 -0.43656391431578739 0 0.01804802526854124 -0.42642337400008679 0 0.027287794360870501 -0.44009349117191038 0 0.01804802526854124 -0.42642337400008679 0 0.034321808785502811 -0.4240338008032189 0 0.027287794360870501 -0.44009349117191038 0 0.04249210421230952 -0.43690005563391671 0 0.034321808785502811 -0.4240338008032189 0 0.027287794360870501 -0.44009349117191038 0 0.04249210421230952 -0.43690005563391671 0 0.044329186446120501 -0.42226219049426628 0 0.034321808785502811 -0.4240338008032189 0 0.04249210421230952 -0.43690005563391671 0 0.044329186446120501 -0.42226219049426628 0 0.052249866653983512 -0.42916225246932882 0 0.024964806412868131 -0.41158737045031352 0 0.034321808785502811 -0.4240338008032189 0 0.037981389994237863 -0.41257216880948011 0 0.044329186446120501 -0.42226219049426628 0 0.034321808785502811 -0.4240338008032189 0 0.037981389994237863 -0.41257216880948011 0 0.037096927083253177 -0.40267520161553749 0 0.030321993771234599 -0.40427492137098731 0 0.037981389994237863 -0.41257216880948011 0 0.037096927083253177 -0.40267520161553749 0 0.037981389994237863 -0.41257216880948011 0 0.050168290905941451 -0.41195265671305759 0 0.044329186446120501 -0.42226219049426628 0 0.037981389994237863 -0.41257216880948011 0 0.050168290905941451 -0.41195265671305759 0 0.069896473786004484 -0.42204046017193031 0 0.052561685438837741 -0.40156914795794979 0 0.044329186446120501 -0.42226219049426628 0 0.050168290905941451 -0.41195265671305759 0 0.052249866653983512 -0.42916225246932882 0 0.069896473786004484 -0.42204046017193031 0 0.052561685438837741 -0.40156914795794979 0 0.050168290905941451 -0.41195265671305759 0 0.066211117733072589 -0.43603709250012967 0 0.050168290905941451 -0.41195265671305759 0 0.069896473786004484 -0.42204046017193031 0 0.066211117733072589 -0.43603709250012967 0 0.050168290905941451 -0.41195265671305759 0 0.066211117733072589 -0.43603709250012967 0 0.050168290905941451 -0.41195265671305759 0 0.052249866653983512 -0.42916225246932882 0 0.066211117733072589 -0.43603709250012967 0 0.052249866653983512 -0.42916225246932882 0 0.055314602520596529 -0.44317091553046528 0 0.04249210421230952 -0.43690005563391671 0 0.052249866653983512 -0.42916225246932882 0 0.055314602520596529 -0.44317091553046528 0 0.04249210421230952 -0.43690005563391671 0 0.055314602520596529 -0.44317091553046528 0 0.043343454970130917 -0.46211394368697689 0 0.055314602520596529 -0.44317091553046528 0 0.043343454970130917 -0.46211394368697689 0 0.065259175641918882 -0.44566739578098719 0 0.066211117733072589 -0.43603709250012967 0 0.055314602520596529 -0.44317091553046528 0 0.065259175641918882 -0.44566739578098719 0 0.055314602520596529 -0.44317091553046528 0 0.05978486853259006 -0.45761018829386663 0 0.05978486853259006 -0.45761018829386663 0 0.043343454970130917 -0.46211394368697689 0 0.054903448894268361 -0.47937521450655279 0 0.055314602520596529 -0.44317091553046528 0 0.05978486853259006 -0.45761018829386663 0 0.043343454970130917 -0.46211394368697689 0 0.07182495370891516 -0.46837484974445232 0 0.05978486853259006 -0.45761018829386663 0 0.054903448894268361 -0.47937521450655279 0 0.04249210421230952 -0.43690005563391671 0 0.043343454970130917 -0.46211394368697689 0 0.027287794360870501 -0.44009349117191038 0 0.027287794360870501 -0.44009349117191038 0 0.013671953577505081 -0.46006232744794029 0 0.0075572732535143317 -0.43656391431578739 0 0.027287794360870501 -0.44009349117191038 0 0.013671953577505081 -0.46006232744794029 0 -0.0082063676535428925 -0.44524425972810189 0 0.0075572732535143317 -0.43656391431578739 0 0.013671953577505081 -0.46006232744794029 0 -0.0097957142331583924 -0.46367350718703881 0 0.013671953577505081 -0.46006232744794029 0 5.6112794139664267e-05 -0.48003116372397031 0 0.043343454970130917 -0.46211394368697689 0 0.013671953577505081 -0.46006232744794029 0 0.031372307419665298 -0.48105697184348861 0 0.043343454970130917 -0.46211394368697689 0 0.027287794360870501 -0.44009349117191038 0 0.013671953577505081 -0.46006232744794029 0 0.013671953577505081 -0.46006232744794029 0 0.01482264280616514 -0.484298268143738 0 0.031372307419665298 -0.48105697184348861 0 0.013671953577505081 -0.46006232744794029 0 5.6112794139664267e-05 -0.48003116372397031 0 0.013671953577505081 -0.46006232744794029 0 0.01482264280616514 -0.484298268143738 0 5.6112794139664267e-05 -0.48003116372397031 0 0.01482264280616514 -0.484298268143738 0 0.0029207159399868838 -0.5 0 0.019401159869199561 -0.50000000000000022 0 0.01482264280616514 -0.484298268143738 0 5.6112794139664267e-05 -0.48003116372397031 0 0.0029207159399868838 -0.5 0 0.019401159869199561 -0.50000000000000022 0 0.042252291291784427 -0.5 0 0.031372307419665298 -0.48105697184348861 0 0.019401159869199561 -0.50000000000000022 0 0.031372307419665298 -0.48105697184348861 0 0.01482264280616514 -0.484298268143738 0 0.019401159869199561 -0.50000000000000022 0 0.031372307419665298 -0.48105697184348861 0 0.042252291291784427 -0.5 0 0.031372307419665298 -0.48105697184348861 0 0.054903448894268361 -0.47937521450655279 0 0.043343454970130917 -0.46211394368697689 0 0.031372307419665298 -0.48105697184348861 0 0.043343454970130917 -0.46211394368697689 0 0.031372307419665298 -0.48105697184348861 0 0.054903448894268361 -0.47937521450655279 0 0.065103422714369308 -0.5 0 0.042252291291784427 -0.5 0 0.054903448894268361 -0.47937521450655279 0 0.080498337639898512 -0.29297153920991531 0 0.076616789065301741 -0.2682117956753729 0 0.105381186761848 -0.28908430986574979 0 0.080498337639898512 -0.29297153920991531 0 0.105381186761848 -0.28908430986574979 0 0.091134281719600266 -0.31318922272693739 0 0.080498337639898512 -0.29297153920991531 0 0.063148348304658306 -0.31063867301566261 0 0.091134281719600266 -0.31318922272693739 0 0.080498337639898512 -0.29297153920991531 0 0.063148348304658306 -0.31063867301566261 0 0.05470572945442749 -0.28416599925583302 0 0.080498337639898512 -0.29297153920991531 0 0.076616789065301741 -0.2682117956753729 0 0.05470572945442749 -0.28416599925583302 0 0.076616789065301741 -0.2682117956753729 0 0.055472053722707589 -0.25771443812942069 0 0.077745524782181524 -0.24239224933435519 0 0.076616789065301741 -0.2682117956753729 0 0.10212968042667139 -0.25906173996291992 0 0.077745524782181524 -0.24239224933435519 0 0.076616789065301741 -0.2682117956753729 0 0.10212968042667139 -0.25906173996291992 0 0.105381186761848 -0.28908430986574979 0 0.10212968042667139 -0.25906173996291992 0 0.1247109941767834 -0.26487205333737063 0 0.12667741575706271 -0.2414737984356386 0 0.10212968042667139 -0.25906173996291992 0 0.1247109941767834 -0.26487205333737063 0 0.105381186761848 -0.28908430986574979 0 0.12755474367724071 -0.28641496218900248 0 0.1247109941767834 -0.26487205333737063 0 0.105381186761848 -0.28908430986574979 0 0.105381186761848 -0.28908430986574979 0 0.1232922305256398 -0.31222593649650732 0 0.091134281719600266 -0.31318922272693739 0 0.12755474367724071 -0.28641496218900248 0 0.105381186761848 -0.28908430986574979 0 0.1232922305256398 -0.31222593649650732 0 0.105381186761848 -0.28908430986574979 0 0.1232922305256398 -0.31222593649650732 0 0.1232922305256398 -0.31222593649650732 0 0.1203527444544976 -0.33440109300481358 0 0.10345683989573851 -0.33006290880897893 0 0.1232922305256398 -0.31222593649650732 0 0.10345683989573851 -0.33006290880897893 0 0.091134281719600266 -0.31318922272693739 0 0.12521623110419669 -0.35069627961407202 0 0.1203527444544976 -0.33440109300481358 0 0.1109054595019635 -0.34317205624697839 0 0.1203527444544976 -0.33440109300481358 0 0.1109054595019635 -0.34317205624697839 0 0.10345683989573851 -0.33006290880897893 0 0.10345683989573851 -0.33006290880897893 0 0.097241531392474143 -0.34505666448428052 0 0.08741437236548398 -0.3300805571394696 0 0.1109054595019635 -0.34317205624697839 0 0.10345683989573851 -0.33006290880897893 0 0.097241531392474143 -0.34505666448428052 0 0.10345683989573851 -0.33006290880897893 0 0.091134281719600266 -0.31318922272693739 0 0.08741437236548398 -0.3300805571394696 0 0.13051310213717859 -0.36754656043808909 0 0.1082599506629104 -0.35564333532274711 0 0.13051310213717859 -0.36754656043808909 0 0.1082599506629104 -0.35564333532274711 0 0.10526129348521621 -0.37420965642663939 0 0.12521623110419669 -0.35069627961407202 0 0.13051310213717859 -0.36754656043808909 0 0.1082599506629104 -0.35564333532274711 0 0.12521623110419669 -0.35069627961407202 0 0.1109054595019635 -0.34317205624697839 0 0.1082599506629104 -0.35564333532274711 0 0.1082599506629104 -0.35564333532274711 0 0.08600679918864218 -0.34374011020740503 0 0.095193664038123557 -0.35877694988099113 0 0.1082599506629104 -0.35564333532274711 0 0.08600679918864218 -0.34374011020740503 0 0.097241531392474143 -0.34505666448428052 0 0.1082599506629104 -0.35564333532274711 0 0.08600679918864218 -0.34374011020740503 0 0.1109054595019635 -0.34317205624697839 0 0.097241531392474143 -0.34505666448428052 0 0.1082599506629104 -0.35564333532274711 0 0.095193664038123557 -0.35877694988099113 0 0.1082599506629104 -0.35564333532274711 0 0.10526129348521621 -0.37420965642663939 0 0.092937257131231521 -0.38108199574319529 0 0.10526129348521621 -0.37420965642663939 0 0.089140180544142883 -0.36676520956777953 0 0.095193664038123557 -0.35877694988099113 0 0.10526129348521621 -0.37420965642663939 0 0.089140180544142883 -0.36676520956777953 0 0.082223994090069044 -0.37903146932620713 0 0.089140180544142883 -0.36676520956777953 0 0.076617488481454041 -0.36707769799892698 0 0.095193664038123557 -0.35877694988099113 0 0.089140180544142883 -0.36676520956777953 0 0.083947617798393839 -0.35588112716789572 0 0.089140180544142883 -0.36676520956777953 0 0.083947617798393839 -0.35588112716789572 0 0.076617488481454041 -0.36707769799892698 0 0.083947617798393839 -0.35588112716789572 0 0.07435366776517971 -0.35582513909945562 0 0.076617488481454041 -0.36707769799892698 0 0.083947617798393839 -0.35588112716789572 0 0.076538081335913527 -0.34832555132890308 0 0.07435366776517971 -0.35582513909945562 0 0.095193664038123557 -0.35877694988099113 0 0.083947617798393839 -0.35588112716789572 0 0.08600679918864218 -0.34374011020740503 0 0.083947617798393839 -0.35588112716789572 0 0.076538081335913527 -0.34832555132890308 0 0.08600679918864218 -0.34374011020740503 0 0.06661674705127392 -0.35126716141560821 0 0.071538049984112936 -0.33828653927123042 0 0.052420629320357529 -0.34817005851393779 0 0.076538081335913527 -0.34832555132890308 0 0.06661674705127392 -0.35126716141560821 0 0.071538049984112936 -0.33828653927123042 0 0.06661674705127392 -0.35126716141560821 0 0.07435366776517971 -0.35582513909945562 0 0.066775976019321143 -0.36177348348094412 0 0.06661674705127392 -0.35126716141560821 0 0.066775976019321143 -0.36177348348094412 0 0.05842262646209409 -0.35777266687605519 0 0.076538081335913527 -0.34832555132890308 0 0.06661674705127392 -0.35126716141560821 0 0.07435366776517971 -0.35582513909945562 0 0.07435366776517971 -0.35582513909945562 0 0.076617488481454041 -0.36707769799892698 0 0.066775976019321143 -0.36177348348094412 0 0.076617488481454041 -0.36707769799892698 0 0.066775976019321143 -0.36177348348094412 0 0.066574804624867909 -0.37081013146750502 0 0.066775976019321143 -0.36177348348094412 0 0.066574804624867909 -0.37081013146750502 0 0.058434966913684473 -0.36741677462509548 0 0.070781789378480467 -0.37970355015002782 0 0.076617488481454041 -0.36707769799892698 0 0.066574804624867909 -0.37081013146750502 0 0.091134281719600266 -0.31318922272693739 0 0.08741437236548398 -0.3300805571394696 0 0.074471368846139266 -0.32362029888176402 0 0.097241531392474143 -0.34505666448428052 0 0.08600679918864218 -0.34374011020740503 0 0.071538049984112936 -0.33828653927123042 0 0.097241531392474143 -0.34505666448428052 0 0.071538049984112936 -0.33828653927123042 0 0.097241531392474143 -0.34505666448428052 0 0.08741437236548398 -0.3300805571394696 0 0.071538049984112936 -0.33828653927123042 0 0.071538049984112936 -0.33828653927123042 0 0.074471368846139266 -0.32362029888176402 0 0.045834568575751647 -0.33151641405818028 0 0.08741437236548398 -0.3300805571394696 0 0.071538049984112936 -0.33828653927123042 0 0.074471368846139266 -0.32362029888176402 0 0.076538081335913527 -0.34832555132890308 0 0.08600679918864218 -0.34374011020740503 0 0.071538049984112936 -0.33828653927123042 0 0.063148348304658306 -0.31063867301566261 0 0.091134281719600266 -0.31318922272693739 0 0.074471368846139266 -0.32362029888176402 0 0.063148348304658306 -0.31063867301566261 0 0.045834568575751647 -0.33151641405818028 0 0.039113527494017503 -0.31435764281876039 0 0.063148348304658306 -0.31063867301566261 0 0.074471368846139266 -0.32362029888176402 0 0.045834568575751647 -0.33151641405818028 0 0.071538049984112936 -0.33828653927123042 0 0.045834568575751647 -0.33151641405818028 0 0.052420629320357529 -0.34817005851393779 0 0.071538049984112936 -0.33828653927123042 0 0.045834568575751647 -0.33151641405818028 0 0.045834568575751647 -0.33151641405818028 0 0.036746949228848497 -0.34385976491770598 0 0.02013108716739033 -0.32474628884513029 0 0.045834568575751647 -0.33151641405818028 0 0.052420629320357529 -0.34817005851393779 0 0.036746949228848497 -0.34385976491770598 0 0.045834568575751647 -0.33151641405818028 0 0.039113527494017503 -0.31435764281876039 0 0.02013108716739033 -0.32474628884513029 0 0.045834568575751647 -0.33151641405818028 0 0.02013108716739033 -0.32474628884513029 0 0.050251492880901423 -0.37289633439820441 0 0.058434966913684473 -0.36741677462509548 0 0.050003503011025657 -0.3627972639336563 0 0.059098870892386579 -0.37682530815890142 0 0.050251492880901423 -0.37289633439820441 0 0.058434966913684473 -0.36741677462509548 0 0.059098870892386579 -0.37682530815890142 0 0.066574804624867909 -0.37081013146750502 0 0.058434966913684473 -0.36741677462509548 0 0.066775976019321143 -0.36177348348094412 0 0.058434966913684473 -0.36741677462509548 0 0.05842262646209409 -0.35777266687605519 0 0.058434966913684473 -0.36741677462509548 0 0.050003503011025657 -0.3627972639336563 0 0.05842262646209409 -0.35777266687605519 0 0.050003503011025657 -0.3627972639336563 0 0.052420629320357529 -0.34817005851393779 0 0.040097623183243267 -0.35838597252516458 0 0.050003503011025657 -0.3627972639336563 0 0.05842262646209409 -0.35777266687605519 0 0.052420629320357529 -0.34817005851393779 0 0.06661674705127392 -0.35126716141560821 0 0.05842262646209409 -0.35777266687605519 0 0.052420629320357529 -0.34817005851393779 0 0.052420629320357529 -0.34817005851393779 0 0.036746949228848497 -0.34385976491770598 0 0.040097623183243267 -0.35838597252516458 0 0.036746949228848497 -0.34385976491770598 0 0.040097623183243267 -0.35838597252516458 0 0.027165138739454951 -0.3563003334076878 0 0.050003503011025657 -0.3627972639336563 0 0.040097623183243267 -0.35838597252516458 0 0.040393679305873183 -0.37214177666348031 0 0.040097623183243267 -0.35838597252516458 0 0.03323201144555097 -0.36500969052806947 0 0.040393679305873183 -0.37214177666348031 0 0.040097623183243267 -0.35838597252516458 0 0.03323201144555097 -0.36500969052806947 0 0.027165138739454951 -0.3563003334076878 0 0.03323201144555097 -0.36500969052806947 0 0.040393679305873183 -0.37214177666348031 0 0.031101114544173261 -0.37224831155107851 0 0.050251492880901423 -0.37289633439820441 0 0.050003503011025657 -0.3627972639336563 0 0.040393679305873183 -0.37214177666348031 0 0.045318120240789392 -0.37861299811455001 0 0.050251492880901423 -0.37289633439820441 0 0.040393679305873183 -0.37214177666348031 0 0.034125464078810237 -0.38786822092598539 0 0.031101114544173261 -0.37224831155107851 0 0.01808263725167919 -0.36378378513891352 0 0.01790451239786588 -0.37357301609381022 0 0.01808263725167919 -0.36378378513891352 0 0.01485134797080574 -0.36908141484168561 0 0.022369484585921071 -0.37929554194519888 0 0.01790451239786588 -0.37357301609381022 0 0.01808263725167919 -0.36378378513891352 0 0.031101114544173261 -0.37224831155107851 0 0.02739522549521459 -0.36433553015643733 0 0.01808263725167919 -0.36378378513891352 0 0.03323201144555097 -0.36500969052806947 0 0.031101114544173261 -0.37224831155107851 0 0.02739522549521459 -0.36433553015643733 0 0.02739522549521459 -0.36433553015643733 0 0.01808263725167919 -0.36378378513891352 0 0.027165138739454951 -0.3563003334076878 0 0.03323201144555097 -0.36500969052806947 0 0.02739522549521459 -0.36433553015643733 0 0.027165138739454951 -0.3563003334076878 0 0.01808263725167919 -0.36378378513891352 0 0.016637804351719739 -0.35277688064265172 0 0.027165138739454951 -0.3563003334076878 0 0.036746949228848497 -0.34385976491770598 0 0.027165138739454951 -0.3563003334076878 0 0.022423580451222901 -0.34265234577095288 0 0.016637804351719739 -0.35277688064265172 0 0.022423580451222901 -0.34265234577095288 0 0.01002283631236158 -0.33799074154270642 0 0.016637804351719739 -0.35277688064265172 0 0.027165138739454951 -0.3563003334076878 0 0.022423580451222901 -0.34265234577095288 0 -0.0090340080922087593 -0.34887205868579768 0 0.0058620391971661648 -0.35010810301374962 0 0.0085706341203948943 -0.35637634941669832 0 -0.0090340080922087593 -0.34887205868579768 0 0.01130469789361814 -0.36634091960237891 0 -0.0090340080922087593 -0.34887205868579768 0 0.0085706341203948943 -0.35637634941669832 0 0.01130469789361814 -0.36634091960237891 0 0.016637804351719739 -0.35277688064265172 0 0.0058620391971661648 -0.35010810301374962 0 0.01002283631236158 -0.33799074154270642 0 0.01808263725167919 -0.36378378513891352 0 0.016637804351719739 -0.35277688064265172 0 0.0085706341203948943 -0.35637634941669832 0 0.016637804351719739 -0.35277688064265172 0 0.0058620391971661648 -0.35010810301374962 0 0.0085706341203948943 -0.35637634941669832 0 -0.005690371318418405 -0.36081602155646109 0 -0.0012546639663679939 -0.36725540300579651 0 0.01130469789361814 -0.36634091960237891 0 0.01808263725167919 -0.36378378513891352 0 0.0085706341203948943 -0.35637634941669832 0 0.01130469789361814 -0.36634091960237891 0 0.01808263725167919 -0.36378378513891352 0 0.01130469789361814 -0.36634091960237891 0 0.01485134797080574 -0.36908141484168561 0 -0.0012546639663679939 -0.36725540300579651 0 0.01130469789361814 -0.36634091960237891 0 0.006259621561635652 -0.37174723970534718 0 -0.0012546639663679939 -0.36725540300579651 0 0.00083080919627883981 -0.37495933448478602 0 0.006259621561635652 -0.37174723970534718 0 0.0072716361955047232 -0.37739596970801342 0 0.00083080919627883981 -0.37495933448478602 0 0.006259621561635652 -0.37174723970534718 0 0.0072716361955047232 -0.37739596970801342 0 0.006259621561635652 -0.37174723970534718 0 0.012113544340059739 -0.37262793853163961 0 0.01130469789361814 -0.36634091960237891 0 0.006259621561635652 -0.37174723970534718 0 0.012113544340059739 -0.37262793853163961 0 0.01130469789361814 -0.36634091960237891 0 0.01485134797080574 -0.36908141484168561 0 0.012113544340059739 -0.37262793853163961 0 0.01790451239786588 -0.37357301609381022 0 0.01485134797080574 -0.36908141484168561 0 0.012113544340059739 -0.37262793853163961 0 0.013161563691787731 -0.37830627156774532 0 0.01790451239786588 -0.37357301609381022 0 0.012113544340059739 -0.37262793853163961 0 0.02013108716739033 -0.32474628884513029 0 0.022423580451222901 -0.34265234577095288 0 0.01002283631236158 -0.33799074154270642 0 0.036746949228848497 -0.34385976491770598 0 0.02013108716739033 -0.32474628884513029 0 0.022423580451222901 -0.34265234577095288 0 -0.0057410480103785074 -0.33737668460918963 0 0.0058620391971661648 -0.35010810301374962 0 0.01002283631236158 -0.33799074154270642 0 -0.0057410480103785074 -0.33737668460918963 0 0.01002283631236158 -0.33799074154270642 0 0.002600192195030319 -0.32665160973773938 0 0.02013108716739033 -0.32474628884513029 0 0.01002283631236158 -0.33799074154270642 0 0.002600192195030319 -0.32665160973773938 0 -0.0057410480103785074 -0.33737668460918963 0 0.0058620391971661648 -0.35010810301374962 0 0.02013108716739033 -0.32474628884513029 0 0.002600192195030319 -0.32665160973773938 0 0.0066724863395269743 -0.31115217722169719 0 -0.0056478410678713056 -0.30411194231184918 0 0.0066724863395269743 -0.31115217722169719 0 0.0099837880404236162 -0.29200566735500899 0 -0.0056478410678713056 -0.30411194231184918 0 -0.003550042800243684 -0.28209207201754433 0 0.0099837880404236162 -0.29200566735500899 0 -0.003550042800243684 -0.28209207201754433 0 0.0099837880404236162 -0.29200566735500899 0 0.015818706233289421 -0.27544737059380742 0 0.0099837880404236162 -0.29200566735500899 0 0.030689107896977139 -0.29765908823876508 0 0.015818706233289421 -0.27544737059380742 0 0.0066724863395269743 -0.31115217722169719 0 0.0099837880404236162 -0.29200566735500899 0 0.030689107896977139 -0.29765908823876508 0 0.039113527494017503 -0.31435764281876039 0 0.02013108716739033 -0.32474628884513029 0 0.030689107896977139 -0.29765908823876508 0 0.0066724863395269743 -0.31115217722169719 0 0.030689107896977139 -0.29765908823876508 0 0.02013108716739033 -0.32474628884513029 0 0.0066724863395269743 -0.31115217722169719 0 0.030689107896977139 -0.29765908823876508 0 0.039113527494017503 -0.31435764281876039 0 0.030689107896977139 -0.29765908823876508 0 0.048017229958548471 -0.30182858614120828 0 0.030689107896977139 -0.29765908823876508 0 0.05470572945442749 -0.28416599925583302 0 0.034040356907415019 -0.2672071805216879 0 0.030689107896977139 -0.29765908823876508 0 0.05470572945442749 -0.28416599925583302 0 0.048017229958548471 -0.30182858614120828 0 0.030689107896977139 -0.29765908823876508 0 0.05470572945442749 -0.28416599925583302 0 0.063148348304658306 -0.31063867301566261 0 0.05470572945442749 -0.28416599925583302 0 0.048017229958548471 -0.30182858614120828 0 0.063148348304658306 -0.31063867301566261 0 0.039113527494017503 -0.31435764281876039 0 0.048017229958548471 -0.30182858614120828 0 0.05470572945442749 -0.28416599925583302 0 0.055472053722707589 -0.25771443812942069 0 0.034040356907415019 -0.2672071805216879 0 0.076616789065301741 -0.2682117956753729 0 0.05470572945442749 -0.28416599925583302 0 0.055472053722707589 -0.25771443812942069 0 0.055472053722707589 -0.25771443812942069 0 0.034040356907415019 -0.2672071805216879 0 0.036082377741047653 -0.2446025910734928 0 0.034040356907415019 -0.2672071805216879 0 0.01618333810639196 -0.2510448806925592 0 0.015818706233289421 -0.27544737059380742 0 0.034040356907415019 -0.2672071805216879 0 0.01618333810639196 -0.2510448806925592 0 0.036082377741047653 -0.2446025910734928 0 0.030689107896977139 -0.29765908823876508 0 0.034040356907415019 -0.2672071805216879 0 0.015818706233289421 -0.27544737059380742 0 -0.003550042800243684 -0.28209207201754433 0 0.015818706233289421 -0.27544737059380742 0 0.00027413042534417219 -0.26461719389675081 0 -0.0070936043338453089 -0.2410739498827342 0 0.01618333810639196 -0.2510448806925592 0 0.00027413042534417219 -0.26461719389675081 0 0.01618333810639196 -0.2510448806925592 0 0.015818706233289421 -0.27544737059380742 0 0.00027413042534417219 -0.26461719389675081 0 0.01618333810639196 -0.2510448806925592 0 0.0065026017270185072 -0.22838774414485091 0 0.023163800674440162 -0.2345731859420267 0 -0.0070936043338453089 -0.2410739498827342 0 0.01618333810639196 -0.2510448806925592 0 0.0065026017270185072 -0.22838774414485091 0 0.023163800674440162 -0.2345731859420267 0 0.020298871589354742 -0.2123995351440342 0 0.034829614135152939 -0.22460844048451031 0 0.0065026017270185072 -0.22838774414485091 0 0.023163800674440162 -0.2345731859420267 0 0.020298871589354742 -0.2123995351440342 0 0.01618333810639196 -0.2510448806925592 0 0.023163800674440162 -0.2345731859420267 0 0.036082377741047653 -0.2446025910734928 0 -0.0065513521457199854 -0.19632683165197301 0 0.0085513850884246061 -0.19558393661854651 0 0.001144493214242684 -0.1794645347638037 0 -0.0041227302505375974 -0.21312671679935091 0 0.0085513850884246061 -0.19558393661854651 0 0.020298871589354742 -0.2123995351440342 0 -0.0041227302505375974 -0.21312671679935091 0 0.0065026017270185072 -0.22838774414485091 0 0.020298871589354742 -0.2123995351440342 0 0.020298871589354742 -0.2123995351440342 0 0.025490019120888059 -0.1949094829374404 0 0.044225257461586558 -0.20859755016112261 0 0.0085513850884246061 -0.19558393661854651 0 0.020298871589354742 -0.2123995351440342 0 0.025490019120888059 -0.1949094829374404 0 0.0085513850884246061 -0.19558393661854651 0 0.025490019120888059 -0.1949094829374404 0 0.01532427685385861 -0.17989547150447671 0 0.025490019120888059 -0.1949094829374404 0 0.041711805838670721 -0.19186723458155111 0 0.044225257461586558 -0.20859755016112261 0 0.025490019120888059 -0.1949094829374404 0 0.041711805838670721 -0.19186723458155111 0 0.02921018352945241 -0.17817593152082789 0 0.020298871589354742 -0.2123995351440342 0 0.044225257461586558 -0.20859755016112261 0 0.034829614135152939 -0.22460844048451031 0 0.044225257461586558 -0.20859755016112261 0 0.057808301890047008 -0.1980609751908233 0 0.068524129866936095 -0.21535292836873571 0 0.041711805838670721 -0.19186723458155111 0 0.057808301890047008 -0.1980609751908233 0 0.052199567212260913 -0.17941995702689559 0 0.041711805838670721 -0.19186723458155111 0 0.044225257461586558 -0.20859755016112261 0 0.057808301890047008 -0.1980609751908233 0 0.057808301890047008 -0.1980609751908233 0 0.074050860356336179 -0.1924308950386896 0 0.052199567212260913 -0.17941995702689559 0 0.023163800674440162 -0.2345731859420267 0 0.036082377741047653 -0.2446025910734928 0 0.034829614135152939 -0.22460844048451031 0 0.036082377741047653 -0.2446025910734928 0 0.034829614135152939 -0.22460844048451031 0 0.052805102900178293 -0.2324674206707521 0 0.044225257461586558 -0.20859755016112261 0 0.034829614135152939 -0.22460844048451031 0 0.052805102900178293 -0.2324674206707521 0 0.044225257461586558 -0.20859755016112261 0 0.052805102900178293 -0.2324674206707521 0 0.068524129866936095 -0.21535292836873571 0 0.055472053722707589 -0.25771443812942069 0 0.036082377741047653 -0.2446025910734928 0 0.052805102900178293 -0.2324674206707521 0 0.055472053722707589 -0.25771443812942069 0 0.052805102900178293 -0.2324674206707521 0 0.077745524782181524 -0.24239224933435519 0 0.077745524782181524 -0.24239224933435519 0 0.087789927933103584 -0.2235255912135963 0 0.10334591481477499 -0.23623910043752541 0 0.077745524782181524 -0.24239224933435519 0 0.087789927933103584 -0.2235255912135963 0 0.068524129866936095 -0.21535292836873571 0 0.052805102900178293 -0.2324674206707521 0 0.077745524782181524 -0.24239224933435519 0 0.068524129866936095 -0.21535292836873571 0 0.057808301890047008 -0.1980609751908233 0 0.068524129866936095 -0.21535292836873571 0 0.074050860356336179 -0.1924308950386896 0 0.074050860356336179 -0.1924308950386896 0 0.092474860065774586 -0.2037975428747883 0 0.091651255766235756 -0.1814616882985714 0 0.087789927933103584 -0.2235255912135963 0 0.068524129866936095 -0.21535292836873571 0 0.092474860065774586 -0.2037975428747883 0 0.068524129866936095 -0.21535292836873571 0 0.074050860356336179 -0.1924308950386896 0 0.092474860065774586 -0.2037975428747883 0 0.092474860065774586 -0.2037975428747883 0 0.1031844816796003 -0.21866582240683161 0 0.1170580782270865 -0.2060148146536252 0 0.087789927933103584 -0.2235255912135963 0 0.092474860065774586 -0.2037975428747883 0 0.1031844816796003 -0.21866582240683161 0 0.092474860065774586 -0.2037975428747883 0 0.1094515552401167 -0.18896787638367449 0 0.091651255766235756 -0.1814616882985714 0 0.092474860065774586 -0.2037975428747883 0 0.1094515552401167 -0.18896787638367449 0 0.1170580782270865 -0.2060148146536252 0 0.1094515552401167 -0.18896787638367449 0 0.1222182451498562 -0.19330575787805229 0 0.1170580782270865 -0.2060148146536252 0 0.1222182451498562 -0.19330575787805229 0 0.1170580782270865 -0.2060148146536252 0 0.13061884817719299 -0.20025999803693481 0 0.1094515552401167 -0.18896787638367449 0 0.1222182451498562 -0.19330575787805229 0 0.12065875384489649 -0.18321088020553991 0 0.1031844816796003 -0.21866582240683161 0 0.1170580782270865 -0.2060148146536252 0 0.1175708266106259 -0.22449432508942729 0 0.1170580782270865 -0.2060148146536252 0 0.1175708266106259 -0.22449432508942729 0 0.1352122890592968 -0.21828087165203969 0 0.1175708266106259 -0.22449432508942729 0 0.10334591481477499 -0.23623910043752541 0 0.12667741575706271 -0.2414737984356386 0 0.10212968042667139 -0.25906173996291992 0 0.10334591481477499 -0.23623910043752541 0 0.12667741575706271 -0.2414737984356386 0 0.10212968042667139 -0.25906173996291992 0 0.077745524782181524 -0.24239224933435519 0 0.10334591481477499 -0.23623910043752541 0 0.087789927933103584 -0.2235255912135963 0 0.1031844816796003 -0.21866582240683161 0 0.10334591481477499 -0.23623910043752541 0 0.1031844816796003 -0.21866582240683161 0 0.1175708266106259 -0.22449432508942729 0 0.10334591481477499 -0.23623910043752541 0 0.1060184350400344 -0.13383624783242151 0 0.091357880567193739 -0.14807159718613089 0 0.088564875622436243 -0.14042287703379361 0 0.10422516602672589 -0.1467112504384197 0 0.11093479104935219 -0.15624307044526581 0 0.095000356571741718 -0.16171112828146139 0 0.10422516602672589 -0.1467112504384197 0 0.1060184350400344 -0.13383624783242151 0 0.1159511816575593 -0.1438091946787666 0 0.10422516602672589 -0.1467112504384197 0 0.095000356571741718 -0.16171112828146139 0 0.091357880567193739 -0.14807159718613089 0 0.10422516602672589 -0.1467112504384197 0 0.1060184350400344 -0.13383624783242151 0 0.091357880567193739 -0.14807159718613089 0 0.09432628697257682 -0.12653696392950761 0 0.1060184350400344 -0.13383624783242151 0 0.1157828793289597 -0.12352226144999449 0 0.09432628697257682 -0.12653696392950761 0 0.1157828793289597 -0.12352226144999449 0 0.1159511816575593 -0.1438091946787666 0 0.1157828793289597 -0.12352226144999449 0 0.1347057150977084 -0.1448639487213616 0 0.1060184350400344 -0.13383624783242151 0 0.1159511816575593 -0.1438091946787666 0 0.1157828793289597 -0.12352226144999449 0 0.1159511816575593 -0.1438091946787666 0 0.12390896705349359 -0.1583903110764619 0 0.1347057150977084 -0.1448639487213616 0 0.1159511816575593 -0.1438091946787666 0 0.11093479104935219 -0.15624307044526581 0 0.12390896705349359 -0.1583903110764619 0 0.10422516602672589 -0.1467112504384197 0 0.1159511816575593 -0.1438091946787666 0 0.11093479104935219 -0.15624307044526581 0 0.12390896705349359 -0.1583903110764619 0 0.1118779952070206 -0.1723564905297244 0 0.13047619484393319 -0.1738274831090994 0 0.11093479104935219 -0.15624307044526581 0 0.12390896705349359 -0.1583903110764619 0 0.1118779952070206 -0.1723564905297244 0 0.1118779952070206 -0.1723564905297244 0 0.12065875384489649 -0.18321088020553991 0 0.13047619484393319 -0.1738274831090994 0 0.1094515552401167 -0.18896787638367449 0 0.1118779952070206 -0.1723564905297244 0 0.12065875384489649 -0.18321088020553991 0 0.1094515552401167 -0.18896787638367449 0 0.1118779952070206 -0.1723564905297244 0 0.091651255766235756 -0.1814616882985714 0 0.1118779952070206 -0.1723564905297244 0 0.095000356571741718 -0.16171112828146139 0 0.091651255766235756 -0.1814616882985714 0 0.11093479104935219 -0.15624307044526581 0 0.1118779952070206 -0.1723564905297244 0 0.095000356571741718 -0.16171112828146139 0 0.095000356571741718 -0.16171112828146139 0 0.080316474658508871 -0.15894486419489451 0 0.07514701647660757 -0.17344874071424229 0 0.095000356571741718 -0.16171112828146139 0 0.091651255766235756 -0.1814616882985714 0 0.07514701647660757 -0.17344874071424229 0 0.074050860356336179 -0.1924308950386896 0 0.091651255766235756 -0.1814616882985714 0 0.07514701647660757 -0.17344874071424229 0 0.074050860356336179 -0.1924308950386896 0 0.07514701647660757 -0.17344874071424229 0 0.052199567212260913 -0.17941995702689559 0 0.080316474658508871 -0.15894486419489451 0 0.07514701647660757 -0.17344874071424229 0 0.068717736182514019 -0.15608803466396201 0 0.07514701647660757 -0.17344874071424229 0 0.068717736182514019 -0.15608803466396201 0 0.05445096732396823 -0.16173890242207131 0 0.078167418232593711 -0.14658235475614301 0 0.078715768649923065 -0.13320130836047919 0 0.062509043358395799 -0.14663304950323261 0 0.068717736182514019 -0.15608803466396201 0 0.078167418232593711 -0.14658235475614301 0 0.062509043358395799 -0.14663304950323261 0 0.080316474658508871 -0.15894486419489451 0 0.068717736182514019 -0.15608803466396201 0 0.078167418232593711 -0.14658235475614301 0 0.080316474658508871 -0.15894486419489451 0 0.078167418232593711 -0.14658235475614301 0 0.091357880567193739 -0.14807159718613089 0 0.078167418232593711 -0.14658235475614301 0 0.091357880567193739 -0.14807159718613089 0 0.088564875622436243 -0.14042287703379361 0 0.095000356571741718 -0.16171112828146139 0 0.080316474658508871 -0.15894486419489451 0 0.091357880567193739 -0.14807159718613089 0 0.09432628697257682 -0.12653696392950761 0 0.078715768649923065 -0.13320130836047919 0 0.072869694616194275 -0.1295516664090226 0 0.09432628697257682 -0.12653696392950761 0 0.1060184350400344 -0.13383624783242151 0 0.078715768649923065 -0.13320130836047919 0 0.1060184350400344 -0.13383624783242151 0 0.088564875622436243 -0.14042287703379361 0 0.078715768649923065 -0.13320130836047919 0 0.09432628697257682 -0.12653696392950761 0 0.072869694616194275 -0.1295516664090226 0 0.1060184350400344 -0.13383624783242151 0 0.078715768649923065 -0.13320130836047919 0 0.078167418232593711 -0.14658235475614301 0 0.088564875622436243 -0.14042287703379361 0 0.078715768649923065 -0.13320130836047919 0 0.078715768649923065 -0.13320130836047919 0 0.072869694616194275 -0.1295516664090226 0 0.051413102259811598 -0.13256636888853721 0 0.078715768649923065 -0.13320130836047919 0 0.051413102259811598 -0.13256636888853721 0 0.078715768649923065 -0.13320130836047919 0 0.051413102259811598 -0.13256636888853721 0 0.062509043358395799 -0.14663304950323261 0 0.072869694616194275 -0.1295516664090226 0 0.051413102259811598 -0.13256636888853721 0 0.072869694616194275 -0.1295516664090226 0 0.051413102259811598 -0.13256636888853721 0 0.059810329764016783 -0.11446806360527879 0 0.051413102259811598 -0.13256636888853721 0 0.062509043358395799 -0.14663304950323261 0 0.04411277782945635 -0.1493711089511788 0 0.062509043358395799 -0.14663304950323261 0 0.04411277782945635 -0.1493711089511788 0 0.05445096732396823 -0.16173890242207131 0 0.068717736182514019 -0.15608803466396201 0 0.062509043358395799 -0.14663304950323261 0 0.05445096732396823 -0.16173890242207131 0 0.051413102259811598 -0.13256636888853721 0 0.04411277782945635 -0.1493711089511788 0 0.035082207185403308 -0.1445518294902749 0 0.04411277782945635 -0.1493711089511788 0 0.031928154480373477 -0.15096223440395751 0 0.032945304571004877 -0.161206390202247 0 0.04411277782945635 -0.1493711089511788 0 0.031928154480373477 -0.15096223440395751 0 0.035082207185403308 -0.1445518294902749 0 0.051413102259811598 -0.13256636888853721 0 0.028070881296824089 -0.13202353189084459 0 0.051413102259811598 -0.13256636888853721 0 0.035082207185403308 -0.1445518294902749 0 0.02929618306635676 -0.1356738488659863 0 0.051413102259811598 -0.13256636888853721 0 0.028070881296824089 -0.13202353189084459 0 0.02929618306635676 -0.1356738488659863 0 0.051413102259811598 -0.13256636888853721 0 0.028070881296824089 -0.13202353189084459 0 0.035838777635118883 -0.1239872734274379 0 0.051413102259811598 -0.13256636888853721 0 0.02929618306635676 -0.1356738488659863 0 0.07514701647660757 -0.17344874071424229 0 0.052199567212260913 -0.17941995702689559 0 0.05445096732396823 -0.16173890242207131 0 0.04411277782945635 -0.1493711089511788 0 0.05445096732396823 -0.16173890242207131 0 0.032945304571004877 -0.161206390202247 0 0.052199567212260913 -0.17941995702689559 0 0.05445096732396823 -0.16173890242207131 0 0.032945304571004877 -0.161206390202247 0 0.052199567212260913 -0.17941995702689559 0 0.032945304571004877 -0.161206390202247 0 0.02921018352945241 -0.17817593152082789 0 0.041711805838670721 -0.19186723458155111 0 0.052199567212260913 -0.17941995702689559 0 0.02921018352945241 -0.17817593152082789 0 0.025490019120888059 -0.1949094829374404 0 0.02921018352945241 -0.17817593152082789 0 0.01532427685385861 -0.17989547150447671 0 0.02921018352945241 -0.17817593152082789 0 0.020154203331441831 -0.16557236038556639 0 0.01532427685385861 -0.17989547150447671 0 0.032945304571004877 -0.161206390202247 0 0.02921018352945241 -0.17817593152082789 0 0.020154203331441831 -0.16557236038556639 0 0.032945304571004877 -0.161206390202247 0 0.020154203331441831 -0.16557236038556639 0 0.02240224396669899 -0.15384120311436281 0 0.020154203331441831 -0.16557236038556639 0 0.02240224396669899 -0.15384120311436281 0 0.0124541533386179 -0.15607525223768901 0 0.020154203331441831 -0.16557236038556639 0 0.0081573486176358592 -0.1665093974518341 0 0.0124541533386179 -0.15607525223768901 0 -0.0029138897130330508 -0.1646766099163092 0 0.0081573486176358592 -0.1665093974518341 0 0.002067714751090347 -0.15592293470848509 0 0.0081573486176358592 -0.1665093974518341 0 0.0124541533386179 -0.15607525223768901 0 0.002067714751090347 -0.15592293470848509 0 -0.0029138897130330508 -0.1646766099163092 0 0.0081573486176358592 -0.1665093974518341 0 0.001144493214242684 -0.1794645347638037 0 0.020154203331441831 -0.16557236038556639 0 0.0081573486176358592 -0.1665093974518341 0 0.01532427685385861 -0.17989547150447671 0 0.0085513850884246061 -0.19558393661854651 0 0.001144493214242684 -0.1794645347638037 0 0.01532427685385861 -0.17989547150447671 0 0.0081573486176358592 -0.1665093974518341 0 0.001144493214242684 -0.1794645347638037 0 0.01532427685385861 -0.17989547150447671 0 0.028070881296824089 -0.13202353189084459 0 0.0047286603338365027 -0.13148069489315239 0 0.014161217171826831 -0.12329118371946809 0 0.021816412945016701 -0.13583356577503369 0 0.028070881296824089 -0.13202353189084459 0 0.0047286603338365027 -0.13148069489315239 0 0.028070881296824089 -0.13202353189084459 0 0.0047286603338365027 -0.13148069489315239 0 0.021816412945016701 -0.13583356577503369 0 0.026233021719322291 -0.13945261949707999 0 0.02113090302492859 -0.1406804044455334 0 0.021816412945016701 -0.13583356577503369 0 0.016687958820121342 -0.13778752072429759 0 0.02113090302492859 -0.1406804044455334 0 0.028070881296824089 -0.13202353189084459 0 0.014161217171826831 -0.12329118371946809 0 0.02415421694528494 -0.1219201645913723 0 0.028070881296824089 -0.13202353189084459 0 0.02415421694528494 -0.1219201645913723 0 0.035838777635118883 -0.1239872734274379 0 0.035082207185403308 -0.1445518294902749 0 0.02929618306635676 -0.1356738488659863 0 0.026233021719322291 -0.13945261949707999 0 0.028070881296824089 -0.13202353189084459 0 0.02929618306635676 -0.1356738488659863 0 0.026354124756879961 -0.13574589150723609 0 0.021816412945016701 -0.13583356577503369 0 0.028070881296824089 -0.13202353189084459 0 0.026354124756879961 -0.13574589150723609 0 0.021816412945016701 -0.13583356577503369 0 0.026354124756879961 -0.13574589150723609 0 0.026233021719322291 -0.13945261949707999 0 0.02929618306635676 -0.1356738488659863 0 0.026354124756879961 -0.13574589150723609 0 0.026233021719322291 -0.13945261949707999 0 0.031928154480373477 -0.15096223440395751 0 0.035082207185403308 -0.1445518294902749 0 0.025098238849303879 -0.14584064026172389 0 0.035082207185403308 -0.1445518294902749 0 0.026233021719322291 -0.13945261949707999 0 0.025098238849303879 -0.14584064026172389 0 0.026233021719322291 -0.13945261949707999 0 0.025098238849303879 -0.14584064026172389 0 0.02113090302492859 -0.1406804044455334 0 0.031928154480373477 -0.15096223440395751 0 0.025098238849303879 -0.14584064026172389 0 0.02240224396669899 -0.15384120311436281 0 0.031928154480373477 -0.15096223440395751 0 0.032945304571004877 -0.161206390202247 0 0.02240224396669899 -0.15384120311436281 0 0.02240224396669899 -0.15384120311436281 0 0.015109305225129091 -0.14535807122593369 0 0.0124541533386179 -0.15607525223768901 0 0.025098238849303879 -0.14584064026172389 0 0.02240224396669899 -0.15384120311436281 0 0.015109305225129091 -0.14535807122593369 0 0.025098238849303879 -0.14584064026172389 0 0.02113090302492859 -0.1406804044455334 0 0.015109305225129091 -0.14535807122593369 0 0.016687958820121342 -0.13778752072429759 0 0.02113090302492859 -0.1406804044455334 0 0.015109305225129091 -0.14535807122593369 0 0.015109305225129091 -0.14535807122593369 0 0.0060602331583362191 -0.14253165815561269 0 0.01064653938435579 -0.1392894862497491 0 0.015109305225129091 -0.14535807122593369 0 0.0065641345929547991 -0.1495373656929172 0 0.0060602331583362191 -0.14253165815561269 0 0.016687958820121342 -0.13778752072429759 0 0.015109305225129091 -0.14535807122593369 0 0.01064653938435579 -0.1392894862497491 0 0.015109305225129091 -0.14535807122593369 0 0.0124541533386179 -0.15607525223768901 0 0.0065641345929547991 -0.1495373656929172 0 0.0124541533386179 -0.15607525223768901 0 0.0065641345929547991 -0.1495373656929172 0 0.002067714751090347 -0.15592293470848509 0 -0.0025921059873258989 -0.14943225635359239 0 0.0065641345929547991 -0.1495373656929172 0 0.002067714751090347 -0.15592293470848509 0 -0.001050597315567052 -0.13813025709692589 0 0.0065641345929547991 -0.1495373656929172 0 0.0060602331583362191 -0.14253165815561269 0 -0.001050597315567052 -0.13813025709692589 0 -0.0025921059873258989 -0.14943225635359239 0 0.0065641345929547991 -0.1495373656929172 0 0.0060602331583362191 -0.14253165815561269 0 0.01064653938435579 -0.1392894862497491 0 0.0047286603338365027 -0.13148069489315239 0 0.0060602331583362191 -0.14253165815561269 0 0.00086023052013748129 -0.1199770268960285 0 0.0060602331583362191 -0.14253165815561269 0 0.0047286603338365027 -0.13148069489315239 0 0.00086023052013748129 -0.1199770268960285 0 -0.001050597315567052 -0.13813025709692589 0 0.0060602331583362191 -0.14253165815561269 0 0.00086023052013748129 -0.1199770268960285 0 0.021816412945016701 -0.13583356577503369 0 0.016687958820121342 -0.13778752072429759 0 0.0047286603338365027 -0.13148069489315239 0 0.016687958820121342 -0.13778752072429759 0 0.01064653938435579 -0.1392894862497491 0 0.0047286603338365027 -0.13148069489315239 0 0.0047286603338365027 -0.13148069489315239 0 0.00086023052013748129 -0.1199770268960285 0 0.014161217171826831 -0.12329118371946809 0 0.00086023052013748129 -0.1199770268960285 0 0.0080224134638564697 -0.1083308779116527 0 0.002709564413051732 -0.1056825328365129 0 0.00086023052013748129 -0.1199770268960285 0 0.010325183829069891 -0.11634481034824851 0 0.0080224134638564697 -0.1083308779116527 0 0.010325183829069891 -0.11634481034824851 0 0.016078138634399629 -0.1108125780942452 0 0.0080224134638564697 -0.1083308779116527 0 0.010325183829069891 -0.11634481034824851 0 0.016828130105808071 -0.1180008736971622 0 0.016078138634399629 -0.1108125780942452 0 0.00086023052013748129 -0.1199770268960285 0 0.010325183829069891 -0.11634481034824851 0 0.014161217171826831 -0.12329118371946809 0 0.010325183829069891 -0.11634481034824851 0 0.014161217171826831 -0.12329118371946809 0 0.016828130105808071 -0.1180008736971622 0 0.014161217171826831 -0.12329118371946809 0 0.016828130105808071 -0.1180008736971622 0 0.02415421694528494 -0.1219201645913723 0 0.016828130105808071 -0.1180008736971622 0 0.024501135473856541 -0.1139550229203958 0 0.02415421694528494 -0.1219201645913723 0 0.016828130105808071 -0.1180008736971622 0 0.016078138634399629 -0.1108125780942452 0 0.024501135473856541 -0.1139550229203958 0 0.016078138634399629 -0.1108125780942452 0 0.024501135473856541 -0.1139550229203958 0 0.023339044616789179 -0.1048221165123645 0 0.024501135473856541 -0.1139550229203958 0 0.032674748597760622 -0.1173074244612564 0 0.034668170707617997 -0.1069679018099671 0 0.024501135473856541 -0.1139550229203958 0 0.02415421694528494 -0.1219201645913723 0 0.032674748597760622 -0.1173074244612564 0 0.02415421694528494 -0.1219201645913723 0 0.032674748597760622 -0.1173074244612564 0 0.035838777635118883 -0.1239872734274379 0 0.023339044616789179 -0.1048221165123645 0 0.016603353865569871 -0.093961065111323239 0 0.031222442704548142 -0.092758684545199949 0 0.023339044616789179 -0.1048221165123645 0 0.031222442704548142 -0.092758684545199949 0 0.034668170707617997 -0.1069679018099671 0 0.024501135473856541 -0.1139550229203958 0 0.023339044616789179 -0.1048221165123645 0 0.034668170707617997 -0.1069679018099671 0 0.016078138634399629 -0.1108125780942452 0 0.023339044616789179 -0.1048221165123645 0 0.01448248242312564 -0.1029225478526847 0 0.023339044616789179 -0.1048221165123645 0 0.016603353865569871 -0.093961065111323239 0 0.01448248242312564 -0.1029225478526847 0 0.016603353865569871 -0.093961065111323239 0 0.01448248242312564 -0.1029225478526847 0 0.0062953857862742459 -0.096999830901925987 0 0.016078138634399629 -0.1108125780942452 0 0.01448248242312564 -0.1029225478526847 0 0.0080224134638564697 -0.1083308779116527 0 0.01448248242312564 -0.1029225478526847 0 0.0080224134638564697 -0.1083308779116527 0 0.0062953857862742459 -0.096999830901925987 0 0.0080224134638564697 -0.1083308779116527 0 0.002709564413051732 -0.1056825328365129 0 0.0062953857862742459 -0.096999830901925987 0 -0.0043397721180612678 -0.097422395636444323 0 0.002709564413051732 -0.1056825328365129 0 0.0062953857862742459 -0.096999830901925987 0 -0.0043397721180612678 -0.097422395636444323 0 0.0062953857862742459 -0.096999830901925987 0 0.001450329805512745 -0.089832183652915371 0 0.0062953857862742459 -0.096999830901925987 0 0.001450329805512745 -0.089832183652915371 0 0.0071670952254411363 -0.083617543796308008 0 -0.00124953766244034 -0.083680151025063834 0 0.001450329805512745 -0.089832183652915371 0 0.0071670952254411363 -0.083617543796308008 0 -0.00098556646883425636 -0.072660867662791256 0 -0.00124953766244034 -0.083680151025063834 0 0.0071670952254411363 -0.083617543796308008 0 0.016603353865569871 -0.093961065111323239 0 0.0071670952254411363 -0.083617543796308008 0 0.020370648998675189 -0.082893660550879308 0 0.016603353865569871 -0.093961065111323239 0 0.0062953857862742459 -0.096999830901925987 0 0.0071670952254411363 -0.083617543796308008 0 0.0071670952254411363 -0.083617543796308008 0 0.0069434715276529601 -0.057332706572141401 0 0.0071670952254411363 -0.083617543796308008 0 0.01899980052887058 -0.067866664088409051 0 0.020370648998675189 -0.082893660550879308 0 0.0071670952254411363 -0.083617543796308008 0 0.01899980052887058 -0.067866664088409051 0 0.0069434715276529601 -0.057332706572141401 0 -0.00098556646883425636 -0.072660867662791256 0 0.0071670952254411363 -0.083617543796308008 0 0.0069434715276529601 -0.057332706572141401 0 -0.0035180734766415999 -0.061635968702166158 0 -0.00098556646883425636 -0.072660867662791256 0 0.0069434715276529601 -0.057332706572141401 0 0.01899980052887058 -0.067866664088409051 0 0.03081631383123901 -0.076100947255968276 0 0.02971595969857186 -0.060146191816345521 0 0.01899980052887058 -0.067866664088409051 0 0.03081631383123901 -0.076100947255968276 0 0.020370648998675189 -0.082893660550879308 0 0.03081631383123901 -0.076100947255968276 0 0.020370648998675189 -0.082893660550879308 0 0.031222442704548142 -0.092758684545199949 0 0.016603353865569871 -0.093961065111323239 0 0.020370648998675189 -0.082893660550879308 0 0.031222442704548142 -0.092758684545199949 0 0.03081631383123901 -0.076100947255968276 0 0.031222442704548142 -0.092758684545199949 0 0.045816759847534368 -0.085116481308961517 0 0.031222442704548142 -0.092758684545199949 0 0.045816759847534368 -0.085116481308961517 0 0.045705883349959668 -0.099772065629615339 0 0.03081631383123901 -0.076100947255968276 0 0.045816759847534368 -0.085116481308961517 0 0.044773386704571212 -0.066866527350278773 0 0.03081631383123901 -0.076100947255968276 0 0.044773386704571212 -0.066866527350278773 0 0.02971595969857186 -0.060146191816345521 0 0.044773386704571212 -0.066866527350278773 0 0.058600980711495852 -0.077121428604614045 0 0.058124634909701461 -0.058447941046064461 0 0.045816759847534368 -0.085116481308961517 0 0.044773386704571212 -0.066866527350278773 0 0.058600980711495852 -0.077121428604614045 0 0.045816759847534368 -0.085116481308961517 0 0.058600980711495852 -0.077121428604614045 0 0.060481656343859533 -0.095009356929905753 0 0.045816759847534368 -0.085116481308961517 0 0.060481656343859533 -0.095009356929905753 0 0.045705883349959668 -0.099772065629615339 0 0.060481656343859533 -0.095009356929905753 0 0.059810329764016783 -0.11446806360527879 0 0.045705883349959668 -0.099772065629615339 0 0.059810329764016783 -0.11446806360527879 0 0.042880939075913192 -0.1161188773051792 0 0.045705883349959668 -0.099772065629615339 0 0.051413102259811598 -0.13256636888853721 0 0.059810329764016783 -0.11446806360527879 0 0.042880939075913192 -0.1161188773051792 0 0.051413102259811598 -0.13256636888853721 0 0.042880939075913192 -0.1161188773051792 0 0.035838777635118883 -0.1239872734274379 0 0.042880939075913192 -0.1161188773051792 0 0.032674748597760622 -0.1173074244612564 0 0.035838777635118883 -0.1239872734274379 0 0.042880939075913192 -0.1161188773051792 0 0.032674748597760622 -0.1173074244612564 0 0.034668170707617997 -0.1069679018099671 0 0.042880939075913192 -0.1161188773051792 0 0.034668170707617997 -0.1069679018099671 0 0.045705883349959668 -0.099772065629615339 0 0.031222442704548142 -0.092758684545199949 0 0.034668170707617997 -0.1069679018099671 0 0.045705883349959668 -0.099772065629615339 0 0.020281757731820671 -0.0018734506954683099 0 0.0064962241320766084 -0.0047630321238083806 0 0.02216605385747893 -0.016214214550202079 0 0.020281757731820671 -0.0018734506954683099 0 0.02216605385747893 -0.016214214550202079 0 0.032691075133301987 -0.0070539885296975148 0 0.0023837959628292779 0.0045896394564886181 0 0.020281757731820671 -0.0018734506954683099 0 0.0064962241320766084 -0.0047630321238083806 0 -0.0071981610143054264 -0.0025996853953654721 0 0.0023837959628292779 0.0045896394564886181 0 0.0064962241320766084 -0.0047630321238083806 0 0.0064962241320766084 -0.0047630321238083806 0 0.0067198478298647838 -0.03104786934797488 0 0.02216605385747893 -0.016214214550202079 0 0.0064962241320766084 -0.0047630321238083806 0 0.0067198478298647838 -0.03104786934797488 0 -0.0042138432274254111 -0.01568410281411094 0 0.0064962241320766084 -0.0047630321238083806 0 0.0067198478298647838 -0.03104786934797488 0 0.02216605385747893 -0.016214214550202079 0 0.02602774704593519 -0.031458514140811182 0 0.039603326793835623 -0.01892812608791224 0 0.0067198478298647838 -0.03104786934797488 0 0.02216605385747893 -0.016214214550202079 0 0.02602774704593519 -0.031458514140811182 0 0.02602774704593519 -0.031458514140811182 0 0.021028068193772939 -0.04820319226642681 0 0.042664192856853238 -0.043993426179154853 0 0.0067198478298647838 -0.03104786934797488 0 0.02602774704593519 -0.031458514140811182 0 0.021028068193772939 -0.04820319226642681 0 -0.0046721550023658262 -0.04514305419859705 0 0.0067198478298647838 -0.03104786934797488 0 0.0069434715276529601 -0.057332706572141401 0 0.0067198478298647838 -0.03104786934797488 0 0.0069434715276529601 -0.057332706572141401 0 0.0067198478298647838 -0.03104786934797488 0 0.0069434715276529601 -0.057332706572141401 0 0.021028068193772939 -0.04820319226642681 0 0.021028068193772939 -0.04820319226642681 0 0.02971595969857186 -0.060146191816345521 0 0.042664192856853238 -0.043993426179154853 0 0.01899980052887058 -0.067866664088409051 0 0.0069434715276529601 -0.057332706572141401 0 0.021028068193772939 -0.04820319226642681 0 0.01899980052887058 -0.067866664088409051 0 0.021028068193772939 -0.04820319226642681 0 0.02971595969857186 -0.060146191816345521 0 0.044773386704571212 -0.066866527350278773 0 0.02971595969857186 -0.060146191816345521 0 0.042664192856853238 -0.043993426179154853 0 0.058124634909701461 -0.058447941046064461 0 0.042664192856853238 -0.043993426179154853 0 0.066134218914168791 -0.044259144853946171 0 0.044773386704571212 -0.066866527350278773 0 0.058124634909701461 -0.058447941046064461 0 0.042664192856853238 -0.043993426179154853 0 0.042664192856853238 -0.043993426179154853 0 0.059247074204304098 -0.02842039955605458 0 0.066134218914168791 -0.044259144853946171 0 0.02602774704593519 -0.031458514140811182 0 0.042664192856853238 -0.043993426179154853 0 0.039603326793835623 -0.01892812608791224 0 0.039603326793835623 -0.01892812608791224 0 0.059247074204304098 -0.02842039955605458 0 0.061444324376100902 -0.0063476516563641602 0 0.042664192856853238 -0.043993426179154853 0 0.039603326793835623 -0.01892812608791224 0 0.059247074204304098 -0.02842039955605458 0 0.04163462684118531 0.0029880238916752339 0 0.039603326793835623 -0.01892812608791224 0 0.061444324376100902 -0.0063476516563641602 0 0.04163462684118531 0.0029880238916752339 0 0.039603326793835623 -0.01892812608791224 0 0.032691075133301987 -0.0070539885296975148 0 0.04163462684118531 0.0029880238916752339 0 0.020281757731820671 -0.0018734506954683099 0 0.032691075133301987 -0.0070539885296975148 0 0.02216605385747893 -0.016214214550202079 0 0.039603326793835623 -0.01892812608791224 0 0.032691075133301987 -0.0070539885296975148 0 0.093597261146655245 0.0059525947911385994 0 0.093387508118366561 -0.008100978704088907 0 0.080795155288386974 -0.0023845122825129298 0 0.093387508118366561 -0.008100978704088907 0 0.080795155288386974 -0.0023845122825129298 0 0.077765132828952338 -0.01718970687935473 0 0.061444324376100902 -0.0063476516563641602 0 0.080795155288386974 -0.0023845122825129298 0 0.077765132828952338 -0.01718970687935473 0 0.059247074204304098 -0.02842039955605458 0 0.061444324376100902 -0.0063476516563641602 0 0.077765132828952338 -0.01718970687935473 0 0.059247074204304098 -0.02842039955605458 0 0.077765132828952338 -0.01718970687935473 0 0.081078015513820892 -0.034968919648752012 0 0.077765132828952338 -0.01718970687935473 0 0.081078015513820892 -0.034968919648752012 0 0.094896927372088269 -0.023383271060397299 0 0.093387508118366561 -0.008100978704088907 0 0.077765132828952338 -0.01718970687935473 0 0.094896927372088269 -0.023383271060397299 0 0.081078015513820892 -0.034968919648752012 0 0.086046330342865074 -0.050721679271807221 0 0.1046203582724221 -0.040521073771373858 0 0.081078015513820892 -0.034968919648752012 0 0.1046203582724221 -0.040521073771373858 0 0.094896927372088269 -0.023383271060397299 0 0.081078015513820892 -0.034968919648752012 0 0.066134218914168791 -0.044259144853946171 0 0.086046330342865074 -0.050721679271807221 0 0.059247074204304098 -0.02842039955605458 0 0.081078015513820892 -0.034968919648752012 0 0.066134218914168791 -0.044259144853946171 0 0.066134218914168791 -0.044259144853946171 0 0.073315473490562166 -0.057282706315070667 0 0.086046330342865074 -0.050721679271807221 0 0.058124634909701461 -0.058447941046064461 0 0.066134218914168791 -0.044259144853946171 0 0.073315473490562166 -0.057282706315070667 0 0.058124634909701461 -0.058447941046064461 0 0.073315473490562166 -0.057282706315070667 0 0.07241713199806521 -0.071144861456594585 0 0.073315473490562166 -0.057282706315070667 0 0.086046330342865074 -0.050721679271807221 0 0.086283997165046047 -0.066095792069314388 0 0.086046330342865074 -0.050721679271807221 0 0.1005997658745194 -0.061083150141552689 0 0.086283997165046047 -0.066095792069314388 0 0.1005997658745194 -0.061083150141552689 0 0.1162510765354154 -0.058742110579983228 0 0.1046203582724221 -0.040521073771373858 0 0.086046330342865074 -0.050721679271807221 0 0.1005997658745194 -0.061083150141552689 0 0.1046203582724221 -0.040521073771373858 0 0.1162510765354154 -0.058742110579983228 0 0.12229826314630721 -0.04468569224134368 0 0.1046203582724221 -0.040521073771373858 0 0.1162510765354154 -0.058742110579983228 0 0.12229826314630721 -0.04468569224134368 0 0.13480339281256751 -0.054628753971160182 0 0.12229826314630721 -0.04468569224134368 0 0.1046203582724221 -0.040521073771373858 0 0.12228151457318751 -0.03046400584978436 0 0.093387508118366561 -0.008100978704088907 0 0.094896927372088269 -0.023383271060397299 0 0.11121983999959879 -0.019492185680265232 0 0.1046203582724221 -0.040521073771373858 0 0.094896927372088269 -0.023383271060397299 0 0.11121983999959879 -0.019492185680265232 0 0.11121983999959879 -0.019492185680265232 0 0.12228151457318751 -0.03046400584978436 0 0.12573481051604249 -0.0146176494491717 0 0.1046203582724221 -0.040521073771373858 0 0.11121983999959879 -0.019492185680265232 0 0.12228151457318751 -0.03046400584978436 0 0.11174088851103479 -0.001136892071535788 0 0.12573481051604249 -0.0146176494491717 0 0.12922997235240771 -5.3501747736912381e-05 0 0.11121983999959879 -0.019492185680265232 0 0.11174088851103479 -0.001136892071535788 0 0.12573481051604249 -0.0146176494491717 0 0.093387508118366561 -0.008100978704088907 0 0.11121983999959879 -0.019492185680265232 0 0.11174088851103479 -0.001136892071535788 0 0.093597261146655245 0.0059525947911385994 0 0.093387508118366561 -0.008100978704088907 0 0.11174088851103479 -0.001136892071535788 0 0.091899619126475873 -0.094453989362038998 0 0.075073389768851889 -0.10331679112897731 0 0.072864170275635839 -0.088352024036691262 0 0.091899619126475873 -0.094453989362038998 0 0.087811323597402874 -0.1056266004829767 0 0.075073389768851889 -0.10331679112897731 0 0.087811323597402874 -0.1056266004829767 0 0.081963279923370977 -0.11640956015836609 0 0.075073389768851889 -0.10331679112897731 0 0.09432628697257682 -0.12653696392950761 0 0.081963279923370977 -0.11640956015836609 0 0.1023090055709128 -0.1083260612825243 0 0.087811323597402874 -0.1056266004829767 0 0.081963279923370977 -0.11640956015836609 0 0.1023090055709128 -0.1083260612825243 0 0.09432628697257682 -0.12653696392950761 0 0.072869694616194275 -0.1295516664090226 0 0.081963279923370977 -0.11640956015836609 0 0.081963279923370977 -0.11640956015836609 0 0.071917113319261733 -0.1166088203488358 0 0.075073389768851889 -0.10331679112897731 0 0.072869694616194275 -0.1295516664090226 0 0.081963279923370977 -0.11640956015836609 0 0.071917113319261733 -0.1166088203488358 0 0.072869694616194275 -0.1295516664090226 0 0.059810329764016783 -0.11446806360527879 0 0.071917113319261733 -0.1166088203488358 0 0.059810329764016783 -0.11446806360527879 0 0.071917113319261733 -0.1166088203488358 0 0.075073389768851889 -0.10331679112897731 0 0.060481656343859533 -0.095009356929905753 0 0.059810329764016783 -0.11446806360527879 0 0.075073389768851889 -0.10331679112897731 0 0.060481656343859533 -0.095009356929905753 0 0.075073389768851889 -0.10331679112897731 0 0.072864170275635839 -0.088352024036691262 0 0.072864170275635839 -0.088352024036691262 0 0.07241713199806521 -0.071144861456594585 0 0.084373035024790599 -0.08000624129247394 0 0.058600980711495852 -0.077121428604614045 0 0.060481656343859533 -0.095009356929905753 0 0.072864170275635839 -0.088352024036691262 0 0.058600980711495852 -0.077121428604614045 0 0.072864170275635839 -0.088352024036691262 0 0.07241713199806521 -0.071144861456594585 0 0.058600980711495852 -0.077121428604614045 0 0.058124634909701461 -0.058447941046064461 0 0.07241713199806521 -0.071144861456594585 0 0.073315473490562166 -0.057282706315070667 0 0.07241713199806521 -0.071144861456594585 0 0.086283997165046047 -0.066095792069314388 0 0.07241713199806521 -0.071144861456594585 0 0.086283997165046047 -0.066095792069314388 0 0.084373035024790599 -0.08000624129247394 0 0.086283997165046047 -0.066095792069314388 0 0.084373035024790599 -0.08000624129247394 0 0.098695045272691559 -0.077384829037574043 0 0.091899619126475873 -0.094453989362038998 0 0.084373035024790599 -0.08000624129247394 0 0.098695045272691559 -0.077384829037574043 0 0.091899619126475873 -0.094453989362038998 0 0.072864170275635839 -0.088352024036691262 0 0.084373035024790599 -0.08000624129247394 0 0.091899619126475873 -0.094453989362038998 0 0.098695045272691559 -0.077384829037574043 0 0.1148090311131727 -0.085469249644047868 0 0.091899619126475873 -0.094453989362038998 0 0.1148090311131727 -0.085469249644047868 0 0.11357041719659899 -0.10024314631284149 0 0.098695045272691559 -0.077384829037574043 0 0.1130228310968463 -0.072060282168001186 0 0.1148090311131727 -0.085469249644047868 0 0.1005997658745194 -0.061083150141552689 0 0.086283997165046047 -0.066095792069314388 0 0.098695045272691559 -0.077384829037574043 0 0.1005997658745194 -0.061083150141552689 0 0.098695045272691559 -0.077384829037574043 0 0.1130228310968463 -0.072060282168001186 0 0.1162510765354154 -0.058742110579983228 0 0.1130228310968463 -0.072060282168001186 0 0.12912161484544879 -0.067199493127979168 0 0.1130228310968463 -0.072060282168001186 0 0.1281599527412528 -0.081187263491076078 0 0.12912161484544879 -0.067199493127979168 0 0.1005997658745194 -0.061083150141552689 0 0.1162510765354154 -0.058742110579983228 0 0.1130228310968463 -0.072060282168001186 0 0.1130228310968463 -0.072060282168001186 0 0.1148090311131727 -0.085469249644047868 0 0.1281599527412528 -0.081187263491076078 0 0.1148090311131727 -0.085469249644047868 0 0.12732973906487871 -0.096698775995889122 0 0.1281599527412528 -0.081187263491076078 0 0.1148090311131727 -0.085469249644047868 0 0.11357041719659899 -0.10024314631284149 0 0.12732973906487871 -0.096698775995889122 0 0.11357041719659899 -0.10024314631284149 0 0.1023090055709128 -0.1083260612825243 0 0.1202960084509687 -0.1103397285690132 0 0.11357041719659899 -0.10024314631284149 0 0.1202960084509687 -0.1103397285690132 0 0.12732973906487871 -0.096698775995889122 0 0.091899619126475873 -0.094453989362038998 0 0.11357041719659899 -0.10024314631284149 0 0.1023090055709128 -0.1083260612825243 0 0.091899619126475873 -0.094453989362038998 0 0.087811323597402874 -0.1056266004829767 0 0.1023090055709128 -0.1083260612825243 0 0.09432628697257682 -0.12653696392950761 0 0.1023090055709128 -0.1083260612825243 0 0.1157828793289597 -0.12352226144999449 0 0.1023090055709128 -0.1083260612825243 0 0.1157828793289597 -0.12352226144999449 0 0.1023090055709128 -0.1083260612825243 0 0.1157828793289597 -0.12352226144999449 0 0.1202960084509687 -0.1103397285690132 0 0.1157828793289597 -0.12352226144999449 0 0.1202960084509687 -0.1103397285690132 0 0.12834220282660791 -0.1217576464980696 0 0.1157828793289597 -0.12352226144999449 0 0.12834220282660791 -0.1217576464980696 0 0.1202960084509687 -0.1103397285690132 0 0.12834220282660791 -0.1217576464980696 0 0.13435414411384669 -0.1107313787598119 0 0.12834220282660791 -0.1217576464980696 0 0.13435414411384669 -0.1107313787598119 0 0.1437960177424894 -0.1248392895565119 0 0.14742797541210681 -0.1117011279116906 0 0.15991447535410391 -0.1241506182142616 0 0.1583758961948831 -0.1008379888139886 0 0.1437960177424894 -0.1248392895565119 0 0.14742797541210681 -0.1117011279116906 0 0.15991447535410391 -0.1241506182142616 0 0.13435414411384669 -0.1107313787598119 0 0.1437960177424894 -0.1248392895565119 0 0.14742797541210681 -0.1117011279116906 0 0.14165740182705 -0.1014450708691927 0 0.14079925434953469 -0.087256082864583487 0 0.1583758961948831 -0.1008379888139886 0 0.14742797541210681 -0.1117011279116906 0 0.14165740182705 -0.1014450708691927 0 0.1583758961948831 -0.1008379888139886 0 0.13435414411384669 -0.1107313787598119 0 0.14742797541210681 -0.1117011279116906 0 0.14165740182705 -0.1014450708691927 0 0.14165740182705 -0.1014450708691927 0 0.12732973906487871 -0.096698775995889122 0 0.14079925434953469 -0.087256082864583487 0 0.13435414411384669 -0.1107313787598119 0 0.14165740182705 -0.1014450708691927 0 0.12732973906487871 -0.096698775995889122 0 0.1202960084509687 -0.1103397285690132 0 0.13435414411384669 -0.1107313787598119 0 0.12732973906487871 -0.096698775995889122 0 0.1281599527412528 -0.081187263491076078 0 0.143580874778932 -0.069450244554223439 0 0.14079925434953469 -0.087256082864583487 0 0.12732973906487871 -0.096698775995889122 0 0.1281599527412528 -0.081187263491076078 0 0.14079925434953469 -0.087256082864583487 0 0.1281599527412528 -0.081187263491076078 0 0.12912161484544879 -0.067199493127979168 0 0.143580874778932 -0.069450244554223439 0 0.12912161484544879 -0.067199493127979168 0 0.143580874778932 -0.069450244554223439 0 0.13480339281256751 -0.054628753971160182 0 0.143580874778932 -0.069450244554223439 0 0.1611735126487252 -0.082579157827720448 0 0.15981249130108949 -0.063836959106504818 0 0.143580874778932 -0.069450244554223439 0 0.14079925434953469 -0.087256082864583487 0 0.1611735126487252 -0.082579157827720448 0 0.14079925434953469 -0.087256082864583487 0 0.1611735126487252 -0.082579157827720448 0 0.1583758961948831 -0.1008379888139886 0 0.1611735126487252 -0.082579157827720448 0 0.17610456527324481 -0.097209526810298943 0 0.1583758961948831 -0.1008379888139886 0 0.1611735126487252 -0.082579157827720448 0 0.17584157409773291 -0.082302241579396834 0 0.17610456527324481 -0.097209526810298943 0 0.1611735126487252 -0.082579157827720448 0 0.15981249130108949 -0.063836959106504818 0 0.1756582808100583 -0.067439111085672701 0 0.1611735126487252 -0.082579157827720448 0 0.1756582808100583 -0.067439111085672701 0 0.17584157409773291 -0.082302241579396834 0 0.1756582808100583 -0.067439111085672701 0 0.19042993765890329 -0.081981170593895231 0 0.1912427868252754 -0.066088962504123244 0 0.1756582808100583 -0.067439111085672701 0 0.17584157409773291 -0.082302241579396834 0 0.19042993765890329 -0.081981170593895231 0 0.17584157409773291 -0.082302241579396834 0 0.17610456527324481 -0.097209526810298943 0 0.19042993765890329 -0.081981170593895231 0 0.17610456527324481 -0.097209526810298943 0 0.19276774965745719 -0.10278035224788951 0 0.19042993765890329 -0.081981170593895231 0 0.17610456527324481 -0.097209526810298943 0 0.17661901693631871 -0.1144190506566045 0 0.19276774965745719 -0.10278035224788951 0 0.17661901693631871 -0.1144190506566045 0 0.15991447535410391 -0.1241506182142616 0 0.18242421602901329 -0.13509997998797191 0 0.17661901693631871 -0.1144190506566045 0 0.19403753590495559 -0.1197311872584899 0 0.18242421602901329 -0.13509997998797191 0 0.17661901693631871 -0.1144190506566045 0 0.15991447535410391 -0.1241506182142616 0 0.1583758961948831 -0.1008379888139886 0 0.17610456527324481 -0.097209526810298943 0 0.17661901693631871 -0.1144190506566045 0 0.1583758961948831 -0.1008379888139886 0 0.14348211511946171 0.0012410676157907699 0 0.14151458063397521 -0.013223674838098561 0 0.1578193898324004 -0.010591738142313369 0 0.15661445415562739 0.0050079149201050811 0 0.14348211511946171 0.0012410676157907699 0 0.1578193898324004 -0.010591738142313369 0 0.14348211511946171 0.0012410676157907699 0 0.14151458063397521 -0.013223674838098561 0 0.12922997235240771 -5.3501747736912381e-05 0 0.14151458063397521 -0.013223674838098561 0 0.12573481051604249 -0.0146176494491717 0 0.12922997235240771 -5.3501747736912381e-05 0 0.14151458063397521 -0.013223674838098561 0 0.12573481051604249 -0.0146176494491717 0 0.136386910331836 -0.025537715040810802 0 0.12228151457318751 -0.03046400584978436 0 0.12573481051604249 -0.0146176494491717 0 0.136386910331836 -0.025537715040810802 0 0.14151458063397521 -0.013223674838098561 0 0.15643428565170309 -0.029782512264349359 0 0.1578193898324004 -0.010591738142313369 0 0.14151458063397521 -0.013223674838098561 0 0.136386910331836 -0.025537715040810802 0 0.15643428565170309 -0.029782512264349359 0 0.13657795972895209 -0.040948220499263367 0 0.15061739910762181 -0.051056144254393823 0 0.15643428565170309 -0.029782512264349359 0 0.136386910331836 -0.025537715040810802 0 0.13657795972895209 -0.040948220499263367 0 0.15643428565170309 -0.029782512264349359 0 0.12228151457318751 -0.03046400584978436 0 0.136386910331836 -0.025537715040810802 0 0.13657795972895209 -0.040948220499263367 0 0.12229826314630721 -0.04468569224134368 0 0.12228151457318751 -0.03046400584978436 0 0.13657795972895209 -0.040948220499263367 0 0.12229826314630721 -0.04468569224134368 0 0.13657795972895209 -0.040948220499263367 0 0.13480339281256751 -0.054628753971160182 0 0.1162510765354154 -0.058742110579983228 0 0.12912161484544879 -0.067199493127979168 0 0.13480339281256751 -0.054628753971160182 0 0.13657795972895209 -0.040948220499263367 0 0.13480339281256751 -0.054628753971160182 0 0.15061739910762181 -0.051056144254393823 0 0.143580874778932 -0.069450244554223439 0 0.15981249130108949 -0.063836959106504818 0 0.15061739910762181 -0.051056144254393823 0 0.143580874778932 -0.069450244554223439 0 0.13480339281256751 -0.054628753971160182 0 0.15061739910762181 -0.051056144254393823 0 0.15981249130108949 -0.063836959106504818 0 0.1756582808100583 -0.067439111085672701 0 0.16803238916011029 -0.048660137810513628 0 0.15981249130108949 -0.063836959106504818 0 0.15061739910762181 -0.051056144254393823 0 0.16803238916011029 -0.048660137810513628 0 0.1756582808100583 -0.067439111085672701 0 0.1860089911017099 -0.051205468426790912 0 0.1912427868252754 -0.066088962504123244 0 0.1756582808100583 -0.067439111085672701 0 0.16803238916011029 -0.048660137810513628 0 0.1860089911017099 -0.051205468426790912 0 0.16803238916011029 -0.048660137810513628 0 0.1860089911017099 -0.051205468426790912 0 0.18133253610656741 -0.029739650927050311 0 0.16803238916011029 -0.048660137810513628 0 0.15643428565170309 -0.029782512264349359 0 0.18133253610656741 -0.029739650927050311 0 0.15061739910762181 -0.051056144254393823 0 0.16803238916011029 -0.048660137810513628 0 0.15643428565170309 -0.029782512264349359 0 0.15643428565170309 -0.029782512264349359 0 0.1687208583724194 -0.019522504129211991 0 0.18133253610656741 -0.029739650927050311 0 0.15643428565170309 -0.029782512264349359 0 0.1687208583724194 -0.019522504129211991 0 0.1578193898324004 -0.010591738142313369 0 0.18133253610656741 -0.029739650927050311 0 0.17726970188525989 -0.0068487750443640347 0 0.19194506312002221 -0.01156253982079491 0 0.1687208583724194 -0.019522504129211991 0 0.18133253610656741 -0.029739650927050311 0 0.17726970188525989 -0.0068487750443640347 0 0.19184439553761021 0.015053411376240109 0 0.17726970188525989 -0.0068487750443640347 0 0.19194506312002221 -0.01156253982079491 0 0.1687208583724194 -0.019522504129211991 0 0.17726970188525989 -0.0068487750443640347 0 0.1578193898324004 -0.010591738142313369 0 0.15661445415562739 0.0050079149201050811 0 0.17726970188525989 -0.0068487750443640347 0 0.1578193898324004 -0.010591738142313369 0 0.2103161558829155 0.0073366999870678358 0 0.21702532397159671 -0.0047453557277351852 0 0.20834725607445961 -0.0096561038045452699 0 0.21702532397159671 -0.0047453557277351852 0 0.20834725607445961 -0.0096561038045452699 0 0.2236565547450011 -0.016687059766593841 0 0.19184439553761021 0.015053411376240109 0 0.20834725607445961 -0.0096561038045452699 0 0.19194506312002221 -0.01156253982079491 0 0.20834725607445961 -0.0096561038045452699 0 0.19194506312002221 -0.01156253982079491 0 0.19701142346161599 -0.026095576698936609 0 0.18133253610656741 -0.029739650927050311 0 0.19194506312002221 -0.01156253982079491 0 0.19701142346161599 -0.026095576698936609 0 0.20834725607445961 -0.0096561038045452699 0 0.19701142346161599 -0.026095576698936609 0 0.21372085308604971 -0.030924099819484671 0 0.20834725607445961 -0.0096561038045452699 0 0.21372085308604971 -0.030924099819484671 0 0.2236565547450011 -0.016687059766593841 0 0.21372085308604971 -0.030924099819484671 0 0.19996429483141359 -0.041914175135778942 0 0.22294336767747669 -0.052556169831410628 0 0.19701142346161599 -0.026095576698936609 0 0.21372085308604971 -0.030924099819484671 0 0.19996429483141359 -0.041914175135778942 0 0.18133253610656741 -0.029739650927050311 0 0.19701142346161599 -0.026095576698936609 0 0.19996429483141359 -0.041914175135778942 0 0.1860089911017099 -0.051205468426790912 0 0.18133253610656741 -0.029739650927050311 0 0.19996429483141359 -0.041914175135778942 0 0.1860089911017099 -0.051205468426790912 0 0.19996429483141359 -0.041914175135778942 0 0.20366148343401699 -0.058496674531501758 0 0.1860089911017099 -0.051205468426790912 0 0.20366148343401699 -0.058496674531501758 0 0.1912427868252754 -0.066088962504123244 0 0.19996429483141359 -0.041914175135778942 0 0.20366148343401699 -0.058496674531501758 0 0.22294336767747669 -0.052556169831410628 0 0.20366148343401699 -0.058496674531501758 0 0.22294336767747669 -0.052556169831410628 0 0.21807185100012591 -0.067558116346482996 0 0.25168180675576829 -0.0484394984729331 0 0.22294336767747669 -0.052556169831410628 0 0.235224419053954 -0.069314274665983888 0 0.25168180675576829 -0.0484394984729331 0 0.25740370346163088 -0.0287705272479407 0 0.23873156796988951 -0.02420722889990121 0 0.25168180675576829 -0.0484394984729331 0 0.2306816153681053 -0.037400936567742793 0 0.23873156796988951 -0.02420722889990121 0 0.25168180675576829 -0.0484394984729331 0 0.22294336767747669 -0.052556169831410628 0 0.2306816153681053 -0.037400936567742793 0 0.25168180675576829 -0.0484394984729331 0 0.23873156796988951 -0.02420722889990121 0 0.21372085308604971 -0.030924099819484671 0 0.22294336767747669 -0.052556169831410628 0 0.2306816153681053 -0.037400936567742793 0 0.21372085308604971 -0.030924099819484671 0 0.2306816153681053 -0.037400936567742793 0 0.2236565547450011 -0.016687059766593841 0 0.2306816153681053 -0.037400936567742793 0 0.2236565547450011 -0.016687059766593841 0 0.23873156796988951 -0.02420722889990121 0 0.25740370346163088 -0.0287705272479407 0 0.25043928910029101 -0.01034239692818836 0 0.23873156796988951 -0.02420722889990121 0 0.25043928910029101 -0.01034239692818836 0 0.23550274798389609 -0.0087018277917390967 0 0.22705880568139331 -0.0002827260119973446 0 0.25043928910029101 -0.01034239692818836 0 0.23873156796988951 -0.02420722889990121 0 0.23550274798389609 -0.0087018277917390967 0 0.25043928910029101 -0.01034239692818836 0 0.22705880568139331 -0.0002827260119973446 0 0.25043928910029101 -0.01034239692818836 0 0.2392704882312289 -0.00010989444563926339 0 0.22705880568139331 -0.0002827260119973446 0 0.24637522602358761 0.00088169354209314784 0 0.25043928910029101 -0.01034239692818836 0 0.2392704882312289 -0.00010989444563926339 0 0.23873156796988951 -0.02420722889990121 0 0.22705880568139331 -0.0002827260119973446 0 0.23873156796988951 -0.02420722889990121 0 0.23550274798389609 -0.0087018277917390967 0 0.22705880568139331 -0.0002827260119973446 0 0.21702532397159671 -0.0047453557277351852 0 0.2236565547450011 -0.016687059766593841 0 0.22705880568139331 -0.0002827260119973446 0 0.2236565547450011 -0.016687059766593841 0 0.23873156796988951 -0.02420722889990121 0 0.22705880568139331 -0.0002827260119973446 0 0.21001049798468899 -0.1108794427840479 0 0.20918374728339459 -0.092955358070756583 0 0.2279726898337236 -0.1035069912773941 0 0.21001049798468899 -0.1108794427840479 0 0.19276774965745719 -0.10278035224788951 0 0.20918374728339459 -0.092955358070756583 0 0.21001049798468899 -0.1108794427840479 0 0.22316436535703341 -0.12307898105198881 0 0.2077524689131767 -0.1327717040802085 0 0.21001049798468899 -0.1108794427840479 0 0.19403753590495559 -0.1197311872584899 0 0.2077524689131767 -0.1327717040802085 0 0.17661901693631871 -0.1144190506566045 0 0.19403753590495559 -0.1197311872584899 0 0.19276774965745719 -0.10278035224788951 0 0.21001049798468899 -0.1108794427840479 0 0.19403753590495559 -0.1197311872584899 0 0.19276774965745719 -0.10278035224788951 0 0.19276774965745719 -0.10278035224788951 0 0.19042993765890329 -0.081981170593895231 0 0.20918374728339459 -0.092955358070756583 0 0.19042993765890329 -0.081981170593895231 0 0.2058616488209711 -0.075166061578124665 0 0.20918374728339459 -0.092955358070756583 0 0.19042993765890329 -0.081981170593895231 0 0.1912427868252754 -0.066088962504123244 0 0.2058616488209711 -0.075166061578124665 0 0.20366148343401699 -0.058496674531501758 0 0.1912427868252754 -0.066088962504123244 0 0.2058616488209711 -0.075166061578124665 0 0.20366148343401699 -0.058496674531501758 0 0.21807185100012591 -0.067558116346482996 0 0.2058616488209711 -0.075166061578124665 0 0.21807185100012591 -0.067558116346482996 0 0.2058616488209711 -0.075166061578124665 0 0.22266833601421079 -0.082257401125394092 0 0.2058616488209711 -0.075166061578124665 0 0.20918374728339459 -0.092955358070756583 0 0.22266833601421079 -0.082257401125394092 0 0.22266833601421079 -0.082257401125394092 0 0.2417216083416906 -0.088042422810306248 0 0.2279726898337236 -0.1035069912773941 0 0.22266833601421079 -0.082257401125394092 0 0.235224419053954 -0.069314274665983888 0 0.2417216083416906 -0.088042422810306248 0 0.20918374728339459 -0.092955358070756583 0 0.22266833601421079 -0.082257401125394092 0 0.2279726898337236 -0.1035069912773941 0 0.21807185100012591 -0.067558116346482996 0 0.22266833601421079 -0.082257401125394092 0 0.235224419053954 -0.069314274665983888 0 0.22294336767747669 -0.052556169831410628 0 0.21807185100012591 -0.067558116346482996 0 0.235224419053954 -0.069314274665983888 0 0.26463204554164721 -0.072671768045964993 0 0.235224419053954 -0.069314274665983888 0 0.2417216083416906 -0.088042422810306248 0 0.2417216083416906 -0.088042422810306248 0 0.24897545887496439 -0.10594155461709021 0 0.2279726898337236 -0.1035069912773941 0 0.24897545887496439 -0.10594155461709021 0 0.2279726898337236 -0.1035069912773941 0 0.23967385151719531 -0.11772263597990459 0 0.2279726898337236 -0.1035069912773941 0 0.22316436535703341 -0.12307898105198881 0 0.23967385151719531 -0.11772263597990459 0 0.21001049798468899 -0.1108794427840479 0 0.2279726898337236 -0.1035069912773941 0 0.22316436535703341 -0.12307898105198881 0 0.25319152970752512 -0.1199813278217059 0 0.23967385151719531 -0.11772263597990459 0 0.2450652138127303 -0.13610432513134399 0 0.25319152970752512 -0.1199813278217059 0 0.24897545887496439 -0.10594155461709021 0 0.23967385151719531 -0.11772263597990459 0 0.22316436535703341 -0.12307898105198881 0 0.23967385151719531 -0.11772263597990459 0 0.2450652138127303 -0.13610432513134399 0 0.2450652138127303 -0.13610432513134399 0 0.2490460831933104 -0.15352089187826709 0 0.2352449213378412 -0.15344743893270649 0 0.2450652138127303 -0.13610432513134399 0 0.2352449213378412 -0.15344743893270649 0 0.2224185823687416 -0.1435596857174955 0 0.2352449213378412 -0.15344743893270649 0 0.2224185823687416 -0.1435596857174955 0 0.21898719915030579 -0.16560303952627639 0 0.22316436535703341 -0.12307898105198881 0 0.2450652138127303 -0.13610432513134399 0 0.2450652138127303 -0.13610432513134399 0 0.2224185823687416 -0.1435596857174955 0 0.22316436535703341 -0.12307898105198881 0 0.2450652138127303 -0.13610432513134399 0 0.2224185823687416 -0.1435596857174955 0 0.22316436535703341 -0.12307898105198881 0 0.2224185823687416 -0.1435596857174955 0 0.2077524689131767 -0.1327717040802085 0 0.2224185823687416 -0.1435596857174955 0 0.1997719509247522 -0.15101504630364559 0 0.2224185823687416 -0.1435596857174955 0 0.2077524689131767 -0.1327717040802085 0 0.1997719509247522 -0.15101504630364559 0 0.2224185823687416 -0.1435596857174955 0 0.1997719509247522 -0.15101504630364559 0 0.21898719915030579 -0.16560303952627639 0 0.1997719509247522 -0.15101504630364559 0 0.17712531948076271 -0.1584704068897958 0 0.2077524689131767 -0.1327717040802085 0 0.1997719509247522 -0.15101504630364559 0 0.18242421602901329 -0.13509997998797191 0 0.19403753590495559 -0.1197311872584899 0 0.2077524689131767 -0.1327717040802085 0 0.18242421602901329 -0.13509997998797191 0 0.19568935043845909 -0.17631896694128321 0 0.21160674623780421 -0.1843191738711614 0 0.19958778264282909 -0.1971230115196658 0 0.1997719509247522 -0.15101504630364559 0 0.19568935043845909 -0.17631896694128321 0 0.17712531948076271 -0.1584704068897958 0 0.1997719509247522 -0.15101504630364559 0 0.19568935043845909 -0.17631896694128321 0 0.21898719915030579 -0.16560303952627639 0 0.19568935043845909 -0.17631896694128321 0 0.21160674623780421 -0.1843191738711614 0 0.21898719915030579 -0.16560303952627639 0 0.21160674623780421 -0.1843191738711614 0 0.22912800756380461 -0.18237432140067089 0 0.21898719915030579 -0.16560303952627639 0 0.22912800756380461 -0.18237432140067089 0 0.21898719915030579 -0.16560303952627639 0 0.24070752816411781 -0.16844925241014941 0 0.2352449213378412 -0.15344743893270649 0 0.21898719915030579 -0.16560303952627639 0 0.24070752816411781 -0.16844925241014941 0 0.2490460831933104 -0.15352089187826709 0 0.2352449213378412 -0.15344743893270649 0 0.24070752816411781 -0.16844925241014941 0 0.22912800756380461 -0.18237432140067089 0 0.24070752816411781 -0.16844925241014941 0 0.24996303159379901 -0.183188987894852 0 0.22912800756380461 -0.18237432140067089 0 0.24996303159379901 -0.183188987894852 0 0.2402076149628006 -0.19814718126510469 0 0.25704903750092761 -0.21882432125349521 0 0.2402076149628006 -0.19814718126510469 0 0.23648433869027871 -0.22027950642164301 0 0.2402076149628006 -0.19814718126510469 0 0.23648433869027871 -0.22027950642164301 0 0.21774122139128499 -0.21453037521863039 0 0.2402076149628006 -0.19814718126510469 0 0.21464139139362229 -0.20017652996791049 0 0.21774122139128499 -0.21453037521863039 0 0.2402076149628006 -0.19814718126510469 0 0.21464139139362229 -0.20017652996791049 0 0.22912800756380461 -0.18237432140067089 0 0.2402076149628006 -0.19814718126510469 0 0.21464139139362229 -0.20017652996791049 0 0.25704903750092761 -0.21882432125349521 0 0.24526921964682971 -0.24063744974456469 0 0.23648433869027871 -0.22027950642164301 0 0.24526921964682971 -0.24063744974456469 0 0.23648433869027871 -0.22027950642164301 0 0.22588226492657101 -0.2285374907687433 0 0.23648433869027871 -0.22027950642164301 0 0.22588226492657101 -0.2285374907687433 0 0.21774122139128499 -0.21453037521863039 0 0.2337705524768075 -0.26147784629144322 0 0.21910734778474311 -0.23976413566742549 0 0.2222999292097457 -0.24783714094851481 0 0.24526921964682971 -0.24063744974456469 0 0.21910734778474311 -0.23976413566742549 0 0.2337705524768075 -0.26147784629144322 0 0.24526921964682971 -0.24063744974456469 0 0.21910734778474311 -0.23976413566742549 0 0.24526921964682971 -0.24063744974456469 0 0.22588226492657101 -0.2285374907687433 0 0.21910734778474311 -0.23976413566742549 0 0.21398924841464809 -0.25374277788059629 0 0.20981593429294509 -0.23945397734841789 0 0.1967669940375367 -0.23901838836316389 0 0.21398924841464809 -0.25374277788059629 0 0.1967669940375367 -0.23901838836316389 0 0.2222999292097457 -0.24783714094851481 0 0.20981593429294509 -0.23945397734841789 0 0.21910734778474311 -0.23976413566742549 0 0.2222999292097457 -0.24783714094851481 0 0.20981593429294509 -0.23945397734841789 0 0.21398924841464809 -0.25374277788059629 0 0.2222999292097457 -0.24783714094851481 0 0.20981593429294509 -0.23945397734841789 0 0.21910734778474311 -0.23976413566742549 0 0.20981593429294509 -0.23945397734841789 0 0.21910734778474311 -0.23976413566742549 0 0.20981593429294509 -0.23945397734841789 0 0.2108091971197176 -0.227475986791454 0 0.20981593429294509 -0.23945397734841789 0 0.1967669940375367 -0.23901838836316389 0 0.20981593429294509 -0.23945397734841789 0 0.2108091971197176 -0.227475986791454 0 0.20198944195381499 -0.22352314808157339 0 0.22588226492657101 -0.2285374907687433 0 0.21910734778474311 -0.23976413566742549 0 0.2108091971197176 -0.227475986791454 0 0.21910734778474311 -0.23976413566742549 0 0.2108091971197176 -0.227475986791454 0 0.2108091971197176 -0.227475986791454 0 0.20806465131629681 -0.21925332180141571 0 0.21774122139128499 -0.21453037521863039 0 0.22588226492657101 -0.2285374907687433 0 0.2108091971197176 -0.227475986791454 0 0.21774122139128499 -0.21453037521863039 0 0.2108091971197176 -0.227475986791454 0 0.20806465131629681 -0.21925332180141571 0 0.20198944195381499 -0.22352314808157339 0 0.1967669940375367 -0.23901838836316389 0 0.18071942310669131 -0.2252983096777359 0 0.20981593429294509 -0.23945397734841789 0 0.1877930103158075 -0.22466529985509159 0 0.1877930103158075 -0.22466529985509159 0 0.1967669940375367 -0.23901838836316389 0 0.18071942310669131 -0.2252983096777359 0 0.20981593429294509 -0.23945397734841789 0 0.20198944195381499 -0.22352314808157339 0 0.1877930103158075 -0.22466529985509159 0 0.20981593429294509 -0.23945397734841789 0 0.1877930103158075 -0.22466529985509159 0 0.1967669940375367 -0.23901838836316389 0 0.20198944195381499 -0.22352314808157339 0 0.1877930103158075 -0.22466529985509159 0 0.19441467230155521 -0.218230576656949 0 0.21398924841464809 -0.25374277788059629 0 0.18977212596430351 -0.25276072220782819 0 0.1967669940375367 -0.23901838836316389 0 0.1967669940375367 -0.23901838836316389 0 0.18336413834891321 -0.2385709852641659 0 0.18977212596430351 -0.25276072220782819 0 0.1967669940375367 -0.23901838836316389 0 0.18336413834891321 -0.2385709852641659 0 0.21160674623780421 -0.1843191738711614 0 0.22912800756380461 -0.18237432140067089 0 0.21464139139362229 -0.20017652996791049 0 0.21160674623780421 -0.1843191738711614 0 0.21464139139362229 -0.20017652996791049 0 0.19958778264282909 -0.1971230115196658 0 0.21464139139362229 -0.20017652996791049 0 0.2028606977033173 -0.21205010142878239 0 0.19958778264282909 -0.1971230115196658 0 0.21464139139362229 -0.20017652996791049 0 0.21774122139128499 -0.21453037521863039 0 0.2028606977033173 -0.21205010142878239 0 0.20806465131629681 -0.21925332180141571 0 0.20198944195381499 -0.22352314808157339 0 0.2028606977033173 -0.21205010142878239 0 0.20806465131629681 -0.21925332180141571 0 0.21774122139128499 -0.21453037521863039 0 0.2028606977033173 -0.21205010142878239 0 0.2028606977033173 -0.21205010142878239 0 0.18926945576092619 -0.21128762041473961 0 0.19958778264282909 -0.1971230115196658 0 0.2028606977033173 -0.21205010142878239 0 0.18926945576092619 -0.21128762041473961 0 0.19441467230155521 -0.218230576656949 0 0.20198944195381499 -0.22352314808157339 0 0.2028606977033173 -0.21205010142878239 0 0.19441467230155521 -0.218230576656949 0 0.1877930103158075 -0.22466529985509159 0 0.18926945576092619 -0.21128762041473961 0 0.19441467230155521 -0.218230576656949 0 0.18926945576092619 -0.21128762041473961 0 0.19958778264282909 -0.1971230115196658 0 0.18335188765929369 -0.1997284211738905 0 0.19568935043845909 -0.17631896694128321 0 0.19958778264282909 -0.1971230115196658 0 0.18335188765929369 -0.1997284211738905 0 0.18335188765929369 -0.1997284211738905 0 0.16875422241022189 -0.1832647784913132 0 0.18335188765929369 -0.1997284211738905 0 0.170808049100698 -0.1986448148135265 0 0.16875422241022189 -0.1832647784913132 0 0.18335188765929369 -0.1997284211738905 0 0.17869606585490749 -0.2085271653302527 0 0.170808049100698 -0.1986448148135265 0 0.1877930103158075 -0.22466529985509159 0 0.17559279080156279 -0.2122321033600125 0 0.16577008633866919 -0.20987662236176621 0 0.1877930103158075 -0.22466529985509159 0 0.17559279080156279 -0.2122321033600125 0 0.17869606585490749 -0.2085271653302527 0 0.1877930103158075 -0.22466529985509159 0 0.16577008633866919 -0.20987662236176621 0 0.1646718521758456 -0.21157823099230849 0 0.18071942310669131 -0.2252983096777359 0 0.18926945576092619 -0.21128762041473961 0 0.18335188765929369 -0.1997284211738905 0 0.17869606585490749 -0.2085271653302527 0 0.1877930103158075 -0.22466529985509159 0 0.18926945576092619 -0.21128762041473961 0 0.17869606585490749 -0.2085271653302527 0 0.17559279080156279 -0.2122321033600125 0 0.17869606585490749 -0.2085271653302527 0 0.17011200069686711 -0.20585932589293951 0 0.17869606585490749 -0.2085271653302527 0 0.17011200069686711 -0.20585932589293951 0 0.170808049100698 -0.1986448148135265 0 0.17559279080156279 -0.2122321033600125 0 0.16577008633866919 -0.20987662236176621 0 0.17011200069686711 -0.20585932589293951 0 0.16577008633866919 -0.20987662236176621 0 0.1646718521758456 -0.21157823099230849 0 0.18071942310669131 -0.2252983096777359 0 0.16577008633866919 -0.20987662236176621 0 0.17011200069686711 -0.20585932589293951 0 0.1622113981379277 -0.20049681669791919 0 0.1646718521758456 -0.21157823099230849 0 0.17188350320777229 -0.2232268833727534 0 0.1663536465455604 -0.21925509769767959 0 0.1646718521758456 -0.21157823099230849 0 0.16283743395065581 -0.21602335280451229 0 0.1663536465455604 -0.21925509769767959 0 0.16283743395065581 -0.21602335280451229 0 0.15692121004643539 -0.2122711615735354 0 0.16056782596292771 -0.22048587205501369 0 0.16577008633866919 -0.20987662236176621 0 0.1646718521758456 -0.21157823099230849 0 0.15692121004643539 -0.2122711615735354 0 0.16283743395065581 -0.21602335280451229 0 0.1663536465455604 -0.21925509769767959 0 0.16056782596292771 -0.22048587205501369 0 0.1646718521758456 -0.21157823099230849 0 0.16283743395065581 -0.21602335280451229 0 0.15692121004643539 -0.2122711615735354 0 0.16577008633866919 -0.20987662236176621 0 0.15692121004643539 -0.2122711615735354 0 0.15142195832539379 -0.20771277669604291 0 0.16577008633866919 -0.20987662236176621 0 0.1622113981379277 -0.20049681669791919 0 0.14374716236153109 -0.19508794486844089 0 0.16061969219187289 -0.19301537555292289 0 0.170808049100698 -0.1986448148135265 0 0.16875422241022189 -0.1832647784913132 0 0.1622113981379277 -0.20049681669791919 0 0.16061969219187289 -0.19301537555292289 0 0.170808049100698 -0.1986448148135265 0 0.17011200069686711 -0.20585932589293951 0 0.1622113981379277 -0.20049681669791919 0 0.170808049100698 -0.1986448148135265 0 0.18977212596430351 -0.25276072220782819 0 0.17418733597878611 -0.24446685408066859 0 0.18336413834891321 -0.2385709852641659 0 0.17418733597878611 -0.24446685408066859 0 0.18336413834891321 -0.2385709852641659 0 0.17343595183058791 -0.23294442980351171 0 0.1877930103158075 -0.22466529985509159 0 0.16577008633866919 -0.20987662236176621 0 0.18071942310669131 -0.2252983096777359 0 0.1646718521758456 -0.21157823099230849 0 0.18071942310669131 -0.2252983096777359 0 0.17188350320777229 -0.2232268833727534 0 0.1967669940375367 -0.23901838836316389 0 0.18336413834891321 -0.2385709852641659 0 0.18071942310669131 -0.2252983096777359 0 0.18336413834891321 -0.2385709852641659 0 0.17343595183058791 -0.23294442980351171 0 0.18071942310669131 -0.2252983096777359 0 0.17343595183058791 -0.23294442980351171 0 0.18071942310669131 -0.2252983096777359 0 0.17188350320777229 -0.2232268833727534 0 0.17188350320777229 -0.2232268833727534 0 0.16698611181325579 -0.2260857723594098 0 0.1663536465455604 -0.21925509769767959 0 0.16698611181325579 -0.2260857723594098 0 0.1663536465455604 -0.21925509769767959 0 0.16056782596292771 -0.22048587205501369 0 0.16056782596292771 -0.22048587205501369 0 0.1599104980459343 -0.2355475605295379 0 0.15088983089542071 -0.22081601002624321 0 0.16698611181325579 -0.2260857723594098 0 0.16056782596292771 -0.22048587205501369 0 0.1599104980459343 -0.2355475605295379 0 0.17343595183058791 -0.23294442980351171 0 0.17188350320777229 -0.2232268833727534 0 0.16698611181325579 -0.2260857723594098 0 0.17343595183058791 -0.23294442980351171 0 0.16698611181325579 -0.2260857723594098 0 0.1599104980459343 -0.2355475605295379 0 0.16759502608367921 -0.2565130419660393 0 0.17418733597878611 -0.24446685408066859 0 0.1599104980459343 -0.2355475605295379 0 0.14385042888010149 -0.25110660899300591 0 0.16759502608367921 -0.2565130419660393 0 0.1599104980459343 -0.2355475605295379 0 0.17418733597878611 -0.24446685408066859 0 0.17343595183058791 -0.23294442980351171 0 0.1599104980459343 -0.2355475605295379 0 0.14385042888010149 -0.25110660899300591 0 0.1599104980459343 -0.2355475605295379 0 0.14330809252756321 -0.23344496992729311 0 0.14330809252756321 -0.23344496992729311 0 0.15088983089542071 -0.22081601002624321 0 0.1352122890592968 -0.21828087165203969 0 0.1599104980459343 -0.2355475605295379 0 0.14330809252756321 -0.23344496992729311 0 0.15088983089542071 -0.22081601002624321 0 0.14330809252756321 -0.23344496992729311 0 0.12667741575706271 -0.2414737984356386 0 0.1352122890592968 -0.21828087165203969 0 0.12667741575706271 -0.2414737984356386 0 0.1352122890592968 -0.21828087165203969 0 0.1175708266106259 -0.22449432508942729 0 0.12667741575706271 -0.2414737984356386 0 0.1352122890592968 -0.21828087165203969 0 0.14385042888010149 -0.25110660899300591 0 0.14330809252756321 -0.23344496992729311 0 0.12667741575706271 -0.2414737984356386 0 0.16577008633866919 -0.20987662236176621 0 0.14374716236153109 -0.19508794486844089 0 0.16061969219187289 -0.19301537555292289 0 0.14374716236153109 -0.19508794486844089 0 0.15636592886849729 -0.18540230767715821 0 0.1622113981379277 -0.20049681669791919 0 0.16061969219187289 -0.19301537555292289 0 0.14374716236153109 -0.19508794486844089 0 0.16577008633866919 -0.20987662236176621 0 0.14374716236153109 -0.19508794486844089 0 0.15142195832539379 -0.20771277669604291 0 0.14374716236153109 -0.19508794486844089 0 0.15142195832539379 -0.20771277669604291 0 0.1352122890592968 -0.21828087165203969 0 0.15088983089542071 -0.22081601002624321 0 0.15142195832539379 -0.20771277669604291 0 0.1352122890592968 -0.21828087165203969 0 0.15692121004643539 -0.2122711615735354 0 0.16056782596292771 -0.22048587205501369 0 0.15088983089542071 -0.22081601002624321 0 0.15692121004643539 -0.2122711615735354 0 0.15088983089542071 -0.22081601002624321 0 0.15142195832539379 -0.20771277669604291 0 0.14374716236153109 -0.19508794486844089 0 0.1352122890592968 -0.21828087165203969 0 0.13061884817719299 -0.20025999803693481 0 0.1170580782270865 -0.2060148146536252 0 0.1352122890592968 -0.21828087165203969 0 0.13061884817719299 -0.20025999803693481 0 0.14374716236153109 -0.19508794486844089 0 0.1352122890592968 -0.21828087165203969 0 0.14374716236153109 -0.19508794486844089 0 0.1333039902599881 -0.18807522011048711 0 0.14277645465785321 -0.18525128211498071 0 0.14374716236153109 -0.19508794486844089 0 0.13061884817719299 -0.20025999803693481 0 0.1333039902599881 -0.18807522011048711 0 0.14374716236153109 -0.19508794486844089 0 0.1333039902599881 -0.18807522011048711 0 0.1222182451498562 -0.19330575787805229 0 0.13061884817719299 -0.20025999803693481 0 0.1333039902599881 -0.18807522011048711 0 0.1222182451498562 -0.19330575787805229 0 0.12065875384489649 -0.18321088020553991 0 0.1333039902599881 -0.18807522011048711 0 0.12065875384489649 -0.18321088020553991 0 0.1333039902599881 -0.18807522011048711 0 0.13047619484393319 -0.1738274831090994 0 0.13047619484393319 -0.1738274831090994 0 0.140706498370188 -0.1766794164499606 0 0.14886684560877761 -0.1709594841258017 0 0.13047619484393319 -0.1738274831090994 0 0.14277645465785321 -0.18525128211498071 0 0.140706498370188 -0.1766794164499606 0 0.1333039902599881 -0.18807522011048711 0 0.13047619484393319 -0.1738274831090994 0 0.14277645465785321 -0.18525128211498071 0 0.14277645465785321 -0.18525128211498071 0 0.14886684560877761 -0.1709594841258017 0 0.1541565571611492 -0.16680113580873651 0 0.14374716236153109 -0.19508794486844089 0 0.14277645465785321 -0.18525128211498071 0 0.1541565571611492 -0.16680113580873651 0 0.14374716236153109 -0.19508794486844089 0 0.1541565571611492 -0.16680113580873651 0 0.15636592886849729 -0.18540230767715821 0 0.14374716236153109 -0.19508794486844089 0 0.1541565571611492 -0.16680113580873651 0 0.14277645465785321 -0.18525128211498071 0 0.140706498370188 -0.1766794164499606 0 0.14886684560877761 -0.1709594841258017 0 0.1541565571611492 -0.16680113580873651 0 0.1359458799852418 -0.16149259370191191 0 0.1347057150977084 -0.1448639487213616 0 0.13047619484393319 -0.1738274831090994 0 0.14886684560877761 -0.1709594841258017 0 0.1541565571611492 -0.16680113580873651 0 0.13047619484393319 -0.1738274831090994 0 0.1541565571611492 -0.16680113580873651 0 0.1550927012904415 -0.1642572290065176 0 0.1541565571611492 -0.16680113580873651 0 0.14927253721312589 -0.15129144126779279 0 0.1550927012904415 -0.1642572290065176 0 0.14927253721312589 -0.15129144126779279 0 0.16097954514732041 -0.15449923045886449 0 0.1550927012904415 -0.1642572290065176 0 0.1541565571611492 -0.16680113580873651 0 0.13047619484393319 -0.1738274831090994 0 0.1541565571611492 -0.16680113580873651 0 0.1359458799852418 -0.16149259370191191 0 0.12390896705349359 -0.1583903110764619 0 0.13047619484393319 -0.1738274831090994 0 0.1359458799852418 -0.16149259370191191 0 0.12390896705349359 -0.1583903110764619 0 0.1359458799852418 -0.16149259370191191 0 0.1347057150977084 -0.1448639487213616 0 0.1157828793289597 -0.12352226144999449 0 0.1347057150977084 -0.1448639487213616 0 0.1157828793289597 -0.12352226144999449 0 0.12834220282660791 -0.1217576464980696 0 0.1347057150977084 -0.1448639487213616 0 0.12834220282660791 -0.1217576464980696 0 0.1437960177424894 -0.1248392895565119 0 0.1347057150977084 -0.1448639487213616 0 0.1437960177424894 -0.1248392895565119 0 0.1347057150977084 -0.1448639487213616 0 0.1500232736024758 -0.13782462848625601 0 0.1437960177424894 -0.1248392895565119 0 0.15991447535410391 -0.1241506182142616 0 0.1500232736024758 -0.13782462848625601 0 0.1541565571611492 -0.16680113580873651 0 0.1347057150977084 -0.1448639487213616 0 0.1541565571611492 -0.16680113580873651 0 0.1347057150977084 -0.1448639487213616 0 0.14927253721312589 -0.15129144126779279 0 0.1347057150977084 -0.1448639487213616 0 0.1500232736024758 -0.13782462848625601 0 0.14927253721312589 -0.15129144126779279 0 0.1500232736024758 -0.13782462848625601 0 0.14927253721312589 -0.15129144126779279 0 0.1624276226049515 -0.14397784467135191 0 0.14927253721312589 -0.15129144126779279 0 0.16097954514732041 -0.15449923045886449 0 0.1624276226049515 -0.14397784467135191 0 0.16097954514732041 -0.15449923045886449 0 0.1624276226049515 -0.14397784467135191 0 0.17712531948076271 -0.1584704068897958 0 0.15991447535410391 -0.1241506182142616 0 0.1500232736024758 -0.13782462848625601 0 0.1624276226049515 -0.14397784467135191 0 0.15991447535410391 -0.1241506182142616 0 0.1624276226049515 -0.14397784467135191 0 0.18242421602901329 -0.13509997998797191 0 0.1997719509247522 -0.15101504630364559 0 0.18242421602901329 -0.13509997998797191 0 0.17712531948076271 -0.1584704068897958 0 0.1624276226049515 -0.14397784467135191 0 0.18242421602901329 -0.13509997998797191 0 0.17712531948076271 -0.1584704068897958 0 0.17712531948076271 -0.1584704068897958 0 0.1804595230973533 -0.1761674781826062 0 0.16713897604975611 -0.17002775823429719 0 0.19568935043845909 -0.17631896694128321 0 0.17712531948076271 -0.1584704068897958 0 0.1804595230973533 -0.1761674781826062 0 0.18335188765929369 -0.1997284211738905 0 0.1804595230973533 -0.1761674781826062 0 0.16875422241022189 -0.1832647784913132 0 0.19568935043845909 -0.17631896694128321 0 0.18335188765929369 -0.1997284211738905 0 0.1804595230973533 -0.1761674781826062 0 0.1804595230973533 -0.1761674781826062 0 0.16875422241022189 -0.1832647784913132 0 0.16713897604975611 -0.17002775823429719 0 0.1541565571611492 -0.16680113580873651 0 0.16875422241022189 -0.1832647784913132 0 0.1541565571611492 -0.16680113580873651 0 0.16875422241022189 -0.1832647784913132 0 0.16713897604975611 -0.17002775823429719 0 0.1541565571611492 -0.16680113580873651 0 0.16875422241022189 -0.1832647784913132 0 0.15636592886849729 -0.18540230767715821 0 0.16061969219187289 -0.19301537555292289 0 0.16875422241022189 -0.1832647784913132 0 0.15636592886849729 -0.18540230767715821 0 0.1550927012904415 -0.1642572290065176 0 0.16097954514732041 -0.15449923045886449 0 0.17712531948076271 -0.1584704068897958 0 0.1541565571611492 -0.16680113580873651 0 0.17712531948076271 -0.1584704068897958 0 0.1541565571611492 -0.16680113580873651 0 0.17712531948076271 -0.1584704068897958 0 0.16713897604975611 -0.17002775823429719 0 0.1550927012904415 -0.1642572290065176 0 0.1541565571611492 -0.16680113580873651 0 0.17712531948076271 -0.1584704068897958 0 
</DataArray>
</Points>
<Cells>
<DataArray type="UInt32" Name="connectivity" format="ascii">
0 1 2 3 4 5 6 7 8 9 10 11 12 13 14 15 16 17 18 19 20 21 22 23 24 25 26 27 28 29 30 31 32 33 34 35 36 37 38 39 40 41 42 43 44 45 46 47 48 49 50 51 52 53 54 55 56 57 58 59 60 61 62 63 64 65 66 67 68 69 70 71 72 73 74 75 76 77 78 79 80 81 82 83 84 85 86 87 88 89 90 91 92 93 94 95 96 97 98 99 100 101 102 103 104 105 106 107 108 109 110 111 112 113 114 115 116 117 118 119 120 121 122 123 124 125 126 127 128 129 130 131 132 133 134 135 136 137 138 139 140 141 142 143 144 145 146 147 148 149 150 151 152 153 154 155 156 157 158 159 160 161 162 163 164 165 166 167 168 169 170 171 172 173 174 175 176 177 178 179 180 181 182 183 184 185 186 187 188 189 190 191 192 193 194 195 196 197 198 199 200 201 202 203 204 205 206 207 208 209 210 211 212 213 214 215 216 217 218 219 220 221 222 223 224 225 226 227 228 229 230 231 232 233 234 235 236 237 238 239 240 241 242 243 244 245 246 247 248 249 250 251 252 253 254 255 256 257 258 259 260 261 262 263 264 265 266 267 268 269 270 271 272 273 274 275 276 277 278 279 280 281 282 283 284 285 286 287 288 289 290 291 292 293 294 295 296 297 298 299 300 301 302 303 304 305 306 307 308 309 310 311 312 313 314 315 316 317 318 319 320 321 322 323 324 325 326 327 328 329 330 331 332 333 334 335 336 337 338 339 340 341 342 343 344 345 346 347 348 349 350 351 352 353 354 355 356 357 358 359 360 361 362 363 364 365 366 367 368 369 370 371 372 373 374 375 376 377 378 379 380 381 382 383 384 385 386 387 388 389 390 391 392 393 394 395 396 397 398 399 400 401 402 403 404 405 406 407 408 409 410 411 412 413 414 415 416 417 418 419 420 421 422 423 424 425 426 427 428 429 430 431 432 433 434 435 436 437 438 439 440 441 442 443 444 445 446 447 448 449 450 451 452 453 454 455 456 457 458 459 460 461 462 463 464 465 466 467 468 469 470 471 472 473 474 475 476 477 478 479 480 481 482 483 484 485 486 487 488 489 490 491 492 493 494 495 496 497 498 499 500 501 502 503 504 505 506 507 508 509 510 511 512 513 514 515 516 517 518 519 520 521 522 523 524 525 526 527 528 529 530 531 532 533 534 535 536 537 538 539 540 541 542 543 544 545 546 547 548 549 550 551 552 553 554 555 556 557 558 559 560 561 562 563 564 565 566 567 568 569 570 571 572 573 574 575 576 577 578 579 580 581 582 583 584 585 586 587 588 589 590 591 592 593 594 595 596 597 598 599 600 601 602 603 604 605 606 607 608 609 610 611 612 613 614 615 616 617 618 619 620 621 622 623 624 625 626 627 628 629 630 631 632 633 634 635 636 637 638 639 640 641 642 643 644 645 646 647 648 649 650 651 652 653 654 655 656 657 658 659 660 661 662 663 664 665 666 667 668 669 670 671 672 673 674 675 676 677 678 679 680 681 682 683 684 685 686 687 688 689 690 691 692 693 694 695 696 697 698 699 700 701 702 703 704 705 706 707 708 709 710 711 712 713 714 715 716 717 718 719 720 721 722 723 724 725 726 727 728 729 730 731 732 733 734 735 736 737 738 739 740 741 742 743 744 745 746 747 748 749 750 751 752 753 754 755 756 757 758 759 760 761 762 763 764 765 766 767 768 769 770 771 772 773 774 775 776 777 778 779 780 781 782 783 784 785 786 787 788 789 790 791 792 793 794 795 796 797 798 799 800 801 802 803 804 805 806 807 808 809 810 811 812 813 814 815 816 817 818 819 820 821 822 823 824 825 826 827 828 829 830 831 832 833 834 835 836 837 838 839 840 841 842 843 844 845 846 847 848 849 850 851 852 853 854 855 856 857 858 859 860 861 862 863 864 865 866 867 868 869 870 871 872 873 874 875 876 877 878 879 880 881 882 883 884 885 886 887 888 889 890 891 892 893 894 895 896 897 898 899 900 901 902 903 904 905 906 907 908 909 910 911 912 913 914 915 916 917 918 919 920 921 922 923 924 925 926 927 928 929 930 931 932 933 934 935 936 937 938 939 940 941 942 943 944 945 946 947 948 949 950 951 952 953 954 955 956 957 958 959 960 961 962 963 964 965 966 967 968 969 970 971 972 973 974 975 976 977 978 979 980 981 982 983 984 985 986 987 988 989 990 991 992 993 994 995 996 997 998 999 1000 1001 1002 1003 1004 1005 1006 1007 1008 1009 1010 1011 1012 1013 1014 1015 1016 1017 1018 1019 1020 1021 1022 1023 1024 1025 1026 1027 1028 1029 1030 1031 1032 1033 1034 1035 1036 1037 1038 1039 1040 1041 1042 1043 1044 1045 1046 1047 1048 1049 1050 1051 1052 1053 1054 1055 1056 1057 1058 1059 1060 1061 1062 1063 1064 1065 1066 1067 1068 1069 1070 1071 1072 1073 1074 1075 1076 1077 1078 1079 1080 1081 1082 1083 1084 1085 1086 1087 1088 1089 1090 1091 1092 1093 1094 1095 1096 1097 1098 1099 1100 1101 1102 1103 1104 1105 1106 1107 1108 1109 1110 1111 1112 1113 1114 1115 1116 1117 1118 1119 1120 1121 1122 1123 1124 1125 1126 1127 1128 1129 1130 1131 1132 1133 1134 1135 1136 1137 1138 1139 1140 1141 1142 1143 1144 1145 1146 1147 1148 1149 1150 1151 1152 1153 1154 1155 1156 1157 1158 1159 1160 1161 1162 1163 1164 1165 1166 1167 1168 1169 1170 1171 1172 1173 1174 1175 1176 1177 1178 1179 1180 1181 1182 1183 1184 1185 1186 1187 1188 1189 1190 1191 1192 1193 1194 1195 1196 1197 1198 1199 1200 1201 1202 1203 1204 1205 1206 1207 1208 1209 1210 1211 1212 1213 1214 1215 1216 1217 1218 1219 1220 1221 1222 1223 1224 1225 1226 1227 1228 1229 1230 1231 1232 1233 1234 1235 1236 1237 1238 1239 1240 1241 1242 1243 1244 1245 1246 1247 1248 1249 1250 1251 1252 1253 1254 1255 1256 1257 1258 1259 1260 1261 1262 1263 1264 1265 1266 1267 1268 1269 1270 1271 1272 1273 1274 1275 1276 1277 1278 1279 1280 1281 1282 1283 1284 1285 1286 1287 1288 1289 1290 1291 1292 1293 1294 1295 1296 1297 1298 1299 1300 1301 1302 1303 1304 1305 1306 1307 1308 1309 1310 1311 1312 1313 1314 1315 1316 1317 1318 1319 1320 1321 1322 1323 1324 1325 1326 1327 1328 1329 1330 1331 1332 1333 1334 1335 1336 1337 1338 1339 1340 1341 1342 1343 1344 1345 1346 1347 1348 1349 1350 1351 1352 1353 1354 1355 1356 1357 1358 1359 1360 1361 1362 1363 1364 1365 1366 1367 1368 1369 1370 1371 1372 1373 1374 1375 1376 1377 1378 1379 1380 1381 1382 1383 1384 1385 1386 1387 1388 1389 1390 1391 1392 1393 1394 1395 1396 1397 1398 1399 1400 1401 1402 1403 1404 1405 1406 1407 1408 1409 1410 1411 1412 1413 1414 1415 1416 1417 1418 1419 1420 1421 1422 1423 1424 1425 1426 1427 1428 1429 1430 1431 1432 1433 1434 1435 1436 1437 1438 1439 1440 1441 1442 1443 1444 1445 1446 1447 1448 1449 1450 1451 1452 1453 1454 1455 1456 1457 1458 1459 1460 1461 1462 1463 1464 1465 1466 1467 1468 1469 1470 1471 1472 1473 1474 1475 1476 1477 1478 1479 1480 1481 1482 1483 1484 1485 1486 1487 1488 1489 1490 1491 1492 1493 1494 1495 1496 1497 1498 1499 1500 1501 1502 1503 1504 1505 1506 1507 1508 1509 1510 1511 1512 1513 1514 1515 1516 1517 1518 1519 1520 1521 1522 1523 1524 1525 1526 1527 1528 1529 1530 1531 1532 1533 1534 1535 1536 1537 1538 1539 1540 1541 1542 1543 1544 1545 1546 1547 1548 1549 1550 1551 1552 1553 1554 1555 1556 1557 1558 1559 1560 1561 1562 1563 1564 1565 1566 1567 1568 1569 1570 1571 1572 1573 1574 1575 1576 1577 1578 1579 1580 1581 1582 1583 1584 1585 1586 1587 1588 1589 1590 1591 1592 1593 1594 1595 1596 1597 1598 1599 1600 1601 1602 1603 1604 1605 1606 1607 1608 1609 1610 1611 1612 1613 1614 1615 1616 1617 1618 1619 1620 1621 1622 1623 1624 1625 1626 1627 1628 1629 1630 1631 1632 1633 1634 1635 1636 1637 1638 1639 1640 1641 1642 1643 1644 1645 1646 1647 1648 1649 1650 1651 1652 1653 1654 1655 1656 1657 1658 1659 1660 1661 1662 1663 1664 1665 1666 1667 1668 1669 1670 1671 1672 1673 1674 1675 1676 1677 1678 1679 1680 1681 1682 1683 1684 1685 1686 1687 1688 1689 1690 1691 1692 1693 1694 1695 1696 1697 1698 1699 1700 1701 1702 1703 1704 1705 1706 1707 1708 1709 1710 1711 1712 1713 1714 1715 1716 1717 1718 1719 1720 1721 1722 1723 1724 1725 1726 1727 1728 1729 1730 1731 1732 1733 1734 1735 1736 1737 1738 1739 1740 1741 1742 1743 1744 1745 1746 1747 1748 1749 1750 1751 1752 1753 1754 1755 1756 1757 1758 1759 1760 1761 1762 1763 1764 1765 1766 1767 1768 1769 1770 1771 1772 1773 1774 1775 1776 1777 1778 1779 1780 1781 1782 1783 1784 1785 1786 1787 1788 1789 1790 1791 1792 1793 1794 1795 1796 1797 1798 1799 1800 1801 1802 1803 1804 1805 1806 1807 1808 1809 1810 1811 1812 1813 1814 1815 1816 1817 1818 1819 1820 1821 1822 1823 1824 1825 1826 1827 1828 1829 1830 1831 1832 1833 1834 1835 1836 1837 1838 1839 1840 1841 1842 1843 1844 1845 1846 1847 1848 1849 1850 1851 1852 1853 1854 1855 1856 1857 1858 1859 1860 1861 1862 1863 1864 1865 1866 1867 1868 1869 1870 1871 1872 1873 1874 1875 1876 1877 1878 1879 1880 1881 1882 1883 1884 1885 1886 1887 1888 1889 1890 1891 1892 1893 1894 1895 1896 1897 1898 1899 1900 1901 1902 1903 1904 1905 1906 1907 1908 1909 1910 1911 1912 1913 1914 1915 1916 1917 1918 1919 1920 1921 1922 1923 1924 1925 1926 1927 1928 1929 1930 1931 1932 1933 1934 1935 1936 1937 1938 1939 1940 1941 1942 1943 1944 1945 1946 1947 1948 1949 1950 1951 1952 1953 1954 1955 1956 1957 1958 1959 1960 1961 1962 1963 1964 1965 1966 1967 1968 1969 1970 1971 1972 1973 1974 1975 1976 1977 1978 1979 1980 1981 1982 1983 1984 1985 1986 1987 1988 1989 1990 1991 1992 1993 1994 1995 1996 1997 1998 1999 2000 2001 2002 2003 2004 2005 2006 2007 2008 2009 2010 2011 2012 2013 2014 2015 2016 2017 2018 2019 2020 2021 2022 2023 2024 2025 2026 2027 2028 2029 2030 2031 2032 2033 2034 2035 2036 2037 2038 2039 2040 2041 2042 2043 2044 2045 2046 2047 2048 2049 2050 2051 2052 2053 2054 2055 2056 2057 2058 2059 2060 2061 2062 2063 2064 2065 2066 2067 2068 2069 2070 2071 2072 2073 2074 2075 2076 2077 2078 2079 2080 2081 2082 2083 2084 2085 2086 2087 2088 2089 2090 2091 2092 2093 2094 2095 2096 2097 2098 2099 2100 2101 2102 2103 2104 2105 2106 2107 2108 2109 2110 2111 2112 2113 2114 2115 2116 2117 2118 2119 2120 2121 2122 2123 2124 2125 2126 2127 2128 2129 2130 2131 2132 2133 2134 2135 2136 2137 2138 2139 2140 2141 2142 2143 2144 2145 2146 2147 2148 2149 2150 2151 2152 2153 2154 2155 2156 2157 2158 2159 2160 2161 2162 2163 2164 2165 2166 2167 2168 2169 2170 2171 2172 2173 2174 2175 2176 2177 2178 2179 2180 2181 2182 2183 2184 2185 2186 2187 2188 2189 2190 2191 2192 2193 2194 2195 2196 2197 2198 2199 2200 2201 2202 2203 2204 2205 2206 2207 2208 2209 2210 2211 2212 2213 2214 2215 2216 2217 2218 2219 2220 2221 2222 2223 2224 2225 2226 2227 2228 2229 2230 2231 2232 2233 2234 2235 2236 2237 2238 2239 2240 2241 2242 2243 2244 2245 2246 2247 2248 2249 2250 2251 2252 2253 2254 2255 2256 2257 2258 2259 2260 2261 2262 2263 2264 2265 2266 2267 2268 2269 2270 2271 2272 2273 2274 2275 2276 2277 2278 2279 2280 2281 2282 2283 2284 2285 2286 2287 2288 2289 2290 2291 2292 2293 2294 2295 2296 2297 2298 2299 2300 2301 2302 2303 2304 2305 2306 2307 2308 2309 2310 2311 2312 2313 2314 2315 2316 2317 2318 2319 2320 2321 2322 2323 2324 2325 2326 2327 2328 2329 2330 2331 2332 2333 2334 2335 2336 2337 2338 2339 2340 2341 2342 2343 2344 2345 2346 2347 2348 2349 2350 2351 2352 2353 2354 2355 2356 2357 2358 2359 2360 2361 2362 2363 2364 2365 2366 2367 2368 2369 2370 2371 2372 2373 2374 2375 2376 2377 2378 2379 2380 2381 2382 2383 2384 2385 2386 2387 2388 2389 2390 2391 2392 2393 2394 2395 2396 2397 2398 2399 2400 2401 2402 2403 2404 2405 2406 2407 2408 2409 2410 2411 2412 2413 2414 2415 2416 2417 2418 2419 2420 2421 2422 2423 2424 2425 2426 2427 2428 2429 2430 2431 2432 2433 2434 2435 2436 2437 2438 2439 2440 2441 2442 2443 2444 2445 2446 2447 2448 2449 2450 2451 2452 2453 2454 2455 2456 2457 2458 2459 2460 2461 2462 2463 2464 2465 2466 2467 2468 2469 2470 2471 2472 2473 2474 2475 2476 2477 2478 2479 2480 2481 2482 2483 2484 2485 2486 2487 2488 2489 2490 2491 2492 2493 2494 2495 2496 2497 2498 2499 2500 2501 2502 2503 2504 2505 2506 2507 2508 2509 2510 2511 2512 2513 2514 2515 2516 2517 2518 2519 2520 2521 2522 2523 2524 2525 2526 2527 2528 2529 2530 2531 2532 2533 2534 2535 2536 2537 2538 2539 2540 2541 2542 2543 2544 2545 2546 2547 2548 2549 2550 2551 2552 2553 2554 2555 2556 2557 2558 2559 2560 2561 2562 2563 2564 2565 2566 2567 2568 2569 2570 2571 2572 2573 2574 2575 2576 2577 2578 2579 2580 2581 2582 2583 2584 2585 2586 2587 2588 2589 2590 2591 2592 2593 2594 2595 2596 2597 2598 2599 2600 2601 2602 2603 2604 2605 2606 2607 2608 2609 2610 2611 2612 2613 2614 2615 2616 2617 2618 2619 2620 2621 2622 2623 2624 2625 2626 2627 2628 2629 2630 2631 2632 2633 2634 2635 2636 2637 2638 2639 2640 2641 2642 2643 2644 2645 2646 2647 2648 2649 2650 2651 2652 2653 2654 2655 2656 2657 2658 2659 2660 2661 2662 2663 2664 2665 2666 2667 2668 2669 2670 2671 2672 2673 2674 2675 2676 2677 2678 2679 2680 2681 2682 2683 2684 2685 2686 2687 2688 2689 2690 2691 2692 2693 2694 2695 2696 2697 2698 2699 2700 2701 2702 2703 2704 2705 2706 2707 2708 2709 2710 2711 2712 2713 2714 2715 2716 2717 2718 2719 2720 2721 2722 2723 2724 2725 2726 2727 2728 2729 2730 2731 2732 2733 2734 2735 2736 2737 2738 2739 2740 2741 2742 2743 2744 2745 2746 2747 2748 2749 2750 2751 2752 2753 2754 2755 2756 2757 2758 2759 2760 2761 2762 2763 2764 2765 2766 2767 2768 2769 2770 2771 2772 2773 2774 2775 2776 2777 2778 2779 2780 2781 2782 2783 2784 2785 2786 2787 2788 2789 2790 2791 2792 2793 2794 2795 2796 2797 2798 2799 2800 2801 2802 2803 2804 2805 2806 2807 2808 2809 2810 2811 2812 2813 2814 2815 2816 2817 2818 2819 2820 2821 2822 2823 2824 2825 2826 2827 2828 2829 2830 2831 2832 2833 2834 2835 2836 2837 2838 2839 2840 2841 2842 2843 2844 2845 2846 2847 2848 2849 2850 2851 2852 2853 2854 2855 2856 2857 2858 2859 2860 2861 2862 2863 2864 2865 2866 2867 2868 2869 2870 2871 2872 2873 2874 2875 2876 2877 2878 2879 2880 2881 2882 2883 2884 2885 2886 2887 2888 2889 2890 2891 2892 2893 2894 2895 2896 2897 2898 2899 2900 2901 2902 2903 2904 2905 2906 2907 2908 2909 2910 2911 2912 2913 2914 2915 2916 2917 2918 2919 2920 2921 2922 2923 2924 2925 2926 2927 2928 2929 2930 2931 2932 2933 2934 2935 2936 2937 2938 2939 2940 2941 2942 2943 2944 2945 2946 2947 2948 2949 2950 2951 2952 2953 2954 2955 2956 2957 2958 2959 2960 2961 2962 2963 2964 2965 2966 2967 2968 2969 2970 2971 2972 2973 2974 2975 2976 2977 2978 2979 2980 2981 2982 2983 2984 2985 2986 2987 2988 2989 2990 2991 2992 2993 2994 2995 2996 2997 2998 2999 3000 3001 3002 3003 3004 3005 3006 3007 3008 3009 3010 3011 3012 3013 3014 3015 3016 3017 3018 3019 3020 3021 3022 3023 3024 3025 3026 3027 3028 3029 3030 3031 3032 3033 3034 3035 3036 3037 3038 3039 3040 3041 3042 3043 3044 3045 3046 3047 3048 3049 3050 3051 3052 3053 3054 3055 3056 3057 3058 3059 3060 3061 3062 3063 3064 3065 3066 3067 3068 3069 3070 3071 3072 3073 3074 3075 3076 3077 3078 3079 3080 3081 3082 3083 3084 3085 3086 3087 3088 3089 3090 3091 3092 3093 3094 3095 3096 3097 3098 3099 3100 3101 3102 3103 3104 3105 3106 3107 3108 3109 3110 3111 3112 3113 3114 3115 3116 3117 3118 3119 3120 3121 3122 3123 3124 3125 3126 3127 3128 3129 3130 3131 3132 3133 3134 3135 3136 3137 3138 3139 3140 3141 3142 3143 3144 3145 3146 3147 3148 3149 3150 3151 3152 3153 3154 3155 3156 3157 3158 3159 3160 3161 3162 3163 3164 3165 3166 3167 3168 3169 3170 3171 3172 3173 3174 3175 3176 3177 3178 3179 3180 3181 3182 3183 3184 3185 3186 3187 3188 3189 3190 3191 3192 3193 3194 3195 3196 3197 3198 3199 3200 3201 3202 3203 3204 3205 3206 3207 3208 3209 3210 3211 3212 3213 3214 3215 3216 3217 3218 3219 3220 3221 3222 3223 3224 3225 3226 3227 3228 3229 3230 3231 3232 3233 3234 3235 3236 3237 3238 3239 3240 3241 3242 3243 3244 3245 3246 3247 3248 3249 3250 3251 3252 3253 3254 3255 3256 3257 3258 3259 3260 3261 3262 3263 3264 3265 3266 3267 3268 3269 3270 3271 3272 3273 3274 3275 3276 3277 3278 3279 3280 3281 3282 3283 3284 3285 3286 3287 3288 3289 3290 3291 3292 3293 3294 3295 3296 3297 3298 3299 3300 3301 3302 3303 3304 3305 3306 3307 3308 3309 3310 3311 3312 3313 3314 3315 3316 3317 3318 3319 3320 3321 3322 3323 3324 3325 3326 3327 3328 3329 3330 3331 3332 3333 3334 3335 3336 3337 3338 3339 3340 3341 3342 3343 3344 3345 3346 3347 3348 3349 3350 3351 3352 3353 3354 3355 3356 3357 3358 3359 3360 3361 3362 3363 3364 3365 3366 3367 3368 3369 3370 3371 3372 3373 3374 3375 3376 3377 3378 3379 3380 3381 3382 3383 3384 3385 3386 3387 3388 3389 3390 3391 3392 3393 3394 3395 3396 3397 3398 3399 3400 3401 3402 3403 3404 3405 3406 3407 3408 3409 3410 3411 3412 3413 3414 3415 3416 3417 3418 3419 3420 3421 3422 3423 3424 3425 3426 3427 3428 3429 3430 3431 3432 3433 3434 3435 3436 3437 3438 3439 3440 3441 3442 3443 3444 3445 3446 3447 3448 3449 3450 3451 3452 3453 3454 3455 3456 3457 3458 3459 3460 3461 3462 3463 3464 3465 3466 3467 3468 3469 3470 3471 3472 3473 3474 3475 3476 3477 3478 3479 3480 3481 3482 3483 3484 3485 3486 3487 3488 3489 3490 3491 3492 3493 3494 3495 3496 3497 3498 3499 3500 3501 3502 3503 3504 3505 3506 3507 3508 3509 3510 3511 3512 3513 3514 3515 3516 3517 3518 3519 3520 3521 3522 3523 3524 3525 3526 3527 3528 3529 3530 3531 3532 3533 3534 3535 3536 3537 3538 3539 3540 3541 3542 3543 3544 3545 3546 3547 3548 3549 3550 3551 3552 3553 3554 3555 3556 3557 3558 3559 3560 3561 3562 3563 3564 3565 3566 3567 3568 3569 3570 3571 3572 3573 3574 3575 3576 3577 3578 3579 3580 3581 3582 3583 3584 3585 3586 3587 3588 3589 3590 3591 3592 3593 3594 3595 3596 3597 3598 3599 3600 3601 3602 3603 3604 3605 3606 3607 3608 3609 3610 3611 3612 3613 3614 3615 3616 3617 3618 3619 3620 3621 3622 3623 3624 3625 3626 3627 3628 3629 3630 3631 3632 3633 3634 3635 3636 3637 3638 3639 3640 3641 3642 3643 3644 3645 3646 3647 3648 3649 3650 3651 3652 3653 3654 3655 3656 3657 3658 3659 3660 3661 3662 3663 3664 3665 3666 3667 3668 3669 3670 3671 3672 3673 3674 3675 3676 3677 3678 3679 3680 3681 3682 3683 3684 3685 3686 3687 3688 3689 3690 3691 3692 3693 3694 3695 3696 3697 3698 3699 3700 3701 3702 3703 3704 3705 3706 3707 3708 3709 3710 3711 3712 3713 3714 3715 3716 3717 3718 3719 3720 3721 3722 3723 3724 3725 3726 3727 3728 3729 3730 3731 3732 3733 3734 3735 3736 3737 3738 3739 3740 3741 3742 3743 3744 3745 3746 3747 3748 3749 3750 3751 3752 3753 3754 3755 3756 3757 3758 3759 3760 3761 3762 3763 3764 3765 3766 3767 3768 3769 3770 3771 3772 3773 3774 3775 3776 3777 3778 3779 3780 3781 3782 3783 3784 3785 3786 3787 3788 3789 3790 3791 3792 3793 3794 3795 3796 3797 3798 3799 3800 3801 3802 3803 3804 3805 3806 3807 3808 3809 3810 3811 3812 3813 3814 3815 3816 3817 3818 3819 3820 3821 3822 3823 3824 3825 3826 3827 3828 3829 3830 3831 3832 3833 3834 3835 3836 3837 3838 3839 3840 3841 3842 3843 3844 3845 3846 3847 3848 3849 3850 3851 3852 3853 3854 3855 3856 3857 3858 3859 3860 3861 3862 3863 3864 3865 3866 3867 3868 3869 3870 3871 3872 3873 3874 3875 3876 3877 3878 3879 3880 3881 3882 3883 3884 3885 3886 3887 3888 3889 3890 3891 3892 3893 3894 3895 3896 3897 3898 3899 3900 3901 3902 3903 3904 3905 3906 3907 3908 3909 3910 3911 3912 3913 3914 3915 3916 3917 3918 3919 3920 3921 3922 3923 3924 3925 3926 3927 3928 3929 3930 3931 3932 3933 3934 3935 3936 3937 3938 3939 3940 3941 3942 3943 3944 3945 3946 3947 3948 3949 3950 3951 3952 3953 3954 3955 3956 3957 3958 3959 3960 3961 3962 3963 3964 3965 3966 3967 3968 3969 3970 3971 3972 3973 3974 3975 3976 3977 3978 3979 3980 3981 3982 3983 3984 3985 3986 3987 3988 3989 3990 3991 3992 3993 3994 3995 3996 3997 3998 3999 4000 4001 4002 4003 4004 4005 4006 4007 4008 4009 4010 4011 4012 4013 4014 4015 4016 4017 4018 4019 4020 4021 4022 4023 4024 4025 4026 4027 4028 4029 4030 4031 4032 4033 4034 4035 4036 4037 4038 4039 4040 4041 4042 4043 4044 4045 4046 4047 4048 4049 4050 4051 4052 4053 4054 4055 4056 4057 4058 4059 4060 4061 4062 4063 4064 4065 4066 4067 4068 4069 4070 4071 4072 4073 4074 4075 4076 4077 4078 4079 4080 4081 4082 4083 4084 4085 4086 4087 4088 4089 4090 4091 4092 4093 4094 4095 4096 4097 4098 4099 4100 4101 4102 4103 4104 4105 4106 4107 4108 4109 4110 4111 4112 4113 4114 4115 4116 4117 4118 4119 4120 4121 4122 4123 4124 4125 4126 4127 4128 4129 4130 4131 4132 4133 4134 4135 4136 4137 4138 4139 4140 4141 4142 4143 4144 4145 4146 4147 4148 4149 4150 4151 4152 4153 4154 4155 4156 4157 4158 4159 4160 4161 4162 4163 4164 4165 4166 4167 4168 4169 4170 4171 4172 4173 4174 4175 4176 4177 4178 4179 4180 4181 4182 4183 4184 4185 4186 4187 4188 4189 4190 4191 4192 4193 4194 4195 4196 4197 4198 4199 4200 4201 4202 4203 4204 4205 4206 4207 4208 4209 4210 4211 4212 4213 4214 4215 4216 4217 4218 4219 4220 4221 4222 4223 4224 4225 4226 4227 4228 4229 4230 4231 4232 4233 4234 4235 4236 4237 4238 4239 4240 4241 4242 4243 4244 4245 4246 4247 4248 4249 4250 4251 4252 4253 4254 4255 4256 4257 4258 4259 4260 4261 4262 4263 4264 4265 4266 4267 4268 4269 4270 4271 4272 4273 4274 4275 4276 4277 4278 4279 4280 4281 4282 4283 4284 4285 4286 4287 4288 4289 4290 4291 4292 4293 4294 4295 4296 4297 4298 4299 4300 4301 4302 4303 4304 4305 4306 4307 4308 4309 4310 4311 4312 4313 4314 4315 4316 4317 4318 4319 4320 4321 4322 4323 4324 4325 4326 4327 4328 4329 4330 4331 4332 4333 4334 4335 4336 4337 4338 4339 4340 4341 4342 4343 4344 4345 4346 4347 4348 4349 4350 4351 4352 4353 4354 4355 4356 4357 4358 4359 4360 4361 4362 4363 4364 4365 4366 4367 4368 4369 4370 4371 4372 4373 4374 4375 4376 4377 4378 4379 4380 4381 4382 4383 4384 4385 4386 4387 4388 4389 4390 4391 4392 4393 4394 4395 4396 4397 4398 4399 4400 4401 4402 4403 4404 4405 4406 4407 4408 4409 4410 4411 4412 4413 4414 4415 4416 4417 4418 4419 4420 4421 4422 4423 4424 4425 4426 4427 4428 4429 4430 4431 4432 4433 4434 4435 4436 4437 4438 4439 4440 4441 4442 4443 4444 4445 4446 4447 4448 4449 4450 4451 4452 4453 4454 4455 4456 4457 4458 4459 4460 4461 4462 4463 4464 4465 4466 4467 4468 4469 4470 4471 4472 4473 4474 4475 4476 4477 4478 4479 4480 4481 4482 4483 4484 4485 4486 4487 4488 4489 4490 4491 4492 4493 4494 4495 4496 4497 4498 4499 4500 4501 4502 4503 4504 4505 4506 4507 4508 4509 4510 4511 4512 4513 4514 4515 4516 4517 4518 4519 4520 4521 4522 4523 4524 4525 4526 4527 4528 4529 4530 4531 4532 4533 4534 4535 4536 4537 4538 4539 4540 4541 4542 4543 4544 4545 4546 4547 4548 4549 4550 4551 4552 4553 4554 4555 4556 4557 4558 4559 4560 4561 4562 4563 4564 4565 4566 4567 4568 4569 4570 4571 4572 4573 4574 4575 4576 4577 4578 4579 4580 4581 4582 4583 4584 4585 4586 4587 4588 4589 4590 4591 4592 4593 4594 4595 4596 4597 4598 4599 4600 4601 4602 4603 4604 4605 4606 4607 4608 4609 4610 4611 4612 4613 4614 4615 4616 4617 4618 4619 4620 4621 4622 4623 4624 4625 4626 4627 4628 4629 4630 4631 4632 4633 4634 4635 4636 4637 4638 4639 4640 4641 4642 4643 4644 4645 4646 4647 4648 4649 4650 4651 4652 4653 4654 4655 4656 4657 4658 4659 4660 4661 4662 4663 4664 4665 4666 4667 4668 4669 4670 4671 4672 4673 4674 4675 4676 4677 4678 4679 4680 4681 4682 4683 4684 4685 4686 4687 4688 4689 4690 4691 4692 4693 4694 4695 4696 4697 4698 4699 4700 4701 4702 4703 4704 4705 4706 4707 4708 4709 4710 4711 4712 4713 4714 4715 4716 4717 4718 4719 4720 4721 4722 4723 4724 4725 4726 4727 4728 4729 4730 4731 4732 4733 4734 4735 4736 4737 4738 4739 4740 4741 4742 4743 4744 4745 4746 4747 4748 4749 4750 4751 4752 4753 4754 4755 4756 4757 4758 4759 4760 4761 4762 4763 4764 4765 4766 4767 4768 4769 4770 4771 4772 4773 4774 4775 4776 4777 4778 4779 4780 4781 4782 4783 4784 4785 4786 4787 4788 4789 4790 4791 4792 4793 4794 4795 4796 4797 4798 4799 4800 4801 4802 4803 4804 4805 4806 4807 4808 4809 4810 4811 4812 4813 4814 4815 4816 4817 4818 4819 4820 4821 4822 4823 4824 4825 4826 4827 4828 4829 4830 4831 4832 4833 4834 4835 4836 4837 4838 4839 4840 4841 4842 4843 4844 4845 4846 4847 4848 4849 4850 4851 4852 4853 4854 4855 4856 4857 4858 4859 4860 4861 4862 4863 4864 4865 4866 4867 4868 4869 4870 4871 4872 4873 4874 4875 4876 4877 4878 4879 4880 4881 4882 4883 4884 4885 4886 4887 4888 4889 4890 4891 4892 4893 4894 4895 4896 4897 4898 4899 4900 4901 4902 4903 4904 4905 4906 4907 4908 4909 4910 4911 4912 4913 4914 4915 4916 4917 4918 4919 4920 4921 4922 4923 4924 4925 4926 4927 4928 4929 4930 4931 4932 4933 4934 4935 4936 4937 4938 4939 4940 4941 4942 4943 4944 4945 4946 4947 4948 4949 4950 4951 4952 4953 4954 4955 4956 4957 4958 4959 4960 4961 4962 4963 4964 4965 4966 4967 4968 4969 4970 4971 4972 4973 4974 4975 4976 4977 4978 4979 4980 4981 4982 4983 4984 4985 4986 4987 4988 4989 4990 4991 4992 4993 4994 4995 4996 4997 4998 4999 5000 5001 5002 5003 5004 5005 5006 5007 5008 5009 5010 5011 5012 5013 5014 5015 5016 5017 5018 5019 5020 5021 5022 5023 5024 5025 5026 5027 5028 5029 5030 5031 5032 5033 5034 5035 5036 5037 5038 5039 5040 5041 5042 5043 5044 5045 5046 5047 5048 5049 5050 5051 5052 5053 5054 5055 5056 5057 5058 5059 5060 5061 5062 5063 5064 5065 5066 5067 5068 5069 5070 5071 5072 5073 5074 5075 5076 5077 5078 5079 5080 5081 5082 5083 5084 5085 5086 5087 5088 5089 5090 5091 5092 5093 5094 5095 5096 5097 5098 5099 5100 5101 5102 5103 5104 5105 5106 5107 5108 5109 5110 5111 5112 5113 5114 5115 5116 5117 5118 5119 5120 5121 5122 5123 5124 5125 5126 5127 5128 5129 5130 5131 5132 5133 5134 5135 5136 5137 5138 5139 5140 5141 5142 5143 5144 5145 5146 5147 5148 5149 5150 5151 5152 5153 5154 5155 5156 5157 5158 5159 5160 5161 5162 5163 5164 5165 5166 5167 5168 5169 5170 5171 5172 5173 5174 5175 5176 5177 5178 5179 5180 5181 5182 5183 5184 5185 5186 5187 5188 5189 5190 5191 5192 5193 5194 5195 5196 5197 5198 5199 5200 5201 5202 5203 5204 5205 5206 5207 5208 5209 5210 5211 5212 5213 5214 5215 5216 5217 5218 5219 5220 5221 5222 5223 5224 5225 5226 5227 5228 5229 5230 5231 5232 5233 5234 5235 5236 5237 5238 5239 5240 5241 5242 5243 5244 5245 5246 5247 5248 5249 5250 5251 5252 5253 5254 5255 5256 5257 5258 5259 5260 5261 5262 5263 5264 5265 5266 5267 5268 5269 5270 5271 5272 5273 5274 5275 5276 5277 5278 5279 5280 5281 5282 5283 5284 5285 5286 5287 5288 5289 5290 5291 5292 5293 5294 5295 5296 5297 5298 5299 5300 5301 5302 5303 5304 5305 5306 5307 5308 5309 5310 5311 5312 5313 5314 5315 5316 5317 5318 5319 5320 5321 5322 5323 5324 5325 5326 5327 5328 5329 5330 5331 5332 5333 5334 5335 5336 5337 5338 5339 5340 5341 5342 5343 5344 5345 5346 5347 5348 5349 5350 5351 5352 5353 5354 5355 5356 5357 5358 5359 5360 5361 5362 5363 5364 5365 5366 5367 5368 5369 5370 5371 5372 5373 5374 5375 5376 5377 5378 5379 5380 5381 5382 5383 5384 5385 5386 5387 5388 5389 5390 5391 5392 5393 5394 5395 5396 5397 5398 5399 5400 5401 5402 5403 5404 5405 5406 5407 5408 5409 5410 5411 5412 5413 5414 5415 5416 5417 5418 5419 5420 5421 5422 5423 5424 5425 5426 5427 5428 5429 5430 5431 5432 5433 5434 5435 5436 5437 5438 5439 5440 5441 5442 5443 5444 5445 5446 5447 5448 5449 5450 5451 5452 5453 5454 5455 5456 5457 5458 5459 5460 5461 5462 5463 5464 5465 5466 5467 5468 5469 5470 5471 5472 5473 5474 5475 5476 5477 5478 5479 5480 5481 5482 5483 5484 5485 5486 5487 5488 5489 5490 5491 5492 5493 5494 5495 5496 5497 5498 5499 5500 5501 5502 5503 5504 5505 5506 5507 5508 5509 5510 5511 5512 5513 5514 5515 5516 5517 5518 5519 5520 5521 5522 5523 5524 5525 5526 5527 5528 5529 5530 5531 5532 5533 5534 5535 5536 5537 5538 5539 5540 5541 5542 5543 5544 5545 5546 5547 5548 5549 5550 5551 5552 5553 5554 5555 5556 5557 5558 5559 5560 5561 5562 5563 5564 5565 5566 5567 5568 5569 5570 5571 5572 5573 5574 5575 5576 5577 5578 5579 5580 5581 5582 5583 5584 5585 5586 5587 5588 5589 5590 5591 5592 5593 5594 5595 5596 5597 5598 5599 5600 5601 5602 5603 5604 5605 5606 5607 5608 5609 5610 5611 5612 5613 5614 5615 5616 5617 5618 5619 5620 5621 5622 5623 5624 5625 5626 5627 5628 5629 5630 5631 5632 5633 5634 5635 5636 5637 5638 5639 5640 5641 5642 5643 5644 5645 5646 5647 5648 5649 5650 5651 5652 5653 5654 5655 5656 5657 5658 5659 5660 5661 5662 5663 5664 5665 5666 5667 5668 5669 5670 5671 5672 5673 5674 5675 5676 5677 5678 5679 5680 5681 5682 5683 5684 5685 5686 5687 5688 5689 5690 5691 5692 5693 5694 5695 5696 5697 5698 5699 5700 5701 5702 5703 5704 5705 5706 5707 5708 5709 5710 5711 5712 5713 5714 5715 5716 5717 5718 5719 5720 5721 5722 5723 5724 5725 5726 5727 5728 5729 5730 5731 5732 5733 5734 5735 5736 5737 5738 5739 5740 5741 5742 5743 5744 5745 5746 5747 5748 5749 5750 5751 5752 5753 5754 5755 5756 5757 5758 5759 5760 5761 5762 5763 5764 5765 5766 5767 5768 5769 5770 5771 5772 5773 5774 5775 5776 5777 5778 5779 5780 5781 5782 5783 5784 5785 5786 5787 5788 5789 5790 5791 5792 5793 5794 5795 5796 5797 5798 5799 5800 5801 5802 5803 5804 5805 5806 5807 5808 5809 5810 5811 5812 5813 5814 5815 5816 5817 5818 5819 5820 5821 5822 5823 5824 5825 5826 5827 5828 5829 5830 5831 5832 5833 5834 5835 5836 5837 5838 5839 5840 5841 5842 5843 5844 5845 5846 5847 5848 5849 5850 5851 5852 5853 5854 5855 5856 5857 5858 5859 5860 5861 5862 5863 5864 5865 5866 5867 5868 5869 5870 5871 5872 5873 5874 5875 5876 5877 5878 5879 5880 5881 5882 5883 5884 5885 5886 5887 5888 5889 5890 5891 5892 5893 5894 5895 5896 5897 5898 5899 5900 5901 5902 5903 5904 5905 5906 5907 5908 5909 5910 5911 5912 5913 5914 5915 5916 5917 5918 5919 5920 5921 5922 5923 5924 5925 5926 5927 5928 5929 5930 5931 5932 5933 5934 5935 5936 5937 5938 5939 5940 5941 5942 5943 5944 5945 5946 5947 5948 5949 5950 5951 5952 5953 5954 5955 5956 5957 5958 5959 5960 5961 5962 5963 5964 5965 5966 5967 5968 5969 5970 5971 5972 5973 5974 5975 5976 5977 5978 5979 5980 5981 5982 5983 5984 5985 5986 5987 5988 5989 5990 5991 5992 5993 5994 5995 5996 5997 5998 5999 6000 6001 6002 6003 6004 6005 6006 6007 6008 6009 6010 6011 6012 6013 6014 6015 6016 6017 6018 6019 6020 6021 6022 6023 6024 6025 6026 6027 6028 6029 6030 6031 6032 6033 6034 6035 6036 6037 6038 6039 6040 6041 6042 6043 6044 6045 6046 6047 6048 6049 6050 6051 6052 6053 6054 6055 6056 6057 6058 6059 6060 6061 6062 6063 6064 6065 6066 6067 6068 6069 6070 6071 6072 6073 6074 6075 6076 6077 6078 6079 6080 6081 6082 6083 6084 6085 6086 6087 6088 6089 6090 6091 6092 6093 6094 6095 6096 6097 6098 6099 6100 6101 6102 6103 6104 6105 6106 6107 6108 6109 6110 6111 6112 6113 6114 6115 6116 6117 6118 6119 6120 6121 6122 6123 6124 6125 6126 6127 6128 6129 6130 6131 6132 6133 6134 6135 6136 6137 6138 6139 6140 6141 6142 6143 6144 6145 6146 6147 6148 6149 6150 6151 6152 6153 6154 6155 6156 6157 6158 6159 6160 6161 6162 6163 6164 6165 6166 6167 6168 6169 6170 6171 6172 6173 6174 6175 6176 6177 6178 6179 6180 6181 6182 6183 6184 6185 6186 6187 6188 6189 6190 6191 6192 6193 6194 6195 6196 6197 6198 6199 6200 6201 6202 6203 6204 6205 6206 6207 6208 6209 6210 6211 6212 6213 6214 6215 6216 6217 6218 6219 6220 6221 6222 6223 6224 6225 6226 6227 6228 6229 6230 6231 6232 6233 6234 6235 6236 6237 6238 6239 6240 6241 6242 6243 6244 6245 6246 6247 6248 6249 6250 6251 6252 6253 6254 6255 6256 6257 6258 6259 6260 6261 6262 6263 6264 6265 6266 6267 6268 6269 6270 6271 6272 6273 6274 6275 6276 6277 6278 6279 6280 6281 6282 6283 6284 6285 6286 6287 6288 6289 6290 6291 6292 6293 6294 6295 6296 6297 6298 6299 6300 6301 6302 6303 6304 6305 6306 6307 6308 6309 6310 6311 6312 6313 6314 6315 6316 6317 6318 6319 6320 6321 6322 6323 6324 6325 6326 6327 6328 6329 6330 6331 6332 6333 6334 6335 6336 6337 6338 6339 6340 6341 6342 6343 6344 6345 6346 6347 6348 6349 6350 6351 6352 6353 6354 6355 6356 6357 6358 6359 6360 6361 6362 6363 6364 6365 6366 6367 6368 6369 6370 6371 6372 6373 6374 6375 6376 6377 6378 6379 6380 6381 6382 6383 6384 6385 6386 6387 6388 6389 6390 6391 6392 6393 6394 6395 6396 6397 6398 6399 6400 6401 6402 6403 6404 6405 6406 6407 6408 6409 6410 6411 6412 6413 6414 6415 6416 6417 6418 6419 6420 6421 6422 6423 6424 6425 6426 6427 6428 6429 6430 6431 6432 6433 6434 6435 6436 6437 6438 6439 6440 6441 6442 6443 6444 6445 6446 6447 6448 6449 6450 6451 6452 6453 6454 6455 6456 6457 6458 6459 6460 6461 6462 6463 6464 6465 6466 6467 6468 6469 6470 6471 6472 6473 6474 6475 6476 6477 6478 6479 6480 6481 6482 6483 6484 6485 6486 6487 6488 6489 6490 6491 6492 6493 6494 6495 6496 6497 6498 6499 6500 6501 6502 6503 6504 6505 6506 6507 6508 6509 6510 6511 6512 6513 6514 6515 6516 6517 6518 6519 6520 6521 6522 6523 6524 6525 6526 6527 6528 6529 6530 6531 6532 6533 6534 6535 6536 6537 6538 6539 6540 6541 6542 6543 6544 6545 6546 6547 6548 6549 6550 6551 6552 6553 6554 6555 6556 6557 6558 6559 6560 6561 6562 6563 6564 6565 6566 6567 6568 6569 6570 6571 6572 6573 6574 6575 6576 6577 6578 6579 6580 6581 6582 6583 6584 6585 6586 6587 6588 6589 6590 6591 6592 6593 6594 6595 6596 6597 6598 6599 6600 6601 6602 6603 6604 6605 6606 6607 6608 6609 6610 6611 6612 6613 6614 6615 6616 6617 6618 6619 6620 6621 6622 6623 6624 6625 6626 6627 6628 6629 6630 6631 6632 6633 6634 6635 6636 6637 6638 6639 6640 6641 6642 6643 6644 6645 6646 6647 6648 6649 6650 6651 6652 6653 6654 6655 6656 6657 6658 6659 6660 6661 6662 6663 6664 6665 6666 6667 6668 6669 6670 6671 6672 6673 6674 6675 6676 6677 6678 6679 6680 6681 6682 6683 6684 6685 6686 6687 6688 6689 6690 6691 6692 6693 6694 6695 6696 6697 6698 6699 6700 6701 6702 6703 6704 6705 6706 6707 6708 6709 6710 6711 6712 6713 6714 6715 6716 6717 6718 6719 6720 6721 6722 6723 6724 6725 6726 6727 6728 6729 6730 6731 6732 6733 6734 6735 6736 6737 6738 6739 6740 6741 6742 6743 6744 6745 6746 6747 6748 6749 6750 6751 6752 6753 6754 6755 6756 6757 6758 6759 6760 6761 6762 6763 6764 6765 6766 6767 6768 6769 6770 6771 6772 6773 6774 6775 6776 6777 6778 6779 6780 6781 6782 6783 6784 6785 6786 6787 6788 6789 6790 6791 6792 6793 6794 6795 6796 6797 6798 6799 6800 6801 6802 6803 6804 6805 6806 6807 6808 6809 6810 6811 6812 6813 6814 6815 6816 6817 6818 6819 6820 6821 6822 6823 6824 6825 6826 6827 6828 6829 6830 6831 6832 6833 6834 6835 6836 6837 6838 6839 6840 6841 6842 6843 6844 6845 6846 6847 6848 6849 6850 6851 6852 6853 6854 6855 6856 6857 6858 6859 6860 6861 6862 6863 6864 6865 6866 6867 6868 6869 6870 6871 6872 6873 6874 6875 6876 6877 6878 6879 6880 6881 6882 6883 6884 6885 6886 6887 6888 6889 6890 6891 6892 6893 6894 6895 6896 6897 6898 6899 6900 6901 6902 6903 6904 6905 6906 6907 6908 6909 6910 6911 6912 6913 6914 6915 6916 6917 6918 6919 6920 6921 6922 6923 6924 6925 6926 6927 6928 6929 6930 6931 6932 6933 6934 6935 6936 6937 6938 6939 6940 6941 6942 6943 6944 6945 6946 6947 6948 6949 6950 6951 6952 6953 6954 6955 6956 6957 6958 6959 6960 6961 6962 6963 6964 6965 6966 6967 6968 6969 6970 6971 6972 6973 6974 6975 6976 6977 6978 6979 6980 6981 6982 6983 6984 6985 6986 6987 6988 6989 6990 6991 6992 6993 6994 6995 6996 6997 6998 6999 7000 7001 7002 7003 7004 7005 7006 7007 7008 7009 7010 7011 7012 7013 7014 7015 7016 7017 7018 7019 7020 7021 7022 7023 7024 7025 7026 7027 7028 7029 7030 7031 7032 7033 7034 7035 7036 7037 7038 7039 7040 7041 7042 7043 7044 7045 7046 7047 7048 7049 7050 7051 7052 7053 7054 7055 7056 7057 7058 7059 7060 7061 7062 7063 7064 7065 7066 7067 7068 7069 7070 7071 7072 7073 7074 7075 7076 7077 7078 7079 7080 7081 7082 7083 7084 7085 7086 7087 7088 7089 7090 7091 7092 7093 7094 7095 7096 7097 7098 7099 7100 7101 7102 7103 7104 7105 7106 7107 7108 7109 7110 7111 7112 7113 7114 7115 7116 7117 7118 7119 7120 7121 7122 7123 7124 7125 7126 7127 7128 7129 7130 7131 7132 7133 7134 7135 7136 7137 7138 7139 7140 7141 7142 7143 7144 7145 7146 7147 7148 7149 7150 7151 7152 7153 7154 7155 7156 7157 7158 7159 7160 7161 7162 7163 7164 7165 7166 7167 7168 7169 7170 7171 7172 7173 7174 7175 7176 7177 7178 7179 7180 7181 7182 7183 7184 7185 7186 7187 7188 7189 7190 7191 7192 7193 7194 7195 7196 7197 7198 7199 7200 7201 7202 7203 7204 7205 7206 7207 7208 7209 7210 7211 7212 7213 7214 7215 7216 7217 7218 7219 7220 7221 7222 7223 7224 7225 7226 7227 7228 7229 7230 7231 7232 7233 7234 7235 7236 7237 7238 7239 7240 7241 7242 7243 7244 7245 7246 7247 7248 7249 7250 7251 7252 7253 7254 7255 7256 7257 7258 7259 7260 7261 7262 7263 7264 7265 7266 7267 7268 7269 7270 7271 7272 7273 7274 7275 7276 7277 7278 7279 7280 7281 7282 7283 7284 7285 7286 7287 7288 7289 7290 7291 7292 7293 7294 7295 7296 7297 7298 7299 7300 7301 7302 7303 7304 7305 7306 7307 7308 7309 7310 7311 7312 7313 7314 7315 7316 7317 7318 7319 7320 7321 7322 7323 7324 7325 7326 7327 7328 7329 7330 7331 7332 7333 7334 7335 7336 7337 7338 7339 7340 7341 7342 7343 7344 7345 7346 7347 7348 7349 7350 7351 7352 7353 7354 7355 7356 7357 7358 7359 7360 7361 7362 7363 7364 7365 7366 7367 7368 7369 7370 7371 7372 7373 7374 7375 7376 7377 7378 7379 7380 7381 7382 7383 7384 7385 7386 7387 7388 7389 7390 7391 7392 7393 7394 7395 7396 7397 7398 7399 7400 7401 7402 7403 7404 7405 7406 7407 7408 7409 7410 7411 7412 7413 7414 7415 7416 7417 7418 7419 7420 7421 7422 7423 7424 7425 7426 7427 7428 7429 7430 7431 7432 7433 7434 7435 7436 7437 7438 7439 7440 7441 7442 7443 7444 7445 7446 7447 7448 7449 7450 7451 7452 7453 7454 7455 7456 7457 7458 7459 7460 7461 7462 7463 7464 7465 7466 7467 7468 7469 7470 7471 7472 7473 7474 7475 7476 7477 7478 7479 7480 7481 7482 7483 7484 7485 7486 7487 7488 7489 7490 7491 7492 7493 7494 7495 7496 7497 7498 7499 7500 7501 7502 7503 7504 7505 7506 7507 7508 7509 7510 7511 7512 7513 7514 7515 7516 7517 7518 7519 7520 7521 7522 7523 7524 7525 7526 7527 7528 7529 7530 7531 7532 7533 7534 7535 7536 7537 7538 7539 7540 7541 7542 7543 7544 7545 7546 7547 7548 7549 7550 7551 7552 7553 7554 7555 7556 7557 7558 7559 7560 7561 7562 7563 7564 7565 7566 7567 7568 7569 7570 7571 7572 7573 7574 7575 7576 7577 7578 7579 7580 7581 7582 7583 7584 7585 7586 7587 7588 7589 7590 7591 7592 7593 7594 7595 7596 7597 7598 7599 7600 7601 7602 7603 7604 7605 7606 7607 7608 7609 7610 7611 7612 7613 7614 7615 7616 7617 7618 7619 7620 7621 7622 7623 7624 7625 7626 7627 7628 7629 7630 7631 7632 7633 7634 7635 7636 7637 7638 7639 7640 7641 7642 7643 7644 7645 7646 7647 7648 7649 7650 7651 7652 7653 7654 7655 7656 7657 7658 7659 7660 7661 7662 7663 7664 7665 7666 7667 7668 7669 7670 7671 7672 7673 7674 7675 7676 7677 7678 7679 7680 7681 7682 7683 7684 7685 7686 7687 7688 7689 7690 7691 7692 7693 7694 7695 7696 7697 7698 7699 7700 7701 7702 7703 7704 7705 7706 7707 7708 7709 7710 7711 7712 7713 7714 7715 7716 7717 7718 7719 7720 7721 7722 7723 7724 7725 7726 7727 7728 7729 7730 7731 7732 7733 7734 7735 7736 7737 7738 7739 7740 7741 7742 7743 7744 7745 7746 7747 7748 7749 7750 7751 7752 7753 7754 7755 7756 7757 7758 7759 7760 7761 7762 7763 7764 7765 7766 7767 7768 7769 7770 7771 7772 7773 7774 7775 7776 7777 7778 7779 7780 7781 7782 7783 7784 7785 7786 7787 7788 7789 7790 7791 7792 7793 7794 7795 7796 7797 7798 7799 7800 7801 7802 7803 7804 7805 7806 7807 7808 7809 7810 7811 7812 7813 7814 7815 7816 7817 7818 7819 7820 7821 7822 7823 7824 7825 7826 7827 7828 7829 7830 7831 7832 7833 7834 7835 7836 7837 7838 7839 7840 7841 7842 7843 7844 7845 7846 7847 7848 7849 7850 7851 7852 7853 7854 7855 7856 7857 7858 7859 7860 7861 7862 7863 7864 7865 7866 7867 7868 7869 7870 7871 7872 7873 7874 7875 7876 7877 7878 7879 7880 7881 7882 7883 7884 7885 7886 7887 7888 7889 7890 7891 7892 7893 7894 7895 7896 7897 7898 7899 7900 7901 7902 7903 7904 7905 7906 7907 7908 7909 7910 7911 7912 7913 7914 7915 7916 7917 7918 7919 7920 7921 7922 7923 7924 7925 7926 7927 7928 7929 7930 7931 7932 7933 7934 7935 7936 7937 7938 7939 7940 7941 7942 7943 7944 7945 7946 7947 7948 7949 7950 7951 7952 7953 7954 7955 7956 7957 7958 7959 7960 7961 7962 7963 7964 7965 7966 7967 7968 7969 7970 7971 7972 7973 7974 7975 7976 7977 7978 7979 7980 7981 7982 7983 7984 7985 7986 7987 7988 7989 7990 7991 7992 7993 7994 7995 7996 7997 7998 7999 8000 8001 8002 8003 8004 8005 8006 8007 8008 8009 8010 8011 8012 8013 8014 8015 8016 8017 8018 8019 8020 8021 8022 8023 8024 8025 8026 8027 8028 8029 8030 8031 8032 8033 8034 8035 8036 8037 8038 8039 8040 8041 8042 8043 8044 8045 8046 8047 8048 8049 8050 8051 8052 8053 8054 8055 8056 8057 8058 8059 8060 8061 8062 8063 8064 8065 8066 8067 8068 8069 8070 8071 8072 8073 8074 8075 8076 8077 8078 8079 8080 8081 8082 8083 8084 8085 8086 8087 8088 8089 8090 8091 8092 8093 8094 8095 8096 8097 8098 8099 8100 8101 8102 8103 8104 8105 8106 8107 8108 8109 8110 8111 8112 8113 8114 8115 8116 8117 8118 8119 8120 8121 8122 8123 8124 8125 8126 8127 8128 8129 8130 8131 8132 8133 8134 8135 8136 8137 8138 8139 8140 8141 8142 8143 8144 8145 8146 8147 8148 8149 8150 8151 8152 8153 8154 8155 8156 8157 8158 8159 8160 8161 8162 8163 8164 8165 8166 8167 8168 8169 8170 8171 8172 8173 8174 8175 8176 8177 8178 8179 8180 8181 8182 8183 8184 8185 8186 8187 8188 8189 8190 8191 8192 8193 8194 8195 8196 8197 8198 8199 8200 8201 8202 8203 8204 8205 8206 8207 8208 8209 8210 8211 8212 8213 8214 8215 8216 8217 8218 8219 8220 8221 8222 8223 8224 8225 8226 8227 8228 8229 8230 8231 8232 8233 8234 8235 8236 8237 8238 8239 8240 8241 8242 8243 8244 8245 8246 8247 8248 8249 8250 8251 8252 8253 8254 8255 8256 8257 8258 8259 8260 8261 8262 8263 8264 8265 8266 8267 8268 8269 8270 8271 8272 8273 8274 8275 8276 8277 8278 8279 8280 8281 8282 8283 8284 8285 8286 8287 8288 8289 8290 8291 8292 8293 8294 8295 8296 8297 8298 8299 8300 8301 8302 8303 8304 8305 8306 8307 8308 8309 8310 8311 8312 8313 8314 8315 8316 8317 8318 8319 8320 8321 8322 8323 8324 8325 8326 8327 8328 8329 8330 8331 8332 8333 8334 8335 8336 8337 8338 8339 8340 8341 8342 8343 8344 8345 8346 8347 8348 8349 8350 8351 8352 8353 8354 8355 8356 8357 8358 8359 8360 8361 8362 8363 8364 8365 8366 8367 8368 8369 8370 8371 8372 8373 8374 8375 8376 8377 8378 8379 8380 8381 8382 8383 8384 8385 8386 8387 8388 8389 8390 8391 8392 8393 8394 8395 8396 8397 8398 8399 8400 8401 8402 8403 8404 8405 8406 8407 8408 8409 8410 8411 8412 8413 8414 8415 8416 8417 8418 8419 8420 8421 8422 8423 8424 8425 8426 8427 8428 8429 8430 8431 8432 8433 8434 8435 8436 8437 8438 8439 8440 8441 8442 8443 8444 8445 8446 8447 8448 8449 8450 8451 8452 8453 8454 8455 8456 8457 8458 8459 8460 8461 8462 8463 8464 8465 8466 8467 8468 8469 8470 8471 8472 8473 8474 8475 8476 8477 8478 8479 8480 8481 8482 8483 8484 8485 8486 8487 8488 8489 8490 8491 8492 8493 8494 8495 8496 8497 8498 8499 8500 8501 8502 8503 8504 8505 8506 8507 8508 8509 8510 8511 8512 8513 8514 8515 8516 8517 8518 8519 8520 8521 8522 8523 8524 8525 8526 8527 8528 8529 8530 8531 8532 8533 8534 8535 8536 8537 8538 8539 8540 8541 8542 8543 8544 8545 8546 8547 8548 8549 8550 8551 8552 8553 8554 8555 8556 8557 8558 8559 8560 8561 8562 8563 8564 8565 8566 8567 8568 8569 8570 8571 8572 8573 8574 8575 8576 8577 8578 8579 8580 8581 8582 8583 8584 8585 8586 8587 8588 8589 8590 8591 8592 8593 8594 8595 8596 8597 8598 8599 8600 8601 8602 8603 8604 8605 8606 8607 8608 8609 8610 8611 8612 8613 8614 8615 8616 8617 8618 8619 8620 8621 8622 8623 8624 8625 8626 8627 8628 8629 8630 8631 8632 8633 8634 8635 8636 8637 8638 8639 8640 8641 8642 8643 8644 8645 8646 8647 8648 8649 8650 8651 8652 8653 8654 8655 8656 8657 8658 8659 8660 8661 8662 8663 8664 8665 8666 8667 8668 8669 8670 8671 8672 8673 8674 8675 8676 8677 8678 8679 8680 8681 8682 8683 8684 8685 8686 8687 8688 8689 8690 8691 8692 8693 8694 8695 8696 8697 8698 8699 8700 8701 8702 8703 8704 8705 8706 8707 8708 8709 8710 8711 8712 8713 8714 8715 8716 8717 8718 8719 8720 8721 8722 8723 8724 8725 8726 8727 8728 8729 8730 8731 8732 8733 8734 8735 8736 8737 8738 8739 8740 8741 8742 8743 8744 8745 8746 8747 8748 8749 8750 8751 8752 8753 8754 8755 8756 8757 8758 8759 8760 8761 8762 8763 8764 8765 8766 8767 8768 8769 8770 8771 8772 8773 8774 8775 8776 8777 8778 8779 8780 8781 8782 8783 8784 8785 8786 8787 8788 8789 8790 8791 8792 8793 8794 8795 8796 8797 8798 8799 8800 8801 8802 8803 8804 8805 8806 8807 8808 8809 8810 8811 8812 8813 8814 8815 8816 8817 8818 8819 8820 8821 8822 8823 8824 8825 8826 8827 8828 8829 8830 8831 8832 8833 8834 8835 8836 8837 8838 8839 8840 8841 8842 8843 8844 8845 8846 8847 8848 8849 8850 8851 8852 8853 8854 8855 8856 8857 8858 8859 8860 8861 8862 8863 8864 8865 8866 8867 8868 8869 8870 8871 8872 8873 8874 8875 8876 8877 8878 8879 8880 8881 8882 8883 8884 8885 8886 8887 8888 8889 8890 8891 8892 8893 8894 8895 8896 8897 8898 8899 8900 8901 8902 8903 8904 8905 8906 8907 8908 8909 8910 8911 8912 8913 8914 8915 8916 8917 8918 8919 8920 8921 8922 8923 8924 8925 8926 8927 8928 8929 8930 8931 8932 8933 8934 8935 8936 8937 8938 8939 8940 8941 8942 8943 8944 8945 8946 8947 8948 8949 8950 8951 8952 8953 8954 8955 8956 8957 8958 8959 8960 8961 8962 8963 8964 8965 8966 8967 8968 8969 8970 8971 8972 8973 8974 8975 8976 8977 8978 8979 8980 8981 8982 8983 8984 8985 8986 8987 8988 8989 8990 8991 8992 8993 8994 8995 8996 8997 8998 8999 9000 9001 9002 9003 9004 9005 9006 9007 9008 9009 9010 9011 9012 9013 9014 9015 9016 9017 9018 9019 9020 9021 9022 9023 9024 9025 9026 9027 9028 9029 9030 9031 9032 9033 9034 9035 9036 9037 9038 9039 9040 9041 9042 9043 9044 9045 9046 9047 9048 9049 9050 9051 9052 9053 9054 9055 9056 9057 9058 9059 9060 9061 9062 9063 9064 9065 9066 9067 9068 9069 9070 9071 9072 9073 9074 9075 9076 9077 9078 9079 9080 9081 9082 9083 9084 9085 9086 9087 9088 9089 9090 9091 9092 9093 9094 9095 9096 9097 9098 9099 9100 9101 9102 9103 9104 9105 9106 9107 9108 9109 9110 9111 9112 9113 9114 9115 9116 9117 9118 9119 9120 9121 9122 9123 9124 9125 9126 9127 9128 9129 9130 9131 9132 9133 9134 9135 9136 9137 9138 9139 9140 9141 9142 9143 9144 9145 9146 9147 9148 9149 9150 9151 9152 9153 9154 9155 9156 9157 9158 9159 9160 9161 9162 9163 9164 9165 9166 9167 9168 9169 9170 9171 9172 9173 9174 9175 9176 9177 9178 9179 9180 9181 9182 9183 9184 9185 9186 9187 9188 9189 9190 9191 9192 9193 9194 9195 9196 9197 9198 9199 9200 9201 9202 9203 9204 9205 9206 9207 9208 9209 9210 9211 9212 9213 9214 9215 9216 9217 9218 9219 9220 9221 9222 9223 9224 9225 9226 9227 9228 9229 9230 9231 9232 9233 9234 9235 9236 9237 9238 9239 9240 9241 9242 9243 9244 9245 9246 9247 9248 9249 9250 9251 9252 9253 9254 9255 9256 9257 9258 9259 9260 9261 9262 9263 9264 9265 9266 9267 9268 9269 9270 9271 9272 9273 9274 9275 9276 9277 9278 9279 9280 9281 9282 9283 9284 9285 9286 9287 9288 9289 9290 9291 9292 9293 9294 9295 9296 9297 9298 9299 9300 9301 9302 9303 9304 9305 9306 9307 9308 9309 9310 9311 9312 9313 9314 9315 9316 9317 9318 9319 9320 9321 9322 9323 9324 9325 9326 9327 9328 9329 9330 9331 9332 9333 9334 9335 9336 9337 9338 9339 9340 9341 9342 9343 9344 9345 9346 9347 9348 9349 9350 9351 9352 9353 9354 9355 9356 9357 9358 9359 9360 9361 9362 9363 9364 9365 9366 9367 9368 9369 9370 9371 9372 9373 9374 9375 9376 9377 9378 9379 9380 9381 9382 9383 9384 9385 9386 9387 9388 9389 9390 9391 9392 9393 9394 9395 9396 9397 9398 9399 9400 9401 9402 9403 9404 9405 9406 9407 9408 9409 9410 9411 9412 9413 9414 9415 9416 9417 9418 9419 9420 9421 9422 9423 9424 9425 9426 9427 9428 9429 9430 9431 9432 9433 9434 9435 9436 9437 9438 9439 9440 9441 9442 9443 9444 9445 9446 9447 9448 9449 9450 9451 9452 9453 9454 9455 9456 9457 9458 9459 9460 9461 9462 9463 9464 9465 9466 9467 9468 9469 9470 9471 9472 9473 9474 9475 9476 9477 9478 9479 9480 9481 9482 9483 9484 9485 9486 9487 9488 9489 9490 9491 9492 9493 9494 9495 9496 9497 9498 9499 9500 9501 9502 9503 9504 9505 9506 9507 9508 9509 9510 9511 9512 9513 9514 9515 9516 9517 9518 9519 9520 9521 9522 9523 9524 9525 9526 9527 9528 9529 9530 9531 9532 9533 9534 9535 9536 9537 9538 9539 9540 9541 9542 9543 9544 9545 9546 9547 9548 9549 9550 9551 9552 9553 9554 9555 9556 9557 9558 9559 9560 9561 9562 9563 9564 9565 9566 9567 9568 9569 9570 9571 9572 9573 9574 9575 9576 9577 9578 9579 9580 9581 9582 9583 9584 9585 9586 9587 9588 9589 9590 9591 9592 9593 9594 9595 9596 9597 9598 9599 9600 9601 9602 9603 9604 9605 9606 9607 9608 9609 9610 9611 9612 9613 9614 9615 9616 9617 9618 9619 9620 9621 9622 9623 9624 9625 9626 9627 9628 9629 9630 9631 9632 9633 9634 9635 9636 9637 9638 9639 9640 9641 9642 9643 9644 9645 9646 9647 9648 9649 9650 9651 9652 9653 9654 9655 9656 9657 9658 9659 9660 9661 9662 9663 9664 9665 9666 9667 9668 9669 9670 9671 9672 9673 9674 9675 9676 9677 9678 9679 9680 9681 9682 9683 9684 9685 9686 9687 9688 9689 9690 9691 9692 9693 9694 9695 9696 9697 9698 9699 9700 9701 9702 9703 9704 9705 9706 9707 9708 9709 9710 9711 9712 9713 9714 9715 9716 9717 9718 9719 9720 9721 9722 9723 9724 9725 9726 9727 9728 9729 9730 9731 9732 9733 9734 9735 9736 9737 9738 9739 9740 9741 9742 9743 9744 9745 9746 9747 9748 9749 9750 9751 9752 9753 9754 9755 9756 9757 9758 9759 9760 9761 9762 9763 9764 9765 9766 9767 9768 9769 9770 9771 9772 9773 9774 9775 9776 9777 9778 9779 9780 9781 9782 9783 9784 9785 9786 9787 9788 9789 9790 9791 9792 9793 9794 9795 9796 9797 9798 9799 9800 9801 9802 9803 9804 9805 9806 9807 9808 9809 9810 9811 9812 9813 9814 9815 9816 9817 9818 9819 9820 9821 9822 9823 9824 9825 9826 9827 9828 9829 9830 9831 9832 9833 9834 9835 9836 9837 9838 9839 9840 9841 9842 9843 9844 9845 9846 9847 9848 9849 9850 9851 9852 9853 9854 9855 9856 9857 9858 9859 9860 9861 9862 9863 9864 9865 9866 9867 9868 9869 9870 9871 9872 9873 9874 9875 9876 9877 9878 9879 9880 9881 9882 9883 9884 9885 9886 9887 9888 9889 9890 9891 9892 9893 9894 9895 9896 9897 9898 9899 9900 9901 9902 9903 9904 9905 9906 9907 9908 9909 9910 9911 9912 9913 9914 9915 9916 9917 9918 9919 9920 9921 9922 9923 9924 9925 9926 9927 9928 9929 9930 9931 9932 9933 9934 9935 9936 9937 9938 9939 9940 9941 9942 9943 9944 9945 9946 9947 9948 9949 9950 9951 9952 9953 9954 9955 9956 9957 9958 9959 9960 9961 9962 9963 9964 9965 9966 9967 9968 9969 9970 9971 9972 9973 9974 9975 9976 9977 9978 9979 9980 9981 9982 9983 9984 9985 9986 9987 9988 9989 9990 9991 9992 9993 9994 9995 9996 9997 9998 9999 10000 10001 10002 10003 10004 10005 10006 10007 10008 10009 10010 10011 10012 10013 10014 10015 10016 10017 10018 10019 10020 10021 10022 10023 10024 10025 10026 10027 10028 10029 10030 10031 10032 10033 10034 10035 10036 10037 10038 10039 10040 10041 10042 10043 10044 10045 10046 10047 10048 10049 10050 10051 10052 10053 10054 10055 10056 10057 10058 10059 10060 10061 10062 10063 10064 10065 10066 10067 10068 10069 10070 10071 10072 10073 10074 10075 10076 10077 10078 10079 10080 10081 10082 10083 10084 10085 10086 10087 10088 10089 10090 10091 10092 10093 10094 10095 10096 10097 10098 10099 10100 10101 10102 10103 10104 10105 10106 10107 10108 10109 10110 10111 10112 10113 10114 10115 10116 10117 10118 10119 10120 10121 10122 10123 10124 10125 10126 10127 10128 10129 10130 10131 10132 10133 10134 10135 10136 10137 10138 10139 10140 10141 10142 10143 10144 10145 10146 10147 10148 10149 10150 10151 10152 10153 10154 10155 10156 10157 10158 10159 10160 10161 10162 10163 10164 10165 10166 10167 10168 10169 10170 10171 10172 10173 10174 10175 10176 10177 10178 10179 10180 10181 10182 10183 10184 10185 10186 10187 10188 10189 10190 10191 10192 10193 10194 10195 10196 10197 10198 10199 10200 10201 10202 10203 10204 10205 10206 10207 10208 10209 10210 10211 10212 10213 10214 10215 10216 10217 10218 10219 10220 10221 10222 10223 10224 10225 10226 10227 10228 10229 10230 10231 10232 10233 10234 10235 10236 10237 10238 10239 10240 10241 10242 10243 10244 10245 10246 10247 10248 10249 10250 10251 10252 10253 10254 10255 10256 10257 10258 10259 10260 10261 10262 10263 10264 10265 10266 10267 10268 10269 10270 10271 10272 10273 10274 10275 10276 10277 10278 10279 10280 10281 10282 10283 10284 10285 10286 10287 10288 10289 10290 10291 10292 10293 10294 10295 10296 10297 10298 10299 10300 10301 10302 10303 10304 10305 10306 10307 10308 10309 10310 10311 10312 10313 10314 10315 10316 10317 10318 10319 10320 10321 10322 10323 10324 10325 10326 10327 10328 10329 10330 10331 10332 10333 10334 10335 10336 10337 10338 10339 10340 10341 10342 10343 10344 10345 10346 10347 10348 10349 10350 10351 10352 10353 10354 10355 10356 10357 10358 10359 10360 10361 10362 10363 10364 10365 10366 10367 10368 10369 10370 10371 10372 10373 10374 10375 10376 10377 10378 10379 10380 10381 10382 10383 10384 10385 10386 10387 10388 10389 10390 10391 10392 10393 10394 10395 10396 10397 10398 10399 10400 10401 10402 10403 10404 10405 10406 10407 10408 10409 10410 10411 10412 10413 10414 10415 10416 10417 10418 10419 10420 10421 10422 10423 10424 10425 10426 10427 10428 10429 10430 10431 10432 10433 10434 10435 10436 10437 10438 10439 10440 10441 10442 10443 10444 10445 10446 10447 10448 10449 10450 10451 10452 10453 10454 10455 10456 10457 10458 10459 10460 10461 10462 10463 10464 10465 10466 10467 10468 10469 10470 10471 10472 10473 10474 10475 10476 10477 10478 10479 10480 10481 10482 10483 10484 10485 10486 10487 10488 10489 10490 10491 10492 10493 10494 10495 10496 10497 10498 10499 10500 10501 10502 10503 10504 10505 10506 10507 10508 10509 10510 10511 10512 10513 10514 10515 10516 10517 10518 10519 10520 10521 10522 10523 10524 10525 10526 10527 10528 10529 10530 10531 10532 10533 10534 10535 10536 10537 10538 10539 10540 10541 10542 10543 10544 10545 10546 10547 10548 10549 10550 10551 10552 10553 10554 10555 10556 10557 10558 10559 10560 10561 10562 10563 10564 10565 10566 10567 10568 10569 10570 10571 10572 10573 10574 10575 10576 10577 10578 10579 10580 10581 10582 10583 10584 10585 10586 10587 10588 10589 10590 10591 10592 10593 10594 10595 10596 10597 10598 10599 10600 10601 10602 10603 10604 10605 10606 10607 10608 10609 10610 10611 10612 10613 10614 10615 10616 10617 10618 10619 10620 10621 10622 10623 10624 10625 10626 10627 10628 10629 10630 10631 10632 10633 10634 10635 10636 10637 10638 10639 10640 10641 10642 10643 10644 10645 10646 10647 10648 10649 10650 10651 10652 10653 10654 10655 10656 10657 10658 10659 10660 10661 10662 10663 10664 10665 10666 10667 10668 10669 10670 10671 10672 10673 10674 10675 10676 10677 10678 10679 10680 10681 10682 10683 10684 10685 10686 10687 10688 10689 10690 10691 10692 10693 10694 10695 10696 10697 10698 10699 10700 10701 10702 10703 10704 10705 10706 10707 10708 10709 10710 10711 10712 10713 10714 10715 10716 10717 10718 10719 10720 10721 10722 10723 10724 10725 10726 10727 10728 10729 10730 10731 10732 10733 10734 10735 10736 10737 10738 10739 10740 10741 10742 10743 10744 10745 10746 10747 10748 10749 10750 10751 10752 10753 10754 10755 10756 10757 10758 10759 10760 10761 10762 10763 10764 10765 10766 10767 10768 10769 10770 10771 10772 10773 10774 10775 10776 10777 10778 10779 10780 10781 10782 10783 10784 10785 10786 10787 10788 10789 10790 10791 10792 10793 10794 10795 10796 10797 10798 10799 10800 10801 10802 10803 10804 10805 10806 10807 10808 10809 10810 10811 10812 10813 10814 10815 10816 10817 10818 10819 10820 10821 10822 10823 10824 10825 10826 10827 10828 10829 10830 10831 10832 10833 10834 10835 10836 10837 10838 10839 10840 10841 10842 10843 10844 10845 10846 10847 10848 10849 10850 10851 10852 10853 10854 10855 10856 10857 10858 10859 10860 10861 10862 10863 10864 10865 10866 10867 10868 10869 10870 10871 10872 10873 10874 10875 10876 10877 10878 10879 10880 10881 10882 10883 10884 10885 10886 10887 10888 10889 10890 10891 10892 10893 10894 10895 10896 10897 10898 10899 10900 10901 10902 10903 10904 10905 10906 10907 10908 10909 10910 10911 10912 10913 10914 10915 10916 10917 10918 10919 10920 10921 10922 10923 10924 10925 10926 10927 10928 10929 10930 10931 10932 10933 10934 10935 10936 10937 10938 10939 10940 10941 10942 10943 10944 10945 10946 10947 10948 10949 10950 10951 10952 10953 10954 10955 10956 10957 10958 10959 10960 10961 10962 10963 10964 10965 10966 10967 10968 10969 10970 10971 10972 10973 10974 10975 10976 10977 10978 10979 10980 10981 10982 10983 10984 10985 10986 10987 10988 10989 10990 10991 10992 10993 10994 10995 10996 10997 10998 10999 11000 11001 11002 11003 11004 11005 11006 11007 11008 11009 11010 11011 11012 11013 11014 11015 11016 11017 11018 11019 11020 11021 11022 11023 11024 11025 11026 11027 11028 11029 11030 11031 11032 11033 11034 11035 11036 11037 11038 11039 11040 11041 11042 11043 11044 11045 11046 11047 11048 11049 11050 11051 11052 11053 11054 11055 11056 11057 11058 11059 11060 11061 11062 11063 11064 11065 11066 11067 11068 11069 11070 11071 11072 11073 11074 11075 11076 11077 11078 11079 11080 11081 11082 11083 11084 11085 11086 11087 11088 11089 11090 11091 11092 11093 11094 11095 11096 11097 11098 11099 11100 11101 11102 11103 11104 11105 11106 11107 11108 11109 11110 11111 11112 11113 11114 11115 11116 11117 11118 11119 11120 11121 11122 11123 11124 11125 11126 11127 11128 11129 11130 11131 11132 11133 11134 11135 11136 11137 11138 11139 11140 11141 11142 11143 11144 11145 11146 11147 11148 11149 11150 11151 11152 11153 11154 11155 11156 11157 11158 11159 11160 11161 11162 11163 11164 11165 11166 11167 11168 11169 11170 11171 11172 11173 11174 11175 11176 11177 11178 11179 11180 11181 11182 11183 11184 11185 11186 11187 11188 11189 11190 11191 11192 11193 11194 11195 11196 11197 11198 11199 11200 11201 11202 11203 11204 11205 11206 11207 11208 11209 11210 11211 11212 11213 11214 11215 11216 11217 11218 11219 11220 11221 11222 11223 11224 11225 11226 11227 11228 11229 11230 11231 11232 11233 11234 11235 11236 11237 11238 11239 11240 11241 11242 11243 11244 11245 11246 11247 11248 11249 11250 11251 11252 11253 11254 11255 11256 11257 11258 11259 11260 11261 11262 11263 11264 11265 11266 11267 11268 11269 11270 11271 11272 11273 11274 11275 11276 11277 11278 11279 11280 11281 11282 11283 11284 11285 11286 11287 11288 11289 11290 11291 11292 11293 11294 11295 11296 11297 11298 11299 11300 11301 11302 11303 11304 11305 11306 11307 11308 11309 11310 11311 11312 11313 11314 11315 11316 11317 11318 11319 11320 11321 11322 11323 11324 11325 11326 11327 11328 11329 11330 11331 11332 11333 11334 11335 11336 11337 11338 11339 11340 11341 11342 11343 11344 11345 11346 11347 11348 11349 11350 11351 11352 11353 11354 11355 11356 11357 11358 11359 11360 11361 11362 11363 11364 11365 11366 11367 11368 11369 11370 11371 11372 11373 11374 11375 11376 11377 11378 11379 11380 11381 11382 11383 11384 11385 11386 11387 11388 11389 11390 11391 11392 11393 11394 11395 11396 11397 11398 11399 11400 11401 11402 11403 11404 11405 11406 11407 11408 11409 11410 11411 11412 11413 11414 11415 11416 11417 11418 11419 11420 11421 11422 11423 11424 11425 11426 11427 11428 11429 11430 11431 11432 11433 11434 11435 11436 11437 11438 11439 11440 11441 11442 11443 11444 11445 11446 11447 11448 11449 11450 11451 11452 11453 11454 11455 11456 11457 11458 11459 11460 11461 11462 11463 11464 11465 11466 11467 11468 11469 11470 11471 11472 11473 11474 11475 11476 11477 11478 11479 11480 11481 11482 11483 11484 11485 11486 11487 11488 11489 11490 11491 11492 11493 11494 11495 11496 11497 11498 11499 11500 11501 11502 11503 11504 11505 11506 11507 11508 11509 11510 11511 11512 11513 11514 11515 11516 11517 11518 11519 11520 11521 11522 11523 11524 11525 11526 11527 11528 11529 11530 11531 11532 11533 11534 11535 11536 11537 11538 11539 11540 11541 11542 11543 11544 11545 11546 11547 11548 11549 11550 11551 11552 11553 11554 11555 11556 11557 11558 11559 11560 11561 11562 11563 11564 11565 11566 11567 11568 11569 11570 11571 11572 11573 11574 11575 11576 11577 11578 11579 11580 11581 11582 11583 11584 11585 11586 11587 11588 11589 11590 11591 11592 11593 11594 11595 11596 11597 11598 11599 11600 11601 11602 11603 11604 11605 11606 11607 11608 11609 11610 11611 11612 11613 11614 11615 11616 11617 11618 11619 11620 11621 11622 11623 11624 11625 11626 11627 11628 11629 11630 11631 11632 11633 11634 11635 11636 11637 11638 11639 11640 11641 11642 11643 11644 11645 11646 11647 11648 11649 11650 11651 11652 11653 11654 11655 11656 11657 11658 11659 11660 11661 11662 11663 11664 11665 11666 11667 11668 11669 11670 11671 11672 11673 11674 11675 11676 11677 11678 11679 11680 11681 11682 11683 11684 11685 11686 11687 11688 11689 11690 11691 11692 11693 11694 11695 11696 11697 11698 11699 11700 11701 11702 11703 11704 11705 11706 11707 11708 11709 11710 11711 11712 11713 11714 11715 11716 11717 11718 11719 11720 11721 11722 11723 11724 11725 11726 11727 11728 11729 11730 11731 11732 11733 11734 11735 11736 11737 11738 11739 11740 11741 11742 11743 11744 11745 11746 11747 11748 11749 11750 11751 11752 11753 11754 11755 11756 11757 11758 11759 11760 11761 11762 11763 11764 11765 11766 11767 11768 11769 11770 11771 11772 11773 11774 11775 11776 11777 11778 11779 11780 11781 11782 11783 11784 11785 11786 11787 11788 11789 11790 11791 11792 11793 11794 11795 11796 11797 11798 11799 11800 11801 11802 11803 11804 11805 11806 11807 11808 11809 11810 11811 11812 11813 11814 11815 11816 11817 11818 11819 11820 11821 11822 11823 11824 11825 11826 11827 11828 11829 11830 11831 11832 11833 11834 11835 11836 11837 11838 11839 11840 11841 11842 11843 11844 11845 11846 11847 11848 11849 11850 11851 11852 11853 11854 11855 11856 11857 11858 11859 11860 11861 11862 11863 11864 11865 11866 11867 11868 11869 11870 11871 11872 11873 11874 11875 11876 11877 11878 11879 11880 11881 11882 11883 11884 11885 11886 11887 11888 11889 11890 11891 11892 11893 11894 11895 11896 11897 11898 11899 11900 11901 11902 11903 11904 11905 11906 11907 11908 11909 11910 11911 11912 11913 11914 11915 11916 11917 11918 11919 11920 11921 11922 11923 11924 11925 11926 11927 11928 11929 11930 11931 11932 11933 11934 11935 11936 11937 11938 11939 11940 11941 11942 11943 11944 11945 11946 11947 11948 11949 11950 11951 11952 11953 11954 11955 11956 11957 11958 11959 11960 11961 11962 11963 11964 11965 11966 11967 11968 11969 11970 11971 11972 11973 11974 11975 11976 11977 11978 11979 11980 11981 11982 11983 11984 11985 11986 11987 11988 11989 11990 11991 11992 11993 11994 11995 11996 11997 11998 11999 12000 12001 12002 12003 12004 12005 12006 12007 12008 12009 12010 12011 12012 12013 12014 12015 12016 12017 12018 12019 12020 12021 12022 12023 12024 12025 12026 12027 12028 12029 12030 12031 12032 12033 12034 12035 12036 12037 12038 12039 12040 12041 12042 12043 12044 12045 12046 12047 12048 12049 12050 12051 12052 12053 12054 12055 12056 12057 12058 12059 12060 12061 12062 12063 12064 12065 12066 12067 12068 12069 12070 12071 12072 12073 12074 12075 12076 12077 12078 12079 12080 12081 12082 12083 12084 12085 12086 12087 12088 12089 12090 12091 12092 12093 12094 12095 12096 12097 12098 12099 12100 12101 12102 12103 12104 12105 12106 12107 12108 12109 12110 12111 12112 12113 12114 12115 12116 12117 12118 12119 12120 12121 12122 12123 12124 12125 12126 12127 12128 12129 12130 12131 12132 12133 12134 12135 12136 12137 12138 12139 12140 12141 12142 12143 12144 12145 12146 12147 12148 12149 12150 12151 12152 12153 12154 12155 12156 12157 12158 12159 12160 12161 12162 12163 12164 12165 12166 12167 12168 12169 12170 12171 12172 12173 12174 12175 12176 12177 12178 12179 12180 12181 12182 12183 12184 12185 12186 12187 12188 12189 12190 12191 12192 12193 12194 12195 12196 12197 12198 12199 12200 12201 12202 12203 12204 12205 12206 12207 12208 12209 12210 12211 12212 12213 12214 12215 12216 12217 12218 12219 12220 12221 12222 12223 12224 12225 12226 12227 12228 12229 12230 12231 12232 12233 12234 12235 12236 12237 12238 12239 12240 12241 12242 12243 12244 12245 12246 12247 12248 12249 12250 12251 12252 12253 12254 12255 12256 12257 12258 12259 12260 12261 12262 12263 12264 12265 12266 12267 12268 12269 12270 12271 12272 12273 12274 12275 12276 12277 12278 12279 12280 12281 12282 12283 12284 12285 12286 12287 12288 12289 12290 12291 12292 12293 12294 12295 12296 12297 12298 12299 12300 12301 12302 12303 12304 12305 12306 12307 12308 12309 12310 12311 12312 12313 12314 12315 12316 12317 12318 12319 12320 12321 12322 12323 12324 12325 12326 12327 12328 12329 12330 12331 12332 12333 12334 12335 12336 12337 12338 12339 12340 12341 12342 12343 12344 12345 12346 12347 12348 12349 12350 12351 12352 12353 12354 12355 12356 12357 12358 12359 12360 12361 12362 12363 12364 12365 12366 12367 12368 12369 12370 12371 12372 12373 12374 12375 12376 12377 12378 12379 12380 12381 12382 12383 12384 12385 12386 12387 12388 12389 12390 12391 12392 12393 12394 12395 12396 12397 12398 12399 12400 12401 12402 12403 12404 12405 12406 12407 12408 12409 12410 12411 12412 12413 12414 12415 12416 12417 12418 12419 12420 12421 12422 12423 12424 12425 12426 12427 12428 12429 12430 12431 12432 12433 12434 12435 12436 12437 12438 12439 12440 12441 12442 12443 12444 12445 12446 12447 12448 12449 12450 12451 12452 12453 12454 12455 12456 12457 12458 12459 12460 12461 12462 12463 12464 12465 12466 12467 12468 12469 12470 12471 12472 12473 12474 12475 12476 12477 12478 12479 12480 12481 12482 12483 12484 12485 12486 12487 12488 12489 12490 12491 12492 12493 12494 12495 12496 12497 12498 12499 12500 12501 12502 12503 12504 12505 12506 12507 12508 12509 12510 12511 12512 12513 12514 12515 12516 12517 12518 12519 12520 12521 12522 12523 12524 12525 12526 12527 12528 12529 12530 12531 12532 12533 12534 12535 12536 12537 12538 12539 12540 12541 12542 12543 12544 12545 12546 12547 12548 12549 12550 12551 12552 12553 12554 12555 12556 12557 12558 12559 12560 12561 12562 12563 12564 12565 12566 12567 12568 12569 12570 12571 12572 12573 12574 12575 12576 12577 12578 12579 12580 12581 12582 12583 12584 12585 12586 12587 12588 12589 12590 12591 12592 12593 12594 12595 12596 12597 12598 12599 12600 12601 12602 12603 12604 12605 12606 12607 12608 12609 12610 12611 12612 12613 12614 12615 12616 12617 12618 12619 12620 12621 12622 12623 12624 12625 12626 12627 12628 12629 12630 12631 12632 12633 12634 12635 12636 12637 12638 12639 12640 12641 12642 12643 12644 12645 12646 12647 12648 12649 12650 12651 12652 12653 12654 12655 12656 12657 12658 12659 12660 12661 12662 12663 12664 12665 12666 12667 12668 12669 12670 12671 12672 12673 12674 12675 12676 12677 12678 12679 12680 12681 12682 12683 12684 12685 12686 12687 12688 12689 12690 12691 12692 12693 12694 12695 12696 12697 12698 12699 12700 12701 12702 12703 12704 12705 12706 12707 12708 12709 12710 12711 12712 12713 12714 12715 12716 12717 12718 12719 12720 12721 12722 12723 12724 12725 12726 12727 12728 12729 12730 12731 12732 12733 12734 12735 12736 12737 12738 12739 12740 12741 12742 12743 12744 12745 12746 12747 12748 12749 12750 12751 12752 12753 12754 12755 12756 12757 12758 12759 12760 12761 12762 12763 12764 12765 12766 12767 12768 12769 12770 12771 12772 12773 12774 12775 12776 12777 12778 12779 12780 12781 12782 12783 12784 12785 12786 12787 12788 12789 12790 12791 12792 12793 12794 12795 12796 12797 12798 12799 12800 12801 12802 12803 12804 12805 12806 12807 12808 12809 12810 12811 12812 12813 12814 12815 12816 12817 12818 12819 12820 12821 12822 12823 12824 12825 12826 12827 12828 12829 12830 12831 12832 12833 12834 12835 12836 12837 12838 12839 12840 12841 12842 12843 12844 12845 12846 12847 12848 12849 12850 12851 12852 12853 12854 12855 12856 12857 12858 12859 12860 12861 12862 12863 12864 12865 12866 12867 12868 12869 12870 12871 12872 12873 12874 12875 12876 12877 12878 12879 12880 12881 12882 12883 12884 12885 12886 12887 12888 12889 12890 12891 12892 12893 12894 12895 12896 12897 12898 12899 12900 12901 12902 12903 12904 12905 12906 12907 12908 12909 12910 12911 12912 12913 12914 12915 12916 12917 12918 12919 12920 12921 12922 12923 12924 12925 12926 12927 12928 12929 12930 12931 12932 12933 12934 12935 12936 12937 12938 12939 12940 12941 12942 12943 12944 12945 12946 12947 12948 12949 12950 12951 12952 12953 12954 12955 12956 12957 12958 12959 12960 12961 12962 12963 12964 12965 12966 12967 12968 12969 12970 12971 12972 12973 12974 12975 12976 12977 12978 12979 12980 12981 12982 12983 12984 12985 12986 12987 12988 12989 12990 12991 12992 12993 12994 12995 12996 12997 12998 12999 13000 13001 13002 13003 13004 13005 13006 13007 13008 13009 13010 13011 13012 13013 13014 13015 13016 13017 13018 13019 13020 13021 13022 13023 13024 13025 13026 13027 13028 13029 13030 13031 13032 13033 13034 13035 13036 13037 13038 13039 13040 13041 13042 13043 13044 13045 13046 13047 13048 13049 13050 13051 13052 13053 13054 13055 13056 13057 13058 13059 13060 13061 13062 13063 13064 13065 13066 13067 13068 13069 13070 13071 13072 13073 13074 13075 13076 13077 13078 13079 13080 13081 13082 13083 13084 13085 13086 13087 13088 13089 13090 13091 13092 13093 13094 13095 13096 13097 13098 13099 13100 13101 13102 13103 13104 13105 13106 13107 13108 13109 13110 13111 13112 13113 13114 13115 13116 13117 13118 13119 13120 13121 13122 13123 13124 13125 13126 13127 13128 13129 13130 13131 13132 13133 13134 13135 13136 13137 13138 13139 13140 13141 13142 13143 13144 13145 13146 13147 13148 13149 13150 13151 13152 13153 13154 13155 13156 13157 13158 13159 13160 13161 13162 13163 13164 13165 13166 13167 13168 13169 13170 13171 13172 13173 13174 13175 13176 13177 13178 13179 13180 13181 13182 13183 13184 13185 13186 13187 13188 13189 13190 13191 13192 13193 13194 13195 13196 13197 13198 13199 13200 13201 13202 13203 13204 13205 13206 13207 13208 13209 13210 13211 13212 13213 13214 13215 13216 13217 13218 13219 13220 13221 13222 13223 13224 13225 13226 13227 13228 13229 13230 13231 13232 13233 13234 13235 13236 13237 13238 13239 13240 13241 13242 13243 13244 13245 13246 13247 13248 13249 13250 13251 13252 13253 13254 13255 13256 13257 13258 13259 13260 13261 13262 13263 13264 13265 13266 13267 13268 13269 13270 13271 13272 13273 13274 13275 13276 13277 13278 13279 13280 13281 13282 13283 13284 13285 13286 13287 13288 13289 13290 13291 13292 13293 13294 13295 13296 13297 13298 13299 13300 13301 13302 13303 13304 13305 13306 13307 13308 13309 13310 13311 13312 13313 13314 13315 13316 13317 13318 13319 13320 13321 13322 13323 13324 13325 13326 13327 13328 13329 13330 13331 13332 13333 13334 13335 13336 13337 13338 13339 13340 13341 13342 13343 13344 13345 13346 13347 13348 13349 13350 13351 13352 13353 13354 13355 13356 13357 13358 13359 13360 13361 13362 13363 13364 13365 13366 13367 13368 13369 13370 13371 13372 13373 13374 13375 13376 13377 13378 13379 13380 13381 13382 13383 13384 13385 13386 13387 13388 13389 13390 13391 13392 13393 13394 13395 13396 13397 13398 13399 13400 13401 13402 13403 13404 13405 13406 13407 13408 13409 13410 13411 13412 13413 13414 13415 13416 13417 13418 13419 13420 13421 13422 13423 13424 13425 13426 13427 13428 13429 13430 13431 13432 13433 13434 13435 13436 13437 13438 13439 13440 13441 13442 13443 13444 13445 13446 13447 13448 13449 13450 13451 13452 13453 13454 13455 13456 13457 13458 13459 13460 13461 13462 13463 13464 13465 13466 13467 13468 13469 13470 13471 13472 13473 13474 13475 13476 13477 13478 13479 13480 13481 13482 13483 13484 13485 13486 13487 13488 13489 13490 13491 13492 13493 13494 13495 13496 13497 13498 13499 13500 13501 13502 13503 13504 13505 13506 13507 13508 13509 13510 13511 13512 13513 13514 13515 13516 13517 13518 13519 13520 13521 13522 13523 13524 13525 13526 13527 13528 13529 13530 13531 13532 13533 13534 13535 13536 13537 13538 13539 13540 13541 13542 13543 13544 13545 13546 13547 13548 13549 13550 13551 13552 13553 13554 13555 13556 13557 13558 13559 13560 13561 13562 13563 13564 13565 13566 13567 13568 13569 13570 13571 13572 13573 13574 13575 13576 13577 13578 13579 13580 13581 13582 13583 13584 13585 13586 13587 13588 13589 13590 13591 13592 13593 13594 13595 13596 13597 13598 13599 13600 13601 13602 13603 13604 13605 13606 13607 13608 13609 13610 13611 13612 13613 13614 13615 13616 13617 13618 13619 13620 13621 13622 13623 13624 13625 13626 13627 13628 13629 13630 13631 13632 13633 13634 13635 13636 13637 13638 13639 13640 13641 13642 13643 13644 13645 13646 13647 13648 13649 13650 13651 13652 13653 13654 13655 13656 13657 13658 13659 13660 13661 13662 13663 13664 13665 13666 13667 13668 13669 13670 13671 13672 13673 13674 13675 13676 13677 13678 13679 13680 13681 13682 13683 13684 13685 13686 13687 13688 13689 13690 13691 13692 13693 13694 13695 13696 13697 13698 13699 13700 13701 13702 13703 13704 13705 13706 13707 13708 13709 13710 13711 13712 13713 13714 13715 13716 13717 13718 13719 13720 13721 13722 13723 13724 13725 13726 13727 13728 13729 13730 13731 13732 13733 13734 13735 13736 13737 13738 13739 13740 13741 13742 13743 13744 13745 13746 13747 13748 13749 13750 13751 13752 13753 13754 13755 13756 13757 13758 13759 13760 13761 13762 13763 13764 13765 13766 13767 13768 13769 13770 13771 13772 13773 13774 13775 13776 13777 13778 13779 13780 13781 13782 13783 13784 13785 13786 13787 13788 13789 13790 13791 13792 13793 13794 13795 13796 13797 13798 13799 13800 13801 13802 13803 13804 13805 13806 13807 13808 13809 13810 13811 13812 13813 13814 13815 13816 13817 13818 13819 13820 13821 13822 13823 13824 13825 13826 13827 13828 13829 13830 13831 13832 13833 13834 13835 13836 13837 13838 13839 13840 13841 13842 13843 13844 13845 13846 13847 13848 13849 13850 13851 13852 13853 13854 13855 13856 13857 13858 13859 13860 13861 13862 13863 13864 13865 13866 13867 13868 13869 13870 13871 13872 13873 13874 13875 13876 13877 13878 13879 13880 13881 13882 13883 13884 13885 13886 13887 13888 13889 13890 13891 13892 13893 13894 13895 13896 13897 13898 13899 13900 13901 13902 13903 13904 13905 13906 13907 13908 13909 13910 13911 13912 13913 13914 13915 13916 13917 13918 13919 13920 13921 13922 13923 13924 13925 13926 13927 13928 13929 13930 13931 13932 13933 13934 13935 13936 13937 13938 13939 13940 13941 13942 13943 13944 13945 13946 13947 13948 13949 13950 13951 13952 13953 13954 13955 13956 13957 13958 13959 13960 13961 13962 13963 13964 13965 13966 13967 13968 13969 13970 13971 13972 13973 13974 13975 13976 13977 13978 13979 13980 13981 13982 13983 13984 13985 13986 13987 13988 13989 13990 13991 13992 13993 13994 13995 13996 13997 13998 13999 14000 14001 14002 14003 14004 14005 14006 14007 14008 14009 14010 14011 14012 14013 14014 14015 14016 14017 14018 14019 14020 14021 14022 14023 14024 14025 14026 14027 14028 14029 14030 14031 14032 14033 14034 14035 14036 14037 14038 14039 14040 14041 14042 14043 14044 14045 14046 14047 14048 14049 14050 14051 14052 14053 14054 14055 14056 14057 14058 14059 14060 14061 14062 14063 14064 14065 14066 14067 14068 14069 14070 14071 14072 14073 14074 14075 14076 14077 14078 14079 14080 14081 14082 14083 14084 14085 14086 14087 14088 14089 14090 14091 14092 14093 14094 14095 14096 14097 14098 14099 14100 14101 14102 14103 14104 14105 14106 14107 14108 14109 14110 14111 14112 14113 14114 14115 14116 14117 14118 14119 14120 14121 14122 14123 14124 14125 14126 14127 14128 14129 14130 14131 14132 14133 14134 14135 14136 14137 14138 14139 14140 14141 14142 14143 14144 14145 14146 14147 14148 14149 14150 14151 14152 14153 14154 14155 14156 14157 14158 14159 14160 14161 14162 14163 14164 14165 14166 14167 14168 14169 14170 14171 14172 14173 14174 14175 14176 14177 14178 14179 14180 14181 14182 14183 14184 14185 14186 14187 14188 14189 14190 14191 14192 14193 14194 14195 14196 14197 14198 14199 14200 14201 14202 14203 14204 14205 14206 14207 14208 14209 14210 14211 14212 14213 14214 14215 14216 14217 14218 14219 14220 14221 14222 14223 14224 14225 14226 14227 14228 14229 14230 14231 14232 14233 14234 14235 14236 14237 14238 14239 14240 14241 14242 14243 14244 14245 14246 14247 14248 14249 14250 14251 14252 14253 14254 14255 14256 14257 14258 14259 14260 14261 14262 14263 14264 14265 14266 14267 14268 14269 14270 14271 14272 14273 14274 14275 14276 14277 14278 14279 14280 14281 14282 14283 14284 14285 14286 14287 14288 14289 14290 14291 14292 14293 14294 14295 14296 14297 14298 14299 14300 14301 14302 14303 14304 14305 14306 14307 14308 14309 14310 14311 14312 14313 14314 14315 14316 14317 14318 14319 14320 14321 14322 14323 14324 14325 14326 14327 14328 14329 14330 14331 14332 14333 14334 14335 14336 14337 14338 14339 14340 14341 14342 14343 14344 14345 14346 14347 14348 14349 14350 14351 14352 14353 14354 14355 14356 14357 14358 14359 14360 14361 14362 14363 14364 14365 14366 14367 14368 14369 14370 14371 14372 14373 14374 14375 14376 14377 14378 14379 14380 14381 14382 14383 14384 14385 14386 14387 14388 14389 14390 14391 14392 14393 14394 14395 14396 14397 14398 14399 14400 14401 14402 14403 14404 14405 14406 14407 14408 14409 14410 14411 14412 14413 14414 14415 14416 14417 14418 14419 14420 14421 14422 14423 14424 14425 14426 14427 14428 14429 14430 14431 14432 14433 14434 14435 14436 14437 14438 14439 14440 14441 14442 14443 14444 14445 14446 14447 14448 14449 14450 14451 14452 14453 14454 14455 14456 14457 14458 14459 14460 14461 14462 14463 14464 14465 14466 14467 14468 14469 14470 14471 14472 14473 14474 14475 14476 14477 14478 14479 14480 14481 14482 14483 14484 14485 14486 14487 14488 14489 14490 14491 14492 14493 14494 14495 14496 14497 14498 14499 14500 14501 14502 14503 14504 14505 14506 14507 14508 14509 14510 14511 14512 14513 14514 14515 14516 14517 14518 14519 14520 14521 14522 14523 14524 14525 14526 14527 14528 14529 14530 14531 14532 14533 14534 14535 14536 14537 14538 14539 14540 14541 14542 14543 14544 14545 14546 14547 14548 14549 14550 14551 14552 14553 14554 14555 14556 14557 14558 14559 14560 14561 14562 14563 14564 14565 14566 14567 14568 14569 14570 14571 14572 14573 14574 14575 14576 14577 14578 14579 14580 14581 14582 14583 14584 14585 14586 14587 14588 14589 14590 14591 14592 14593 14594 14595 14596 14597 14598 14599 14600 14601 14602 14603 14604 14605 14606 14607 14608 14609 14610 14611 14612 14613 14614 14615 14616 14617 14618 14619 14620 14621 14622 14623 14624 14625 14626 14627 14628 14629 14630 14631 14632 14633 14634 14635 14636 14637 14638 14639 14640 14641 14642 14643 14644 14645 14646 14647 14648 14649 14650 14651 14652 14653 14654 14655 14656 14657 14658 14659 14660 14661 14662 14663 14664 14665 14666 14667 14668 14669 14670 14671 14672 14673 14674 14675 14676 14677 14678 14679 14680 14681 14682 14683 14684 14685 14686 14687 14688 14689 14690 14691 14692 14693 14694 14695 14696 14697 14698 14699 14700 14701 14702 14703 14704 14705 14706 14707 14708 14709 14710 14711 14712 14713 14714 14715 14716 14717 14718 14719 14720 14721 14722 14723 14724 14725 14726 14727 14728 14729 14730 14731 14732 14733 14734 14735 14736 14737 14738 14739 14740 14741 14742 14743 14744 14745 14746 14747 14748 14749 14750 14751 14752 14753 14754 14755 14756 14757 14758 14759 14760 14761 14762 14763 14764 14765 14766 14767 14768 14769 14770 14771 14772 14773 14774 14775 14776 14777 14778 14779 14780 14781 14782 14783 14784 14785 14786 14787 14788 14789 14790 14791 14792 14793 14794 14795 14796 14797 14798 14799 14800 14801 14802 14803 14804 14805 14806 14807 14808 14809 14810 14811 14812 14813 14814 14815 14816 14817 14818 14819 14820 14821 14822 14823 14824 14825 14826 14827 14828 14829 14830 14831 14832 14833 14834 14835 14836 14837 14838 14839 14840 14841 14842 14843 14844 14845 14846 14847 14848 14849 14850 14851 14852 14853 14854 14855 14856 14857 14858 14859 14860 14861 14862 14863 14864 14865 14866 14867 14868 14869 14870 14871 14872 14873 14874 14875 14876 14877 14878 14879 14880 14881 14882 14883 14884 14885 14886 14887 14888 14889 14890 14891 14892 14893 14894 14895 14896 14897 14898 14899 14900 14901 14902 14903 14904 14905 14906 14907 14908 14909 14910 14911 14912 14913 14914 14915 14916 14917 14918 14919 14920 14921 14922 14923 14924 14925 14926 14927 14928 14929 14930 14931 14932 14933 14934 14935 14936 14937 14938 14939 14940 14941 14942 14943 14944 14945 14946 14947 14948 14949 14950 14951 14952 14953 14954 14955 14956 14957 14958 14959 14960 14961 14962 14963 14964 14965 14966 14967 14968 14969 14970 14971 14972 14973 14974 14975 14976 14977 14978 14979 14980 14981 14982 14983 14984 14985 14986 14987 14988 14989 14990 14991 14992 14993 14994 14995 14996 14997 14998 14999 15000 15001 15002 15003 15004 15005 15006 15007 15008 15009 15010 15011 15012 15013 15014 15015 15016 15017 15018 15019 15020 15021 15022 15023 15024 15025 15026 15027 15028 15029 15030 15031 15032 15033 15034 15035 15036 15037 15038 15039 15040 15041 15042 15043 15044 15045 15046 15047 15048 15049 15050 15051 15052 15053 15054 15055 15056 15057 15058 15059 15060 15061 15062 15063 15064 15065 15066 15067 15068 15069 15070 15071 15072 15073 15074 15075 15076 15077 15078 15079 15080 15081 15082 15083 15084 15085 15086 15087 15088 15089 15090 15091 15092 15093 15094 15095 15096 15097 15098 15099 15100 15101 15102 15103 15104 15105 15106 15107 15108 15109 15110 15111 15112 15113 15114 15115 15116 15117 15118 15119 15120 15121 15122 15123 15124 15125 15126 15127 15128 15129 15130 15131 15132 15133 15134 15135 15136 15137 15138 15139 15140 15141 15142 15143 15144 15145 15146 15147 15148 15149 15150 15151 15152 15153 15154 15155 15156 15157 15158 15159 15160 15161 15162 15163 15164 15165 15166 15167 15168 15169 15170 15171 15172 15173 15174 15175 15176 15177 15178 15179 15180 15181 15182 15183 15184 15185 15186 15187 15188 15189 15190 15191 15192 15193 15194 15195 15196 15197 15198 15199 15200 15201 15202 15203 15204 15205 15206 15207 15208 15209 15210 15211 15212 15213 15214 15215 15216 15217 15218 15219 15220 15221 15222 15223 15224 15225 15226 15227 15228 15229 15230 15231 15232 15233 15234 15235 15236 15237 15238 15239 15240 15241 15242 15243 15244 15245 15246 15247 15248 15249 15250 15251 15252 15253 15254 15255 15256 15257 15258 15259 15260 15261 15262 15263 15264 15265 15266 15267 15268 15269 15270 15271 15272 15273 15274 15275 15276 15277 15278 15279 15280 15281 15282 15283 15284 15285 15286 15287 15288 15289 15290 15291 15292 15293 15294 15295 15296 15297 15298 15299 15300 15301 15302 15303 15304 15305 15306 15307 15308 15309 15310 15311 15312 15313 15314 15315 15316 15317 15318 15319 15320 15321 15322 15323 15324 15325 15326 15327 15328 15329 15330 15331 15332 15333 15334 15335 15336 15337 15338 15339 15340 15341 15342 15343 15344 15345 15346 15347 15348 15349 15350 15351 15352 15353 15354 15355 15356 15357 15358 15359 15360 15361 15362 15363 15364 15365 15366 15367 15368 15369 15370 15371 15372 15373 15374 15375 15376 15377 15378 15379 15380 15381 15382 15383 15384 15385 15386 15387 15388 15389 15390 15391 15392 15393 15394 15395 15396 15397 15398 15399 15400 15401 15402 15403 15404 15405 15406 15407 15408 15409 15410 15411 15412 15413 15414 15415 15416 15417 15418 15419 15420 15421 15422 15423 15424 15425 15426 15427 15428 15429 15430 15431 15432 15433 15434 15435 15436 15437 15438 15439 15440 15441 15442 15443 15444 15445 15446 15447 15448 15449 15450 15451 15452 15453 15454 15455 15456 15457 15458 15459 15460 15461 15462 15463 15464 15465 15466 15467 15468 15469 15470 15471 15472 15473 15474 15475 15476 15477 15478 15479 15480 15481 15482 15483 15484 15485 15486 15487 15488 15489 15490 15491 15492 15493 15494 15495 15496 15497 15498 15499 15500 15501 15502 15503 15504 15505 15506 15507 15508 15509 15510 15511 15512 15513 15514 15515 15516 15517 15518 15519 15520 15521 15522 15523 15524 15525 15526 15527 15528 15529 15530 15531 15532 15533 15534 15535 15536 15537 15538 15539 15540 15541 15542 15543 15544 15545 15546 15547 15548 15549 15550 15551 15552 15553 15554 15555 15556 15557 15558 15559 15560 15561 15562 15563 15564 15565 15566 15567 15568 15569 15570 15571 15572 15573 15574 15575 15576 15577 15578 15579 15580 15581 15582 15583 15584 15585 15586 15587 15588 15589 15590 15591 15592 15593 15594 15595 15596 15597 15598 15599 15600 15601 15602 15603 15604 15605 15606 15607 15608 15609 15610 15611 15612 15613 15614 15615 15616 15617 15618 15619 15620 15621 15622 15623 15624 15625 15626 15627 15628 15629 15630 15631 15632 15633 15634 15635 15636 15637 15638 15639 15640 15641 15642 15643 15644 15645 15646 15647 15648 15649 15650 15651 15652 15653 15654 15655 15656 15657 15658 15659 15660 15661 15662 15663 15664 15665 15666 15667 15668 15669 15670 15671 15672 15673 15674 15675 15676 15677 15678 15679 15680 15681 15682 15683 15684 15685 15686 15687 15688 15689 15690 15691 15692 15693 15694 15695 15696 15697 15698 15699 15700 15701 15702 15703 15704 15705 15706 15707 15708 15709 15710 15711 15712 15713 15714 15715 15716 15717 15718 15719 15720 15721 15722 15723 15724 15725 15726 15727 15728 15729 15730 15731 15732 15733 15734 15735 15736 15737 15738 15739 15740 15741 15742 15743 15744 15745 15746 15747 15748 15749 15750 15751 15752 15753 15754 15755 15756 15757 15758 15759 15760 15761 15762 15763 15764 15765 15766 15767 15768 15769 15770 15771 15772 15773 15774 15775 15776 15777 15778 15779 15780 15781 15782 15783 15784 15785 15786 15787 15788 15789 15790 15791 15792 15793 15794 15795 15796 15797 15798 15799 15800 15801 15802 15803 15804 15805 15806 15807 15808 15809 15810 15811 15812 15813 15814 15815 15816 15817 15818 15819 15820 15821 15822 15823 15824 15825 15826 15827 15828 15829 15830 15831 15832 15833 15834 15835 15836 15837 15838 15839 15840 15841 15842 15843 15844 15845 15846 15847 15848 15849 15850 15851 15852 15853 15854 15855 15856 15857 15858 15859 15860 15861 15862 15863 15864 15865 15866 15867 15868 15869 15870 15871 15872 15873 15874 15875 15876 15877 15878 15879 15880 15881 15882 15883 15884 15885 15886 15887 15888 15889 15890 15891 15892 15893 15894 15895 15896 15897 15898 15899 15900 15901 15902 15903 15904 15905 15906 15907 15908 15909 15910 15911 15912 15913 15914 15915 15916 15917 15918 15919 15920 15921 15922 15923 15924 15925 15926 15927 15928 15929 15930 15931 15932 15933 15934 15935 15936 15937 15938 15939 15940 15941 15942 15943 15944 15945 15946 15947 15948 15949 15950 15951 15952 15953 15954 15955 15956 15957 15958 15959 15960 15961 15962 15963 15964 15965 15966 15967 15968 15969 15970 15971 15972 15973 15974 15975 15976 15977 15978 15979 15980 15981 15982 15983 15984 15985 15986 15987 15988 15989 15990 15991 15992 15993 15994 15995 15996 15997 15998 15999 16000 16001 16002 16003 16004 16005 16006 16007 16008 16009 16010 16011 16012 16013 16014 16015 16016 16017 16018 16019 16020 16021 16022 16023 16024 16025 16026 16027 16028 16029 16030 16031 16032 16033 16034 16035 16036 16037 16038 16039 16040 16041 16042 16043 16044 16045 16046 16047 16048 16049 16050 16051 16052 16053 16054 16055 16056 16057 16058 16059 16060 16061 16062 16063 16064 16065 16066 16067 16068 16069 16070 16071 16072 16073 16074 16075 16076 16077 16078 16079 16080 16081 16082 16083 16084 16085 16086 16087 16088 16089 16090 16091 16092 16093 16094 16095 16096 16097 16098 16099 16100 16101 16102 16103 16104 16105 16106 16107 16108 16109 16110 16111 16112 16113 16114 16115 16116 16117 16118 16119 16120 16121 16122 16123 16124 16125 16126 16127 16128 16129 16130 16131 16132 16133 16134 16135 16136 16137 16138 16139 16140 16141 16142 16143 16144 16145 16146 16147 16148 16149 16150 16151 16152 16153 16154 16155 16156 16157 16158 16159 16160 16161 16162 16163 16164 16165 16166 16167 16168 16169 16170 16171 16172 16173 16174 16175 16176 16177 16178 16179 16180 16181 16182 16183 16184 16185 16186 16187 16188 16189 16190 16191 16192 16193 16194 16195 16196 16197 16198 16199 16200 16201 16202 16203 16204 16205 16206 16207 16208 16209 16210 16211 16212 16213 16214 16215 16216 16217 16218 16219 16220 16221 16222 16223 16224 16225 16226 16227 16228 16229 16230 16231 16232 16233 16234 16235 16236 16237 16238 16239 16240 16241 16242 16243 16244 16245 16246 16247 16248 16249 16250 16251 16252 16253 16254 16255 16256 16257 16258 16259 16260 16261 16262 16263 16264 16265 16266 16267 16268 16269 16270 16271 16272 16273 16274 16275 16276 16277 16278 16279 16280 16281 16282 16283 16284 16285 16286 16287 16288 16289 16290 16291 16292 16293 16294 16295 16296 16297 16298 16299 16300 16301 16302 16303 16304 16305 16306 16307 16308 16309 16310 16311 16312 16313 16314 16315 16316 16317 16318 16319 16320 16321 16322 16323 16324 16325 16326 16327 16328 16329 16330 16331 16332 16333 16334 16335 16336 16337 16338 16339 16340 16341 16342 16343 16344 16345 16346 16347 16348 16349 16350 16351 16352 16353 16354 16355 16356 16357 16358 16359 16360 16361 16362 16363 16364 16365 16366 16367 16368 16369 16370 16371 16372 16373 16374 16375 16376 16377 16378 16379 16380 16381 16382 16383 16384 16385 16386 16387 16388 16389 16390 16391 16392 16393 16394 16395 16396 16397 16398 16399 16400 16401 16402 16403 16404 16405 16406 16407 16408 16409 16410 16411 16412 16413 16414 16415 16416 16417 16418 16419 16420 16421 16422 16423 16424 16425 16426 16427 16428 16429 16430 16431 16432 16433 16434 16435 16436 16437 16438 16439 16440 16441 16442 16443 16444 16445 16446 16447 16448 16449 16450 16451 16452 16453 16454 16455 16456 16457 16458 16459 16460 16461 16462 16463 16464 16465 16466 16467 16468 16469 16470 16471 16472 16473 16474 16475 16476 16477 16478 16479 16480 16481 16482 16483 16484 16485 16486 16487 16488 16489 16490 16491 16492 16493 16494 16495 16496 16497 16498 16499 16500 16501 16502 16503 16504 16505 16506 16507 16508 16509 16510 16511 16512 16513 16514 16515 16516 16517 16518 16519 16520 16521 16522 16523 16524 16525 16526 16527 16528 16529 16530 16531 16532 16533 16534 16535 16536 16537 16538 16539 16540 16541 16542 16543 16544 16545 16546 16547 16548 16549 16550 16551 16552 16553 16554 16555 16556 16557 16558 16559 16560 16561 16562 16563 16564 16565 16566 16567 16568 16569 16570 16571 16572 16573 16574 16575 16576 16577 16578 16579 16580 16581 16582 16583 16584 16585 16586 16587 16588 16589 16590 16591 16592 16593 16594 16595 16596 16597 16598 16599 16600 16601 16602 16603 16604 16605 16606 16607 16608 16609 16610 16611 16612 16613 16614 16615 16616 16617 16618 16619 16620 16621 16622 16623 16624 16625 16626 16627 16628 16629 16630 16631 16632 16633 16634 16635 16636 16637 16638 16639 16640 16641 16642 16643 16644 16645 16646 16647 16648 16649 16650 16651 16652 16653 16654 16655 16656 16657 16658 16659 16660 16661 16662 16663 16664 16665 16666 16667 16668 16669 16670 16671 16672 16673 16674 16675 16676 16677 16678 16679 16680 16681 16682 16683 16684 16685 16686 16687 16688 16689 16690 16691 16692 16693 16694 16695 16696 16697 16698 16699 16700 16701 16702 16703 16704 16705 16706 16707 16708 16709 16710 16711 16712 16713 16714 16715 16716 16717 16718 16719 16720 16721 16722 16723 16724 16725 16726 16727 16728 16729 16730 16731 16732 16733 16734 16735 16736 16737 16738 16739 16740 16741 16742 16743 16744 16745 16746 16747 16748 16749 16750 16751 16752 16753 16754 16755 16756 16757 16758 16759 16760 16761 16762 16763 16764 16765 16766 16767 16768 16769 16770 16771 16772 16773 16774 16775 16776 16777 16778 16779 16780 16781 16782 16783 16784 16785 16786 16787 16788 16789 16790 16791 16792 16793 16794 16795 16796 16797 16798 16799 16800 16801 16802 16803 16804 16805 16806 16807 16808 16809 16810 16811 16812 16813 16814 16815 16816 16817 16818 16819 16820 16821 16822 16823 16824 16825 16826 16827 16828 16829 16830 16831 16832 16833 16834 16835 16836 16837 16838 16839 16840 16841 16842 16843 16844 16845 16846 16847 16848 16849 16850 16851 16852 16853 16854 16855 16856 16857 16858 16859 16860 16861 16862 16863 16864 16865 16866 16867 16868 16869 16870 16871 16872 16873 16874 16875 16876 16877 16878 16879 16880 16881 16882 16883 16884 16885 16886 16887 16888 16889 16890 16891 16892 16893 16894 16895 16896 16897 16898 16899 16900 16901 16902 16903 16904 16905 16906 16907 16908 16909 16910 16911 16912 16913 16914 16915 16916 16917 16918 16919 16920 16921 16922 16923 16924 16925 16926 16927 16928 16929 16930 16931 16932 16933 16934 16935 16936 16937 16938 16939 16940 16941 16942 16943 16944 16945 16946 16947 16948 16949 16950 16951 16952 16953 16954 16955 16956 16957 16958 16959 16960 16961 16962 16963 16964 16965 16966 16967 16968 16969 16970 16971 16972 16973 16974 16975 16976 16977 16978 16979 16980 16981 16982 16983 16984 16985 16986 16987 16988 16989 16990 16991 16992 16993 16994 16995 16996 16997 16998 16999 17000 17001 17002 17003 17004 17005 17006 17007 17008 17009 17010 17011 17012 17013 17014 17015 17016 17017 17018 17019 17020 17021 17022 17023 17024 17025 17026 17027 17028 17029 17030 17031 17032 17033 17034 17035 17036 17037 17038 17039 17040 17041 17042 17043 17044 17045 17046 17047 17048 17049 17050 17051 17052 17053 17054 17055 17056 17057 17058 17059 17060 17061 17062 17063 17064 17065 17066 17067 17068 17069 17070 17071 17072 17073 17074 17075 17076 17077 17078 17079 17080 17081 17082 17083 17084 17085 17086 17087 17088 17089 17090 17091 17092 17093 17094 17095 17096 17097 17098 17099 17100 17101 17102 17103 17104 17105 17106 17107 17108 17109 17110 17111 17112 17113 17114 17115 17116 17117 17118 17119 17120 17121 17122 17123 17124 17125 17126 17127 17128 17129 17130 17131 17132 17133 17134 17135 17136 17137 17138 17139 17140 17141 17142 17143 17144 17145 17146 17147 17148 17149 17150 17151 17152 17153 17154 17155 17156 17157 17158 17159 17160 17161 17162 17163 17164 17165 17166 17167 17168 17169 17170 17171 17172 17173 17174 17175 17176 17177 17178 17179 17180 17181 17182 17183 17184 17185 17186 17187 17188 17189 17190 17191 17192 17193 17194 17195 17196 17197 17198 17199 17200 17201 17202 17203 17204 17205 17206 17207 17208 17209 17210 17211 17212 17213 17214 17215 17216 17217 17218 17219 17220 17221 17222 17223 17224 17225 17226 17227 17228 17229 17230 17231 17232 17233 17234 17235 17236 17237 17238 17239 17240 17241 17242 17243 17244 17245 17246 17247 17248 17249 17250 17251 17252 17253 17254 17255 17256 17257 17258 17259 17260 17261 17262 17263 17264 17265 17266 17267 17268 17269 17270 17271 17272 17273 17274 17275 17276 17277 17278 17279 17280 17281 17282 17283 17284 17285 17286 17287 17288 17289 17290 17291 17292 17293 17294 17295 17296 17297 17298 17299 17300 17301 17302 17303 17304 17305 17306 17307 17308 17309 17310 17311 17312 17313 17314 17315 17316 17317 17318 17319 17320 17321 17322 17323 17324 17325 17326 17327 17328 17329 17330 17331 17332 17333 17334 17335 17336 17337 17338 17339 17340 17341 17342 17343 17344 17345 17346 17347 17348 17349 17350 17351 17352 17353 17354 17355 17356 17357 17358 17359 17360 17361 17362 17363 17364 17365 17366 17367 17368 17369 17370 17371 17372 17373 17374 17375 17376 17377 17378 17379 17380 17381 17382 17383 17384 17385 17386 17387 17388 17389 17390 17391 17392 17393 17394 17395 17396 17397 17398 17399 17400 17401 17402 17403 17404 17405 17406 17407 17408 17409 17410 17411 17412 17413 17414 17415 17416 17417 17418 17419 17420 17421 17422 17423 17424 17425 17426 17427 17428 17429 17430 17431 17432 17433 17434 17435 17436 17437 17438 17439 17440 17441 17442 17443 17444 17445 17446 17447 17448 17449 17450 17451 17452 17453 17454 17455 17456 17457 17458 17459 17460 17461 17462 17463 17464 17465 17466 17467 17468 17469 17470 17471 17472 17473 17474 17475 17476 17477 17478 17479 17480 17481 17482 17483 17484 17485 17486 17487 17488 17489 17490 17491 17492 17493 17494 17495 17496 17497 17498 17499 17500 17501 17502 17503 17504 17505 17506 17507 17508 17509 17510 17511 17512 17513 17514 17515 17516 17517 17518 17519 17520 17521 17522 17523 17524 17525 17526 17527 17528 17529 17530 17531 17532 17533 17534 17535 17536 17537 17538 17539 17540 17541 17542 17543 17544 17545 17546 17547 17548 17549 17550 17551 17552 17553 17554 17555 17556 17557 17558 17559 17560 17561 17562 17563 17564 17565 17566 17567 17568 17569 17570 17571 17572 17573 17574 17575 17576 17577 17578 17579 17580 17581 17582 17583 17584 17585 17586 17587 17588 17589 17590 17591 17592 17593 17594 17595 17596 17597 17598 17599 17600 17601 17602 17603 17604 17605 17606 17607 17608 17609 17610 17611 17612 17613 17614 17615 17616 17617 17618 17619 17620 17621 17622 17623 17624 17625 17626 17627 17628 17629 17630 17631 17632 17633 17634 17635 17636 17637 17638 17639 17640 17641 17642 17643 17644 17645 17646 17647 17648 17649 17650 17651 17652 17653 17654 17655 17656 17657 17658 17659 17660 17661 17662 17663 17664 17665 17666 17667 17668 17669 17670 17671 17672 17673 17674 17675 17676 17677 17678 17679 17680 17681 17682 17683 17684 17685 17686 17687 17688 17689 17690 17691 17692 17693 17694 17695 17696 17697 17698 17699 17700 17701 17702 17703 17704 17705 17706 17707 17708 17709 17710 17711 17712 17713 17714 17715 17716 17717 17718 17719 17720 17721 17722 17723 17724 17725 17726 17727 17728 17729 17730 17731 17732 17733 17734 17735 17736 17737 17738 17739 17740 17741 17742 17743 17744 17745 17746 17747 17748 17749 17750 17751 17752 17753 17754 17755 17756 17757 17758 17759 17760 17761 17762 17763 17764 17765 17766 17767 17768 17769 17770 17771 17772 17773 17774 17775 17776 17777 17778 17779 17780 17781 17782 17783 17784 17785 17786 17787 17788 17789 17790 17791 17792 17793 17794 17795 17796 17797 17798 17799 17800 17801 17802 17803 17804 17805 17806 17807 17808 17809 17810 17811 17812 17813 17814 17815 17816 17817 17818 17819 17820 17821 17822 17823 17824 17825 17826 17827 17828 17829 17830 17831 17832 17833 17834 17835 17836 17837 17838 17839 17840 17841 17842 17843 17844 17845 17846 17847 17848 17849 17850 17851 17852 17853 17854 17855 17856 17857 17858 17859 17860 17861 17862 17863 17864 17865 17866 17867 17868 17869 17870 17871 17872 17873 17874 17875 17876 17877 17878 17879 17880 17881 17882 17883 17884 17885 17886 17887 17888 17889 17890 17891 17892 17893 17894 17895 17896 17897 17898 17899 17900 17901 17902 17903 17904 17905 17906 17907 17908 17909 17910 17911 17912 17913 17914 17915 17916 17917 17918 17919 17920 17921 17922 17923 17924 17925 17926 17927 17928 17929 17930 17931 17932 17933 17934 17935 17936 17937 17938 17939 17940 17941 17942 17943 17944 17945 17946 17947 17948 17949 17950 17951 17952 17953 17954 17955 17956 17957 17958 17959 17960 17961 17962 17963 17964 17965 17966 17967 17968 17969 17970 17971 17972 17973 17974 17975 17976 17977 17978 17979 17980 17981 17982 17983 17984 17985 17986 17987 17988 17989 17990 17991 17992 17993 17994 17995 17996 17997 17998 17999 18000 18001 18002 18003 18004 18005 18006 18007 18008 18009 18010 18011 18012 18013 18014 18015 18016 18017 18018 18019 18020 18021 18022 18023 18024 18025 18026 18027 18028 18029 18030 18031 18032 18033 18034 18035 18036 18037 18038 18039 18040 18041 18042 18043 18044 18045 18046 18047 18048 18049 18050 18051 18052 18053 18054 18055 18056 18057 18058 18059 18060 18061 18062 18063 18064 18065 18066 18067 18068 18069 18070 18071 18072 18073 18074 18075 18076 18077 18078 18079 18080 18081 18082 18083 18084 18085 18086 18087 18088 18089 18090 18091 18092 18093 18094 18095 18096 18097 18098 18099 18100 18101 18102 18103 18104 18105 18106 18107 18108 18109 18110 18111 18112 18113 18114 18115 18116 18117 18118 18119 18120 18121 18122 18123 18124 18125 18126 18127 18128 18129 18130 18131 18132 18133 18134 18135 18136 18137 18138 18139 18140 18141 18142 18143 18144 18145 18146 18147 18148 18149 18150 18151 18152 18153 18154 18155 18156 18157 18158 18159 18160 18161 18162 18163 18164 18165 18166 18167 18168 18169 18170 18171 18172 18173 18174 18175 18176 18177 18178 18179 18180 18181 18182 18183 18184 18185 18186 18187 18188 18189 18190 18191 18192 18193 18194 18195 18196 18197 18198 18199 18200 18201 18202 18203 18204 18205 18206 18207 18208 18209 18210 18211 18212 18213 18214 18215 18216 18217 18218 18219 18220 18221 18222 18223 18224 18225 18226 18227 18228 18229 18230 18231 18232 18233 18234 18235 18236 18237 18238 18239 18240 18241 18242 18243 18244 18245 18246 18247 18248 18249 18250 18251 18252 18253 18254 18255 18256 18257 18258 18259 18260 18261 18262 18263 18264 18265 18266 18267 18268 18269 18270 18271 18272 18273 18274 18275 18276 18277 18278 18279 18280 18281 18282 18283 18284 18285 18286 18287 18288 18289 18290 18291 18292 18293 18294 18295 18296 18297 18298 18299 18300 18301 18302 18303 18304 18305 18306 18307 18308 18309 18310 18311 18312 18313 18314 18315 18316 18317 18318 18319 18320 18321 18322 18323 18324 18325 18326 18327 18328 18329 18330 18331 18332 18333 18334 18335 18336 18337 18338 18339 18340 18341 18342 18343 18344 18345 18346 18347 18348 18349 18350 18351 18352 18353 18354 18355 18356 18357 18358 18359 18360 18361 18362 18363 18364 18365 18366 18367 18368 18369 18370 18371 18372 18373 18374 18375 18376 18377 18378 18379 18380 18381 18382 18383 18384 18385 18386 18387 18388 18389 18390 18391 18392 18393 18394 18395 18396 18397 18398 18399 18400 18401 18402 18403 18404 18405 18406 18407 18408 18409 18410 18411 18412 18413 18414 18415 18416 18417 18418 18419 18420 18421 18422 18423 18424 18425 18426 18427 18428 18429 18430 18431 18432 18433 18434 18435 18436 18437 18438 18439 18440 18441 18442 18443 18444 18445 18446 18447 18448 18449 18450 18451 18452 18453 18454 18455 18456 18457 18458 18459 18460 18461 18462 18463 18464 18465 18466 18467 18468 18469 18470 18471 18472 18473 18474 18475 18476 18477 18478 18479 18480 18481 18482 18483 18484 18485 18486 18487 18488 18489 18490 18491 18492 18493 18494 18495 18496 18497 18498 18499 18500 18501 18502 18503 18504 18505 18506 18507 18508 18509 18510 18511 18512 18513 18514 18515 18516 18517 18518 18519 18520 18521 18522 18523 18524 18525 18526 18527 18528 18529 18530 18531 18532 18533 18534 18535 18536 18537 18538 18539 18540 18541 18542 18543 18544 18545 18546 18547 18548 18549 18550 18551 18552 18553 18554 18555 18556 18557 18558 18559 18560 18561 18562 18563 18564 18565 18566 18567 18568 18569 18570 18571 18572 18573 18574 18575 18576 18577 18578 18579 18580 18581 18582 18583 18584 18585 18586 18587 18588 18589 18590 18591 18592 18593 18594 18595 18596 18597 18598 18599 18600 18601 18602 18603 18604 18605 18606 18607 18608 18609 18610 18611 18612 18613 18614 18615 18616 18617 18618 18619 18620 18621 18622 18623 18624 18625 18626 18627 18628 18629 18630 18631 18632 18633 18634 18635 18636 18637 18638 18639 18640 18641 18642 18643 18644 18645 18646 18647 18648 18649 18650 18651 18652 18653 18654 18655 18656 18657 18658 18659 18660 18661 18662 18663 18664 18665 18666 18667 18668 18669 18670 18671 18672 18673 18674 18675 18676 18677 18678 18679 18680 18681 18682 18683 18684 18685 18686 18687 18688 18689 18690 18691 18692 18693 18694 18695 18696 18697 18698 18699 18700 18701 18702 18703 18704 18705 18706 18707 18708 18709 18710 18711 18712 18713 18714 18715 18716 18717 18718 18719 18720 18721 18722 18723 18724 18725 18726 18727 18728 18729 18730 18731 18732 18733 18734 18735 18736 18737 18738 18739 18740 18741 18742 18743 18744 18745 18746 18747 18748 18749 18750 18751 18752 18753 18754 18755 18756 18757 18758 18759 18760 18761 18762 18763 18764 18765 18766 18767 18768 18769 18770 18771 18772 18773 18774 18775 18776 18777 18778 18779 18780 18781 18782 18783 18784 18785 18786 18787 18788 18789 18790 18791 18792 18793 18794 18795 18796 18797 18798 18799 18800 18801 18802 18803 18804 18805 18806 18807 18808 18809 18810 18811 18812 18813 18814 18815 18816 18817 18818 18819 18820 18821 18822 18823 18824 18825 18826 18827 18828 18829 18830 18831 18832 18833 18834 18835 18836 18837 18838 18839 18840 18841 18842 18843 18844 18845 18846 18847 18848 18849 18850 18851 18852 18853 18854 18855 18856 18857 18858 18859 18860 18861 18862 18863 18864 18865 18866 18867 18868 18869 18870 18871 18872 18873 18874 18875 18876 18877 18878 18879 18880 18881 18882 18883 18884 18885 18886 18887 18888 18889 18890 18891 18892 18893 18894 18895 18896 18897 18898 18899 18900 18901 18902 18903 18904 18905 18906 18907 18908 18909 18910 18911 18912 18913 18914 18915 18916 18917 18918 18919 18920 18921 18922 18923 18924 18925 18926 18927 18928 18929 18930 18931 18932 18933 18934 18935 18936 18937 18938 18939 18940 18941 18942 18943 18944 18945 18946 18947 18948 18949 18950 18951 18952 18953 18954 18955 18956 18957 18958 18959 18960 18961 18962 18963 18964 18965 18966 18967 18968 18969 18970 18971 18972 18973 18974 18975 18976 18977 18978 18979 18980 18981 18982 18983 18984 18985 18986 18987 18988 18989 18990 18991 18992 18993 18994 18995 18996 18997 18998 18999 19000 19001 19002 19003 19004 19005 19006 19007 19008 19009 19010 19011 19012 19013 19014 19015 19016 19017 19018 19019 19020 19021 19022 19023 19024 19025 19026 19027 19028 19029 19030 19031 19032 19033 19034 19035 19036 19037 19038 19039 19040 19041 19042 19043 19044 19045 19046 19047 19048 19049 19050 19051 19052 19053 19054 19055 19056 19057 19058 19059 19060 19061 19062 19063 19064 19065 19066 19067 19068 19069 19070 19071 19072 19073 19074 19075 19076 19077 19078 19079 19080 19081 19082 19083 19084 19085 19086 19087 19088 19089 19090 19091 19092 19093 19094 19095 19096 19097 19098 19099 19100 19101 19102 19103 19104 19105 19106 19107 19108 19109 19110 19111 19112 19113 19114 19115 19116 19117 19118 19119 19120 19121 19122 19123 19124 19125 19126 19127 19128 19129 19130 19131 19132 19133 19134 19135 19136 19137 19138 19139 19140 19141 19142 19143 19144 19145 19146 19147 19148 19149 19150 19151 19152 19153 19154 19155 19156 19157 19158 19159 19160 19161 19162 19163 19164 19165 19166 19167 19168 19169 19170 19171 19172 19173 19174 19175 19176 19177 19178 19179 19180 19181 19182 19183 19184 19185 19186 19187 19188 19189 19190 19191 19192 19193 19194 19195 19196 19197 19198 19199 19200 19201 19202 19203 19204 19205 19206 19207 19208 19209 19210 19211 19212 19213 19214 19215 19216 19217 19218 19219 19220 19221 19222 19223 19224 19225 19226 19227 19228 19229 19230 19231 19232 19233 19234 19235 19236 19237 19238 19239 19240 19241 19242 19243 19244 19245 19246 19247 19248 19249 19250 19251 19252 19253 19254 19255 19256 19257 19258 19259 19260 19261 19262 19263 19264 19265 19266 19267 19268 19269 19270 19271 19272 19273 19274 19275 19276 19277 19278 19279 19280 19281 19282 19283 19284 19285 19286 19287 19288 19289 19290 19291 19292 19293 19294 19295 19296 19297 19298 19299 19300 19301 19302 19303 19304 19305 19306 19307 19308 19309 19310 19311 19312 19313 19314 19315 19316 19317 19318 19319 19320 19321 19322 19323 19324 19325 19326 19327 19328 19329 19330 19331 19332 19333 19334 19335 19336 19337 19338 19339 19340 19341 19342 19343 19344 19345 19346 19347 19348 19349 19350 19351 19352 19353 19354 19355 19356 19357 19358 19359 19360 19361 19362 19363 19364 19365 19366 19367 19368 19369 19370 19371 19372 19373 19374 19375 19376 19377 19378 19379 19380 19381 19382 19383 19384 19385 19386 19387 19388 19389 19390 19391 19392 19393 19394 19395 19396 19397 19398 19399 19400 19401 19402 19403 19404 19405 19406 19407 19408 19409 19410 19411 19412 19413 19414 19415 19416 19417 19418 19419 19420 19421 19422 19423 19424 19425 19426 19427 19428 19429 19430 19431 19432 19433 19434 19435 19436 19437 19438 19439 19440 19441 19442 19443 19444 19445 19446 19447 19448 19449 19450 19451 19452 19453 19454 19455 19456 19457 19458 19459 19460 19461 19462 19463 19464 19465 19466 19467 19468 19469 19470 19471 19472 19473 19474 19475 19476 19477 19478 19479 19480 19481 19482 19483 19484 19485 19486 19487 19488 19489 19490 19491 19492 19493 19494 19495 19496 19497 19498 19499 19500 19501 19502 19503 19504 19505 19506 19507 19508 19509 19510 19511 19512 19513 19514 19515 19516 19517 19518 19519 19520 19521 19522 19523 19524 19525 19526 19527 19528 19529 19530 19531 19532 19533 19534 19535 19536 19537 19538 19539 19540 19541 19542 19543 19544 19545 19546 19547 19548 19549 19550 19551 19552 19553 19554 19555 19556 19557 19558 19559 19560 19561 19562 19563 19564 19565 19566 19567 19568 19569 19570 19571 19572 19573 19574 19575 19576 19577 19578 19579 19580 19581 19582 19583 19584 19585 19586 19587 19588 19589 19590 19591 19592 19593 19594 19595 19596 19597 19598 19599 19600 19601 19602 19603 19604 19605 19606 19607 19608 19609 19610 19611 19612 19613 19614 19615 19616 19617 19618 19619 19620 19621 19622 19623 19624 19625 19626 19627 19628 19629 19630 19631 19632 19633 19634 19635 19636 19637 19638 19639 19640 19641 19642 19643 19644 19645 19646 19647 19648 19649 19650 19651 19652 19653 19654 19655 19656 19657 19658 19659 19660 19661 19662 19663 19664 19665 19666 19667 19668 19669 19670 19671 19672 19673 19674 19675 19676 19677 19678 19679 19680 19681 19682 19683 19684 19685 19686 19687 19688 19689 19690 19691 19692 19693 19694 19695 19696 19697 19698 19699 19700 19701 19702 19703 19704 19705 19706 19707 19708 19709 19710 19711 19712 19713 19714 19715 19716 19717 19718 19719 19720 19721 19722 19723 19724 19725 19726 19727 19728 19729 19730 19731 19732 19733 19734 19735 19736 19737 19738 19739 19740 19741 19742 19743 19744 19745 19746 19747 19748 19749 19750 19751 19752 19753 19754 19755 19756 19757 19758 19759 19760 19761 19762 19763 19764 19765 19766 19767 19768 19769 19770 19771 19772 19773 19774 19775 19776 19777 19778 19779 19780 19781 19782 19783 19784 19785 19786 19787 19788 19789 19790 19791 19792 19793 19794 19795 19796 19797 19798 19799 19800 19801 19802 19803 19804 19805 19806 19807 19808 19809 19810 19811 19812 19813 19814 19815 19816 19817 19818 19819 19820 19821 19822 19823 19824 19825 19826 19827 19828 19829 19830 19831 19832 19833 19834 19835 19836 19837 19838 19839 19840 19841 19842 19843 19844 19845 19846 19847 19848 19849 19850 19851 19852 19853 19854 19855 19856 19857 19858 19859 19860 19861 19862 19863 19864 19865 19866 19867 19868 19869 19870 19871 19872 19873 19874 19875 19876 19877 19878 19879 19880 19881 19882 19883 19884 19885 19886 19887 19888 19889 19890 19891 19892 19893 19894 19895 19896 19897 19898 19899 19900 19901 19902 19903 19904 19905 19906 19907 19908 19909 19910 19911 19912 19913 19914 19915 19916 19917 19918 19919 19920 19921 19922 19923 19924 19925 19926 19927 19928 19929 19930 19931 19932 19933 19934 19935 19936 19937 19938 19939 19940 19941 19942 19943 19944 19945 19946 19947 19948 19949 19950 19951 19952 19953 19954 19955 19956 19957 19958 19959 19960 19961 19962 19963 19964 19965 19966 19967 19968 19969 19970 19971 19972 19973 19974 19975 19976 19977 19978 19979 19980 19981 19982 19983 19984 19985 19986 19987 19988 19989 19990 19991 19992 19993 19994 19995 19996 19997 19998 19999 20000 20001 20002 20003 20004 20005 20006 20007 20008 20009 20010 20011 20012 20013 20014 20015 20016 20017 20018 20019 20020 20021 20022 20023 20024 20025 20026 20027 20028 20029 20030 20031 20032 20033 20034 20035 20036 20037 20038 20039 20040 20041 20042 20043 20044 20045 20046 20047 20048 20049 20050 20051 20052 20053 20054 20055 20056 20057 20058 20059 20060 20061 20062 20063 20064 20065 20066 20067 20068 20069 20070 20071 20072 20073 20074 20075 20076 20077 20078 20079 20080 20081 20082 20083 20084 20085 20086 20087 20088 20089 20090 20091 20092 20093 20094 20095 20096 20097 20098 20099 20100 20101 20102 20103 20104 20105 20106 20107 20108 20109 20110 20111 20112 20113 20114 20115 20116 20117 20118 20119 20120 20121 20122 20123 20124 20125 20126 20127 20128 20129 20130 20131 20132 20133 20134 20135 20136 20137 20138 20139 20140 20141 20142 20143 20144 20145 20146 20147 20148 20149 20150 20151 20152 20153 20154 20155 20156 20157 20158 20159 20160 20161 20162 20163 20164 20165 20166 20167 20168 20169 20170 20171 20172 20173 20174 20175 20176 20177 20178 20179 20180 20181 20182 20183 20184 20185 20186 20187 20188 20189 20190 20191 20192 20193 20194 20195 20196 20197 20198 20199 20200 20201 20202 20203 20204 20205 20206 20207 20208 20209 20210 20211 20212 20213 20214 20215 20216 20217 20218 20219 20220 20221 20222 20223 20224 20225 20226 20227 20228 20229 20230 20231 20232 20233 20234 20235 20236 20237 20238 20239 20240 20241 20242 20243 20244 20245 20246 20247 20248 20249 20250 20251 20252 20253 20254 20255 20256 20257 20258 20259 20260 20261 20262 20263 20264 20265 20266 20267 20268 20269 20270 20271 20272 20273 20274 20275 20276 20277 20278 20279 20280 20281 20282 20283 20284 20285 20286 20287 20288 20289 20290 20291 20292 20293 20294 20295 20296 20297 20298 20299 20300 20301 20302 20303 20304 20305 20306 20307 20308 20309 20310 20311 20312 20313 20314 20315 20316 20317 20318 20319 20320 20321 20322 20323 20324 20325 20326 20327 20328 20329 20330 20331 20332 20333 20334 20335 20336 20337 20338 20339 20340 20341 20342 20343 20344 20345 20346 20347 20348 20349 20350 20351 20352 20353 20354 20355 20356 20357 20358 20359 20360 20361 20362 20363 20364 20365 20366 20367 20368 20369 20370 20371 20372 20373 20374 20375 20376 20377 20378 20379 20380 20381 20382 20383 20384 20385 20386 20387 20388 20389 20390 20391 20392 20393 20394 20395 20396 20397 20398 20399 20400 20401 20402 20403 20404 20405 20406 20407 20408 20409 20410 20411 20412 20413 20414 20415 20416 20417 20418 20419 20420 20421 20422 20423 20424 20425 20426 20427 20428 20429 20430 20431 20432 20433 20434 20435 20436 20437 20438 20439 20440 20441 20442 20443 20444 20445 20446 20447 20448 20449 20450 20451 20452 20453 20454 20455 20456 20457 20458 20459 20460 20461 20462 20463 20464 20465 20466 20467 20468 20469 20470 20471 20472 20473 20474 20475 20476 20477 20478 20479 20480 20481 20482 20483 20484 20485 20486 20487 20488 20489 20490 20491 20492 20493 20494 20495 20496 20497 20498 20499 20500 20501 20502 20503 20504 20505 20506 20507 20508 20509 20510 20511 20512 20513 20514 20515 20516 20517 20518 20519 20520 20521 20522 20523 20524 20525 20526 20527 20528 20529 20530 20531 20532 20533 20534 20535 20536 20537 20538 20539 20540 20541 20542 20543 20544 20545 20546 20547 20548 20549 20550 20551 20552 20553 20554 20555 20556 20557 20558 20559 20560 20561 20562 20563 20564 20565 20566 20567 20568 20569 20570 20571 20572 20573 20574 20575 20576 20577 20578 20579 20580 20581 20582 20583 20584 20585 20586 20587 20588 20589 20590 20591 20592 20593 20594 20595 20596 20597 20598 20599 20600 20601 20602 20603 20604 20605 20606 20607 20608 20609 20610 20611 20612 20613 20614 20615 20616 20617 20618 20619 20620 20621 20622 20623 20624 20625 20626 20627 20628 20629 20630 20631 20632 20633 20634 20635 20636 20637 20638 20639 20640 20641 20642 20643 20644 20645 20646 20647 20648 20649 20650 20651 20652 20653 20654 20655 20656 20657 20658 20659 20660 20661 20662 20663 20664 20665 20666 20667 20668 20669 20670 20671 20672 20673 20674 20675 20676 20677 20678 20679 20680 20681 20682 20683 20684 20685 20686 20687 20688 20689 20690 20691 20692 20693 20694 20695 20696 20697 20698 20699 20700 20701 20702 20703 20704 20705 20706 20707 20708 20709 20710 20711 20712 20713 20714 20715 20716 20717 20718 20719 20720 20721 20722 20723 20724 20725 20726 20727 20728 20729 20730 20731 20732 20733 20734 20735 20736 20737 20738 20739 20740 20741 20742 20743 20744 20745 20746 20747 20748 20749 20750 20751 20752 20753 20754 20755 20756 20757 20758 20759 20760 20761 20762 20763 20764 20765 20766 20767 20768 20769 20770 20771 20772 20773 20774 20775 20776 20777 20778 20779 20780 20781 20782 20783 20784 20785 20786 20787 20788 20789 20790 20791 20792 20793 20794 20795 20796 20797 20798 20799 20800 20801 20802 20803 20804 20805 20806 20807 20808 20809 20810 20811 20812 20813 20814 20815 20816 20817 20818 20819 20820 20821 20822 20823 20824 20825 20826 20827 20828 20829 20830 20831 20832 20833 20834 20835 20836 20837 20838 20839 20840 20841 20842 20843 20844 20845 20846 20847 20848 20849 20850 20851 20852 20853 20854 20855 20856 20857 20858 20859 20860 20861 20862 20863 20864 20865 20866 20867 20868 20869 20870 20871 20872 20873 20874 20875 20876 20877 20878 20879 20880 20881 20882 20883 20884 20885 20886 20887 20888 20889 20890 20891 20892 20893 20894 20895 20896 20897 20898 20899 20900 20901 20902 20903 20904 20905 20906 20907 20908 20909 20910 20911 20912 20913 20914 20915 20916 20917 20918 20919 20920 20921 20922 20923 20924 20925 20926 20927 20928 20929 20930 20931 20932 20933 20934 20935 20936 20937 20938 20939 20940 20941 20942 20943 20944 20945 20946 20947 20948 20949 20950 20951 20952 20953 20954 20955 20956 20957 20958 20959 20960 20961 20962 20963 20964 20965 20966 20967 20968 20969 20970 20971 20972 20973 20974 20975 20976 20977 20978 20979 20980 20981 20982 20983 20984 20985 20986 20987 20988 20989 20990 20991 20992 20993 20994 20995 20996 20997 20998 20999 21000 21001 21002 21003 21004 21005 21006 21007 21008 21009 21010 21011 21012 21013 21014 21015 21016 21017 21018 21019 21020 21021 21022 21023 21024 21025 21026 21027 21028 21029 21030 21031 21032 21033 21034 21035 21036 21037 21038 21039 21040 21041 21042 21043 21044 21045 21046 21047 21048 21049 21050 21051 21052 21053 21054 21055 21056 21057 21058 21059 21060 21061 21062 21063 21064 21065 21066 21067 21068 21069 21070 21071 21072 21073 21074 21075 21076 21077 21078 21079 21080 21081 21082 21083 21084 21085 21086 21087 21088 21089 21090 21091 21092 21093 21094 21095 21096 21097 21098 21099 21100 21101 21102 21103 21104 21105 21106 21107 21108 21109 21110 21111 21112 21113 21114 21115 21116 21117 21118 21119 21120 21121 21122 21123 21124 21125 21126 21127 21128 21129 21130 21131 21132 21133 21134 21135 21136 21137 21138 21139 21140 21141 21142 21143 21144 21145 21146 21147 21148 21149 21150 21151 21152 21153 21154 21155 21156 21157 21158 21159 21160 21161 21162 21163 21164 21165 21166 21167 21168 21169 21170 21171 21172 21173 21174 21175 21176 21177 21178 21179 21180 21181 21182 21183 21184 21185 21186 21187 21188 21189 21190 21191 21192 21193 21194 21195 21196 21197 21198 21199 21200 21201 21202 21203 21204 21205 21206 21207 21208 21209 21210 21211 21212 21213 21214 21215 21216 21217 21218 21219 21220 21221 21222 21223 21224 21225 21226 21227 21228 21229 21230 21231 21232 21233 21234 21235 21236 21237 21238 21239 21240 21241 21242 21243 21244 21245 21246 21247 21248 21249 21250 21251 21252 21253 21254 21255 21256 21257 21258 21259 21260 21261 21262 21263 21264 21265 21266 21267 21268 21269 21270 21271 21272 21273 21274 21275 21276 21277 21278 21279 21280 21281 21282 21283 21284 21285 21286 21287 21288 21289 21290 21291 21292 21293 21294 21295 21296 21297 21298 21299 21300 21301 21302 21303 21304 21305 21306 21307 21308 21309 21310 21311 21312 21313 21314 21315 21316 21317 21318 21319 21320 21321 21322 21323 21324 21325 21326 21327 21328 21329 21330 21331 21332 21333 21334 21335 21336 21337 21338 21339 21340 21341 21342 21343 21344 21345 21346 21347 21348 21349 21350 21351 21352 21353 21354 21355 21356 21357 21358 21359 21360 21361 21362 21363 21364 21365 21366 21367 21368 21369 21370 21371 21372 21373 21374 21375 21376 21377 21378 21379 21380 21381 21382 21383 21384 21385 21386 21387 21388 21389 21390 21391 21392 21393 21394 21395 21396 21397 21398 21399 21400 21401 21402 21403 21404 21405 21406 21407 21408 21409 21410 21411 21412 21413 21414 21415 21416 21417 21418 21419 21420 21421 21422 21423 21424 21425 21426 21427 21428 21429 21430 21431 21432 21433 21434 21435 21436 21437 21438 21439 21440 21441 21442 21443 21444 21445 21446 21447 21448 21449 21450 21451 21452 21453 21454 21455 21456 21457 21458 21459 21460 21461 21462 21463 21464 21465 21466 21467 21468 21469 21470 21471 21472 21473 21474 21475 21476 21477 21478 21479 21480 21481 21482 21483 21484 21485 21486 21487 21488 21489 21490 21491 21492 21493 21494 21495 21496 21497 21498 21499 21500 21501 21502 21503 21504 21505 21506 21507 21508 21509 21510 21511 21512 21513 21514 21515 21516 21517 21518 21519 21520 21521 21522 21523 21524 21525 21526 21527 21528 21529 21530 21531 21532 21533 21534 21535 21536 21537 21538 21539 21540 21541 21542 21543 21544 21545 21546 21547 21548 21549 21550 21551 21552 21553 21554 21555 21556 21557 21558 21559 21560 21561 21562 21563 21564 21565 21566 21567 21568 21569 21570 21571 21572 21573 21574 21575 21576 21577 21578 21579 21580 21581 21582 21583 21584 21585 21586 21587 21588 21589 21590 21591 21592 21593 21594 21595 21596 21597 21598 21599 21600 21601 21602 21603 21604 21605 21606 21607 21608 21609 21610 21611 21612 21613 21614 21615 21616 21617 21618 21619 21620 21621 21622 21623 21624 21625 21626 21627 21628 21629 21630 21631 21632 21633 21634 21635 21636 21637 21638 21639 21640 21641 21642 21643 21644 21645 21646 21647 21648 21649 21650 21651 21652 21653 21654 21655 21656 21657 21658 21659 21660 21661 21662 21663 21664 21665 21666 21667 21668 21669 21670 21671 21672 21673 21674 21675 21676 21677 21678 21679 21680 21681 21682 21683 21684 21685 21686 21687 21688 21689 21690 21691 21692 21693 21694 21695 21696 21697 21698 21699 21700 21701 21702 21703 21704 21705 21706 21707 21708 21709 21710 21711 21712 21713 21714 21715 21716 21717 21718 21719 21720 21721 21722 21723 21724 21725 21726 21727 21728 21729 21730 21731 21732 21733 21734 21735 21736 21737 21738 21739 21740 21741 21742 21743 21744 21745 21746 21747 21748 21749 21750 21751 21752 21753 21754 21755 21756 21757 21758 21759 21760 21761 21762 21763 21764 21765 21766 21767 21768 21769 21770 21771 21772 21773 21774 21775 21776 21777 21778 21779 21780 21781 21782 21783 21784 21785 21786 21787 21788 21789 21790 21791 21792 21793 21794 21795 21796 21797 21798 21799 21800 21801 21802 21803 21804 21805 21806 21807 21808 21809 21810 21811 21812 21813 21814 21815 21816 21817 21818 21819 21820 21821 21822 21823 21824 21825 21826 21827 21828 21829 21830 21831 21832 21833 21834 21835 21836 21837 21838 21839 21840 21841 21842 21843 21844 21845 21846 21847 21848 21849 21850 21851 21852 21853 21854 21855 21856 21857 21858 21859 21860 21861 21862 21863 21864 21865 21866 21867 21868 21869 21870 21871 21872 21873 21874 21875 21876 21877 21878 21879 21880 21881 21882 21883 21884 21885 21886 21887 21888 21889 21890 21891 21892 21893 21894 21895 21896 21897 21898 21899 21900 21901 21902 21903 21904 21905 21906 21907 21908 21909 21910 21911 21912 21913 21914 21915 21916 21917 21918 21919 21920 21921 21922 21923 21924 21925 21926 21927 21928 21929 21930 21931 21932 21933 21934 21935 21936 21937 21938 21939 21940 21941 21942 21943 21944 21945 21946 21947 21948 21949 21950 21951 21952 21953 21954 21955 21956 21957 21958 21959 21960 21961 21962 21963 21964 21965 21966 21967 21968 21969 21970 21971 21972 21973 21974 21975 21976 21977 21978 21979 21980 21981 21982 21983 21984 21985 21986 21987 21988 21989 21990 21991 21992 21993 21994 21995 21996 21997 21998 21999 22000 22001 22002 22003 22004 22005 22006 22007 22008 22009 22010 22011 22012 22013 22014 22015 22016 22017 22018 22019 22020 22021 22022 22023 22024 22025 22026 22027 22028 22029 22030 22031 22032 22033 22034 22035 22036 22037 22038 22039 22040 22041 22042 22043 22044 22045 22046 22047 22048 22049 22050 22051 22052 22053 22054 22055 22056 22057 22058 22059 22060 22061 22062 22063 22064 22065 22066 22067 22068 22069 22070 22071 22072 22073 22074 22075 22076 22077 22078 22079 22080 22081 22082 22083 22084 22085 22086 22087 22088 22089 22090 22091 22092 22093 22094 22095 22096 22097 22098 22099 22100 22101 22102 22103 22104 22105 22106 22107 22108 22109 22110 22111 22112 22113 22114 22115 22116 22117 22118 22119 22120 22121 22122 22123 22124 22125 22126 22127 22128 22129 22130 22131 22132 22133 22134 22135 22136 22137 22138 22139 22140 22141 22142 22143 22144 22145 22146 22147 22148 22149 22150 22151 22152 22153 22154 22155 22156 22157 22158 22159 22160 22161 22162 22163 22164 22165 22166 22167 22168 22169 22170 22171 22172 22173 22174 22175 22176 22177 22178 22179 22180 22181 22182 22183 22184 22185 22186 22187 22188 22189 22190 22191 22192 22193 22194 22195 22196 22197 22198 22199 22200 22201 22202 22203 22204 22205 22206 22207 22208 22209 22210 22211 22212 22213 22214 22215 22216 22217 22218 22219 22220 22221 22222 22223 22224 22225 22226 22227 22228 22229 22230 22231 22232 22233 22234 22235 22236 22237 22238 22239 22240 22241 22242 22243 22244 22245 22246 22247 22248 22249 22250 22251 22252 22253 22254 22255 22256 22257 22258 22259 22260 22261 22262 22263 22264 22265 22266 22267 22268 22269 22270 22271 22272 22273 22274 22275 22276 22277 22278 22279 22280 22281 22282 22283 22284 22285 22286 22287 22288 22289 22290 22291 22292 22293 22294 22295 22296 22297 22298 22299 22300 22301 22302 22303 22304 22305 22306 22307 22308 22309 22310 22311 22312 22313 22314 22315 22316 22317 22318 22319 22320 22321 22322 22323 22324 22325 22326 22327 22328 22329 22330 22331 22332 22333 22334 22335 22336 22337 22338 22339 22340 22341 22342 22343 22344 22345 22346 22347 22348 22349 22350 22351 22352 22353 22354 22355 22356 22357 22358 22359 22360 22361 22362 22363 22364 22365 22366 22367 22368 22369 22370 22371 22372 22373 22374 22375 22376 22377 22378 22379 22380 22381 22382 22383 22384 22385 22386 22387 22388 22389 22390 22391 22392 22393 22394 22395 22396 22397 22398 22399 22400 22401 22402 22403 22404 22405 22406 22407 22408 22409 22410 22411 22412 22413 22414 22415 22416 22417 22418 22419 22420 22421 22422 22423 22424 22425 22426 22427 22428 22429 22430 22431 22432 22433 22434 22435 22436 22437 22438 22439 22440 22441 22442 22443 22444 22445 22446 22447 22448 22449 22450 22451 22452 22453 22454 22455 22456 22457 22458 22459 22460 22461 22462 22463 22464 22465 22466 22467 22468 22469 22470 22471 22472 22473 22474 22475 22476 22477 22478 22479 22480 22481 22482 22483 22484 22485 22486 22487 22488 22489 22490 22491 22492 22493 22494 22495 22496 22497 22498 22499 22500 22501 22502 22503 22504 22505 22506 22507 22508 22509 22510 22511 22512 22513 22514 22515 22516 22517 22518 22519 22520 22521 22522 22523 22524 22525 22526 22527 22528 22529 22530 22531 22532 22533 22534 22535 22536 22537 22538 22539 22540 22541 22542 22543 22544 22545 22546 22547 22548 22549 22550 22551 22552 22553 22554 22555 22556 22557 22558 22559 22560 22561 22562 22563 22564 22565 22566 22567 22568 22569 22570 22571 22572 22573 22574 22575 22576 22577 22578 22579 22580 22581 22582 22583 22584 22585 22586 22587 22588 22589 22590 22591 22592 22593 22594 22595 22596 22597 22598 22599 22600 22601 22602 22603 22604 22605 22606 22607 22608 22609 22610 22611 22612 22613 22614 22615 22616 22617 22618 22619 22620 22621 22622 22623 22624 22625 22626 22627 22628 22629 22630 22631 22632 22633 22634 22635 22636 22637 22638 22639 22640 22641 22642 22643 22644 22645 22646 22647 22648 22649 22650 22651 22652 22653 22654 22655 22656 22657 22658 22659 22660 22661 22662 22663 22664 22665 22666 22667 22668 22669 22670 22671 22672 22673 22674 22675 22676 22677 22678 22679 22680 22681 22682 22683 22684 22685 22686 22687 22688 22689 22690 22691 22692 22693 22694 22695 22696 22697 22698 22699 22700 22701 22702 22703 22704 22705 22706 22707 22708 22709 22710 22711 22712 22713 22714 22715 22716 22717 22718 22719 22720 22721 22722 22723 22724 22725 22726 22727 22728 22729 22730 22731 22732 22733 22734 22735 22736 22737 22738 22739 22740 22741 22742 22743 22744 22745 22746 22747 22748 22749 22750 22751 22752 22753 22754 22755 22756 22757 22758 22759 22760 22761 22762 22763 22764 22765 22766 22767 22768 22769 22770 22771 22772 22773 22774 22775 22776 22777 22778 22779 22780 22781 22782 22783 22784 22785 22786 22787 22788 22789 22790 22791 22792 22793 22794 22795 22796 22797 22798 22799 22800 22801 22802 22803 22804 22805 22806 22807 22808 22809 22810 22811 22812 22813 22814 22815 22816 22817 22818 22819 22820 22821 22822 22823 22824 22825 22826 22827 22828 22829 22830 22831 22832 22833 22834 22835 22836 22837 22838 22839 22840 22841 22842 22843 22844 22845 22846 22847 22848 22849 22850 22851 22852 22853 22854 22855 22856 22857 22858 22859 22860 22861 22862 22863 22864 22865 22866 22867 22868 22869 22870 22871 22872 22873 22874 22875 22876 22877 22878 22879 22880 22881 22882 22883 22884 22885 22886 22887 22888 22889 22890 22891 22892 22893 22894 22895 22896 22897 22898 22899 22900 22901 22902 22903 22904 22905 22906 22907 22908 22909 22910 22911 22912 22913 22914 22915 22916 22917 22918 22919 22920 22921 22922 22923 22924 22925 22926 22927 22928 22929 22930 22931 22932 22933 22934 22935 22936 22937 22938 22939 22940 22941 22942 22943 22944 22945 22946 22947 22948 22949 22950 22951 22952 22953 22954 22955 22956 22957 22958 22959 22960 22961 22962 22963 22964 22965 22966 22967 22968 22969 22970 22971 22972 22973 22974 22975 22976 22977 22978 22979 22980 22981 22982 22983 22984 22985 22986 22987 22988 22989 22990 22991 22992 22993 22994 22995 22996 22997 22998 22999 23000 23001 23002 23003 23004 23005 23006 23007 23008 23009 23010 23011 23012 23013 23014 23015 23016 23017 23018 23019 23020 23021 23022 23023 23024 23025 23026 23027 23028 23029 23030 23031 23032 23033 23034 23035 23036 23037 23038 23039 23040 23041 23042 23043 23044 23045 23046 23047 23048 23049 23050 23051 23052 23053 23054 23055 23056 23057 23058 23059 23060 23061 23062 23063 23064 23065 23066 23067 23068 23069 23070 23071 23072 23073 23074 23075 23076 23077 23078 23079 23080 23081 23082 23083 23084 23085 23086 23087 23088 23089 23090 23091 23092 23093 23094 23095 23096 23097 23098 23099 23100 23101 23102 23103 23104 23105 23106 23107 23108 23109 23110 23111 23112 23113 23114 23115 23116 23117 23118 23119 23120 23121 23122 23123 23124 23125 23126 23127 23128 23129 23130 23131 23132 23133 23134 23135 23136 23137 23138 23139 23140 23141 23142 23143 23144 23145 23146 23147 23148 23149 23150 23151 23152 23153 23154 23155 23156 23157 23158 23159 23160 23161 23162 23163 23164 23165 23166 23167 23168 23169 23170 23171 23172 23173 23174 23175 23176 23177 23178 23179 23180 23181 23182 23183 23184 23185 23186 23187 23188 23189 23190 23191 23192 23193 23194 23195 23196 23197 23198 23199 23200 23201 23202 23203 23204 23205 23206 23207 23208 23209 23210 23211 23212 23213 23214 23215 23216 23217 23218 23219 23220 23221 23222 23223 23224 23225 23226 23227 23228 23229 23230 23231 23232 23233 23234 23235 23236 23237 23238 23239 23240 23241 23242 23243 23244 23245 23246 23247 23248 23249 23250 23251 23252 23253 23254 23255 23256 23257 23258 23259 23260 23261 23262 23263 23264 23265 23266 23267 23268 23269 23270 23271 23272 23273 23274 23275 23276 23277 23278 23279 23280 23281 23282 23283 23284 23285 23286 23287 23288 23289 23290 23291 23292 23293 23294 23295 23296 23297 23298 23299 23300 23301 23302 23303 23304 23305 23306 23307 23308 23309 23310 23311 23312 23313 23314 23315 23316 23317 23318 23319 23320 23321 23322 23323 23324 23325 23326 23327 23328 23329 23330 23331 23332 23333 23334 23335 23336 23337 23338 23339 23340 23341 23342 23343 23344 23345 23346 23347 23348 23349 23350 23351 23352 23353 23354 23355 23356 23357 23358 23359 23360 23361 23362 23363 23364 23365 23366 23367 23368 23369 23370 23371 23372 23373 23374 23375 23376 23377 23378 23379 23380 23381 23382 23383 23384 23385 23386 23387 23388 23389 23390 23391 23392 23393 23394 23395 23396 23397 23398 23399 23400 23401 23402 23403 23404 23405 23406 23407 23408 23409 23410 23411 23412 23413 23414 23415 23416 23417 23418 23419 23420 23421 23422 23423 23424 23425 23426 23427 23428 23429 23430 23431 23432 23433 23434 23435 23436 23437 23438 23439 23440 23441 23442 23443 23444 23445 23446 23447 23448 23449 23450 23451 23452 23453 23454 23455 23456 23457 23458 23459 23460 23461 23462 23463 23464 23465 23466 23467 23468 23469 23470 23471 23472 23473 23474 23475 23476 23477 23478 23479 23480 23481 23482 23483 23484 23485 23486 23487 23488 23489 23490 23491 23492 23493 23494 23495 23496 23497 23498 23499 23500 23501 23502 23503 23504 23505 23506 23507 23508 23509 23510 23511 23512 23513 23514 23515 23516 23517 23518 23519 23520 23521 23522 23523 23524 23525 23526 23527 23528 23529 23530 23531 23532 23533 23534 23535 23536 23537 23538 23539 23540 23541 23542 23543 23544 23545 23546 23547 23548 23549 23550 23551 23552 23553 23554 23555 23556 23557 23558 23559 23560 23561 23562 23563 23564 23565 23566 23567 23568 23569 23570 23571 23572 23573 23574 23575 23576 23577 23578 23579 23580 23581 23582 23583 23584 23585 23586 23587 23588 23589 23590 23591 23592 23593 23594 23595 23596 23597 23598 23599 23600 23601 23602 23603 23604 23605 23606 23607 23608 23609 23610 23611 23612 23613 23614 23615 23616 23617 23618 23619 23620 23621 23622 23623 23624 23625 23626 23627 23628 23629 23630 23631 23632 23633 23634 23635 23636 23637 23638 23639 23640 23641 23642 23643 23644 23645 23646 23647 23648 23649 23650 23651 23652 23653 23654 23655 23656 23657 23658 23659 23660 23661 23662 23663 23664 23665 23666 23667 23668 23669 23670 23671 23672 23673 23674 23675 23676 23677 23678 23679 23680 23681 23682 23683 23684 23685 23686 23687 23688 23689 23690 23691 23692 23693 23694 23695 23696 23697 23698 23699 23700 23701 23702 23703 23704 23705 23706 23707 23708 23709 23710 23711 23712 23713 23714 23715 23716 23717 23718 23719 23720 23721 23722 23723 23724 23725 23726 23727 23728 23729 23730 23731 23732 23733 23734 23735 23736 23737 23738 23739 23740 23741 23742 23743 23744 23745 23746 23747 23748 23749 23750 23751 23752 23753 23754 23755 23756 23757 23758 23759 23760 23761 23762 23763 23764 23765 23766 23767 23768 23769 23770 23771 23772 23773 23774 23775 23776 23777 23778 23779 23780 23781 23782 23783 23784 23785 23786 23787 23788 23789 23790 23791 23792 23793 23794 23795 23796 23797 23798 23799 23800 23801 23802 23803 23804 23805 23806 23807 23808 23809 23810 23811 23812 23813 23814 23815 23816 23817 23818 23819 23820 23821 23822 23823 23824 23825 23826 23827 23828 23829 23830 23831 23832 23833 23834 23835 23836 23837 23838 23839 23840 23841 23842 23843 23844 23845 23846 23847 23848 23849 23850 23851 23852 23853 23854 23855 23856 23857 23858 23859 23860 23861 23862 23863 23864 23865 23866 23867 23868 23869 23870 23871 23872 23873 23874 23875 23876 23877 23878 23879 23880 23881 23882 23883 23884 23885 23886 23887 23888 23889 23890 23891 23892 23893 23894 23895 23896 23897 23898 23899 23900 23901 23902 23903 23904 23905 23906 23907 23908 23909 23910 23911 23912 23913 23914 23915 23916 23917 23918 23919 23920 23921 23922 23923 23924 23925 23926 23927 23928 23929 23930 23931 23932 23933 23934 23935 23936 23937 23938 23939 23940 23941 23942 23943 23944 23945 23946 23947 23948 23949 23950 23951 23952 23953 23954 23955 23956 23957 23958 23959 23960 23961 23962 23963 23964 23965 23966 23967 23968 23969 23970 23971 23972 23973 23974 23975 23976 23977 23978 23979 23980 23981 23982 23983 23984 23985 23986 23987 23988 23989 23990 23991 23992 23993 23994 23995 23996 23997 23998 23999 24000 24001 24002 24003 24004 24005 24006 24007 24008 24009 24010 24011 24012 24013 24014 24015 24016 24017 24018 24019 24020 24021 24022 24023 24024 24025 24026 24027 24028 24029 24030 24031 24032 24033 24034 24035 24036 24037 24038 24039 24040 24041 24042 24043 24044 24045 24046 24047 24048 24049 24050 24051 24052 24053 24054 24055 24056 24057 24058 24059 24060 24061 24062 24063 24064 24065 24066 24067 24068 24069 24070 24071 24072 24073 24074 24075 24076 24077 24078 24079 24080 24081 24082 24083 24084 24085 24086 24087 24088 24089 24090 24091 24092 24093 24094 24095 24096 24097 24098 24099 24100 24101 24102 24103 24104 24105 24106 24107 24108 24109 24110 24111 24112 24113 24114 24115 24116 24117 24118 24119 24120 24121 24122 24123 24124 24125 24126 24127 24128 24129 24130 24131 24132 24133 24134 24135 24136 24137 24138 24139 24140 24141 24142 24143 24144 24145 24146 24147 24148 24149 24150 24151 24152 24153 24154 24155 24156 24157 24158 24159 24160 24161 24162 24163 24164 24165 24166 24167 24168 24169 24170 24171 24172 24173 24174 24175 24176 24177 24178 24179 24180 24181 24182 24183 24184 24185 24186 24187 24188 24189 24190 24191 24192 24193 24194 24195 24196 24197 24198 24199 24200 24201 24202 24203 24204 24205 24206 24207 24208 24209 24210 24211 24212 24213 24214 24215 24216 24217 24218 24219 24220 24221 24222 24223 24224 24225 24226 24227 24228 24229 24230 24231 24232 24233 24234 24235 24236 24237 24238 24239 24240 24241 24242 24243 24244 24245 24246 24247 24248 24249 24250 24251 24252 24253 24254 24255 24256 24257 24258 24259 24260 24261 24262 24263 24264 24265 24266 24267 24268 24269 24270 24271 24272 24273 24274 24275 24276 24277 24278 24279 24280 24281 24282 24283 24284 24285 24286 24287 24288 24289 24290 24291 24292 24293 24294 24295 24296 24297 24298 24299 24300 24301 24302 24303 24304 24305 24306 24307 24308 24309 24310 24311 24312 24313 24314 24315 24316 24317 24318 24319 24320 24321 24322 24323 24324 24325 24326 24327 24328 24329 24330 24331 24332 24333 24334 24335 24336 24337 24338 24339 24340 24341 24342 24343 24344 24345 24346 24347 24348 24349 24350 24351 24352 24353 24354 24355 24356 24357 24358 24359 24360 24361 24362 24363 24364 24365 24366 24367 24368 24369 24370 24371 24372 24373 24374 24375 24376 24377 24378 24379 24380 24381 24382 24383 24384 24385 24386 24387 24388 24389 24390 24391 24392 24393 24394 24395 24396 24397 24398 24399 24400 24401 24402 24403 24404 24405 24406 24407 24408 24409 24410 24411 24412 24413 24414 24415 24416 24417 24418 24419 24420 24421 24422 24423 24424 24425 24426 24427 24428 24429 24430 24431 24432 24433 24434 24435 24436 24437 24438 24439 24440 24441 24442 24443 24444 24445 24446 24447 24448 24449 24450 24451 24452 24453 24454 24455 24456 24457 24458 24459 24460 24461 24462 24463 24464 24465 24466 24467 24468 24469 24470 24471 24472 24473 24474 24475 24476 24477 24478 24479 24480 24481 24482 24483 24484 24485 24486 24487 24488 24489 24490 24491 24492 24493 24494 24495 24496 24497 24498 24499 24500 24501 24502 24503 24504 24505 24506 24507 24508 24509 24510 24511 24512 24513 24514 24515 24516 24517 24518 24519 24520 24521 24522 24523 24524 24525 24526 24527 24528 24529 24530 24531 24532 24533 24534 24535 24536 24537 24538 24539 24540 24541 24542 24543 24544 24545 24546 24547 24548 24549 24550 24551 24552 24553 24554 24555 24556 24557 24558 24559 24560 24561 24562 24563 24564 24565 24566 24567 24568 24569 24570 24571 24572 24573 24574 24575 24576 24577 24578 24579 24580 24581 24582 24583 24584 24585 24586 24587 24588 24589 24590 24591 24592 24593 24594 24595 24596 24597 24598 24599 24600 24601 24602 24603 24604 24605 24606 24607 24608 24609 24610 24611 24612 24613 24614 24615 24616 24617 24618 24619 24620 24621 24622 24623 24624 24625 24626 24627 24628 24629 24630 24631 24632 24633 24634 24635 24636 24637 24638 24639 24640 24641 24642 24643 24644 24645 24646 24647 24648 24649 24650 24651 24652 24653 24654 24655 24656 24657 24658 24659 24660 24661 24662 24663 24664 24665 24666 24667 24668 24669 24670 24671 24672 24673 24674 24675 24676 24677 24678 24679 24680 24681 24682 24683 24684 24685 24686 24687 24688 24689 24690 24691 24692 24693 24694 24695 24696 24697 24698 24699 24700 24701 24702 24703 24704 24705 24706 24707 24708 24709 24710 24711 24712 24713 24714 24715 24716 24717 24718 24719 24720 24721 24722 24723 24724 24725 24726 24727 24728 24729 24730 24731 24732 24733 24734 24735 24736 24737 24738 24739 24740 24741 24742 24743 24744 24745 24746 24747 24748 24749 24750 24751 24752 24753 24754 24755 24756 24757 24758 24759 24760 24761 24762 24763 24764 24765 24766 24767 24768 24769 24770 24771 24772 24773 24774 24775 24776 24777 24778 24779 24780 24781 24782 24783 24784 24785 24786 24787 24788 24789 24790 24791 24792 24793 24794 24795 24796 24797 24798 24799 24800 24801 24802 24803 24804 24805 24806 24807 24808 24809 24810 24811 24812 24813 24814 24815 24816 24817 24818 24819 24820 24821 24822 24823 24824 24825 24826 24827 24828 24829 24830 24831 24832 24833 24834 24835 24836 24837 24838 24839 24840 24841 24842 24843 24844 24845 24846 24847 24848 24849 24850 24851 24852 24853 24854 24855 24856 24857 24858 24859 24860 24861 24862 24863 24864 24865 24866 24867 24868 24869 24870 24871 24872 24873 24874 24875 24876 24877 24878 24879 24880 24881 24882 24883 24884 24885 24886 24887 24888 24889 24890 24891 24892 24893 24894 24895 24896 24897 24898 24899 24900 24901 24902 24903 24904 24905 24906 24907 24908 24909 24910 24911 24912 24913 24914 24915 24916 24917 24918 24919 24920 24921 24922 24923 24924 24925 24926 24927 24928 24929 24930 24931 24932 24933 24934 24935 24936 24937 24938 24939 24940 24941 24942 24943 24944 24945 24946 24947 24948 24949 24950 24951 24952 24953 24954 24955 24956 24957 24958 24959 24960 24961 24962 24963 24964 24965 24966 24967 24968 24969 24970 24971 24972 24973 24974 24975 24976 24977 24978 24979 24980 24981 24982 24983 24984 24985 24986 24987 24988 24989 24990 24991 24992 24993 24994 24995 24996 24997 24998 24999 25000 25001 25002 25003 25004 25005 25006 25007 25008 25009 25010 25011 25012 25013 25014 25015 25016 25017 25018 25019 25020 25021 25022 25023 25024 25025 25026 25027 25028 25029 25030 25031 25032 25033 25034 25035 25036 25037 25038 25039 25040 25041 25042 25043 25044 25045 25046 25047 25048 25049 25050 25051 25052 25053 25054 25055 25056 25057 25058 25059 25060 25061 25062 25063 25064 25065 25066 25067 25068 25069 25070 25071 25072 25073 25074 25075 25076 25077 25078 25079 25080 25081 25082 25083 25084 25085 25086 25087 25088 25089 25090 25091 25092 25093 25094 25095 25096 25097 25098 25099 25100 25101 25102 25103 25104 25105 25106 25107 25108 25109 25110 25111 25112 25113 25114 25115 25116 25117 25118 25119 25120 25121 25122 25123 25124 25125 25126 25127 25128 25129 25130 25131 25132 25133 25134 25135 25136 25137 25138 25139 25140 25141 25142 25143 25144 25145 25146 25147 25148 25149 25150 25151 25152 25153 25154 25155 25156 25157 25158 25159 25160 25161 25162 25163 25164 25165 25166 25167 25168 25169 25170 25171 25172 25173 25174 25175 25176 25177 25178 25179 25180 25181 25182 25183 25184 25185 25186 25187 25188 25189 25190 25191 25192 25193 25194 25195 25196 25197 25198 25199 25200 25201 25202 25203 25204 25205 25206 25207 25208 25209 25210 25211 25212 25213 25214 25215 25216 25217 25218 25219 25220 25221 25222 25223 25224 25225 25226 25227 25228 25229 25230 25231 25232 25233 25234 25235 25236 25237 25238 25239 25240 25241 25242 25243 25244 25245 25246 25247 25248 25249 25250 25251 25252 25253 25254 25255 25256 25257 25258 25259 25260 25261 25262 25263 25264 25265 25266 25267 25268 25269 25270 25271 25272 25273 25274 25275 25276 25277 25278 25279 25280 25281 25282 25283 25284 25285 25286 25287 25288 25289 25290 25291 25292 25293 25294 25295 25296 25297 25298 25299 25300 25301 25302 25303 25304 25305 25306 25307 25308 25309 25310 25311 25312 25313 25314 25315 25316 25317 25318 25319 25320 25321 25322 25323 25324 25325 25326 25327 25328 25329 25330 25331 25332 25333 25334 25335 25336 25337 25338 25339 25340 25341 25342 25343 25344 25345 25346 25347 25348 25349 25350 25351 25352 25353 25354 25355 25356 25357 25358 25359 25360 25361 25362 25363 25364 25365 25366 25367 25368 25369 25370 25371 25372 25373 25374 25375 25376 25377 25378 25379 25380 25381 25382 25383 25384 25385 25386 25387 25388 25389 25390 25391 25392 25393 25394 25395 25396 25397 25398 25399 25400 25401 25402 25403 25404 25405 25406 25407 25408 25409 25410 25411 25412 25413 25414 25415 25416 25417 25418 25419 25420 25421 25422 25423 25424 25425 25426 25427 25428 25429 25430 25431 25432 25433 25434 25435 25436 25437 25438 25439 25440 25441 25442 25443 25444 25445 25446 25447 25448 25449 25450 25451 25452 25453 25454 25455 25456 25457 25458 25459 25460 25461 25462 25463 25464 25465 25466 25467 25468 25469 25470 25471 25472 25473 25474 25475 25476 25477 25478 25479 25480 25481 25482 25483 25484 25485 25486 25487 25488 25489 25490 25491 25492 25493 25494 25495 25496 25497 25498 25499 25500 25501 25502 25503 25504 25505 25506 25507 25508 25509 25510 25511 25512 25513 25514 25515 25516 25517 25518 25519 25520 25521 25522 25523 25524 25525 25526 25527 25528 25529 25530 25531 25532 25533 25534 25535 25536 25537 25538 25539 25540 25541 25542 25543 25544 25545 25546 25547 25548 25549 25550 25551 25552 25553 25554 25555 25556 25557 25558 25559 25560 25561 25562 25563 25564 25565 25566 25567 25568 25569 25570 25571 25572 25573 25574 25575 25576 25577 25578 25579 25580 25581 25582 25583 25584 25585 25586 25587 25588 25589 25590 25591 25592 25593 25594 25595 25596 25597 25598 25599 25600 25601 25602 25603 25604 25605 25606 25607 25608 25609 25610 25611 25612 25613 25614 25615 25616 25617 25618 25619 25620 25621 25622 25623 25624 25625 25626 25627 25628 25629 25630 25631 25632 25633 25634 25635 25636 25637 25638 25639 25640 25641 25642 25643 25644 25645 25646 25647 25648 25649 25650 25651 25652 25653 25654 25655 25656 25657 25658 25659 25660 25661 25662 25663 25664 25665 25666 25667 25668 25669 25670 25671 25672 25673 25674 25675 25676 25677 25678 25679 25680 25681 25682 25683 25684 25685 25686 25687 25688 25689 25690 25691 25692 25693 25694 25695 25696 25697 25698 25699 25700 25701 25702 25703 25704 25705 25706 25707 25708 25709 25710 25711 25712 25713 25714 25715 25716 25717 25718 25719 25720 25721 25722 25723 25724 25725 25726 25727 25728 25729 25730 25731 25732 25733 25734 25735 25736 25737 25738 25739 25740 25741 25742 25743 25744 25745 25746 25747 25748 25749 25750 25751 25752 25753 25754 25755 25756 25757 25758 25759 25760 25761 25762 25763 25764 25765 25766 25767 25768 25769 25770 25771 25772 25773 25774 25775 25776 25777 25778 25779 25780 25781 25782 25783 25784 25785 25786 25787 25788 25789 25790 25791 25792 25793 25794 25795 25796 25797 25798 25799 25800 25801 25802 25803 25804 25805 25806 25807 25808 25809 25810 25811 25812 25813 25814 25815 25816 25817 25818 25819 25820 25821 25822 25823 25824 25825 25826 25827 25828 25829 25830 25831 25832 25833 25834 25835 25836 25837 25838 25839 25840 25841 25842 25843 25844 25845 25846 25847 25848 25849 25850 25851 25852 25853 25854 25855 25856 25857 25858 25859 25860 25861 25862 25863 25864 25865 25866 25867 25868 25869 25870 25871 25872 25873 25874 25875 25876 25877 25878 25879 25880 25881 25882 25883 25884 25885 25886 25887 25888 25889 25890 25891 25892 25893 25894 25895 25896 25897 25898 25899 25900 25901 25902 25903 25904 25905 25906 25907 25908 25909 25910 25911 25912 25913 25914 25915 25916 25917 25918 25919 25920 25921 25922 25923 25924 25925 25926 25927 25928 25929 25930 25931 25932 25933 25934 25935 25936 25937 25938 25939 25940 25941 25942 25943 25944 25945 25946 25947 25948 25949 25950 25951 25952 25953 25954 25955 25956 25957 25958 25959 25960 25961 25962 25963 25964 25965 25966 25967 25968 25969 25970 25971 25972 25973 25974 25975 25976 25977 25978 25979 25980 25981 25982 25983 25984 25985 25986 25987 25988 25989 25990 25991 25992 25993 25994 25995 25996 25997 25998 25999 26000 26001 26002 26003 26004 26005 26006 26007 26008 26009 26010 26011 26012 26013 26014 26015 26016 26017 26018 26019 26020 26021 26022 26023 26024 26025 26026 26027 26028 26029 26030 26031 26032 26033 26034 26035 26036 26037 26038 26039 26040 26041 26042 26043 26044 26045 26046 26047 26048 26049 26050 26051 26052 26053 26054 26055 26056 26057 26058 26059 26060 26061 26062 26063 26064 26065 26066 26067 26068 26069 26070 26071 26072 26073 26074 26075 26076 26077 26078 26079 26080 26081 26082 26083 26084 26085 26086 26087 26088 26089 26090 26091 26092 26093 26094 26095 26096 26097 26098 26099 26100 26101 26102 26103 26104 26105 26106 26107 26108 26109 26110 26111 26112 26113 26114 26115 26116 26117 26118 26119 26120 26121 26122 26123 26124 26125 26126 26127 26128 26129 26130 26131 26132 26133 26134 26135 26136 26137 26138 26139 26140 26141 26142 26143 26144 26145 26146 26147 26148 26149 26150 26151 26152 26153 26154 26155 26156 26157 26158 26159 26160 26161 26162 26163 26164 26165 26166 26167 26168 26169 26170 26171 26172 26173 26174 26175 26176 26177 26178 26179 26180 26181 26182 26183 26184 26185 26186 26187 26188 26189 26190 26191 26192 26193 26194 26195 26196 26197 26198 26199 26200 26201 26202 26203 26204 26205 26206 26207 26208 26209 26210 26211 26212 26213 26214 26215 26216 26217 26218 26219 26220 26221 26222 26223 26224 26225 26226 26227 26228 26229 26230 26231 26232 26233 26234 26235 26236 26237 26238 26239 26240 26241 26242 26243 26244 26245 26246 26247 26248 26249 26250 26251 26252 26253 26254 26255 26256 26257 26258 26259 26260 26261 26262 26263 26264 26265 26266 26267 26268 26269 26270 26271 26272 26273 26274 26275 26276 26277 26278 26279 26280 26281 26282 26283 26284 26285 26286 26287 26288 26289 26290 26291 26292 26293 26294 26295 26296 26297 26298 26299 26300 26301 26302 26303 26304 26305 26306 26307 26308 26309 26310 26311 26312 26313 26314 26315 26316 26317 26318 26319 26320 26321 26322 26323 26324 26325 26326 26327 26328 26329 26330 26331 26332 26333 26334 26335 26336 26337 26338 26339 26340 26341 26342 26343 26344 26345 26346 26347 26348 26349 26350 26351 26352 26353 26354 26355 26356 26357 26358 26359 26360 26361 26362 26363 26364 26365 26366 26367 26368 26369 26370 26371 26372 26373 26374 26375 26376 26377 26378 26379 26380 26381 26382 26383 26384 26385 26386 26387 26388 26389 26390 26391 26392 26393 26394 26395 26396 26397 26398 26399 26400 26401 26402 26403 26404 26405 26406 26407 26408 26409 26410 26411 26412 26413 26414 26415 26416 26417 26418 26419 26420 26421 26422 26423 26424 26425 26426 26427 26428 26429 26430 26431 26432 26433 26434 26435 26436 26437 26438 26439 26440 26441 26442 26443 26444 26445 26446 26447 26448 26449 26450 26451 26452 26453 26454 26455 26456 26457 26458 26459 26460 26461 26462 26463 26464 26465 26466 26467 26468 26469 26470 26471 26472 26473 26474 26475 26476 26477 26478 26479 26480 26481 26482 26483 26484 26485 26486 26487 26488 26489 26490 26491 26492 26493 26494 26495 26496 26497 26498 26499 26500 26501 26502 26503 26504 26505 26506 26507 26508 26509 26510 26511 26512 26513 26514 26515 26516 26517 26518 26519 26520 26521 26522 26523 26524 26525 26526 26527 26528 26529 26530 26531 26532 26533 26534 26535 26536 26537 26538 26539 26540 26541 26542 26543 26544 26545 26546 26547 26548 26549 26550 26551 26552 26553 26554 26555 26556 26557 26558 26559 26560 26561 26562 26563 26564 26565 26566 26567 26568 26569 26570 26571 26572 26573 26574 26575 26576 26577 26578 26579 26580 26581 26582 26583 26584 26585 26586 26587 26588 26589 26590 26591 26592 26593 26594 26595 26596 26597 26598 26599 26600 26601 26602 26603 26604 26605 26606 26607 26608 26609 26610 26611 26612 26613 26614 26615 26616 26617 26618 26619 26620 26621 26622 26623 26624 26625 26626 26627 26628 26629 26630 26631 26632 26633 26634 26635 26636 26637 26638 26639 26640 26641 26642 26643 26644 26645 26646 26647 26648 26649 26650 26651 26652 26653 26654 26655 26656 26657 26658 26659 26660 26661 26662 26663 26664 26665 26666 26667 26668 26669 26670 26671 26672 26673 26674 26675 26676 26677 26678 26679 26680 26681 26682 26683 26684 26685 26686 26687 26688 26689 26690 26691 26692 26693 26694 26695 26696 26697 26698 26699 26700 26701 26702 26703 26704 26705 26706 26707 26708 26709 26710 26711 26712 26713 26714 26715 26716 26717 26718 26719 26720 26721 26722 26723 26724 26725 26726 26727 26728 26729 26730 26731 26732 26733 26734 26735 26736 26737 26738 26739 26740 26741 26742 26743 26744 26745 26746 26747 26748 26749 26750 26751 26752 26753 26754 26755 26756 26757 26758 26759 26760 26761 26762 26763 26764 26765 26766 26767 26768 26769 26770 26771 26772 26773 26774 26775 26776 26777 26778 26779 26780 26781 26782 26783 26784 26785 26786 26787 26788 26789 26790 26791 26792 26793 26794 26795 26796 26797 26798 26799 26800 26801 26802 26803 26804 26805 26806 26807 26808 26809 26810 26811 26812 26813 26814 26815 26816 26817 26818 26819 26820 26821 26822 26823 26824 26825 26826 26827 26828 26829 26830 26831 26832 26833 26834 26835 26836 26837 26838 26839 26840 26841 26842 26843 26844 26845 26846 26847 26848 26849 26850 26851 26852 26853 26854 26855 26856 26857 26858 26859 26860 26861 26862 26863 26864 26865 26866 26867 26868 26869 26870 26871 26872 26873 26874 26875 26876 26877 26878 26879 26880 26881 26882 26883 26884 26885 26886 26887 26888 26889 26890 26891 26892 26893 26894 26895 26896 26897 26898 26899 26900 26901 26902 26903 26904 26905 26906 26907 26908 26909 26910 26911 26912 26913 26914 26915 26916 26917 26918 26919 26920 26921 26922 26923 26924 26925 26926 26927 26928 26929 26930 26931 26932 26933 26934 26935 26936 26937 26938 26939 26940 26941 26942 26943 26944 26945 26946 26947 26948 26949 26950 26951 26952 26953 26954 26955 26956 26957 26958 26959 26960 26961 26962 26963 26964 26965 26966 26967 26968 26969 26970 26971 26972 26973 26974 26975 26976 26977 26978 26979 26980 26981 26982 26983 26984 26985 26986 26987 26988 26989 26990 26991 26992 26993 26994 26995 26996 26997 26998 26999 27000 27001 27002 27003 27004 27005 27006 27007 27008 27009 27010 27011 27012 27013 27014 27015 27016 27017 27018 27019 27020 27021 27022 27023 27024 27025 27026 27027 27028 27029 27030 27031 27032 27033 27034 27035 27036 27037 27038 27039 27040 27041 27042 27043 27044 27045 27046 27047 27048 27049 27050 27051 27052 27053 27054 27055 27056 27057 27058 27059 27060 27061 27062 27063 27064 27065 27066 27067 27068 27069 27070 27071 27072 27073 27074 27075 27076 27077 27078 27079 27080 27081 27082 27083 27084 27085 27086 27087 27088 27089 27090 27091 27092 27093 27094 27095 27096 27097 27098 27099 27100 27101 27102 27103 27104 27105 27106 27107 27108 27109 27110 27111 27112 27113 27114 27115 27116 27117 27118 27119 27120 27121 27122 27123 27124 27125 27126 27127 27128 27129 27130 27131 27132 27133 27134 27135 27136 27137 27138 27139 27140 27141 27142 27143 27144 27145 27146 27147 27148 27149 27150 27151 27152 27153 27154 27155 27156 27157 27158 27159 27160 27161 27162 27163 27164 27165 27166 27167 27168 27169 27170 27171 27172 27173 27174 27175 27176 27177 27178 27179 27180 27181 27182 27183 27184 27185 27186 27187 27188 27189 27190 27191 27192 27193 27194 27195 27196 27197 27198 27199 27200 27201 27202 27203 27204 27205 27206 27207 27208 27209 27210 27211 27212 27213 27214 27215 27216 27217 27218 27219 27220 27221 27222 27223 27224 27225 27226 27227 27228 27229 27230 27231 27232 27233 27234 27235 27236 27237 27238 27239 27240 27241 27242 27243 27244 27245 27246 27247 27248 27249 27250 27251 27252 27253 27254 27255 27256 27257 27258 27259 27260 27261 27262 27263 27264 27265 27266 27267 27268 27269 27270 27271 27272 27273 27274 27275 27276 27277 27278 27279 27280 27281 27282 27283 27284 27285 27286 27287 27288 27289 27290 27291 27292 27293 27294 27295 27296 27297 27298 27299 27300 27301 27302 27303 27304 27305 27306 27307 27308 27309 27310 27311 27312 27313 27314 27315 27316 27317 27318 27319 27320 27321 27322 27323 27324 27325 27326 27327 27328 27329 27330 27331 27332 27333 27334 27335 27336 27337 27338 27339 27340 27341 27342 27343 27344 27345 27346 27347 27348 27349 27350 27351 27352 27353 27354 27355 27356 27357 27358 27359 27360 27361 27362 27363 27364 27365 27366 27367 27368 27369 27370 27371 27372 27373 27374 27375 27376 27377 27378 27379 27380 27381 27382 27383 27384 27385 27386 27387 27388 27389 27390 27391 27392 27393 27394 27395 27396 27397 27398 27399 27400 27401 27402 27403 27404 27405 27406 27407 27408 27409 27410 27411 27412 27413 27414 27415 27416 27417 27418 27419 27420 27421 27422 27423 27424 27425 27426 27427 27428 27429 27430 27431 27432 27433 27434 27435 27436 27437 27438 27439 27440 27441 27442 27443 27444 27445 27446 27447 27448 27449 27450 27451 27452 27453 27454 27455 27456 27457 27458 27459 27460 27461 27462 27463 27464 27465 27466 27467 27468 27469 27470 27471 27472 27473 27474 27475 27476 27477 27478 27479 27480 27481 27482 27483 27484 27485 27486 27487 27488 27489 27490 27491 27492 27493 27494 27495 27496 27497 27498 27499 27500 27501 27502 27503 27504 27505 27506 27507 27508 27509 27510 27511 27512 27513 27514 27515 27516 27517 27518 27519 27520 27521 27522 27523 27524 27525 27526 27527 27528 27529 27530 27531 27532 27533 27534 27535 27536 27537 27538 27539 27540 27541 27542 27543 27544 27545 27546 27547 27548 27549 27550 27551 27552 27553 27554 27555 27556 27557 27558 27559 27560 27561 27562 27563 27564 27565 27566 27567 27568 27569 27570 27571 27572 27573 27574 27575 27576 27577 27578 27579 27580 27581 27582 27583 27584 27585 27586 27587 27588 27589 27590 27591 27592 27593 27594 27595 27596 27597 27598 27599 27600 27601 27602 27603 27604 27605 27606 27607 27608 27609 27610 27611 27612 27613 27614 27615 27616 27617 27618 27619 27620 27621 27622 27623 27624 27625 27626 27627 27628 27629 27630 27631 27632 27633 27634 27635 27636 27637 27638 27639 27640 27641 27642 27643 27644 27645 27646 27647 27648 27649 27650 27651 27652 27653 27654 27655 27656 27657 27658 27659 27660 27661 27662 27663 27664 27665 27666 27667 27668 27669 27670 27671 27672 27673 27674 27675 27676 27677 27678 27679 27680 27681 27682 27683 27684 27685 27686 27687 27688 27689 27690 27691 27692 27693 27694 27695 27696 27697 27698 27699 27700 27701 27702 27703 27704 27705 27706 27707 27708 27709 27710 27711 27712 27713 27714 27715 27716 27717 27718 27719 27720 27721 27722 27723 27724 27725 27726 27727 27728 27729 27730 27731 27732 27733 27734 27735 27736 27737 27738 27739 27740 27741 27742 27743 27744 27745 27746 27747 27748 27749 27750 27751 27752 27753 27754 27755 27756 27757 27758 27759 27760 27761 27762 27763 27764 27765 27766 27767 27768 27769 27770 27771 27772 27773 27774 27775 27776 27777 27778 27779 27780 27781 27782 27783 27784 27785 27786 27787 27788 27789 27790 27791 27792 27793 27794 27795 27796 27797 27798 27799 27800 27801 27802 27803 27804 27805 27806 27807 27808 27809 27810 27811 27812 27813 27814 27815 27816 27817 27818 27819 27820 27821 27822 27823 27824 27825 27826 27827 27828 27829 27830 27831 27832 27833 27834 27835 27836 27837 27838 27839 27840 27841 27842 27843 27844 27845 27846 27847 27848 27849 27850 27851 27852 27853 27854 27855 27856 27857 27858 27859 27860 27861 27862 27863 27864 27865 27866 27867 27868 27869 27870 27871 27872 27873 27874 27875 27876 27877 27878 27879 27880 27881 27882 27883 27884 27885 27886 27887 27888 27889 27890 27891 27892 27893 27894 27895 27896 27897 27898 27899 27900 27901 27902 27903 27904 27905 27906 27907 27908 27909 27910 27911 27912 27913 27914 27915 27916 27917 27918 27919 27920 27921 27922 27923 27924 27925 27926 27927 27928 27929 27930 27931 27932 27933 27934 27935 27936 27937 27938 27939 27940 27941 27942 27943 27944 27945 27946 27947 27948 27949 27950 27951 27952 27953 27954 27955 27956 27957 27958 27959 27960 27961 27962 27963 27964 27965 27966 27967 27968 27969 27970 27971 27972 27973 27974 27975 27976 27977 27978 27979 27980 27981 27982 27983 27984 27985 27986 27987 27988 27989 27990 27991 27992 27993 27994 27995 27996 27997 27998 27999 28000 28001 28002 28003 28004 28005 28006 28007 28008 28009 28010 28011 28012 28013 28014 28015 28016 28017 28018 28019 28020 28021 28022 28023 28024 28025 28026 28027 28028 28029 28030 28031 28032 28033 28034 28035 28036 28037 28038 28039 28040 28041 28042 28043 28044 28045 28046 28047 28048 28049 28050 28051 28052 28053 28054 28055 28056 28057 28058 28059 28060 28061 28062 28063 28064 28065 28066 28067 28068 28069 28070 28071 28072 28073 28074 28075 28076 28077 28078 28079 28080 28081 28082 28083 28084 28085 28086 28087 28088 28089 28090 28091 28092 28093 28094 28095 28096 28097 28098 28099 28100 28101 28102 28103 28104 28105 28106 28107 28108 28109 28110 28111 28112 28113 28114 28115 28116 28117 28118 28119 28120 28121 28122 28123 28124 28125 28126 28127 28128 28129 28130 28131 28132 28133 28134 28135 28136 28137 28138 28139 28140 28141 28142 28143 28144 28145 28146 28147 28148 28149 28150 28151 28152 28153 28154 28155 28156 28157 28158 28159 28160 28161 28162 28163 28164 28165 28166 28167 28168 28169 28170 28171 28172 28173 28174 28175 28176 28177 28178 28179 28180 28181 28182 28183 28184 28185 28186 28187 28188 28189 28190 28191 28192 28193 28194 28195 28196 28197 28198 28199 28200 28201 28202 28203 28204 28205 28206 28207 28208 28209 28210 28211 28212 28213 28214 28215 28216 28217 28218 28219 28220 28221 28222 28223 28224 28225 28226 28227 28228 28229 28230 28231 28232 28233 28234 28235 28236 28237 28238 28239 28240 28241 28242 28243 28244 28245 28246 28247 28248 28249 28250 28251 28252 28253 28254 28255 28256 28257 28258 28259 28260 28261 28262 28263 28264 28265 28266 28267 28268 28269 28270 28271 28272 28273 28274 28275 28276 28277 28278 28279 28280 28281 28282 28283 28284 28285 28286 28287 28288 28289 28290 28291 28292 28293 28294 28295 28296 28297 28298 28299 28300 28301 28302 28303 28304 28305 28306 28307 28308 28309 28310 28311 28312 28313 28314 28315 28316 28317 28318 28319 28320 28321 28322 28323 28324 28325 28326 28327 28328 28329 28330 28331 28332 28333 28334 28335 28336 28337 28338 28339 28340 28341 28342 28343 28344 28345 28346 28347 28348 28349 28350 28351 28352 28353 28354 28355 28356 28357 28358 28359 28360 28361 28362 28363 28364 28365 28366 28367 28368 28369 28370 28371 28372 28373 28374 28375 28376 28377 28378 28379 28380 28381 28382 28383 28384 28385 28386 28387 28388 28389 28390 28391 28392 28393 28394 28395 28396 28397 28398 28399 28400 28401 28402 28403 28404 28405 28406 28407 28408 28409 28410 28411 28412 28413 28414 28415 28416 28417 28418 28419 28420 28421 28422 28423 28424 28425 28426 28427 28428 28429 28430 28431 28432 28433 28434 28435 28436 28437 28438 28439 28440 28441 28442 28443 28444 28445 28446 28447 28448 28449 28450 28451 28452 28453 28454 28455 28456 28457 28458 28459 28460 28461 28462 28463 28464 28465 28466 28467 28468 28469 28470 28471 28472 28473 28474 28475 28476 28477 28478 28479 28480 28481 28482 28483 28484 28485 28486 28487 28488 28489 28490 28491 28492 28493 28494 28495 28496 28497 28498 28499 28500 28501 28502 28503 28504 28505 28506 28507 28508 28509 28510 28511 28512 28513 28514 28515 28516 28517 28518 28519 28520 28521 28522 28523 28524 28525 28526 28527 28528 28529 28530 28531 28532 28533 28534 28535 28536 28537 28538 28539 28540 28541 28542 28543 28544 28545 28546 28547 28548 28549 28550 28551 28552 28553 28554 28555 28556 28557 28558 28559 28560 28561 28562 28563 28564 28565 28566 28567 28568 28569 28570 28571 28572 28573 28574 28575 28576 28577 28578 28579 28580 28581 28582 28583 28584 28585 28586 28587 28588 28589 28590 28591 28592 28593 28594 28595 28596 28597 28598 28599 28600 28601 28602 28603 28604 28605 28606 28607 28608 28609 28610 28611 28612 28613 28614 28615 28616 28617 28618 28619 28620 28621 28622 28623 28624 28625 28626 28627 28628 28629 28630 28631 28632 28633 28634 28635 28636 28637 28638 28639 28640 28641 28642 28643 28644 28645 28646 28647 28648 28649 28650 28651 28652 28653 28654 28655 28656 28657 28658 28659 28660 28661 28662 28663 28664 28665 28666 28667 28668 28669 28670 28671 28672 28673 28674 28675 28676 28677 28678 28679 28680 28681 28682 28683 28684 28685 28686 28687 28688 28689 28690 28691 28692 28693 28694 28695 28696 28697 28698 28699 28700 28701 28702 28703 28704 28705 28706 28707 28708 28709 28710 28711 28712 28713 28714 28715 28716 28717 28718 28719 28720 28721 28722 28723 28724 28725 28726 28727 28728 28729 28730 28731 28732 28733 28734 28735 28736 28737 28738 28739 28740 28741 28742 28743 28744 28745 28746 28747 28748 28749 28750 28751 28752 28753 28754 28755 28756 28757 28758 28759 28760 28761 28762 28763 28764 28765 28766 28767 28768 28769 28770 28771 28772 28773 28774 28775 28776 28777 28778 28779 28780 28781 28782 28783 28784 28785 28786 28787 28788 28789 28790 28791 28792 28793 28794 28795 28796 28797 28798 28799 28800 28801 28802 28803 28804 28805 28806 28807 28808 28809 28810 28811 28812 28813 28814 28815 28816 28817 28818 28819 28820 28821 28822 28823 28824 28825 28826 28827 28828 28829 28830 28831 28832 28833 28834 28835 28836 28837 28838 28839 28840 28841 28842 28843 28844 28845 28846 28847 28848 28849 28850 28851 28852 28853 28854 28855 28856 28857 28858 28859 28860 28861 28862 28863 28864 28865 28866 28867 28868 28869 28870 28871 28872 28873 28874 28875 28876 28877 28878 28879 28880 28881 28882 28883 28884 28885 28886 28887 28888 28889 28890 28891 28892 28893 28894 28895 28896 28897 28898 28899 28900 28901 28902 28903 28904 28905 28906 28907 28908 28909 28910 28911 28912 28913 28914 28915 28916 28917 28918 28919 28920 28921 28922 28923 28924 28925 28926 28927 28928 28929 28930 28931 28932 28933 28934 28935 28936 28937 28938 28939 28940 28941 28942 28943 28944 28945 28946 28947 28948 28949 28950 28951 28952 28953 28954 28955 28956 28957 28958 28959 28960 28961 28962 28963 28964 28965 28966 28967 28968 28969 28970 28971 28972 28973 28974 28975 28976 28977 28978 28979 28980 28981 28982 28983 28984 28985 28986 28987 28988 28989 28990 28991 28992 28993 28994 28995 28996 28997 28998 28999 29000 29001 29002 29003 29004 29005 29006 29007 29008 29009 29010 29011 29012 29013 29014 29015 29016 29017 29018 29019 29020 29021 29022 29023 29024 29025 29026 29027 29028 29029 29030 29031 29032 29033 29034 29035 29036 29037 29038 29039 29040 29041 29042 29043 29044 29045 29046 29047 29048 29049 29050 29051 29052 29053 29054 29055 29056 29057 29058 29059 29060 29061 29062 29063 29064 29065 29066 29067 29068 29069 29070 29071 29072 29073 29074 29075 29076 29077 29078 29079 29080 29081 29082 29083 29084 29085 29086 29087 29088 29089 29090 29091 29092 29093 29094 29095 29096 29097 29098 29099 29100 29101 29102 29103 29104 29105 29106 29107 29108 29109 29110 29111 29112 29113 29114 29115 29116 29117 29118 29119 29120 29121 29122 29123 29124 29125 29126 29127 29128 29129 29130 29131 29132 29133 29134 29135 29136 29137 29138 29139 29140 29141 29142 29143 29144 29145 29146 29147 29148 29149 29150 29151 29152 29153 29154 29155 29156 29157 29158 29159 29160 29161 29162 29163 29164 29165 29166 29167 29168 29169 29170 29171 29172 29173 29174 29175 29176 29177 29178 29179 29180 29181 29182 29183 29184 29185 29186 29187 29188 29189 29190 29191 29192 29193 29194 29195 29196 29197 29198 29199 29200 29201 29202 29203 29204 29205 29206 29207 29208 29209 29210 29211 29212 29213 29214 29215 29216 29217 29218 29219 29220 29221 29222 29223 29224 29225 29226 29227 29228 29229 29230 29231 29232 29233 29234 29235 29236 29237 29238 29239 29240 29241 29242 29243 29244 29245 29246 29247 29248 29249 29250 29251 29252 29253 29254 29255 29256 29257 29258 29259 29260 29261 29262 29263 29264 29265 29266 29267 29268 29269 29270 29271 29272 29273 29274 29275 29276 29277 29278 29279 29280 29281 29282 29283 29284 29285 29286 29287 29288 29289 29290 29291 29292 29293 29294 29295 29296 29297 29298 29299 29300 29301 29302 29303 29304 29305 29306 29307 29308 29309 29310 29311 29312 29313 29314 29315 29316 29317 29318 29319 29320 29321 29322 29323 29324 29325 29326 29327 29328 29329 29330 29331 29332 29333 29334 29335 29336 29337 29338 29339 29340 29341 29342 29343 29344 29345 29346 29347 29348 29349 29350 29351 29352 29353 29354 29355 29356 29357 29358 29359 29360 29361 29362 29363 29364 29365 29366 29367 29368 29369 29370 29371 29372 29373 29374 29375 29376 29377 29378 29379 29380 29381 29382 29383 29384 29385 29386 29387 29388 29389 29390 29391 29392 29393 29394 29395 29396 29397 29398 29399 29400 29401 29402 29403 29404 29405 29406 29407 29408 29409 29410 29411 29412 29413 29414 29415 29416 29417 29418 29419 29420 29421 29422 29423 29424 29425 29426 29427 29428 29429 29430 29431 29432 29433 29434 29435 29436 29437 29438 29439 29440 29441 29442 29443 29444 29445 29446 29447 29448 29449 29450 29451 29452 29453 29454 29455 29456 29457 29458 29459 29460 29461 29462 29463 29464 29465 29466 29467 29468 29469 29470 29471 29472 29473 29474 29475 29476 29477 29478 29479 29480 29481 29482 29483 29484 29485 29486 29487 29488 29489 29490 29491 29492 29493 29494 29495 29496 29497 29498 29499 29500 29501 29502 29503 29504 29505 
</DataArray>
<DataArray type="UInt32" Name="offsets" format="ascii">
3 6 9 12 14 17 20 23 26 29 32 35 38 40 43 46 48 51 54 57 60 63 65 68 71 74 76 78 81 84 87 90 93 96 99 102 105 108 111 114 117 120 123 126 129 132 134 137 140 143 146 149 152 155 158 160 163 166 169 172 175 178 180 183 186 188 191 194 197 200 202 205 208 211 214 217 220 223 226 229 232 235 238 241 244 247 250 253 256 259 262 265 267 270 273 276 279 282 285 287 290 293 296 299 302 305 308 311 314 317 320 323 326 328 331 333 336 339 342 345 347 350 353 356 359 362 365 368 371 374 377 380 382 385 388 391 394 396 399 402 405 408 411 414 417 420 423 426 428 431 434 437 440 443 446 449 452 455 458 461 464 467 470 472 475 478 481 484 486 489 492 495 498 501 504 507 510 513 516 519 522 525 528 531 534 537 540 543 546 549 552 555 558 561 564 567 570 573 576 579 582 585 588 591 594 597 600 603 606 609 612 615 617 620 623 625 628 631 634 637 640 643 646 649 652 655 657 659 662 665 668 671 674 677 680 683 686 689 692 695 698 700 703 706 709 712 715 717 720 723 726 729 732 734 737 740 743 746 749 752 754 757 760 762 765 768 771 773 776 779 782 785 787 790 793 796 798 800 803 805 808 811 814 817 820 823 826 829 831 834 837 840 843 846 849 852 855 858 861 864 866 869 872 875 878 881 884 887 890 893 896 899 902 905 908 911 914 917 919 922 925 928 931 934 937 940 943 946 949 952 955 958 961 964 967 970 973 975 978 981 984 986 988 991 994 997 999 1002 1005 1007 1010 1013 1016 1019 1022 1025 1028 1031 1034 1037 1040 1043 1046 1048 1051 1054 1057 1060 1063 1066 1069 1072 1075 1078 1081 1084 1087 1090 1093 1096 1099 1101 1104 1107 1110 1112 1115 1118 1121 1124 1126 1129 1132 1135 1138 1141 1144 1147 1149 1152 1155 1157 1160 1163 1166 1169 1172 1175 1178 1181 1184 1186 1188 1191 1194 1196 1199 1202 1205 1207 1210 1212 1215 1218 1221 1224 1226 1229 1232 1234 1237 1240 1243 1246 1249 1252 1254 1257 1260 1263 1266 1268 1271 1273 1276 1278 1281 1283 1286 1289 1292 1294 1297 1300 1303 1305 1308 1311 1314 1316 1319 1321 1324 1327 1330 1332 1335 1338 1341 1344 1347 1350 1353 1356 1359 1362 1365 1367 1370 1373 1376 1379 1382 1385 1388 1391 1394 1397 1400 1403 1406 1409 1411 1413 1416 1419 1422 1425 1427 1430 1433 1436 1439 1442 1445 1447 1450 1453 1455 1458 1461 1464 1467 1470 1473 1476 1479 1482 1485 1488 1491 1494 1497 1500 1503 1506 1509 1512 1515 1518 1521 1524 1527 1529 1532 1535 1538 1540 1543 1546 1548 1551 1553 1556 1559 1561 1564 1567 1570 1573 1576 1579 1582 1585 1588 1590 1593 1596 1598 1601 1604 1607 1610 1613 1616 1619 1622 1625 1628 1631 1634 1637 1640 1643 1646 1649 1652 1655 1658 1661 1664 1667 1670 1673 1676 1679 1682 1685 1687 1690 1693 1696 1699 1702 1705 1707 1710 1713 1716 1719 1722 1725 1728 1730 1733 1736 1739 1741 1743 1746 1749 1751 1754 1757 1759 1762 1765 1768 1771 1774 1777 1780 1783 1786 1789 1792 1795 1797 1800 1803 1806 1809 1812 1814 1817 1820 1823 1826 1829 1832 1834 1836 1839 1841 1844 1847 1850 1852 1855 1857 1860 1862 1865 1868 1871 1874 1877 1879 1881 1884 1887 1890 1892 1895 1897 1899 1902 1905 1908 1911 1914 1917 1920 1923 1926 1928 1931 1934 1937 1940 1942 1945 1948 1951 1954 1957 1960 1962 1965 1968 1971 1973 1976 1979 1982 1985 1988 1991 1994 1997 1999 2002 2005 2008 2011 2014 2016 2019 2022 2025 2028 2031 2034 2037 2040 2043 2045 2048 2051 2054 2057 2060 2063 2066 2069 2072 2075 2078 2081 2084 2087 2090 2093 2096 2099 2102 2105 2108 2111 2114 2117 2120 2123 2126 2129 2132 2135 2138 2141 2144 2147 2150 2153 2156 2158 2161 2163 2166 2169 2171 2174 2177 2180 2182 2185 2188 2191 2194 2197 2200 2203 2206 2209 2212 2215 2218 2220 2223 2226 2228 2231 2234 2237 2240 2243 2245 2247 2249 2252 2254 2257 2260 2263 2266 2269 2272 2275 2277 2280 2282 2285 2287 2290 2293 2295 2298 2301 2303 2306 2309 2312 2315 2318 2320 2323 2326 2329 2332 2335 2337 2340 2343 2346 2348 2351 2354 2356 2359 2362 2365 2368 2371 2374 2377 2380 2383 2386 2389 2392 2394 2397 2399 2402 2405 2408 2411 2414 2417 2420 2423 2426 2429 2432 2435 2438 2440 2443 2446 2448 2451 2454 2457 2459 2461 2464 2467 2470 2473 2476 2478 2481 2484 2486 2489 2491 2494 2497 2500 2503 2506 2508 2511 2514 2517 2520 2523 2526 2529 2532 2535 2538 2541 2544 2547 2550 2552 2555 2557 2560 2563 2566 2569 2572 2574 2577 2580 2583 2586 2589 2591 2593 2596 2599 2601 2604 2606 2609 2612 2614 2617 2619 2622 2624 2626 2628 2631 2634 2636 2639 2642 2645 2648 2651 2654 2657 2660 2663 2666 2669 2671 2674 2677 2679 2682 2685 2688 2691 2694 2697 2700 2703 2706 2708 2711 2713 2716 2718 2721 2724 2726 2729 2731 2734 2737 2740 2742 2745 2747 2749 2752 2755 2757 2759 2762 2765 2768 2771 2774 2776 2779 2782 2785 2788 2791 2794 2797 2800 2803 2806 2809 2812 2815 2818 2821 2824 2827 2830 2833 2836 2839 2842 2845 2848 2851 2854 2857 2860 2863 2866 2869 2872 2875 2877 2880 2883 2886 2889 2892 2895 2897 2900 2903 2905 2908 2911 2914 2917 2920 2923 2926 2929 2932 2935 2938 2941 2944 2946 2949 2951 2954 2957 2959 2962 2965 2968 2971 2974 2977 2980 2983 2986 2989 2992 2995 2997 3000 3003 3005 3008 3011 3014 3017 3020 3023 3026 3029 3032 3035 3038 3041 3044 3046 3048 3051 3054 3057 3060 3063 3065 3068 3070 3072 3075 3078 3081 3084 3087 3090 3093 3096 3098 3101 3104 3107 3109 3112 3115 3118 3121 3124 3127 3130 3133 3136 3138 3141 3143 3146 3149 3152 3155 3158 3161 3164 3167 3169 3172 3175 3178 3180 3183 3186 3189 3191 3194 3197 3199 3202 3205 3208 3211 3213 3216 3219 3222 3225 3228 3230 3233 3236 3239 3241 3244 3247 3250 3253 3256 3259 3262 3265 3268 3271 3274 3277 3279 3282 3285 3288 3291 3294 3297 3300 3303 3306 3308 3311 3314 3317 3320 3322 3325 3328 3331 3334 3337 3340 3342 3345 3348 3351 3354 3357 3360 3363 3366 3369 3372 3375 3377 3380 3383 3385 3388 3391 3393 3396 3398 3400 3403 3406 3409 3412 3415 3417 3420 3423 3426 3429 3432 3435 3438 3440 3443 3446 3449 3452 3455 3458 3461 3464 3467 3470 3473 3476 3479 3482 3485 3488 3490 3493 3496 3498 3501 3504 3507 3510 3513 3516 3519 3522 3525 3527 3530 3533 3536 3539 3542 3545 3548 3551 3554 3557 3560 3563 3566 3569 3572 3575 3578 3581 3584 3587 3590 3593 3596 3599 3601 3604 3607 3610 3613 3616 3619 3622 3625 3628 3631 3634 3637 3640 3642 3645 3648 3651 3654 3657 3660 3663 3666 3669 3672 3674 3677 3680 3683 3686 3688 3691 3693 3696 3699 3702 3705 3708 3711 3714 3717 3719 3722 3725 3728 3731 3734 3736 3739 3742 3745 3748 3751 3753 3756 3758 3761 3764 3767 3770 3773 3776 3779 3782 3785 3788 3791 3793 3796 3799 3802 3805 3808 3811 3814 3817 3820 3823 3826 3829 3832 3835 3838 3841 3844 3847 3850 3853 3856 3859 3862 3865 3868 3871 3874 3876 3879 3882 3885 3888 3891 3894 3897 3900 3902 3905 3907 3910 3913 3916 3919 3922 3925 3928 3931 3934 3937 3940 3943 3946 3949 3952 3955 3958 3960 3963 3966 3969 3972 3975 3978 3981 3983 3986 3989 3992 3995 3998 4000 4003 4006 4009 4012 4015 4018 4021 4024 4027 4030 4032 4035 4038 4041 4044 4047 4050 4053 4056 4059 4062 4065 4068 4071 4074 4077 4080 4083 4086 4089 4092 4095 4098 4101 4104 4106 4109 4112 4114 4117 4120 4123 4126 4129 4131 4134 4137 4140 4143 4145 4148 4151 4154 4157 4160 4163 4166 4169 4172 4175 4178 4181 4184 4186 4188 4191 4194 4197 4200 4202 4205 4208 4211 4214 4217 4220 4223 4225 4228 4231 4234 4236 4239 4242 4245 4248 4251 4253 4256 4258 4261 4263 4266 4269 4272 4275 4278 4281 4284 4287 4290 4293 4296 4298 4301 4304 4307 4309 4312 4315 4318 4321 4324 4327 4330 4333 4336 4339 4342 4344 4346 4349 4352 4354 4357 4360 4362 4365 4368 4371 4374 4377 4380 4383 4386 4389 4392 4395 4398 4401 4404 4407 4410 4413 4416 4419 4422 4425 4428 4431 4433 4436 4439 4442 4445 4448 4450 4453 4456 4459 4462 4464 4467 4470 4473 4476 4479 4482 4484 4487 4490 4493 4496 4499 4502 4504 4507 4510 4512 4515 4517 4520 4522 4525 4528 4531 4534 4537 4540 4543 4546 4549 4552 4555 4558 4561 4564 4567 4570 4572 4574 4577 4580 4583 4585 4588 4591 4594 4596 4599 4601 4604 4607 4609 4611 4614 4617 4620 4623 4626 4629 4632 4635 4637 4640 4643 4646 4648 4651 4654 4656 4659 4661 4664 4666 4669 4672 4675 4678 4681 4684 4687 4690 4693 4696 4699 4702 4705 4708 4711 4714 4717 4720 4723 4726 4729 4732 4734 4737 4740 4743 4745 4747 4750 4753 4756 4759 4762 4765 4767 4769 4772 4775 4777 4780 4783 4786 4789 4791 4794 4797 4800 4803 4806 4809 4812 4815 4818 4821 4824 4827 4830 4833 4836 4838 4841 4844 4847 4849 4852 4855 4858 4861 4864 4867 4870 4873 4876 4879 4881 4884 4887 4890 4893 4895 4898 4901 4904 4907 4909 4912 4915 4918 4921 4924 4927 4930 4933 4936 4939 4941 4944 4946 4948 4951 4954 4957 4960 4963 4966 4969 4972 4975 4978 4981 4984 4987 4990 4993 4996 4999 5002 5005 5008 5011 5013 5016 5019 5022 5025 5028 5031 5034 5037 5040 5042 5045 5048 5051 5053 5056 5059 5062 5065 5068 5071 5074 5076 5078 5081 5084 5086 5088 5091 5093 5096 5099 5102 5104 5107 5110 5112 5114 5117 5120 5123 5126 5129 5132 5135 5138 5141 5143 5146 5149 5152 5154 5156 5159 5162 5165 5168 5171 5174 5177 5180 5182 5185 5188 5191 5194 5197 5200 5203 5206 5208 5211 5214 5217 5220 5223 5226 5229 5232 5234 5237 5240 5242 5245 5248 5251 5253 5255 5258 5261 5264 5267 5270 5273 5276 5279 5282 5285 5288 5291 5293 5296 5299 5302 5304 5307 5309 5312 5315 5318 5321 5324 5327 5330 5332 5335 5337 5340 5343 5346 5349 5352 5355 5358 5361 5364 5367 5370 5373 5375 5378 5381 5384 5387 5389 5392 5395 5398 5400 5403 5406 5409 5412 5415 5418 5421 5423 5426 5429 5432 5434 5437 5440 5443 5446 5449 5452 5455 5458 5460 5463 5466 5469 5472 5475 5478 5481 5484 5487 5490 5493 5496 5499 5502 5505 5508 5511 5514 5516 5518 5521 5524 5527 5530 5532 5535 5537 5540 5543 5546 5549 5552 5555 5558 5560 5563 5566 5568 5570 5573 5575 5577 5580 5582 5585 5587 5590 5593 5596 5598 5601 5604 5607 5610 5613 5616 5619 5622 5625 5628 5631 5634 5636 5639 5642 5644 5647 5650 5653 5656 5659 5662 5665 5667 5670 5672 5675 5677 5680 5683 5685 5688 5691 5693 5696 5699 5701 5704 5707 5710 5713 5716 5719 5722 5725 5728 5731 5734 5736 5739 5742 5745 5748 5751 5754 5757 5760 5763 5766 5769 5772 5775 5778 5781 5784 5787 5790 5793 5796 5799 5802 5805 5808 5810 5813 5816 5819 5822 5824 5827 5830 5833 5836 5839 5842 5844 5847 5850 5852 5855 5858 5861 5864 5867 5870 5873 5876 5879 5882 5884 5887 5890 5893 5896 5899 5902 5904 5907 5910 5913 5916 5919 5922 5925 5928 5931 5934 5937 5940 5942 5945 5948 5951 5954 5957 5960 5963 5966 5969 5972 5975 5977 5980 5983 5986 5988 5990 5993 5996 5999 6002 6005 6007 6010 6013 6016 6019 6022 6025 6028 6031 6034 6036 6039 6042 6044 6047 6050 6053 6055 6058 6061 6064 6067 6070 6073 6076 6078 6081 6084 6087 6090 6093 6096 6099 6102 6105 6108 6111 6114 6117 6120 6123 6126 6129 6132 6135 6138 6141 6144 6146 6149 6152 6155 6157 6160 6163 6166 6168 6170 6173 6176 6179 6182 6185 6188 6191 6193 6196 6199 6202 6205 6207 6210 6213 6215 6218 6221 6224 6227 6230 6232 6235 6238 6240 6243 6246 6249 6252 6254 6257 6260 6263 6266 6269 6272 6275 6278 6281 6283 6286 6289 6291 6293 6296 6298 6301 6304 6307 6309 6311 6313 6316 6319 6321 6324 6327 6329 6332 6335 6338 6341 6343 6346 6349 6351 6354 6357 6360 6362 6365 6368 6371 6374 6376 6379 6382 6385 6387 6390 6393 6396 6398 6401 6404 6407 6410 6412 6414 6417 6420 6423 6425 6428 6430 6433 6436 6439 6442 6445 6448 6451 6454 6456 6459 6462 6465 6468 6471 6474 6476 6479 6482 6485 6488 6490 6493 6496 6499 6501 6504 6507 6510 6513 6516 6519 6521 6523 6525 6528 6530 6533 6536 6539 6542 6545 6548 6551 6554 6557 6560 6563 6566 6569 6572 6575 6578 6581 6584 6587 6590 6593 6596 6599 6602 6604 6607 6610 6613 6615 6618 6621 6624 6626 6629 6632 6635 6637 6640 6643 6646 6648 6651 6654 6657 6660 6663 6666 6669 6672 6675 6677 6680 6683 6686 6689 6692 6695 6698 6701 6704 6707 6710 6713 6716 6719 6722 6725 6728 6731 6734 6737 6740 6743 6746 6749 6752 6755 6758 6760 6763 6766 6769 6771 6774 6777 6780 6783 6785 6788 6791 6794 6797 6800 6803 6805 6808 6811 6814 6816 6819 6822 6825 6828 6831 6834 6837 6840 6843 6846 6849 6852 6855 6858 6861 6864 6867 6870 6873 6875 6878 6881 6884 6887 6890 6893 6896 6899 6902 6905 6908 6911 6914 6917 6920 6923 6926 6929 6932 6935 6938 6941 6944 6947 6950 6953 6956 6959 6962 6965 6968 6971 6974 6977 6980 6983 6986 6989 6992 6995 6998 7001 7004 7007 7010 7013 7016 7019 7021 7024 7027 7030 7033 7036 7038 7041 7044 7047 7050 7053 7056 7059 7062 7065 7068 7070 7073 7076 7078 7081 7083 7086 7089 7091 7094 7097 7100 7103 7106 7109 7112 7115 7118 7121 7124 7127 7130 7133 7136 7139 7141 7144 7147 7150 7153 7156 7158 7161 7164 7167 7170 7173 7175 7178 7181 7184 7187 7190 7193 7196 7199 7202 7204 7206 7209 7212 7215 7217 7220 7223 7226 7229 7232 7235 7237 7239 7242 7245 7248 7251 7254 7257 7259 7262 7265 7267 7270 7273 7276 7279 7282 7285 7288 7291 7293 7296 7299 7301 7304 7307 7310 7312 7315 7318 7321 7324 7327 7330 7332 7335 7338 7341 7344 7347 7350 7353 7356 7359 7362 7365 7368 7370 7373 7376 7379 7381 7383 7386 7389 7391 7394 7397 7400 7402 7405 7408 7411 7414 7417 7420 7423 7426 7429 7432 7434 7437 7440 7443 7446 7448 7450 7453 7456 7459 7462 7464 7467 7470 7473 7475 7478 7481 7484 7487 7489 7492 7495 7497 7500 7503 7506 7509 7512 7514 7517 7519 7521 7524 7527 7529 7532 7535 7538 7541 7543 7546 7549 7552 7555 7558 7560 7562 7565 7568 7570 7573 7575 7577 7580 7583 7586 7589 7592 7595 7598 7600 7603 7606 7609 7612 7614 7617 7620 7623 7626 7629 7632 7635 7638 7641 7644 7647 7650 7653 7656 7659 7662 7664 7667 7670 7673 7676 7679 7682 7684 7687 7690 7693 7695 7697 7700 7703 7705 7708 7710 7713 7716 7718 7721 7724 7727 7730 7733 7736 7739 7741 7744 7747 7750 7753 7756 7758 7761 7763 7766 7769 7772 7774 7776 7779 7782 7785 7787 7790 7793 7796 7798 7801 7804 7807 7809 7812 7815 7818 7821 7824 7827 7829 7831 7833 7836 7839 7842 7845 7848 7850 7852 7855 7858 7861 7864 7867 7870 7872 7875 7877 7880 7883 7886 7889 7892 7894 7897 7900 7903 7905 7908 7910 7913 7916 7919 7922 7925 7928 7931 7934 7937 7940 7943 7945 7948 7951 7954 7957 7960 7962 7965 7968 7971 7974 7977 7980 7982 7985 7988 7991 7993 7996 7998 8001 8003 8006 8008 8011 8014 8017 8019 8021 8024 8027 8030 8033 8036 8039 8042 8045 8048 8051 8054 8057 8060 8062 8065 8068 8071 8074 8077 8080 8083 8086 8088 8091 8094 8097 8100 8103 8105 8108 8111 8113 8116 8118 8120 8123 8126 8129 8132 8135 8137 8140 8143 8146 8149 8152 8155 8158 8161 8164 8167 8170 8173 8176 8179 8182 8185 8188 8191 8194 8197 8200 8203 8206 8209 8212 8215 8218 8221 8224 8227 8230 8233 8236 8239 8242 8245 8248 8251 8254 8257 8260 8262 8265 8268 8271 8274 8277 8280 8283 8286 8289 8292 8295 8297 8300 8303 8306 8309 8311 8314 8316 8319 8322 8324 8327 8330 8333 8336 8339 8342 8345 8348 8351 8354 8357 8360 8363 8366 8369 8372 8375 8378 8381 8384 8387 8390 8393 8396 8399 8402 8405 8408 8411 8414 8417 8420 8423 8426 8429 8431 8434 8437 8440 8443 8446 8449 8452 8455 8458 8461 8464 8467 8470 8472 8475 8477 8480 8483 8486 8489 8492 8495 8497 8500 8503 8505 8508 8511 8513 8516 8518 8521 8524 8527 8530 8533 8536 8539 8541 8544 8546 8549 8552 8555 8557 8560 8563 8565 8568 8571 8573 8575 8578 8580 8583 8585 8588 8591 8594 8597 8599 8602 8605 8608 8610 8612 8615 8618 8621 8623 8626 8629 8632 8635 8638 8640 8643 8646 8649 8652 8655 8657 8660 8663 8666 8669 8672 8675 8678 8681 8684 8687 8689 8692 8695 8697 8699 8702 8705 8707 8709 8712 8714 8717 8720 8723 8725 8728 8731 8734 8737 8739 8742 8744 8747 8750 8752 8754 8756 8759 8761 8764 8767 8769 8772 8774 8777 8780 8782 8785 8788 8790 8793 8795 8798 8801 8803 8806 8808 8811 8814 8817 8820 8823 8825 8827 8829 8832 8835 8838 8840 8843 8845 8847 8850 8853 8855 8858 8861 8864 8866 8869 8872 8874 8876 8879 8881 8884 8886 8889 8892 8895 8897 8900 8903 8906 8909 8912 8915 8918 8920 8923 8926 8929 8932 8934 8937 8940 8943 8945 8948 8951 8954 8957 8960 8962 8964 8967 8970 8973 8976 8978 8980 8983 8986 8989 8992 8995 8998 9001 9003 9006 9008 9011 9014 9017 9020 9022 9025 9027 9029 9032 9035 9038 9041 9044 9047 9049 9052 9054 9057 9060 9063 9066 9068 9071 9073 9075 9078 9081 9083 9086 9089 9092 9095 9098 9101 9104 9107 9110 9113 9115 9118 9121 9123 9126 9129 9132 9135 9137 9140 9143 9146 9149 9152 9154 9156 9159 9162 9164 9167 9170 9173 9176 9179 9182 9185 9188 9191 9194 9196 9199 9202 9205 9208 9211 9214 9217 9220 9223 9226 9229 9232 9235 9238 9241 9244 9247 9250 9252 9255 9258 9260 9263 9266 9269 9272 9275 9278 9280 9282 9285 9288 9291 9293 9295 9298 9301 9304 9306 9309 9312 9315 9317 9320 9322 9325 9328 9331 9334 9336 9338 9341 9344 9347 9350 9352 9355 9357 9360 9362 9364 9367 9370 9372 9374 9377 9380 9383 9386 9389 9392 9395 9398 9401 9404 9407 9410 9412 9415 9418 9420 9423 9426 9429 9432 9435 9438 9441 9443 9446 9449 9452 9455 9457 9460 9463 9466 9469 9472 9475 9478 9481 9483 9486 9489 9491 9493 9496 9499 9502 9505 9507 9510 9512 9515 9518 9521 9524 9527 9530 9533 9536 9539 9541 9544 9547 9549 9551 9554 9557 9560 9562 9565 9568 9570 9573 9576 9579 9581 9584 9587 9590 9593 9595 9597 9600 9603 9606 9609 9611 9614 9617 9620 9623 9626 9629 9632 9635 9638 9641 9644 9646 9649 9652 9655 9657 9660 9662 9665 9668 9671 9673 9676 9679 9681 9683 9686 9689 9691 9693 9695 9698 9700 9703 9706 9708 9711 9713 9716 9718 9720 9723 9726 9729 9731 9734 9736 9739 9741 9744 9747 9750 9753 9756 9758 9761 9764 9767 9770 9773 9775 9777 9780 9783 9786 9789 9792 9794 9797 9800 9803 9806 9809 9811 9814 9817 9820 9823 9826 9829 9832 9835 9838 9840 9843 9846 9849 9851 9853 9855 9858 9861 9864 9866 9869 9871 9874 9877 9880 9883 9885 9888 9891 9894 9897 9900 9903 9906 9909 9912 9915 9918 9921 9924 9927 9930 9933 9935 9938 9941 9944 9947 9950 9953 9956 9959 9962 9965 9968 9970 9972 9975 9978 9980 9983 9986 9989 9991 9994 9997 10000 10003 10006 10009 10012 10015 10018 10021 10024 10027 10030 10033 10035 10037 10040 10043 10046 10049 10052 10054 10057 10060 10063 10066 10069 10072 10075 10078 10081 10083 10086 10089 10092 10094 10097 10100 10103 10106 10109 10112 10115 10117 10119 10122 10125 10128 10131 10134 10137 10140 10143 10146 10149 10152 10155 10158 10161 10164 10167 10170 10173 10176 10179 10182 10185 10188 10191 10194 10197 10200 10203 10206 10209 10212 10215 10217 10220 10223 10226 10229 10232 10235 10238 10241 10243 10246 10248 10251 10253 10256 10259 10261 10264 10267 10269 10272 10274 10276 10279 10282 10285 10287 10289 10292 10295 10298 10301 10304 10307 10310 10313 10316 10319 10322 10325 10328 10331 10334 10337 10340 10343 10346 10348 10351 10354 10357 10360 10363 10366 10369 10371 10374 10377 10380 10383 10386 10389 10392 10395 10397 10400 10403 10406 10408 10410 10413 10415 10418 10421 10424 10427 10430 10433 10436 10439 10442 10445 10448 10450 10453 10456 10459 10462 10465 10468 10471 10474 10477 10480 10483 10486 10489 10492 10494 10497 10500 10503 10506 10509 10512 10514 10517 10520 10523 10526 10529 10532 10535 10538 10541 10544 10546 10549 10552 10555 10558 10561 10564 10567 10570 10573 10576 10578 10581 10583 10586 10589 10592 10595 10598 10601 10604 10607 10610 10613 10616 10619 10622 10625 10627 10630 10633 10636 10639 10642 10645 10648 10651 10654 10657 10660 10663 10666 10669 10672 10674 10677 10680 10683 10685 10688 10691 10694 10697 10700 10703 10706 10709 10712 10714 10717 10720 10722 10725 10727 10730 10733 10736 10738 10741 10744 10747 10750 10753 10755 10758 10761 10764 10767 10770 10773 10776 10778 10781 10784 10786 10789 10792 10795 10798 10801 10804 10806 10809 10812 10814 10817 10820 10823 10825 10828 10831 10834 10837 10840 10843 10845 10848 10851 10854 10857 10860 10863 10866 10869 10872 10875 10878 10881 10884 10887 10890 10893 10896 10899 10901 10904 10906 10909 10912 10914 10917 10920 10923 10926 10929 10932 10935 10938 10941 10944 10947 10950 10953 10956 10958 10961 10964 10966 10969 10972 10975 10978 10980 10983 10986 10989 10992 10995 10998 11000 11003 11006 11009 11011 11014 11017 11019 11022 11025 11028 11030 11033 11035 11037 11040 11043 11046 11048 11051 11054 11057 11059 11061 11064 11067 11069 11071 11074 11077 11080 11083 11085 11087 11090 11093 11096 11099 11102 11104 11106 11109 11111 11114 11117 11119 11122 11125 11128 11131 11134 11137 11140 11142 11144 11147 11150 11153 11156 11159 11162 11165 11168 11171 11174 11177 11180 11183 11186 11189 11192 11195 11198 11201 11203 11206 11209 11212 11215 11218 11220 11223 11226 11229 11232 11234 11237 11240 11243 11246 11249 11252 11254 11257 11260 11263 11266 11269 11272 11275 11277 11280 11283 11286 11289 11292 11294 11297 11299 11301 11304 11307 11309 11312 11314 11317 11319 11322 11324 11327 11330 11333 11336 11339 11342 11345 11348 11350 11353 11356 11359 11361 11364 11367 11370 11373 11376 11379 11382 11385 11388 11391 11394 11397 11400 11403 11406 11409 11412 11415 11418 11421 11424 11427 11430 11433 11436 11438 11441 11444 11447 11450 11453 11456 11459 11462 11465 11467 11470 11472 11475 11478 11481 11484 11487 11490 11493 11496 11499 11502 11505 11508 11510 11513 11516 11518 11521 11524 11527 11529 11532 11535 11538 11540 11543 11546 11549 11552 11554 11557 11560 11562 11565 11568 11571 11574 11577 11580 11583 11586 11589 11592 11595 11598 11601 11604 11607 11610 11612 11615 11618 11621 11624 11627 11630 11633 11636 11638 11641 11644 11647 11649 11652 11655 11658 11661 11664 11667 11670 11673 11676 11679 11682 11685 11688 11691 11694 11697 11700 11703 11706 11709 11712 11715 11718 11721 11724 11726 11729 11731 11734 11737 11740 11743 11745 11748 11751 11753 11756 11759 11762 11765 11768 11771 11774 11777 11780 11783 11786 11789 11791 11794 11797 11800 11802 11805 11807 11810 11813 11816 11819 11822 11825 11828 11830 11833 11835 11838 11841 11843 11846 11849 11852 11855 11858 11861 11864 11867 11870 11873 11876 11878 11881 11884 11887 11890 11892 11895 11898 11901 11904 11907 11910 11913 11916 11919 11922 11925 11928 11931 11934 11936 11939 11942 11945 11948 11951 11954 11957 11960 11963 11966 11969 11972 11975 11978 11981 11984 11987 11990 11993 11996 11999 12002 12005 12008 12011 12014 12017 12020 12022 12025 12028 12030 12032 12035 12038 12041 12044 12047 12050 12052 12055 12058 12061 12064 12067 12070 12073 12076 12079 12082 12085 12088 12091 12094 12097 12100 12103 12106 12109 12112 12115 12118 12121 12124 12127 12130 12133 12136 12139 12142 12145 12148 12151 12154 12157 12160 12163 12166 12169 12172 12175 12178 12181 12184 12187 12190 12193 12196 12199 12202 12205 12208 12211 12214 12217 12220 12223 12226 12229 12232 12235 12238 12241 12244 12247 12249 12252 12255 12258 12261 12264 12267 12270 12273 12276 12279 12282 12285 12288 12291 12294 12297 12300 12302 12305 12308 12311 12314 12316 12319 12322 12325 12328 12331 12333 12336 12339 12341 12344 12346 12348 12351 12353 12355 12358 12360 12363 12366 12369 12372 12375 12377 12380 12382 12385 12388 12391 12394 12397 12400 12403 12405 12407 12410 12412 12415 12418 12421 12424 12427 12430 12433 12436 12439 12442 12445 12448 12451 12454 12457 12460 12463 12466 12469 12472 12475 12478 12481 12484 12487 12489 12492 12495 12498 12500 12503 12506 12509 12512 12515 12518 12521 12524 12527 12530 12532 12535 12538 12541 12543 12546 12549 12551 12554 12557 12560 12563 12566 12569 12572 12574 12577 12580 12583 12586 12588 12591 12594 12596 12599 12602 12605 12608 12611 12614 12617 12620 12623 12626 12629 12631 12634 12637 12640 12643 12646 12649 12652 12655 12658 12661 12664 12667 12669 12672 12675 12678 12681 12684 12687 12690 12693 12696 12699 12702 12705 12708 12711 12714 12717 12719 12722 12725 12728 12730 12733 12736 12739 12742 12745 12748 12751 12754 12757 12760 12763 12766 12769 12772 12775 12777 12779 12782 12785 12788 12791 12794 12797 12800 12803 12806 12808 12811 12813 12816 12819 12822 12825 12828 12831 12833 12836 12839 12842 12845 12848 12851 12854 12857 12859 12861 12864 12867 12870 12873 12876 12879 12882 12885 12888 12891 12894 12897 12900 12902 12905 12908 12911 12914 12917 12920 12922 12925 12928 12931 12934 12936 12939 12942 12945 12948 12951 12954 12957 12960 12963 12966 12969 12972 12975 12978 12981 12984 12987 12990 12993 12995 12998 13001 13003 13006 13009 13011 13014 13017 13020 13023 13025 13028 13031 13034 13037 13040 13043 13046 13049 13051 13054 13057 13059 13062 13065 13068 13071 13074 13077 13080 13082 13085 13088 13091 13094 13096 13099 13102 13104 13107 13110 13113 13115 13118 13121 13124 13127 13129 13132 13135 13138 13141 13144 13147 13149 13152 13154 13157 13160 13163 13166 13169 13171 13173 13176 13179 13182 13185 13187 13190 13193 13195 13198 13201 13204 13207 13210 13213 13216 13219 13222 13225 13228 13230 13233 13236 13239 13242 13245 13248 13251 13254 13257 13260 13262 13265 13268 13271 13274 13277 13280 13283 13286 13289 13292 13295 13298 13301 13304 13307 13310 13313 13316 13319 13322 13325 13328 13331 13334 13337 13340 13343 13346 13349 13352 13354 13357 13359 13361 13364 13366 13369 13372 13375 13378 13381 13383 13386 13389 13392 13394 13397 13400 13403 13406 13409 13411 13414 13417 13420 13423 13425 13428 13430 13433 13435 13438 13441 13444 13447 13450 13453 13456 13459 13462 13465 13467 13470 13472 13475 13478 13481 13483 13486 13488 13491 13494 13497 13500 13502 13504 13506 13509 13512 13515 13518 13521 13524 13527 13530 13533 13536 13539 13541 13544 13547 13549 13551 13554 13557 13560 13563 13565 13568 13571 13574 13577 13580 13583 13586 13589 13592 13595 13598 13601 13604 13607 13609 13612 13615 13618 13621 13624 13627 13630 13633 13636 13639 13642 13645 13648 13651 13653 13656 13659 13662 13665 13668 13671 13673 13676 13679 13682 13684 13686 13689 13691 13694 13697 13699 13702 13705 13707 13709 13712 13715 13718 13720 13723 13726 13728 13731 13734 13737 13740 13743 13746 13749 13752 13754 13757 13759 13762 13765 13768 13770 13773 13775 13777 13780 13783 13785 13788 13791 13794 13797 13800 13803 13806 13809 13812 13815 13818 13820 13823 13826 13829 13832 13835 13838 13841 13844 13847 13850 13853 13856 13858 13861 13863 13866 13868 13871 13874 13877 13880 13883 13886 13889 13892 13895 13898 13901 13904 13907 13910 13913 13916 13919 13921 13924 13927 13930 13933 13936 13939 13942 13945 13947 13950 13953 13956 13959 13962 13965 13968 13971 13974 13977 13980 13983 13986 13989 13992 13995 13997 14000 14003 14006 14009 14011 14014 14017 14020 14023 14026 14029 14032 14035 14038 14041 14043 14046 14049 14052 14055 14058 14061 14063 14066 14069 14072 14075 14078 14081 14084 14087 14090 14093 14096 14099 14102 14105 14108 14110 14113 14116 14119 14122 14125 14128 14131 14134 14136 14139 14142 14144 14147 14150 14152 14155 14157 14159 14162 14164 14166 14169 14172 14174 14177 14180 14183 14186 14189 14192 14195 14198 14201 14204 14207 14209 14212 14215 14217 14220 14223 14226 14229 14232 14235 14238 14241 14244 14247 14250 14253 14256 14259 14261 14264 14267 14270 14273 14276 14279 14282 14285 14288 14290 14293 14296 14299 14302 14304 14307 14310 14313 14316 14319 14321 14324 14327 14330 14332 14335 14337 14340 14342 14345 14347 14350 14353 14356 14358 14361 14364 14367 14370 14372 14375 14377 14380 14382 14385 14387 14390 14392 14395 14398 14401 14403 14405 14408 14411 14413 14415 14418 14421 14424 14427 14430 14432 14435 14438 14441 14443 14446 14449 14451 14454 14457 14460 14462 14465 14468 14471 14474 14476 14478 14481 14484 14486 14489 14492 14495 14497 14500 14503 14506 14509 14512 14515 14517 14520 14523 14525 14528 14530 14533 14535 14538 14541 14544 14547 14550 14553 14556 14559 14562 14565 14568 14570 14573 14576 14579 14581 14584 14587 14590 14592 14595 14598 14601 14604 14607 14610 14613 14616 14619 14622 14625 14628 14631 14634 14637 14640 14643 14646 14648 14651 14653 14656 14658 14661 14663 14666 14669 14672 14675 14678 14680 14683 14686 14689 14692 14695 14698 14700 14703 14705 14708 14711 14713 14716 14719 14722 14724 14727 14730 14733 14736 14739 14742 14745 14748 14751 14754 14757 14760 14763 14766 14769 14772 14775 14778 14781 14783 14786 14788 14791 14794 14797 14800 14802 14805 14808 14811 14813 14816 14819 14822 14825 14828 14831 14834 14837 14840 14842 14845 14847 14850 14853 14855 14858 14861 14864 14867 14870 14872 14875 14877 14879 14882 14885 14888 14890 14892 14895 14897 14900 14903 14905 14908 14911 14914 14917 14919 14922 14925 14928 14931 14934 14937 14940 14943 14946 14949 14951 14954 14957 14960 14963 14966 14969 14972 14975 14978 14981 14984 14987 14989 14992 14995 14998 15001 15004 15006 15009 15012 15015 15018 15020 15023 15025 15028 15031 15033 15036 15039 15042 15045 15047 15050 15053 15056 15059 15062 15065 15068 15071 15074 15077 15080 15083 15085 15088 15090 15093 15096 15099 15102 15104 15107 15110 15113 15115 15118 15120 15123 15125 15128 15131 15134 15137 15140 15142 15145 15148 15151 15154 15157 15160 15163 15165 15168 15171 15174 15176 15179 15182 15185 15188 15190 15193 15196 15199 15201 15204 15207 15210 15213 15216 15219 15222 15224 15227 15229 15232 15235 15238 15241 15244 15247 15250 15253 15256 15259 15262 15264 15267 15269 15272 15275 15277 15280 15283 15286 15288 15291 15294 15297 15300 15303 15306 15309 15312 15315 15318 15321 15324 15327 15330 15333 15336 15339 15342 15345 15348 15351 15354 15357 15360 15363 15366 15369 15372 15375 15378 15381 15384 15387 15390 15393 15396 15399 15402 15405 15408 15411 15414 15417 15420 15423 15426 15429 15431 15434 15437 15440 15443 15446 15449 15452 15455 15458 15461 15464 15467 15470 15473 15475 15478 15481 15484 15487 15490 15493 15496 15499 15502 15505 15508 15511 15514 15517 15520 15523 15526 15529 15532 15535 15538 15541 15544 15547 15550 15553 15556 15559 15561 15564 15567 15569 15572 15575 15578 15581 15584 15587 15590 15593 15596 15599 15601 15603 15606 15608 15611 15614 15617 15620 15622 15624 15627 15629 15632 15635 15638 15640 15643 15646 15648 15651 15654 15657 15660 15663 15666 15669 15672 15675 15678 15680 15683 15686 15689 15692 15695 15697 15700 15702 15705 15708 15711 15713 15716 15718 15721 15724 15727 15730 15733 15736 15738 15741 15743 15746 15749 15752 15755 15758 15761 15764 15767 15770 15772 15775 15778 15781 15784 15787 15790 15793 15796 15799 15802 15805 15808 15811 15814 15816 15819 15822 15825 15827 15830 15833 15836 15839 15842 15844 15847 15850 15853 15856 15859 15862 15865 15868 15871 15873 15876 15879 15882 15885 15887 15890 15893 15896 15899 15902 15905 15908 15911 15914 15917 15920 15923 15926 15929 15932 15935 15938 15941 15944 15947 15950 15953 15956 15959 15962 15965 15968 15970 15973 15976 15979 15982 15985 15988 15991 15994 15997 16000 16003 16006 16009 16012 16015 16018 16021 16024 16027 16030 16033 16036 16039 16042 16045 16048 16051 16054 16057 16060 16063 16066 16069 16072 16075 16078 16081 16084 16087 16090 16093 16096 16099 16101 16104 16107 16110 16113 16116 16119 16122 16125 16128 16131 16134 16137 16140 16143 16146 16149 16152 16155 16158 16161 16164 16167 16170 16173 16176 16179 16182 16185 16188 16191 16194 16197 16200 16203 16206 16209 16212 16215 16218 16221 16224 16226 16229 16232 16235 16238 16241 16244 16247 16250 16253 16256 16259 16262 16265 16268 16270 16273 16276 16279 16282 16284 16287 16290 16293 16296 16299 16301 16304 16307 16310 16313 16316 16319 16322 16324 16327 16330 16333 16336 16339 16342 16344 16347 16350 16353 16356 16359 16362 16365 16368 16371 16374 16377 16380 16383 16386 16389 16391 16394 16397 16400 16403 16405 16408 16411 16414 16417 16420 16423 16426 16429 16432 16435 16438 16441 16444 16447 16449 16452 16454 16457 16460 16463 16465 16467 16470 16473 16476 16479 16482 16485 16487 16490 16492 16495 16498 16501 16504 16507 16510 16513 16516 16519 16522 16525 16528 16531 16534 16537 16540 16542 16545 16548 16551 16554 16557 16559 16562 16565 16567 16570 16573 16576 16579 16582 16584 16587 16590 16592 16594 16597 16600 16603 16606 16609 16612 16615 16618 16620 16623 16626 16629 16631 16633 16635 16638 16640 16643 16646 16649 16652 16655 16658 16660 16663 16665 16668 16671 16673 16676 16679 16682 16685 16688 16691 16694 16697 16699 16702 16704 16707 16710 16713 16715 16718 16721 16724 16726 16729 16732 16735 16738 16740 16743 16746 16749 16751 16754 16757 16760 16763 16766 16769 16772 16775 16778 16781 16784 16787 16790 16793 16795 16798 16800 16803 16806 16809 16812 16815 16818 16820 16823 16825 16828 16830 16833 16836 16839 16842 16845 16848 16851 16854 16857 16860 16863 16866 16869 16872 16875 16878 16881 16884 16887 16890 16893 16896 16899 16902 16905 16907 16910 16913 16916 16919 16922 16924 16927 16930 16933 16936 16938 16941 16944 16946 16949 16952 16955 16958 16960 16963 16966 16968 16971 16973 16976 16979 16982 16985 16987 16990 16992 16995 16998 17001 17004 17007 17010 17013 17015 17018 17020 17023 17026 17028 17030 17033 17036 17038 17040 17043 17046 17049 17051 17054 17057 17059 17062 17064 17067 17070 17073 17076 17079 17082 17085 17088 17091 17094 17097 17100 17103 17105 17107 17110 17113 17116 17119 17122 17125 17128 17131 17134 17137 17140 17143 17146 17149 17152 17155 17158 17161 17164 17167 17170 17173 17176 17179 17182 17185 17188 17191 17194 17197 17200 17203 17205 17208 17211 17214 17216 17219 17222 17224 17227 17229 17231 17234 17237 17239 17241 17244 17247 17250 17253 17256 17259 17261 17263 17266 17268 17271 17274 17277 17279 17282 17285 17287 17290 17293 17296 17299 17302 17305 17308 17311 17314 17317 17320 17323 17326 17329 17332 17335 17338 17341 17344 17347 17350 17353 17356 17359 17362 17365 17368 17371 17374 17377 17380 17383 17386 17389 17392 17394 17397 17399 17402 17404 17407 17410 17412 17415 17418 17421 17424 17427 17430 17433 17436 17439 17442 17445 17448 17451 17454 17457 17460 17463 17465 17468 17471 17474 17477 17480 17483 17486 17489 17492 17494 17497 17500 17503 17506 17509 17512 17515 17517 17520 17523 17525 17528 17531 17534 17537 17540 17543 17546 17549 17552 17555 17557 17560 17563 17566 17569 17572 17575 17578 17581 17584 17587 17590 17593 17596 17598 17601 17604 17606 17609 17612 17615 17618 17621 17624 17627 17630 17633 17636 17638 17641 17644 17647 17650 17653 17656 17659 17662 17665 17668 17671 17674 17677 17680 17683 17686 17689 17691 17694 17697 17700 17703 17706 17709 17712 17715 17718 17721 17724 17727 17729 17732 17735 17738 17741 17744 17747 17750 17752 17755 17757 17760 17763 17766 17769 17772 17775 17778 17780 17783 17786 17788 17791 17794 17797 17800 17803 17805 17808 17811 17814 17817 17820 17822 17825 17828 17831 17834 17837 17840 17843 17846 17849 17852 17855 17858 17861 17864 17867 17870 17873 17876 17879 17882 17885 17888 17891 17894 17897 17900 17903 17906 17909 17912 17914 17916 17919 17922 17925 17928 17931 17934 17937 17939 17942 17945 17948 17951 17954 17957 17960 17963 17966 17968 17971 17974 17976 17979 17982 17985 17988 17991 17994 17996 17999 18001 18004 18007 18010 18013 18016 18019 18022 18025 18027 18030 18032 18035 18038 18041 18044 18047 18050 18052 18055 18058 18061 18064 18067 18070 18073 18075 18078 18081 18084 18087 18090 18093 18096 18099 18101 18104 18107 18110 18113 18116 18119 18122 18125 18127 18130 18133 18136 18138 18141 18144 18147 18150 18152 18155 18158 18161 18163 18165 18168 18171 18174 18177 18180 18182 18184 18187 18190 18193 18195 18197 18200 18203 18206 18209 18211 18214 18216 18219 18221 18224 18227 18230 18233 18236 18239 18242 18245 18248 18251 18254 18257 18260 18263 18265 18268 18271 18274 18277 18280 18283 18286 18289 18292 18295 18297 18300 18303 18305 18307 18309 18312 18315 18318 18321 18323 18326 18329 18332 18335 18338 18340 18343 18346 18349 18352 18355 18358 18361 18364 18367 18370 18373 18375 18378 18381 18384 18386 18388 18391 18394 18397 18400 18403 18406 18409 18411 18414 18417 18419 18422 18424 18427 18430 18433 18436 18438 18441 18444 18447 18449 18452 18455 18457 18460 18462 18465 18468 18471 18474 18477 18480 18483 18486 18489 18492 18495 18498 18501 18504 18507 18510 18512 18515 18518 18521 18524 18527 18530 18533 18536 18539 18542 18545 18548 18550 18553 18555 18558 18561 18564 18567 18570 18572 18575 18578 18581 18584 18587 18590 18593 18596 18599 18602 18605 18607 18610 18612 18615 18618 18620 18623 18626 18629 18632 18635 18637 18640 18643 18646 18649 18652 18655 18658 18661 18664 18667 18669 18672 18675 18678 18681 18684 18687 18690 18693 18696 18699 18702 18705 18708 18710 18713 18716 18719 18721 18724 18727 18730 18733 18736 18738 18741 18744 18747 18750 18753 18756 18758 18761 18763 18765 18767 18770 18773 18776 18779 18782 18784 18787 18790 18793 18796 18799 18802 18804 18807 18809 18811 18814 18817 18819 18821 18824 18826 18829 18832 18834 18837 18840 18843 18846 18849 18852 18855 18858 18861 18864 18867 18870 18873 18876 18879 18882 18885 18888 18891 18894 18896 18899 18902 18905 18908 18911 18914 18917 18920 18923 18926 18929 18932 18935 18938 18941 18944 18947 18950 18953 18956 18958 18961 18964 18967 18970 18973 18975 18978 18981 18984 18987 18990 18993 18996 18998 19001 19004 19006 19009 19012 19015 19018 19021 19024 19027 19030 19033 19036 19039 19042 19045 19048 19051 19054 19057 19059 19062 19065 19068 19071 19073 19076 19079 19081 19084 19086 19089 19092 19095 19098 19101 19104 19107 19110 19113 19116 19119 19122 19125 19127 19130 19133 19136 19139 19142 19145 19148 19151 19153 19156 19159 19162 19165 19167 19170 19173 19176 19179 19182 19185 19188 19190 19193 19196 19199 19202 19205 19208 19211 19214 19217 19220 19223 19226 19229 19232 19235 19238 19241 19243 19246 19249 19252 19255 19258 19260 19263 19266 19269 19272 19275 19278 19280 19283 19286 19289 19291 19294 19297 19300 19303 19306 19308 19310 19313 19316 19319 19322 19324 19327 19329 19332 19334 19337 19340 19343 19346 19349 19352 19355 19358 19361 19364 19367 19370 19372 19374 19377 19379 19382 19385 19388 19391 19394 19397 19400 19403 19406 19409 19412 19415 19418 19421 19424 19427 19430 19433 19436 19439 19442 19445 19447 19450 19453 19456 19459 19462 19465 19468 19470 19473 19475 19478 19481 19483 19485 19488 19491 19494 19497 19499 19502 19505 19508 19511 19514 19517 19519 19522 19525 19528 19531 19534 19537 19539 19542 19545 19548 19551 19554 19556 19559 19562 19565 19568 19571 19574 19577 19579 19581 19584 19587 19590 19593 19596 19599 19602 19605 19607 19610 19612 19615 19618 19620 19622 19624 19627 19630 19633 19636 19639 19642 19645 19647 19650 19652 19655 19657 19659 19662 19664 19666 19669 19672 19675 19677 19679 19682 19685 19688 19691 19694 19696 19699 19701 19703 19705 19708 19711 19714 19717 19719 19722 19724 19727 19730 19733 19736 19739 19741 19743 19746 19749 19752 19755 19758 19760 19763 19766 19769 19772 19775 19777 19780 19783 19786 19789 19792 19795 19798 19801 19803 19805 19808 19810 19813 19816 19818 19821 19824 19827 19829 19831 19833 19836 19838 19841 19843 19845 19848 19851 19853 19856 19859 19862 19865 19868 19871 19874 19877 19880 19883 19886 19889 19892 19894 19896 19899 19901 19904 19906 19909 19912 19915 19918 19920 19922 19925 19928 19931 19934 19936 19939 19942 19945 19948 19951 19954 19957 19960 19963 19966 19969 19972 19975 19977 19980 19983 19985 19988 19991 19994 19997 20000 20003 20006 20009 20012 20015 20018 20021 20024 20027 20030 20033 20036 20039 20042 20044 20047 20050 20053 20055 20058 20061 20064 20066 20069 20072 20074 20077 20079 20082 20084 20087 20090 20093 20096 20099 20102 20105 20108 20111 20114 20117 20119 20122 20125 20128 20131 20133 20136 20139 20141 20144 20147 20150 20153 20156 20159 20161 20164 20167 20169 20172 20175 20178 20181 20184 20187 20189 20192 20195 20197 20200 20203 20205 20208 20211 20213 20216 20219 20222 20225 20228 20231 20233 20236 20239 20242 20245 20247 20250 20253 20256 20258 20261 20264 20267 20270 20273 20276 20279 20282 20285 20288 20291 20294 20297 20299 20302 20305 20308 20310 20312 20315 20318 20320 20323 20326 20328 20330 20333 20336 20339 20342 20345 20348 20350 20353 20356 20358 20361 20364 20367 20370 20373 20376 20379 20382 20384 20387 20390 20392 20394 20397 20400 20403 20406 20408 20411 20414 20417 20420 20422 20425 20428 20431 20434 20437 20440 20443 20446 20449 20452 20455 20458 20461 20464 20467 20470 20473 20476 20479 20482 20485 20488 20491 20494 20497 20500 20503 20505 20508 20511 20514 20516 20519 20522 20525 20528 20531 20533 20536 20539 20542 20545 20548 20551 20554 20557 20560 20563 20566 20569 20572 20575 20578 20580 20582 20585 20588 20591 20594 20597 20600 20603 20606 20609 20612 20615 20618 20620 20622 20625 20628 20630 20633 20636 20639 20641 20644 20647 20650 20653 20656 20659 20662 20665 20668 20671 20674 20677 20680 20683 20686 20689 20692 20695 20698 20701 20704 20707 20710 20713 20716 20718 20721 20724 20727 20730 20733 20736 20739 20742 20745 20748 20751 20754 20757 20759 20762 20765 20768 20771 20774 20777 20780 20783 20786 20789 20792 20795 20798 20800 20803 20806 20809 20812 20815 20818 20821 20824 20827 20830 20833 20836 20839 20842 20845 20848 20851 20854 20857 20859 20862 20865 20868 20871 20874 20877 20880 20883 20885 20888 20891 20894 20896 20899 20902 20905 20908 20911 20914 20917 20920 20923 20926 20929 20932 20935 20938 20941 20944 20947 20950 20953 20956 20959 20962 20965 20968 20971 20973 20976 20979 20982 20984 20987 20990 20993 20996 20999 21002 21005 21008 21011 21014 21017 21020 21022 21025 21028 21031 21034 21037 21039 21042 21045 21047 21050 21053 21055 21058 21060 21063 21066 21069 21071 21074 21077 21080 21082 21085 21088 21091 21094 21096 21099 21102 21105 21108 21111 21114 21117 21119 21121 21124 21127 21130 21132 21135 21138 21141 21143 21146 21149 21152 21155 21158 21161 21164 21167 21170 21172 21175 21178 21181 21184 21187 21190 21193 21196 21198 21201 21204 21207 21210 21213 21216 21219 21222 21225 21228 21230 21233 21235 21238 21241 21244 21247 21250 21252 21254 21257 21260 21263 21266 21269 21272 21275 21277 21280 21283 21286 21289 21292 21295 21298 21301 21304 21306 21309 21312 21315 21318 21321 21324 21327 21330 21333 21335 21338 21341 21344 21346 21349 21352 21355 21357 21360 21362 21365 21368 21371 21374 21377 21380 21383 21386 21389 21392 21395 21398 21401 21404 21407 21410 21413 21416 21419 21422 21425 21428 21431 21434 21437 21440 21443 21446 21449 21452 21455 21458 21461 21464 21467 21470 21473 21476 21479 21482 21485 21488 21490 21493 21496 21499 21502 21505 21508 21511 21514 21517 21520 21523 21525 21528 21531 21534 21537 21540 21543 21546 21549 21552 21555 21558 21561 21564 21567 21570 21573 21576 21579 21582 21585 21588 21591 21594 21597 21600 21603 21606 21609 21612 21615 21618 21621 21624 21627 21630 21633 21636 21639 21642 21645 21648 21651 21654 21657 21660 21663 21666 21669 21672 21675 21678 21681 21684 21687 21690 21693 21696 21699 21702 21705 21708 21711 21714 21717 21720 21723 21725 21727 21730 21733 21736 21739 21742 21744 21747 21749 21752 21755 21757 21760 21763 21766 21769 21772 21775 21778 21781 21784 21787 21789 21792 21795 21798 21801 21804 21807 21810 21813 21816 21819 21822 21825 21828 21831 21834 21837 21840 21843 21846 21849 21852 21855 21858 21861 21864 21867 21870 21873 21876 21878 21881 21884 21886 21889 21892 21895 21898 21901 21904 21907 21910 21913 21916 21919 21922 21925 21927 21930 21933 21936 21939 21942 21944 21947 21950 21953 21956 21958 21961 21964 21967 21969 21972 21975 21978 21980 21983 21986 21989 21992 21995 21998 22001 22003 22006 22009 22011 22014 22017 22020 22023 22026 22029 22032 22035 22038 22041 22044 22046 22049 22052 22055 22058 22061 22064 22067 22069 22072 22075 22078 22081 22084 22087 22090 22093 22096 22099 22102 22105 22108 22111 22114 22117 22120 22123 22126 22129 22132 22135 22137 22140 22143 22146 22148 22151 22154 22157 22160 22162 22165 22168 22171 22174 22177 22180 22183 22186 22188 22190 22193 22196 22199 22202 22205 22208 22211 22214 22217 22220 22223 22226 22229 22232 22235 22238 22241 22244 22247 22250 22253 22256 22259 22262 22265 22268 22271 22274 22277 22280 22282 22284 22287 22290 22293 22296 22299 22302 22304 22306 22309 22312 22315 22318 22321 22324 22327 22330 22333 22336 22339 22342 22345 22348 22351 22354 22356 22359 22361 22364 22366 22369 22371 22373 22376 22379 22381 22384 22387 22390 22393 22396 22399 22402 22405 22408 22411 22414 22417 22420 22423 22426 22428 22430 22432 22435 22438 22441 22443 22446 22449 22452 22455 22458 22461 22464 22467 22469 22471 22474 22477 22480 22483 22486 22489 22492 22495 22498 22500 22503 22505 22507 22510 22513 22516 22519 22522 22524 22527 22530 22533 22536 22539 22542 22545 22548 22551 22554 22557 22559 22562 22565 22568 22571 22574 22577 22580 22583 22585 22588 22591 22594 22597 22600 22603 22606 22609 22612 22615 22618 22621 22624 22627 22630 22633 22636 22639 22641 22644 22647 22650 22653 22656 22659 22662 22665 22668 22671 22673 22676 22678 22681 22684 22687 22690 22693 22696 22699 22702 22705 22708 22711 22713 22716 22719 22721 22724 22727 22730 22733 22736 22739 22742 22744 22747 22750 22753 22755 22758 22761 22764 22767 22770 22773 22776 22779 22782 22784 22787 22790 22793 22796 22799 22801 22803 22806 22808 22810 22813 22816 22819 22822 22825 22828 22831 22834 22837 22839 22842 22845 22847 22850 22853 22856 22859 22862 22865 22868 22871 22874 22877 22880 22883 22886 22889 22892 22895 22898 22901 22904 22907 22909 22912 22915 22917 22920 22923 22926 22929 22932 22934 22937 22940 22943 22946 22949 22952 22955 22958 22961 22964 22967 22970 22973 22976 22979 22982 22984 22987 22990 22993 22996 22999 23002 23005 23008 23011 23014 23017 23020 23023 23026 23029 23031 23034 23037 23040 23043 23046 23049 23052 23055 23057 23060 23063 23066 23069 23071 23073 23076 23078 23081 23084 23087 23090 23093 23095 23098 23101 23104 23107 23110 23113 23116 23119 23122 23124 23127 23130 23133 23136 23139 23142 23145 23148 23151 23154 23157 23160 23163 23166 23169 23172 23175 23178 23181 23184 23187 23190 23193 23196 23199 23202 23205 23208 23211 23214 23217 23220 23223 23226 23229 23232 23235 23238 23241 23244 23247 23250 23253 23256 23259 23262 23265 23268 23271 23274 23277 23280 23283 23285 23288 23291 23294 23297 23300 23303 23306 23309 23312 23315 23318 23321 23324 23327 23330 23333 23336 23339 23342 23345 23348 23351 23354 23357 23360 23362 23364 23367 23370 23373 23376 23378 23381 23384 23387 23389 23392 23395 23398 23401 23403 23406 23409 23412 23415 23418 23421 23424 23427 23429 23432 23435 23438 23441 23444 23446 23449 23452 23455 23458 23461 23464 23467 23469 23472 23474 23477 23480 23482 23485 23488 23491 23494 23497 23500 23503 23506 23509 23511 23514 23517 23519 23522 23525 23527 23529 23532 23535 23538 23541 23544 23547 23550 23553 23556 23559 23562 23565 23568 23571 23574 23577 23580 23582 23585 23588 23591 23594 23597 23600 23603 23606 23609 23612 23614 23617 23620 23623 23626 23628 23631 23634 23637 23640 23643 23646 23649 23652 23654 23657 23660 23663 23666 23669 23671 23674 23677 23680 23683 23685 23688 23691 23694 23697 23700 23703 23705 23708 23711 23713 23716 23719 23722 23724 23727 23730 23733 23736 23739 23742 23745 23748 23751 23754 23756 23758 23761 23764 23767 23770 23773 23776 23779 23782 23785 23788 23791 23794 23797 23800 23803 23805 23808 23811 23813 23816 23819 23822 23825 23828 23831 23834 23836 23839 23842 23845 23848 23850 23853 23856 23859 23861 23864 23867 23870 23873 23876 23879 23882 23884 23887 23890 23893 23895 23898 23901 23903 23906 23909 23912 23915 23918 23920 23922 23925 23928 23931 23934 23937 23940 23942 23945 23948 23951 23954 23957 23960 23963 23965 23968 23971 23974 23977 23980 23982 23985 23988 23991 23994 23997 23999 24002 24005 24008 24010 24013 24016 24019 24022 24025 24028 24031 24034 24037 24040 24043 24046 24049 24052 24055 24058 24061 24063 24066 24069 24072 24075 24078 24081 24084 24087 24090 24093 24096 24099 24101 24104 24107 24110 24112 24115 24118 24121 24124 24127 24129 24132 24134 24137 24140 24143 24146 24149 24152 24155 24158 24161 24164 24167 24169 24172 24175 24178 24181 24184 24187 24189 24192 24195 24198 24201 24204 24207 24210 24213 24216 24219 24222 24224 24227 24230 24233 24236 24239 24242 24245 24248 24251 24253 24256 24259 24262 24264 24267 24270 24273 24276 24279 24281 24284 24287 24290 24293 24296 24299 24302 24305 24307 24309 24312 24315 24317 24320 24323 24326 24329 24332 24335 24338 24341 24343 24346 24348 24351 24354 24357 24360 24363 24366 24369 24372 24375 24378 24381 24384 24387 24390 24393 24396 24399 24402 24405 24408 24411 24414 24416 24419 24422 24425 24428 24431 24434 24437 24440 24443 24446 24449 24452 24455 24458 24461 24464 24467 24470 24473 24476 24479 24482 24485 24487 24490 24493 24496 24499 24501 24504 24507 24510 24513 24516 24519 24522 24525 24527 24530 24533 24536 24539 24542 24545 24548 24551 24553 24556 24559 24562 24565 24568 24571 24574 24577 24580 24583 24586 24589 24591 24594 24597 24600 24602 24605 24608 24611 24614 24617 24620 24622 24625 24628 24631 24634 24637 24640 24643 24646 24649 24651 24654 24657 24659 24662 24664 24667 24670 24672 24675 24678 24681 24683 24686 24689 24692 24695 24698 24700 24703 24705 24708 24710 24713 24716 24719 24722 24724 24726 24729 24732 24735 24738 24741 24744 24747 24750 24752 24755 24758 24761 24764 24767 24769 24772 24775 24778 24781 24784 24787 24790 24792 24795 24798 24801 24804 24807 24810 24813 24816 24819 24822 24825 24828 24831 24834 24837 24840 24843 24846 24849 24852 24855 24858 24861 24863 24866 24868 24871 24874 24877 24880 24883 24886 24889 24892 24895 24898 24901 24904 24907 24910 24913 24916 24919 24922 24925 24928 24931 24934 24937 24940 24943 24946 24949 24952 24955 24958 24961 24964 24967 24970 24973 24976 24978 24981 24984 24986 24989 24992 24995 24998 25001 25003 25006 25009 25011 25014 25016 25019 25022 25024 25027 25030 25033 25036 25039 25042 25045 25047 25050 25053 25056 25059 25061 25064 25067 25070 25073 25076 25079 25081 25084 25087 25090 25092 25095 25098 25101 25104 25107 25110 25113 25116 25119 25122 25124 25127 25130 25133 25136 25139 25141 25143 25146 25149 25152 25155 25158 25161 25163 25166 25168 25171 25174 25177 25180 25183 25186 25188 25191 25194 25197 25199 25202 25205 25208 25210 25213 25216 25219 25222 25225 25228 25230 25233 25236 25239 25241 25244 25247 25250 25253 25256 25259 25262 25264 25267 25270 25273 25276 25278 25281 25284 25287 25290 25293 25296 25298 25301 25304 25307 25310 25313 25316 25318 25321 25324 25327 25330 25333 25335 25338 25341 25344 25347 25350 25353 25356 25359 25362 25365 25368 25371 25374 25377 25380 25383 25386 25389 25392 25395 25398 25401 25404 25407 25410 25413 25416 25419 25422 25425 25428 25431 25434 25437 25440 25443 25446 25449 25452 25455 25458 25461 25464 25467 25470 25473 25476 25479 25482 25485 25488 25491 25494 25497 25500 25503 25506 25509 25512 25515 25518 25521 25523 25526 25529 25532 25535 25538 25541 25544 25546 25549 25551 25554 25557 25559 25562 25565 25568 25570 25573 25576 25579 25582 25585 25587 25590 25593 25595 25598 25600 25602 25605 25608 25611 25613 25616 25619 25622 25625 25628 25631 25634 25637 25640 25643 25646 25649 25652 25655 25658 25661 25663 25666 25669 25672 25675 25677 25680 25683 25686 25688 25691 25693 25696 25699 25702 25705 25707 25710 25713 25716 25719 25721 25724 25727 25730 25733 25736 25739 25742 25744 25747 25750 25753 25756 25759 25762 25765 25768 25771 25773 25776 25779 25782 25785 25788 25791 25794 25797 25800 25802 25805 25808 25810 25813 25816 25819 25822 25825 25828 25830 25833 25836 25839 25841 25844 25847 25850 25853 25855 25858 25861 25863 25866 25869 25871 25874 25877 25880 25883 25886 25888 25891 25894 25897 25900 25903 25906 25909 25912 25915 25918 25921 25924 25927 25930 25933 25936 25939 25942 25945 25948 25950 25953 25956 25959 25961 25964 25967 25970 25973 25976 25979 25982 25985 25988 25991 25994 25996 25998 26001 26004 26007 26009 26012 26014 26017 26020 26023 26026 26029 26032 26035 26038 26041 26044 26047 26050 26053 26056 26059 26062 26065 26068 26071 26074 26077 26080 26082 26085 26088 26091 26094 26097 26100 26102 26105 26108 26111 26114 26117 26120 26122 26125 26128 26131 26134 26137 26139 26142 26145 26148 26151 26154 26157 26160 26162 26165 26167 26170 26173 26176 26178 26181 26184 26187 26190 26193 26196 26199 26202 26205 26207 26209 26212 26215 26218 26221 26224 26227 26229 26232 26235 26238 26241 26243 26246 26249 26252 26255 26258 26261 26264 26266 26269 26272 26275 26278 26281 26284 26287 26290 26293 26296 26299 26302 26305 26308 26311 26314 26316 26319 26322 26325 26328 26331 26334 26337 26340 26343 26346 26349 26352 26355 26357 26360 26363 26366 26368 26370 26373 26376 26378 26381 26384 26387 26390 26392 26395 26398 26401 26403 26406 26409 26412 26415 26418 26420 26423 26426 26428 26431 26434 26437 26439 26441 26444 26447 26449 26452 26455 26458 26461 26464 26467 26470 26473 26475 26478 26481 26484 26487 26490 26493 26496 26499 26502 26505 26508 26511 26514 26517 26519 26522 26525 26528 26531 26534 26537 26539 26542 26545 26548 26550 26553 26556 26559 26562 26565 26568 26571 26574 26577 26580 26582 26585 26588 26591 26594 26597 26600 26603 26606 26609 26612 26614 26617 26620 26623 26626 26629 26632 26635 26638 26641 26644 26647 26650 26653 26656 26659 26662 26665 26668 26671 26674 26677 26680 26683 26686 26689 26692 26695 26698 26701 26704 26707 26710 26713 26716 26719 26722 26724 26727 26730 26733 26736 26739 26742 26745 26748 26751 26754 26757 26760 26763 26766 26769 26771 26774 26777 26780 26783 26786 26789 26792 26795 26797 26800 26803 26806 26809 26812 26815 26818 26821 26824 26827 26830 26833 26836 26839 26841 26843 26846 26849 26852 26855 26858 26861 26864 26867 26869 26872 26875 26878 26881 26884 26887 26890 26893 26896 26899 26902 26905 26908 26911 26914 26917 26920 26923 26926 26929 26932 26935 26937 26940 26943 26946 26949 26952 26955 26958 26961 26964 26967 26970 26973 26976 26979 26982 26985 26988 26991 26994 26997 27000 27003 27006 27009 27012 27015 27018 27021 27024 27027 27030 27033 27036 27039 27042 27045 27048 27051 27054 27057 27059 27062 27064 27067 27070 27073 27076 27079 27082 27085 27088 27091 27094 27096 27099 27102 27105 27108 27111 27114 27117 27120 27123 27126 27129 27132 27135 27138 27141 27144 27147 27150 27153 27156 27159 27162 27165 27168 27171 27174 27177 27180 27183 27186 27189 27192 27195 27198 27201 27204 27207 27210 27213 27216 27219 27222 27225 27228 27231 27234 27237 27240 27242 27245 27248 27250 27253 27256 27259 27262 27265 27267 27270 27273 27276 27279 27282 27285 27287 27290 27293 27296 27299 27302 27305 27307 27310 27313 27316 27319 27321 27324 27327 27329 27332 27335 27338 27341 27344 27347 27350 27353 27356 27359 27362 27365 27368 27371 27374 27376 27379 27382 27385 27388 27391 27394 27397 27399 27402 27405 27408 27410 27413 27416 27419 27422 27425 27428 27431 27434 27437 27440 27443 27446 27449 27452 27455 27458 27461 27464 27467 27470 27473 27476 27479 27482 27484 27487 27490 27493 27496 27499 27502 27505 27508 27510 27513 27516 27519 27521 27524 27527 27530 27533 27536 27539 27542 27545 27548 27551 27554 27557 27560 27563 27566 27569 27572 27575 27578 27581 27584 27587 27590 27593 27596 27599 27602 27605 27607 27610 27613 27616 27619 27622 27625 27628 27631 27634 27637 27640 27643 27646 27649 27652 27655 27658 27661 27664 27667 27669 27672 27675 27678 27681 27684 27687 27690 27692 27695 27698 27701 27704 27706 27709 27712 27715 27718 27721 27724 27727 27730 27733 27736 27739 27742 27745 27748 27751 27754 27757 27760 27763 27766 27769 27772 27775 27778 27781 27784 27787 27790 27793 27796 27799 27802 27805 27808 27811 27814 27817 27820 27823 27826 27829 27832 27835 27838 27841 27844 27847 27850 27853 27856 27859 27862 27865 27868 27871 27874 27877 27880 27883 27886 27889 27892 27894 27897 27900 27903 27906 27909 27912 27915 27918 27921 27924 27927 27930 27933 27936 27939 27942 27945 27948 27951 27954 27957 27960 27963 27966 27969 27972 27975 27977 27979 27982 27985 27987 27990 27992 27995 27998 28001 28004 28007 28010 28013 28015 28018 28021 28024 28026 28029 28032 28035 28038 28041 28044 28047 28050 28053 28056 28059 28062 28065 28068 28071 28074 28077 28080 28083 28085 28088 28091 28094 28097 28100 28103 28106 28109 28112 28115 28118 28121 28124 28127 28130 28133 28136 28139 28142 28145 28148 28151 28154 28157 28160 28163 28166 28168 28171 28174 28177 28180 28183 28186 28189 28192 28195 28198 28201 28204 28207 28210 28213 28216 28219 28222 28225 28228 28231 28234 28237 28240 28243 28246 28249 28252 28255 28258 28261 28264 28267 28270 28272 28275 28278 28281 28284 28287 28290 28293 28296 28299 28302 28305 28308 28311 28314 28317 28320 28323 28326 28329 28332 28335 28338 28341 28344 28347 28350 28353 28356 28359 28361 28364 28367 28370 28373 28376 28379 28381 28384 28387 28390 28393 28396 28399 28402 28405 28408 28411 28414 28417 28420 28423 28426 28429 28432 28435 28438 28441 28444 28447 28450 28453 28456 28459 28462 28465 28468 28471 28474 28477 28480 28483 28486 28489 28492 28495 28498 28501 28504 28507 28510 28513 28516 28519 28522 28525 28528 28531 28534 28537 28540 28543 28546 28549 28552 28555 28558 28561 28564 28567 28570 28573 28576 28579 28582 28585 28588 28591 28594 28597 28600 28603 28606 28609 28612 28615 28618 28621 28624 28626 28629 28632 28634 28637 28640 28643 28646 28649 28652 28655 28658 28661 28664 28667 28670 28673 28676 28679 28682 28685 28688 28691 28694 28697 28700 28703 28706 28709 28712 28715 28718 28721 28724 28727 28730 28733 28736 28739 28742 28745 28748 28751 28754 28757 28760 28763 28766 28769 28772 28775 28778 28781 28784 28787 28790 28793 28796 28799 28802 28805 28808 28811 28814 28817 28820 28823 28826 28829 28832 28835 28838 28841 28844 28847 28850 28853 28856 28859 28862 28865 28868 28871 28874 28877 28879 28882 28885 28888 28891 28894 28897 28899 28902 28905 28907 28910 28913 28916 28919 28922 28925 28928 28931 28934 28937 28940 28943 28946 28949 28952 28955 28958 28961 28964 28967 28970 28973 28976 28979 28982 28985 28988 28991 28994 28997 29000 29003 29005 29007 29010 29013 29015 29018 29021 29023 29026 29029 29032 29035 29038 29041 29044 29047 29050 29053 29056 29059 29062 29065 29068 29070 29073 29076 29079 29082 29085 29087 29090 29093 29096 29098 29100 29103 29106 29108 29111 29113 29116 29119 29121 29124 29127 29130 29132 29134 29137 29140 29143 29146 29149 29151 29154 29157 29160 29163 29166 29169 29172 29175 29178 29181 29184 29187 29190 29192 29195 29198 29201 29204 29206 29208 29211 29214 29217 29220 29223 29226 29229 29232 29235 29238 29241 29244 29247 29250 29253 29256 29259 29262 29265 29268 29271 29274 29277 29280 29283 29286 29289 29292 29295 29298 29301 29304 29307 29310 29313 29316 29319 29322 29324 29327 29330 29332 29335 29338 29341 29344 29347 29350 29353 29356 29359 29361 29364 29367 29369 29372 29375 29378 29381 29384 29387 29390 29393 29396 29398 29401 29404 29407 29409 29412 29415 29417 29420 29423 29426 29428 29431 29434 29437 29440 29442 29445 29448 29451 29454 29457 29460 29463 29466 29469 29472 29475 29478 29481 29484 29486 29489 29492 29495 29498 29500 29503 29506 
</DataArray>
<DataArray type="UInt32" Name="types" format="ascii">
5 5 5 5 3 5 5 5 5 5 5 5 5 3 5 5 3 5 5 5 5 5 3 5 5 5 3 3 5 5 5 5 5 5 5 5 5 5 5 5 5 5 5 5 5 5 3 5 5 5 5 5 5 5 5 3 5 5 5 5 5 5 3 5 5 3 5 5 5 5 3 5 5 5 5 5 5 5 5 5 5 5 5 5 5 5 5 5 5 5 5 5 3 5 5 5 5 5 5 3 5 5 5 5 5 5 5 5 5 5 5 5 5 3 5 3 5 5 5 5 3 5 5 5 5 5 5 5 5 5 5 5 3 5 5 5 5 3 5 5 5 5 5 5 5 5 5 5 3 5 5 5 5 5 5 5 5 5 5 5 5 5 5 3 5 5 5 5 3 5 5 5 5 5 5 5 5 5 5 5 5 5 5 5 5 5 5 5 5 5 5 5 5 5 5 5 5 5 5 5 5 5 5 5 5 5 5 5 5 5 5 5 3 5 5 3 5 5 5 5 5 5 5 5 5 5 3 3 5 5 5 5 5 5 5 5 5 5 5 5 5 3 5 5 5 5 5 3 5 5 5 5 5 3 5 5 5 5 5 5 3 5 5 3 5 5 5 3 5 5 5 5 3 5 5 5 3 3 5 3 5 5 5 5 5 5 5 5 3 5 5 5 5 5 5 5 5 5 5 5 3 5 5 5 5 5 5 5 5 5 5 5 5 5 5 5 5 5 3 5 5 5 5 5 5 5 5 5 5 5 5 5 5 5 5 5 5 3 5 5 5 3 3 5 5 5 3 5 5 3 5 5 5 5 5 5 5 5 5 5 5 5 5 3 5 5 5 5 5 5 5 5 5 5 5 5 5 5 5 5 5 3 5 5 5 3 5 5 5 5 3 5 5 5 5 5 5 5 3 5 5 3 5 5 5 5 5 5 5 5 5 3 3 5 5 3 5 5 5 3 5 3 5 5 5 5 3 5 5 3 5 5 5 5 5 5 3 5 5 5 5 3 5 3 5 3 5 3 5 5 5 3 5 5 5 3 5 5 5 3 5 3 5 5 5 3 5 5 5 5 5 5 5 5 5 5 5 3 5 5 5 5 5 5 5 5 5 5 5 5 5 5 3 3 5 5 5 5 3 5 5 5 5 5 5 3 5 5 3 5 5 5 5 5 5 5 5 5 5 5 5 5 5 5 5 5 5 5 5 5 5 5 5 3 5 5 5 3 5 5 3 5 3 5 5 3 5 5 5 5 5 5 5 5 5 3 5 5 3 5 5 5 5 5 5 5 5 5 5 5 5 5 5 5 5 5 5 5 5 5 5 5 5 5 5 5 5 5 3 5 5 5 5 5 5 3 5 5 5 5 5 5 5 3 5 5 5 3 3 5 5 3 5 5 3 5 5 5 5 5 5 5 5 5 5 5 5 3 5 5 5 5 5 3 5 5 5 5 5 5 3 3 5 3 5 5 5 3 5 3 5 3 5 5 5 5 5 3 3 5 5 5 3 5 3 3 5 5 5 5 5 5 5 5 5 3 5 5 5 5 3 5 5 5 5 5 5 3 5 5 5 3 5 5 5 5 5 5 5 5 3 5 5 5 5 5 3 5 5 5 5 5 5 5 5 5 3 5 5 5 5 5 5 5 5 5 5 5 5 5 5 5 5 5 5 5 5 5 5 5 5 5 5 5 5 5 5 5 5 5 5 5 5 5 3 5 3 5 5 3 5 5 5 3 5 5 5 5 5 5 5 5 5 5 5 5 3 5 5 3 5 5 5 5 5 3 3 3 5 3 5 5 5 5 5 5 5 3 5 3 5 3 5 5 3 5 5 3 5 5 5 5 5 3 5 5 5 5 5 3 5 5 5 3 5 5 3 5 5 5 5 5 5 5 5 5 5 5 5 3 5 3 5 5 5 5 5 5 5 5 5 5 5 5 5 3 5 5 3 5 5 5 3 3 5 5 5 5 5 3 5 5 3 5 3 5 5 5 5 5 3 5 5 5 5 5 5 5 5 5 5 5 5 5 5 3 5 3 5 5 5 5 5 3 5 5 5 5 5 3 3 5 5 3 5 3 5 5 3 5 3 5 3 3 3 5 5 3 5 5 5 5 5 5 5 5 5 5 5 3 5 5 3 5 5 5 5 5 5 5 5 5 3 5 3 5 3 5 5 3 5 3 5 5 5 3 5 3 3 5 5 3 3 5 5 5 5 5 3 5 5 5 5 5 5 5 5 5 5 5 5 5 5 5 5 5 5 5 5 5 5 5 5 5 5 5 5 5 5 5 5 5 3 5 5 5 5 5 5 3 5 5 3 5 5 5 5 5 5 5 5 5 5 5 5 5 3 5 3 5 5 3 5 5 5 5 5 5 5 5 5 5 5 5 3 5 5 3 5 5 5 5 5 5 5 5 5 5 5 5 5 3 3 5 5 5 5 5 3 5 3 3 5 5 5 5 5 5 5 5 3 5 5 5 3 5 5 5 5 5 5 5 5 5 3 5 3 5 5 5 5 5 5 5 5 3 5 5 5 3 5 5 5 3 5 5 3 5 5 5 5 3 5 5 5 5 5 3 5 5 5 3 5 5 5 5 5 5 5 5 5 5 5 5 3 5 5 5 5 5 5 5 5 5 3 5 5 5 5 3 5 5 5 5 5 5 3 5 5 5 5 5 5 5 5 5 5 5 3 5 5 3 5 5 3 5 3 3 5 5 5 5 5 3 5 5 5 5 5 5 5 3 5 5 5 5 5 5 5 5 5 5 5 5 5 5 5 5 3 5 5 3 5 5 5 5 5 5 5 5 5 3 5 5 5 5 5 5 5 5 5 5 5 5 5 5 5 5 5 5 5 5 5 5 5 5 3 5 5 5 5 5 5 5 5 5 5 5 5 5 3 5 5 5 5 5 5 5 5 5 5 3 5 5 5 5 3 5 3 5 5 5 5 5 5 5 5 3 5 5 5 5 5 3 5 5 5 5 5 3 5 3 5 5 5 5 5 5 5 5 5 5 5 3 5 5 5 5 5 5 5 5 5 5 5 5 5 5 5 5 5 5 5 5 5 5 5 5 5 5 5 3 5 5 5 5 5 5 5 5 3 5 3 5 5 5 5 5 5 5 5 5 5 5 5 5 5 5 5 5 3 5 5 5 5 5 5 5 3 5 5 5 5 5 3 5 5 5 5 5 5 5 5 5 5 3 5 5 5 5 5 5 5 5 5 5 5 5 5 5 5 5 5 5 5 5 5 5 5 5 3 5 5 3 5 5 5 5 5 3 5 5 5 5 3 5 5 5 5 5 5 5 5 5 5 5 5 5 3 3 5 5 5 5 3 5 5 5 5 5 5 5 3 5 5 5 3 5 5 5 5 5 3 5 3 5 3 5 5 5 5 5 5 5 5 5 5 5 3 5 5 5 3 5 5 5 5 5 5 5 5 5 5 5 3 3 5 5 3 5 5 3 5 5 5 5 5 5 5 5 5 5 5 5 5 5 5 5 5 5 5 5 5 5 5 3 5 5 5 5 5 3 5 5 5 5 3 5 5 5 5 5 5 3 5 5 5 5 5 5 3 5 5 3 5 3 5 3 5 5 5 5 5 5 5 5 5 5 5 5 5 5 5 5 3 3 5 5 5 3 5 5 5 3 5 3 5 5 3 3 5 5 5 5 5 5 5 5 3 5 5 5 3 5 5 3 5 3 5 3 5 5 5 5 5 5 5 5 5 5 5 5 5 5 5 5 5 5 5 5 5 5 3 5 5 5 3 3 5 5 5 5 5 5 3 3 5 5 3 5 5 5 5 3 5 5 5 5 5 5 5 5 5 5 5 5 5 5 5 3 5 5 5 3 5 5 5 5 5 5 5 5 5 5 3 5 5 5 5 3 5 5 5 5 3 5 5 5 5 5 5 5 5 5 5 3 5 3 3 5 5 5 5 5 5 5 5 5 5 5 5 5 5 5 5 5 5 5 5 5 3 5 5 5 5 5 5 5 5 5 3 5 5 5 3 5 5 5 5 5 5 5 3 3 5 5 3 3 5 3 5 5 5 3 5 5 3 3 5 5 5 5 5 5 5 5 5 3 5 5 5 3 3 5 5 5 5 5 5 5 5 3 5 5 5 5 5 5 5 5 3 5 5 5 5 5 5 5 5 3 5 5 3 5 5 5 3 3 5 5 5 5 5 5 5 5 5 5 5 5 3 5 5 5 3 5 3 5 5 5 5 5 5 5 3 5 3 5 5 5 5 5 5 5 5 5 5 5 5 3 5 5 5 5 3 5 5 5 3 5 5 5 5 5 5 5 3 5 5 5 3 5 5 5 5 5 5 5 5 3 5 5 5 5 5 5 5 5 5 5 5 5 5 5 5 5 5 5 3 3 5 5 5 5 3 5 3 5 5 5 5 5 5 5 3 5 5 3 3 5 3 3 5 3 5 3 5 5 5 3 5 5 5 5 5 5 5 5 5 5 5 5 3 5 5 3 5 5 5 5 5 5 5 3 5 3 5 3 5 5 3 5 5 3 5 5 3 5 5 5 5 5 5 5 5 5 5 5 3 5 5 5 5 5 5 5 5 5 5 5 5 5 5 5 5 5 5 5 5 5 5 5 5 3 5 5 5 5 3 5 5 5 5 5 5 3 5 5 3 5 5 5 5 5 5 5 5 5 5 3 5 5 5 5 5 5 3 5 5 5 5 5 5 5 5 5 5 5 5 3 5 5 5 5 5 5 5 5 5 5 5 3 5 5 5 3 3 5 5 5 5 5 3 5 5 5 5 5 5 5 5 5 3 5 5 3 5 5 5 3 5 5 5 5 5 5 5 3 5 5 5 5 5 5 5 5 5 5 5 5 5 5 5 5 5 5 5 5 5 5 3 5 5 5 3 5 5 5 3 3 5 5 5 5 5 5 5 3 5 5 5 5 3 5 5 3 5 5 5 5 5 3 5 5 3 5 5 5 5 3 5 5 5 5 5 5 5 5 5 3 5 5 3 3 5 3 5 5 5 3 3 3 5 5 3 5 5 3 5 5 5 5 3 5 5 3 5 5 5 3 5 5 5 5 3 5 5 5 3 5 5 5 3 5 5 5 5 3 3 5 5 5 3 5 3 5 5 5 5 5 5 5 5 3 5 5 5 5 5 5 3 5 5 5 5 3 5 5 5 3 5 5 5 5 5 5 3 3 3 5 3 5 5 5 5 5 5 5 5 5 5 5 5 5 5 5 5 5 5 5 5 5 5 5 5 3 5 5 5 3 5 5 5 3 5 5 5 3 5 5 5 3 5 5 5 5 5 5 5 5 5 3 5 5 5 5 5 5 5 5 5 5 5 5 5 5 5 5 5 5 5 5 5 5 5 5 5 5 5 3 5 5 5 3 5 5 5 5 3 5 5 5 5 5 5 3 5 5 5 3 5 5 5 5 5 5 5 5 5 5 5 5 5 5 5 5 5 5 5 3 5 5 5 5 5 5 5 5 5 5 5 5 5 5 5 5 5 5 5 5 5 5 5 5 5 5 5 5 5 5 5 5 5 5 5 5 5 5 5 5 5 5 5 5 5 5 5 5 3 5 5 5 5 5 3 5 5 5 5 5 5 5 5 5 5 3 5 5 3 5 3 5 5 3 5 5 5 5 5 5 5 5 5 5 5 5 5 5 5 5 3 5 5 5 5 5 3 5 5 5 5 5 3 5 5 5 5 5 5 5 5 5 3 3 5 5 5 3 5 5 5 5 5 5 3 3 5 5 5 5 5 5 3 5 5 3 5 5 5 5 5 5 5 5 3 5 5 3 5 5 5 3 5 5 5 5 5 5 3 5 5 5 5 5 5 5 5 5 5 5 5 3 5 5 5 3 3 5 5 3 5 5 5 3 5 5 5 5 5 5 5 5 5 5 3 5 5 5 5 3 3 5 5 5 5 3 5 5 5 3 5 5 5 5 3 5 5 3 5 5 5 5 5 3 5 3 3 5 5 3 5 5 5 5 3 5 5 5 5 5 3 3 5 5 3 5 3 3 5 5 5 5 5 5 5 3 5 5 5 5 3 5 5 5 5 5 5 5 5 5 5 5 5 5 5 5 5 3 5 5 5 5 5 5 3 5 5 5 3 3 5 5 3 5 3 5 5 3 5 5 5 5 5 5 5 3 5 5 5 5 5 3 5 3 5 5 5 3 3 5 5 5 3 5 5 5 3 5 5 5 3 5 5 5 5 5 5 3 3 3 5 5 5 5 5 3 3 5 5 5 5 5 5 3 5 3 5 5 5 5 5 3 5 5 5 3 5 3 5 5 5 5 5 5 5 5 5 5 5 3 5 5 5 5 5 3 5 5 5 5 5 5 3 5 5 5 3 5 3 5 3 5 3 5 5 5 3 3 5 5 5 5 5 5 5 5 5 5 5 5 5 3 5 5 5 5 5 5 5 5 3 5 5 5 5 5 3 5 5 3 5 3 3 5 5 5 5 5 3 5 5 5 5 5 5 5 5 5 5 5 5 5 5 5 5 5 5 5 5 5 5 5 5 5 5 5 5 5 5 5 5 5 5 5 5 5 5 5 5 5 3 5 5 5 5 5 5 5 5 5 5 5 3 5 5 5 5 3 5 3 5 5 3 5 5 5 5 5 5 5 5 5 5 5 5 5 5 5 5 5 5 5 5 5 5 5 5 5 5 5 5 5 5 5 5 5 5 5 3 5 5 5 5 5 5 5 5 5 5 5 5 5 3 5 3 5 5 5 5 5 5 3 5 5 3 5 5 3 5 3 5 5 5 5 5 5 5 3 5 3 5 5 5 3 5 5 3 5 5 3 3 5 3 5 3 5 5 5 5 3 5 5 5 3 3 5 5 5 3 5 5 5 5 5 3 5 5 5 5 5 3 5 5 5 5 5 5 5 5 5 5 3 5 5 3 3 5 5 3 3 5 3 5 5 5 3 5 5 5 5 3 5 3 5 5 3 3 3 5 3 5 5 3 5 3 5 5 3 5 5 3 5 3 5 5 3 5 3 5 5 5 5 5 3 3 3 5 5 5 3 5 3 3 5 5 3 5 5 5 3 5 5 3 3 5 3 5 3 5 5 5 3 5 5 5 5 5 5 5 3 5 5 5 5 3 5 5 5 3 5 5 5 5 5 3 3 5 5 5 5 3 3 5 5 5 5 5 5 5 3 5 3 5 5 5 5 3 5 3 3 5 5 5 5 5 5 3 5 3 5 5 5 5 3 5 3 3 5 5 3 5 5 5 5 5 5 5 5 5 5 3 5 5 3 5 5 5 5 3 5 5 5 5 5 3 3 5 5 3 5 5 5 5 5 5 5 5 5 5 3 5 5 5 5 5 5 5 5 5 5 5 5 5 5 5 5 5 5 3 5 5 3 5 5 5 5 5 5 3 3 5 5 5 3 3 5 5 5 3 5 5 5 3 5 3 5 5 5 5 3 3 5 5 5 5 3 5 3 5 3 3 5 5 3 3 5 5 5 5 5 5 5 5 5 5 5 5 3 5 5 3 5 5 5 5 5 5 5 3 5 5 5 5 3 5 5 5 5 5 5 5 5 3 5 5 3 3 5 5 5 5 3 5 3 5 5 5 5 5 5 5 5 5 3 5 5 3 3 5 5 5 3 5 5 3 5 5 5 3 5 5 5 5 3 3 5 5 5 5 3 5 5 5 5 5 5 5 5 5 5 5 3 5 5 5 3 5 3 5 5 5 3 5 5 3 3 5 5 3 3 3 5 3 5 5 3 5 3 5 3 3 5 5 5 3 5 3 5 3 5 5 5 5 5 3 5 5 5 5 5 3 3 5 5 5 5 5 3 5 5 5 5 5 3 5 5 5 5 5 5 5 5 5 3 5 5 5 3 3 3 5 5 5 3 5 3 5 5 5 5 3 5 5 5 5 5 5 5 5 5 5 5 5 5 5 5 5 3 5 5 5 5 5 5 5 5 5 5 5 3 3 5 5 3 5 5 5 3 5 5 5 5 5 5 5 5 5 5 5 5 5 5 3 3 5 5 5 5 5 3 5 5 5 5 5 5 5 5 5 3 5 5 5 3 5 5 5 5 5 5 5 3 3 5 5 5 5 5 5 5 5 5 5 5 5 5 5 5 5 5 5 5 5 5 5 5 5 5 5 5 5 5 5 5 5 3 5 5 5 5 5 5 5 5 3 5 3 5 3 5 5 3 5 5 3 5 3 3 5 5 5 3 3 5 5 5 5 5 5 5 5 5 5 5 5 5 5 5 5 5 5 5 3 5 5 5 5 5 5 5 3 5 5 5 5 5 5 5 5 3 5 5 5 3 3 5 3 5 5 5 5 5 5 5 5 5 5 5 3 5 5 5 5 5 5 5 5 5 5 5 5 5 5 3 5 5 5 5 5 5 3 5 5 5 5 5 5 5 5 5 5 3 5 5 5 5 5 5 5 5 5 5 3 5 3 5 5 5 5 5 5 5 5 5 5 5 5 5 5 3 5 5 5 5 5 5 5 5 5 5 5 5 5 5 5 3 5 5 5 3 5 5 5 5 5 5 5 5 5 3 5 5 3 5 3 5 5 5 3 5 5 5 5 5 3 5 5 5 5 5 5 5 3 5 5 3 5 5 5 5 5 5 3 5 5 3 5 5 5 3 5 5 5 5 5 5 3 5 5 5 5 5 5 5 5 5 5 5 5 5 5 5 5 5 5 3 5 3 5 5 3 5 5 5 5 5 5 5 5 5 5 5 5 5 5 3 5 5 3 5 5 5 5 3 5 5 5 5 5 5 3 5 5 5 3 5 5 3 5 5 5 3 5 3 3 5 5 5 3 5 5 5 3 3 5 5 3 3 5 5 5 5 3 3 5 5 5 5 5 3 3 5 3 5 5 3 5 5 5 5 5 5 5 3 3 5 5 5 5 5 5 5 5 5 5 5 5 5 5 5 5 5 5 5 3 5 5 5 5 5 3 5 5 5 5 3 5 5 5 5 5 5 3 5 5 5 5 5 5 5 3 5 5 5 5 5 3 5 3 3 5 5 3 5 3 5 3 5 3 5 5 5 5 5 5 5 5 3 5 5 5 3 5 5 5 5 5 5 5 5 5 5 5 5 5 5 5 5 5 5 5 5 5 5 5 5 5 3 5 5 5 5 5 5 5 5 5 3 5 3 5 5 5 5 5 5 5 5 5 5 5 5 3 5 5 3 5 5 5 3 5 5 5 3 5 5 5 5 3 5 5 3 5 5 5 5 5 5 5 5 5 5 5 5 5 5 5 5 3 5 5 5 5 5 5 5 5 3 5 5 5 3 5 5 5 5 5 5 5 5 5 5 5 5 5 5 5 5 5 5 5 5 5 5 5 5 5 3 5 3 5 5 5 5 3 5 5 3 5 5 5 5 5 5 5 5 5 5 5 5 3 5 5 5 3 5 3 5 5 5 5 5 5 5 3 5 3 5 5 3 5 5 5 5 5 5 5 5 5 5 5 3 5 5 5 5 3 5 5 5 5 5 5 5 5 5 5 5 5 5 5 3 5 5 5 5 5 5 5 5 5 5 5 5 5 5 5 5 5 5 5 5 5 5 5 5 5 5 5 5 3 5 5 3 3 5 5 5 5 5 5 3 5 5 5 5 5 5 5 5 5 5 5 5 5 5 5 5 5 5 5 5 5 5 5 5 5 5 5 5 5 5 5 5 5 5 5 5 5 5 5 5 5 5 5 5 5 5 5 5 5 5 5 5 5 5 5 5 5 5 5 5 5 5 5 5 5 3 5 5 5 5 5 5 5 5 5 5 5 5 5 5 5 5 5 3 5 5 5 5 3 5 5 5 5 5 3 5 5 3 5 3 3 5 3 3 5 3 5 5 5 5 5 3 5 3 5 5 5 5 5 5 5 3 3 5 3 5 5 5 5 5 5 5 5 5 5 5 5 5 5 5 5 5 5 5 5 5 5 5 5 5 3 5 5 5 3 5 5 5 5 5 5 5 5 5 5 3 5 5 5 3 5 5 3 5 5 5 5 5 5 5 3 5 5 5 5 3 5 5 3 5 5 5 5 5 5 5 5 5 5 5 3 5 5 5 5 5 5 5 5 5 5 5 5 3 5 5 5 5 5 5 5 5 5 5 5 5 5 5 5 5 3 5 5 5 3 5 5 5 5 5 5 5 5 5 5 5 5 5 5 5 3 3 5 5 5 5 5 5 5 5 5 3 5 3 5 5 5 5 5 5 3 5 5 5 5 5 5 5 5 3 3 5 5 5 5 5 5 5 5 5 5 5 5 5 3 5 5 5 5 5 5 3 5 5 5 5 3 5 5 5 5 5 5 5 5 5 5 5 5 5 5 5 5 5 5 5 3 5 5 3 5 5 3 5 5 5 5 3 5 5 5 5 5 5 5 5 3 5 5 3 5 5 5 5 5 5 5 3 5 5 5 5 3 5 5 3 5 5 5 3 5 5 5 5 3 5 5 5 5 5 5 3 5 3 5 5 5 5 5 3 3 5 5 5 5 3 5 5 3 5 5 5 5 5 5 5 5 5 5 5 3 5 5 5 5 5 5 5 5 5 5 3 5 5 5 5 5 5 5 5 5 5 5 5 5 5 5 5 5 5 5 5 5 5 5 5 5 5 5 5 5 5 3 5 3 3 5 3 5 5 5 5 5 3 5 5 5 3 5 5 5 5 5 3 5 5 5 5 3 5 3 5 3 5 5 5 5 5 5 5 5 5 5 3 5 3 5 5 5 3 5 3 5 5 5 5 3 3 3 5 5 5 5 5 5 5 5 5 5 5 3 5 5 3 3 5 5 5 5 3 5 5 5 5 5 5 5 5 5 5 5 5 5 5 3 5 5 5 5 5 5 5 5 5 5 5 5 5 5 3 5 5 5 5 5 5 3 5 5 5 3 3 5 3 5 5 3 5 5 3 3 5 5 5 3 5 5 3 5 5 5 5 5 5 5 5 3 5 3 5 5 5 3 5 3 3 5 5 3 5 5 5 5 5 5 5 5 5 5 5 3 5 5 5 5 5 5 5 5 5 5 5 5 3 5 3 5 3 5 5 5 5 5 5 5 5 5 5 5 5 5 5 5 5 5 3 5 5 5 5 5 5 5 5 3 5 5 5 5 5 5 5 5 5 5 5 5 5 5 5 5 3 5 5 5 5 3 5 5 5 5 5 5 5 5 5 5 3 5 5 5 5 5 5 3 5 5 5 5 5 5 5 5 5 5 5 5 5 5 5 3 5 5 5 5 5 5 5 5 3 5 5 3 5 5 3 5 3 3 5 3 3 5 5 3 5 5 5 5 5 5 5 5 5 5 5 3 5 5 3 5 5 5 5 5 5 5 5 5 5 5 5 5 5 3 5 5 5 5 5 5 5 5 5 3 5 5 5 5 3 5 5 5 5 5 3 5 5 5 3 5 3 5 3 5 3 5 5 5 3 5 5 5 5 3 5 3 5 3 5 3 5 3 5 5 5 3 3 5 5 3 3 5 5 5 5 5 3 5 5 5 3 5 5 3 5 5 5 3 5 5 5 5 3 3 5 5 3 5 5 5 3 5 5 5 5 5 5 3 5 5 3 5 3 5 3 5 5 5 5 5 5 5 5 5 5 5 3 5 5 5 3 5 5 5 3 5 5 5 5 5 5 5 5 5 5 5 5 5 5 5 5 5 5 3 5 3 5 3 5 3 5 5 5 5 5 3 5 5 5 5 5 5 3 5 3 5 5 3 5 5 5 3 5 5 5 5 5 5 5 5 5 5 5 5 5 5 5 5 5 5 5 3 5 3 5 5 5 5 3 5 5 5 3 5 5 5 5 5 5 5 5 5 3 5 3 5 5 3 5 5 5 5 5 3 5 3 3 5 5 5 3 3 5 3 5 5 3 5 5 5 5 3 5 5 5 5 5 5 5 5 5 5 3 5 5 5 5 5 5 5 5 5 5 5 5 3 5 5 5 5 5 3 5 5 5 5 3 5 3 5 5 3 5 5 5 5 3 5 5 5 5 5 5 5 5 5 5 5 5 3 5 3 5 5 5 5 3 5 5 5 3 5 3 5 3 5 5 5 5 5 3 5 5 5 5 5 5 5 3 5 5 5 3 5 5 5 5 3 5 5 5 3 5 5 5 5 5 5 5 3 5 3 5 5 5 5 5 5 5 5 5 5 5 3 5 3 5 5 3 5 5 5 3 5 5 5 5 5 5 5 5 5 5 5 5 5 5 5 5 5 5 5 5 5 5 5 5 5 5 5 5 5 5 5 5 5 5 5 5 5 5 5 5 5 5 5 5 5 5 5 3 5 5 5 5 5 5 5 5 5 5 5 5 5 5 3 5 5 5 5 5 5 5 5 5 5 5 5 5 5 5 5 5 5 5 5 5 5 5 5 5 5 5 5 3 5 5 3 5 5 5 5 5 5 5 5 5 5 3 3 5 3 5 5 5 5 3 3 5 3 5 5 5 3 5 5 3 5 5 5 5 5 5 5 5 5 5 3 5 5 5 5 5 3 5 3 5 5 5 3 5 3 5 5 5 5 5 5 3 5 3 5 5 5 5 5 5 5 5 5 3 5 5 5 5 5 5 5 5 5 5 5 5 5 5 3 5 5 5 3 5 5 5 5 5 3 5 5 5 5 5 5 5 5 5 3 5 5 5 5 3 5 5 5 5 5 5 5 5 5 5 5 5 5 5 5 5 5 5 5 5 5 5 5 5 5 5 5 3 5 5 5 5 5 5 5 5 5 5 5 5 5 5 5 5 5 5 5 5 5 5 5 5 5 5 5 5 5 5 5 5 5 5 5 5 5 5 5 5 5 5 5 3 5 5 5 5 5 5 5 5 5 5 5 5 5 5 5 5 5 5 5 5 5 5 5 5 5 5 5 5 5 5 5 5 5 5 5 5 5 5 5 5 5 3 5 5 5 5 5 5 5 5 5 5 5 5 5 5 3 5 5 5 5 3 5 5 5 5 5 3 5 5 5 5 5 5 5 3 5 5 5 5 5 5 3 5 5 5 5 5 5 5 5 5 5 5 5 5 5 5 3 5 5 5 5 3 5 5 5 5 5 5 5 5 5 5 5 5 5 5 3 5 3 5 5 5 3 3 5 5 5 5 5 5 3 5 3 5 5 5 5 5 5 5 5 5 5 5 5 5 5 5 5 3 5 5 5 5 5 3 5 5 3 5 5 5 5 5 3 5 5 3 3 5 5 5 5 5 5 5 5 3 5 5 5 3 3 3 5 3 5 5 5 5 5 5 3 5 3 5 5 3 5 5 5 5 5 5 5 5 3 5 3 5 5 5 3 5 5 5 3 5 5 5 5 3 5 5 5 3 5 5 5 5 5 5 5 5 5 5 5 5 5 5 3 5 3 5 5 5 5 5 5 3 5 3 5 3 5 5 5 5 5 5 5 5 5 5 5 5 5 5 5 5 5 5 5 5 5 5 5 5 5 3 5 5 5 5 5 3 5 5 5 5 3 5 5 3 5 5 5 5 3 5 5 3 5 3 5 5 5 5 3 5 3 5 5 5 5 5 5 5 3 5 3 5 5 3 3 5 5 3 3 5 5 5 3 5 5 3 5 3 5 5 5 5 5 5 5 5 5 5 5 5 5 3 3 5 5 5 5 5 5 5 5 5 5 5 5 5 5 5 5 5 5 5 5 5 5 5 5 5 5 5 5 5 5 5 5 3 5 5 5 3 5 5 3 5 3 3 5 5 3 3 5 5 5 5 5 5 3 3 5 3 5 5 5 3 5 5 3 5 5 5 5 5 5 5 5 5 5 5 5 5 5 5 5 5 5 5 5 5 5 5 5 5 5 5 5 5 5 5 5 5 5 5 3 5 3 5 3 5 5 3 5 5 5 5 5 5 5 5 5 5 5 5 5 5 5 5 5 3 5 5 5 5 5 5 5 5 5 3 5 5 5 5 5 5 5 3 5 5 3 5 5 5 5 5 5 5 5 5 5 3 5 5 5 5 5 5 5 5 5 5 5 5 5 3 5 5 3 5 5 5 5 5 5 5 5 5 5 3 5 5 5 5 5 5 5 5 5 5 5 5 5 5 5 5 5 3 5 5 5 5 5 5 5 5 5 5 5 5 3 5 5 5 5 5 5 5 3 5 3 5 5 5 5 5 5 5 3 5 5 3 5 5 5 5 5 3 5 5 5 5 5 3 5 5 5 5 5 5 5 5 5 5 5 5 5 5 5 5 5 5 5 5 5 5 5 5 5 5 5 5 5 5 3 3 5 5 5 5 5 5 5 3 5 5 5 5 5 5 5 5 5 3 5 5 3 5 5 5 5 5 5 3 5 3 5 5 5 5 5 5 5 5 3 5 3 5 5 5 5 5 5 3 5 5 5 5 5 5 5 3 5 5 5 5 5 5 5 5 3 5 5 5 5 5 5 5 5 3 5 5 5 3 5 5 5 5 3 5 5 5 3 3 5 5 5 5 5 3 3 5 5 5 3 3 5 5 5 5 3 5 3 5 3 5 5 5 5 5 5 5 5 5 5 5 5 5 5 3 5 5 5 5 5 5 5 5 5 5 3 5 5 3 3 3 5 5 5 5 3 5 5 5 5 5 3 5 5 5 5 5 5 5 5 5 5 5 3 5 5 5 3 3 5 5 5 5 5 5 5 3 5 5 3 5 3 5 5 5 5 3 5 5 5 3 5 5 3 5 3 5 5 5 5 5 5 5 5 5 5 5 5 5 5 5 5 3 5 5 5 5 5 5 5 5 5 5 5 5 3 5 3 5 5 5 5 5 3 5 5 5 5 5 5 5 5 5 5 5 3 5 3 5 5 3 5 5 5 5 5 3 5 5 5 5 5 5 5 5 5 5 3 5 5 5 5 5 5 5 5 5 5 5 5 5 3 5 5 5 3 5 5 5 5 5 3 5 5 5 5 5 5 3 5 3 3 3 5 5 5 5 5 3 5 5 5 5 5 5 3 5 3 3 5 5 3 3 5 3 5 5 3 5 5 5 5 5 5 5 5 5 5 5 5 5 5 5 5 5 5 5 5 3 5 5 5 5 5 5 5 5 5 5 5 5 5 5 5 5 5 5 5 5 3 5 5 5 5 5 3 5 5 5 5 5 5 5 3 5 5 3 5 5 5 5 5 5 5 5 5 5 5 5 5 5 5 5 5 3 5 5 5 5 3 5 5 3 5 3 5 5 5 5 5 5 5 5 5 5 5 5 5 3 5 5 5 5 5 5 5 5 3 5 5 5 5 3 5 5 5 5 5 5 5 3 5 5 5 5 5 5 5 5 5 5 5 5 5 5 5 5 5 3 5 5 5 5 5 3 5 5 5 5 5 5 3 5 5 5 3 5 5 5 5 5 3 3 5 5 5 5 3 5 3 5 3 5 5 5 5 5 5 5 5 5 5 5 5 3 3 5 3 5 5 5 5 5 5 5 5 5 5 5 5 5 5 5 5 5 5 5 5 5 5 3 5 5 5 5 5 5 5 3 5 3 5 5 3 3 5 5 5 5 3 5 5 5 5 5 5 3 5 5 5 5 5 5 3 5 5 5 5 5 3 5 5 5 5 5 5 5 3 3 5 5 5 5 5 5 5 5 3 5 3 5 5 3 3 3 5 5 5 5 5 5 5 3 5 3 5 3 3 5 3 3 5 5 5 3 3 5 5 5 5 5 3 5 3 3 3 5 5 5 5 3 5 3 5 5 5 5 5 3 3 5 5 5 5 5 3 5 5 5 5 5 3 5 5 5 5 5 5 5 5 3 3 5 3 5 5 3 5 5 5 3 3 3 5 3 5 3 3 5 5 3 5 5 5 5 5 5 5 5 5 5 5 5 5 3 3 5 3 5 3 5 5 5 5 3 3 5 5 5 5 3 5 5 5 5 5 5 5 5 5 5 5 5 5 3 5 5 3 5 5 5 5 5 5 5 5 5 5 5 5 5 5 5 5 5 5 5 3 5 5 5 3 5 5 5 3 5 5 3 5 3 5 3 5 5 5 5 5 5 5 5 5 5 5 3 5 5 5 5 3 5 5 3 5 5 5 5 5 5 3 5 5 3 5 5 5 5 5 5 3 5 5 3 5 5 3 5 5 3 5 5 5 5 5 5 3 5 5 5 5 3 5 5 5 3 5 5 5 5 5 5 5 5 5 5 5 5 5 3 5 5 5 3 3 5 5 3 5 5 3 3 5 5 5 5 5 5 3 5 5 3 5 5 5 5 5 5 5 5 3 5 5 3 3 5 5 5 5 3 5 5 5 5 3 5 5 5 5 5 5 5 5 5 5 5 5 5 5 5 5 5 5 5 5 5 5 5 5 5 5 5 3 5 5 5 3 5 5 5 5 5 3 5 5 5 5 5 5 5 5 5 5 5 5 5 5 5 3 3 5 5 5 5 5 5 5 5 5 5 5 5 3 3 5 5 3 5 5 5 3 5 5 5 5 5 5 5 5 5 5 5 5 5 5 5 5 5 5 5 5 5 5 5 5 5 3 5 5 5 5 5 5 5 5 5 5 5 5 5 3 5 5 5 5 5 5 5 5 5 5 5 5 5 3 5 5 5 5 5 5 5 5 5 5 5 5 5 5 5 5 5 5 5 3 5 5 5 5 5 5 5 5 3 5 5 5 3 5 5 5 5 5 5 5 5 5 5 5 5 5 5 5 5 5 5 5 5 5 5 5 5 5 3 5 5 5 3 5 5 5 5 5 5 5 5 5 5 5 5 3 5 5 5 5 5 3 5 5 3 5 5 3 5 3 5 5 5 3 5 5 5 3 5 5 5 5 3 5 5 5 5 5 5 5 3 3 5 5 5 3 5 5 5 3 5 5 5 5 5 5 5 5 5 3 5 5 5 5 5 5 5 5 3 5 5 5 5 5 5 5 5 5 5 3 5 3 5 5 5 5 5 3 3 5 5 5 5 5 5 5 3 5 5 5 5 5 5 5 5 5 3 5 5 5 5 5 5 5 5 5 3 5 5 5 3 5 5 5 3 5 3 5 5 5 5 5 5 5 5 5 5 5 5 5 5 5 5 5 5 5 5 5 5 5 5 5 5 5 5 5 5 5 5 5 5 5 5 5 5 5 5 5 5 3 5 5 5 5 5 5 5 5 5 5 5 3 5 5 5 5 5 5 5 5 5 5 5 5 5 5 5 5 5 5 5 5 5 5 5 5 5 5 5 5 5 5 5 5 5 5 5 5 5 5 5 5 5 5 5 5 5 5 5 5 5 5 5 5 5 5 5 5 5 5 5 5 5 5 5 5 5 5 3 3 5 5 5 5 5 3 5 3 5 5 3 5 5 5 5 5 5 5 5 5 5 3 5 5 5 5 5 5 5 5 5 5 5 5 5 5 5 5 5 5 5 5 5 5 5 5 5 5 5 5 5 3 5 5 3 5 5 5 5 5 5 5 5 5 5 5 5 5 3 5 5 5 5 5 3 5 5 5 5 3 5 5 5 3 5 5 5 3 5 5 5 5 5 5 5 3 5 5 3 5 5 5 5 5 5 5 5 5 5 5 3 5 5 5 5 5 5 5 3 5 5 5 5 5 5 5 5 5 5 5 5 5 5 5 5 5 5 5 5 5 5 3 5 5 5 3 5 5 5 5 3 5 5 5 5 5 5 5 5 3 3 5 5 5 5 5 5 5 5 5 5 5 5 5 5 5 5 5 5 5 5 5 5 5 5 5 5 5 5 5 5 3 3 5 5 5 5 5 5 3 3 5 5 5 5 5 5 5 5 5 5 5 5 5 5 5 5 3 5 3 5 3 5 3 3 5 5 3 5 5 5 5 5 5 5 5 5 5 5 5 5 5 5 3 3 3 5 5 5 3 5 5 5 5 5 5 5 5 3 3 5 5 5 5 5 5 5 5 5 3 5 3 3 5 5 5 5 5 3 5 5 5 5 5 5 5 5 5 5 5 3 5 5 5 5 5 5 5 5 3 5 5 5 5 5 5 5 5 5 5 5 5 5 5 5 5 5 5 3 5 5 5 5 5 5 5 5 5 5 3 5 3 5 5 5 5 5 5 5 5 5 5 5 3 5 5 3 5 5 5 5 5 5 5 3 5 5 5 3 5 5 5 5 5 5 5 5 5 3 5 5 5 5 5 3 3 5 3 3 5 5 5 5 5 5 5 5 5 3 5 5 3 5 5 5 5 5 5 5 5 5 5 5 5 5 5 5 5 5 5 5 5 3 5 5 3 5 5 5 5 5 3 5 5 5 5 5 5 5 5 5 5 5 5 5 5 5 5 3 5 5 5 5 5 5 5 5 5 5 5 5 5 5 5 3 5 5 5 5 5 5 5 5 3 5 5 5 5 3 3 5 3 5 5 5 5 5 3 5 5 5 5 5 5 5 5 5 3 5 5 5 5 5 5 5 5 5 5 5 5 5 5 5 5 5 5 5 5 5 5 5 5 5 5 5 5 5 5 5 5 5 5 5 5 5 5 5 5 5 5 5 5 5 5 5 5 5 5 5 5 5 3 5 5 5 5 5 5 5 5 5 5 5 5 5 5 5 5 5 5 5 5 5 5 5 5 5 3 3 5 5 5 5 3 5 5 5 3 5 5 5 5 3 5 5 5 5 5 5 5 5 3 5 5 5 5 5 3 5 5 5 5 5 5 5 3 5 3 5 5 3 5 5 5 5 5 5 5 5 5 3 5 5 3 5 5 3 3 5 5 5 5 5 5 5 5 5 5 5 5 5 5 5 5 5 3 5 5 5 5 5 5 5 5 5 5 3 5 5 5 5 3 5 5 5 5 5 5 5 5 3 5 5 5 5 5 3 5 5 5 5 3 5 5 5 5 5 5 3 5 5 3 5 5 5 3 5 5 5 5 5 5 5 5 5 5 3 3 5 5 5 5 5 5 5 5 5 5 5 5 5 5 5 3 5 5 3 5 5 5 5 5 5 5 3 5 5 5 5 3 5 5 5 3 5 5 5 5 5 5 5 3 5 5 5 3 5 5 3 5 5 5 5 5 3 3 5 5 5 5 5 5 3 5 5 5 5 5 5 5 3 5 5 5 5 5 3 5 5 5 5 5 3 5 5 5 3 5 5 5 5 5 5 5 5 5 5 5 5 5 5 5 5 5 3 5 5 5 5 5 5 5 5 5 5 5 5 3 5 5 5 3 5 5 5 5 5 3 5 3 5 5 5 5 5 5 5 5 5 5 5 3 5 5 5 5 5 5 3 5 5 5 5 5 5 5 5 5 5 5 3 5 5 5 5 5 5 5 5 5 3 5 5 5 3 5 5 5 5 5 3 5 5 5 5 5 5 5 5 3 3 5 5 3 5 5 5 5 5 5 5 5 3 5 3 5 5 5 5 5 5 5 5 5 5 5 5 5 5 5 5 5 5 5 5 5 5 3 5 5 5 5 5 5 5 5 5 5 5 5 5 5 5 5 5 5 5 5 5 5 5 3 5 5 5 5 3 5 5 5 5 5 5 5 5 3 5 5 5 5 5 5 5 5 3 5 5 5 5 5 5 5 5 5 5 5 5 3 5 5 5 3 5 5 5 5 5 5 3 5 5 5 5 5 5 5 5 5 3 5 5 3 5 3 5 5 3 5 5 5 3 5 5 5 5 5 3 5 3 5 3 5 5 5 5 3 3 5 5 5 5 5 5 5 5 3 5 5 5 5 5 3 5 5 5 5 5 5 5 3 5 5 5 5 5 5 5 5 5 5 5 5 5 5 5 5 5 5 5 5 5 5 5 3 5 3 5 5 5 5 5 5 5 5 5 5 5 5 5 5 5 5 5 5 5 5 5 5 5 5 5 5 5 5 5 5 5 5 5 5 5 5 3 5 5 3 5 5 5 5 5 3 5 5 3 5 3 5 5 3 5 5 5 5 5 5 5 3 5 5 5 5 3 5 5 5 5 5 5 3 5 5 5 3 5 5 5 5 5 5 5 5 5 5 3 5 5 5 5 5 3 3 5 5 5 5 5 5 3 5 3 5 5 5 5 5 5 3 5 5 5 3 5 5 5 3 5 5 5 5 5 5 3 5 5 5 3 5 5 5 5 5 5 5 3 5 5 5 5 3 5 5 5 5 5 5 3 5 5 5 5 5 5 3 5 5 5 5 5 3 5 5 5 5 5 5 5 5 5 5 5 5 5 5 5 5 5 5 5 5 5 5 5 5 5 5 5 5 5 5 5 5 5 5 5 5 5 5 5 5 5 5 5 5 5 5 5 5 5 5 5 5 5 5 5 5 5 5 5 5 5 5 3 5 5 5 5 5 5 5 3 5 3 5 5 3 5 5 5 3 5 5 5 5 5 3 5 5 3 5 3 3 5 5 5 3 5 5 5 5 5 5 5 5 5 5 5 5 5 5 5 5 3 5 5 5 5 3 5 5 5 3 5 3 5 5 5 5 3 5 5 5 5 3 5 5 5 5 5 5 5 3 5 5 5 5 5 5 5 5 5 3 5 5 5 5 5 5 5 5 5 3 5 5 3 5 5 5 5 5 5 3 5 5 5 3 5 5 5 5 3 5 5 3 5 5 3 5 5 5 5 5 3 5 5 5 5 5 5 5 5 5 5 5 5 5 5 5 5 5 5 5 5 3 5 5 5 3 5 5 5 5 5 5 5 5 5 5 5 3 3 5 5 5 3 5 3 5 5 5 5 5 5 5 5 5 5 5 5 5 5 5 5 5 5 5 5 5 5 3 5 5 5 5 5 5 3 5 5 5 5 5 5 3 5 5 5 5 5 3 5 5 5 5 5 5 5 3 5 3 5 5 5 3 5 5 5 5 5 5 5 5 5 3 3 5 5 5 5 5 5 3 5 5 5 5 3 5 5 5 5 5 5 5 3 5 5 5 5 5 5 5 5 5 5 5 5 5 5 5 5 3 5 5 5 5 5 5 5 5 5 5 5 5 5 3 5 5 5 3 3 5 5 3 5 5 5 5 3 5 5 5 3 5 5 5 5 5 3 5 5 3 5 5 5 3 3 5 5 3 5 5 5 5 5 5 5 5 3 5 5 5 5 5 5 5 5 5 5 5 5 5 5 3 5 5 5 5 5 5 3 5 5 5 3 5 5 5 5 5 5 5 5 5 5 3 5 5 5 5 5 5 5 5 5 5 3 5 5 5 5 5 5 5 5 5 5 5 5 5 5 5 5 5 5 5 5 5 5 5 5 5 5 5 5 5 5 5 5 5 5 5 5 3 5 5 5 5 5 5 5 5 5 5 5 5 5 5 5 3 5 5 5 5 5 5 5 5 3 5 5 5 5 5 5 5 5 5 5 5 5 5 5 3 3 5 5 5 5 5 5 5 5 3 5 5 5 5 5 5 5 5 5 5 5 5 5 5 5 5 5 5 5 5 5 5 3 5 5 5 5 5 5 5 5 5 5 5 5 5 5 5 5 5 5 5 5 5 5 5 5 5 5 5 5 5 5 5 5 5 5 5 5 5 5 5 5 3 5 3 5 5 5 5 5 5 5 5 5 5 3 5 5 5 5 5 5 5 5 5 5 5 5 5 5 5 5 5 5 5 5 5 5 5 5 5 5 5 5 5 5 5 5 5 5 5 5 5 5 5 5 5 5 5 5 5 5 5 5 3 5 5 3 5 5 5 5 5 3 5 5 5 5 5 5 3 5 5 5 5 5 5 3 5 5 5 5 3 5 5 3 5 5 5 5 5 5 5 5 5 5 5 5 5 5 5 3 5 5 5 5 5 5 5 3 5 5 5 3 5 5 5 5 5 5 5 5 5 5 5 5 5 5 5 5 5 5 5 5 5 5 5 5 3 5 5 5 5 5 5 5 5 3 5 5 5 3 5 5 5 5 5 5 5 5 5 5 5 5 5 5 5 5 5 5 5 5 5 5 5 5 5 5 5 5 3 5 5 5 5 5 5 5 5 5 5 5 5 5 5 5 5 5 5 5 5 3 5 5 5 5 5 5 5 3 5 5 5 5 3 5 5 5 5 5 5 5 5 5 5 5 5 5 5 5 5 5 5 5 5 5 5 5 5 5 5 5 5 5 5 5 5 5 5 5 5 5 5 5 5 5 5 5 5 5 5 5 5 5 5 5 5 5 5 5 5 5 5 5 5 5 5 3 5 5 5 5 5 5 5 5 5 5 5 5 5 5 5 5 5 5 5 5 5 5 5 5 5 5 5 3 3 5 5 3 5 3 5 5 5 5 5 5 5 3 5 5 5 3 5 5 5 5 5 5 5 5 5 5 5 5 5 5 5 5 5 5 5 3 5 5 5 5 5 5 5 5 5 5 5 5 5 5 5 5 5 5 5 5 5 5 5 5 5 5 5 3 5 5 5 5 5 5 5 5 5 5 5 5 5 5 5 5 5 5 5 5 5 5 5 5 5 5 5 5 5 5 5 5 5 5 3 5 5 5 5 5 5 5 5 5 5 5 5 5 5 5 5 5 5 5 5 5 5 5 5 5 5 5 5 5 3 5 5 5 5 5 5 3 5 5 5 5 5 5 5 5 5 5 5 5 5 5 5 5 5 5 5 5 5 5 5 5 5 5 5 5 5 5 5 5 5 5 5 5 5 5 5 5 5 5 5 5 5 5 5 5 5 5 5 5 5 5 5 5 5 5 5 5 5 5 5 5 5 5 5 5 5 5 5 5 5 5 5 5 5 5 5 5 5 3 5 5 3 5 5 5 5 5 5 5 5 5 5 5 5 5 5 5 5 5 5 5 5 5 5 5 5 5 5 5 5 5 5 5 5 5 5 5 5 5 5 5 5 5 5 5 5 5 5 5 5 5 5 5 5 5 5 5 5 5 5 5 5 5 5 5 5 5 5 5 5 5 5 5 5 5 5 5 5 5 5 5 5 5 3 5 5 5 5 5 5 3 5 5 3 5 5 5 5 5 5 5 5 5 5 5 5 5 5 5 5 5 5 5 5 5 5 5 5 5 5 5 5 5 5 5 5 3 3 5 5 3 5 5 3 5 5 5 5 5 5 5 5 5 5 5 5 5 5 5 3 5 5 5 5 5 3 5 5 5 3 3 5 5 3 5 3 5 5 3 5 5 5 3 3 5 5 5 5 5 3 5 5 5 5 5 5 5 5 5 5 5 5 5 3 5 5 5 5 3 3 5 5 5 5 5 5 5 5 5 5 5 5 5 5 5 5 5 5 5 5 5 5 5 5 5 5 5 5 5 5 5 5 5 5 5 5 5 5 3 5 5 3 5 5 5 5 5 5 5 5 5 3 5 5 3 5 5 5 5 5 5 5 5 5 3 5 5 5 3 5 5 3 5 5 5 3 5 5 5 5 3 5 5 5 5 5 5 5 5 5 5 5 5 5 5 3 5 5 5 5 3 5 5 
</DataArray>
</Cells>
<PointData Scalars="" Vectors="displacement," Tensors="">
<DataArray type="Float64" Name="displacement" NumberOfComponents="3" format="ascii">
-7.2722292399313045e-08 -0.049999274494287697 0 -0.00018703604607533069 -0.047043103079341071 0 -6.0095273996599388e-07 -0.040196058434485246 0 -7.2722292399313045e-08 -0.049999274494287697 0 -8.9807217745871893e-08 -0.049996138875286526 0 -0.00018703604607533069 -0.047043103079341071 0 -0.00018703604607533069 -0.047043103079341071 0 -0.00035625629958353457 -0.044878614689955396 0 -6.0095273996599388e-07 -0.040196058434485246 0 -1.7363525668996581e-07 -0.050000259838170462 0 -0.00035946552788092458 -0.049366284722295269 0 -9.1445697098427925e-08 -0.049998457423513977 0 -3.0429543407920578e-07 -0.049999247163677672 0 -0.00038057909351511002 -0.048166661691301467 0 -0.00035946552788092458 -0.049366284722295269 0 -9.1445697098427925e-08 -0.049998457423513977 0 -0.00048981690369716659 -0.048808204282886888 0 -0.00048981690369716659 -0.048808204282886888 0 -0.00036262060435318817 -0.049207143923568106 0 -0.00080220236401834066 -0.047874680016711919 0 -9.1445697098427925e-08 -0.049998457423513977 0 -0.00036262060435318817 -0.049207143923568106 0 -4.0533423771200595e-07 -0.049998958022920828 0 -9.1445697098427925e-08 -0.049998457423513977 0 -0.00048981690369716659 -0.048808204282886888 0 -0.00036262060435318817 -0.049207143923568106 0 -0.00075109467846489928 -0.047050192263018403 0 -0.00080220236401834066 -0.047874680016711919 0 -0.00071797792906566431 -0.047653278623834901 0 -0.00075109467846489928 -0.047050192263018403 0 -0.00080220236401834066 -0.047874680016711919 0 -0.00085373003639630483 -0.046526894528617337 0 -0.00035946552788092458 -0.049366284722295269 0 -0.00048981690369716659 -0.048808204282886888 0 -0.00091687130319732606 -0.047643005746332713 0 -0.00048981690369716659 -0.048808204282886888 0 -0.00080220236401834066 -0.047874680016711919 0 -0.00091687130319732606 -0.047643005746332713 0 -0.00052794689881939711 -0.04619940975807621 0 -0.00015807802145071756 -0.044506096000087855 0 -0.00091687130319732606 -0.047643005746332713 0 -0.00085373003639630483 -0.046526894528617337 0 -0.00017374536320204179 -0.044060562464176979 0 -0.00080220236401834066 -0.047874680016711919 0 -0.00091687130319732606 -0.047643005746332713 0 -0.00085373003639630483 -0.046526894528617337 0 -0.00038057909351511002 -0.048166661691301467 0 -0.00052794689881939711 -0.04619940975807621 0 -0.00035625629958353457 -0.044878614689955396 0 -6.0095273996599388e-07 -0.040196058434485246 0 -0.00017374536320204179 -0.044060562464176979 0 -6.0095273996599388e-07 -0.040196058434485246 0 0.00016423445847830843 -0.04139123456420727 0 -0.00017374536320204179 -0.044060562464176979 0 0.00016423445847830843 -0.04139123456420727 0 -1.3625802761129822e-05 -0.038776366760084315 0 0.00023560084875986391 -0.040709568911032869 0 -6.0095273996599388e-07 -0.040196058434485246 0 0.00016423445847830843 -0.04139123456420727 0 -1.3625802761129822e-05 -0.038776366760084315 0 -1.3625802761129822e-05 -0.038776366760084315 0 0.00020589460406022787 -0.038868649298961708 0 0.00023560084875986391 -0.040709568911032869 0 0.0006067908426935502 -0.038866740387259506 0 0.00027531030461970963 -0.040723995986791356 0 0.00020589460406022787 -0.038868649298961708 0 0.00023560084875986391 -0.040709568911032869 0 0.0003069252086757911 -0.040517131633597575 0 0.00023560084875986391 -0.040709568911032869 0 0.0003069252086757911 -0.040517131633597575 0 0.00028365049997606509 -0.043978132285806465 0 0.00016423445847830843 -0.04139123456420727 0 0.00023560084875986391 -0.040709568911032869 0 0.00028365049997606509 -0.043978132285806465 0 0.00027531030461970963 -0.040723995986791356 0 0.0010207163225394052 -0.0442956964608682 0 0.00027531030461970963 -0.040723995986791356 0 -0.0010680856222672216 -0.042860345962900372 0 0.001785479702699581 -0.045562655459169814 0 0.0041143499555016611 -0.044633744432830851 0 0.00028365049997606509 -0.043978132285806465 0 0.001785479702699581 -0.045562655459169814 0 0.0041143499555016611 -0.044633744432830851 0 0.0019687211115717008 -0.047224251960465875 0 0.00020589460406022787 -0.038868649298961708 0 0.00088785608384252257 -0.037919500586372869 0 -0.00048479743815740746 -0.037151732309506275 0 -0.0035358630426934384 -0.037111427783012005 0 -0.0030715302122139771 -0.037710870437287734 0 -0.0041646365452735791 -0.038544571696423446 0 -0.0035358630426934384 -0.037111427783012005 0 -0.0030715302122139771 -0.037710870437287734 0 -0.0024518595947558581 -0.03689154039497955 0 0.00016423445847830843 -0.04139123456420727 0 -0.00017374536320204179 -0.044060562464176979 0 0.00028365049997606509 -0.043978132285806465 0 0.001785479702699581 -0.045562655459169814 0 0.00028365049997606509 -0.043978132285806465 0 0.00067155528342722408 -0.046183410002731115 0 0.00028365049997606509 -0.043978132285806465 0 0.00067155528342722408 -0.046183410002731115 0 -0.00042489449939518681 -0.046178475318293492 0 -0.00017374536320204179 -0.044060562464176979 0 0.00028365049997606509 -0.043978132285806465 0 -0.00042489449939518681 -0.046178475318293492 0 -0.00085373003639630483 -0.046526894528617337 0 -0.00017374536320204179 -0.044060562464176979 0 -0.00042489449939518681 -0.046178475318293492 0 -0.00075109467846489928 -0.047050192263018403 0 -0.00085373003639630483 -0.046526894528617337 0 -0.00042489449939518681 -0.046178475318293492 0 -0.00075109467846489928 -0.047050192263018403 0 -0.00042489449939518681 -0.046178475318293492 0 -0.00071797792906566431 -0.047653278623834901 0 0.00013975456904908155 -0.047457671522109203 0 -0.00063406487990781593 -0.048493270779164974 0 -0.00071797792906566431 -0.047653278623834901 0 -0.00042489449939518681 -0.046178475318293492 0 0.00013975456904908155 -0.047457671522109203 0 -0.00071797792906566431 -0.047653278623834901 0 0.00067155528342722408 -0.046183410002731115 0 0.00013975456904908155 -0.047457671522109203 0 0.0019687211115717008 -0.047224251960465875 0 0.00067155528342722408 -0.046183410002731115 0 -0.00042489449939518681 -0.046178475318293492 0 0.00013975456904908155 -0.047457671522109203 0 0.001785479702699581 -0.045562655459169814 0 0.00067155528342722408 -0.046183410002731115 0 0.0019687211115717008 -0.047224251960465875 0 0.00013975456904908155 -0.047457671522109203 0 0.0001347765490226717 -0.048629658785405531 0 0.0019687211115717008 -0.047224251960465875 0 -0.0021526820058194169 -0.044461360781774657 0 -0.0010680856222672216 -0.042860345962900372 0 0.00013975456904908155 -0.047457671522109203 0 0.0001347765490226717 -0.048629658785405531 0 -0.00063406487990781593 -0.048493270779164974 0 -0.0030715302122139771 -0.037710870437287734 0 -0.0041646365452735791 -0.038544571696423446 0 -0.0030301787045723476 -0.0386047875222396 0 -0.0045699996406611577 -0.040436231015897939 0 -0.0041646365452735791 -0.038544571696423446 0 -0.0034328610431026843 -0.04009667422832533 0 -0.0041646365452735791 -0.038544571696423446 0 -0.0030301787045723476 -0.0386047875222396 0 -0.0034328610431026843 -0.04009667422832533 0 -0.0045699996406611577 -0.040436231015897939 0 -0.0034328610431026843 -0.04009667422832533 0 -0.0037995990542937469 -0.041785259097224157 0 -0.0037995990542937469 -0.041785259097224157 0 -0.0038765246114879598 -0.043027998338743552 0 -0.0035334592687185514 -0.041703643836606449 0 -0.0034328610431026843 -0.04009667422832533 0 -0.0037995990542937469 -0.041785259097224157 0 -0.0035334592687185514 -0.041703643836606449 0 -0.0034328610431026843 -0.04009667422832533 0 -0.0031275434921498304 -0.040318209572480217 0 -0.0035334592687185514 -0.041703643836606449 0 -0.0021526820058194169 -0.044461360781774657 0 -0.0025516311266118741 -0.045696031584420843 0 0.0001347765490226717 -0.048629658785405531 0 -0.00063406487990781593 -0.048493270779164974 0 -0.0011654692811289169 -0.048699038211418841 0 -0.0045699996406611577 -0.040436231015897939 0 -0.0037995990542937469 -0.041785259097224157 0 -0.0040291893933315755 -0.042626677478730557 0 -0.0045699996406611577 -0.040436231015897939 0 -0.0040291893933315755 -0.042626677478730557 0 -0.0043857851436898106 -0.042984830331126191 0 -0.0037995990542937469 -0.041785259097224157 0 -0.0040291893933315755 -0.042626677478730557 0 -0.0038765246114879598 -0.043027998338743552 0 -0.0040291893933315755 -0.042626677478730557 0 -0.0043857851436898106 -0.042984830331126191 0 -0.0036270941197199236 -0.044311341519674183 0 -0.0011654692811289169 -0.048699038211418841 0 -0.00086345906809590339 -0.048226781986472581 0 -0.0018389589272647855 -0.046447742217320259 0 -0.0025516311266118741 -0.045696031584420843 0 -0.0018498788600961598 -0.04607322522923285 0 -0.0011654692811289169 -0.048699038211418841 0 -0.00086345906809590339 -0.048226781986472581 0 -0.00078333061306235169 -0.048784461814518551 0 -0.00063406487990781593 -0.048493270779164974 0 -0.0011654692811289169 -0.048699038211418841 0 -0.00078333061306235169 -0.048784461814518551 0 -0.00078090369304114693 -0.04884554518546283 0 -0.00024533260220333246 -0.049016557272869521 0 -0.00078333061306235169 -0.048784461814518551 0 -0.00035925392565529858 -0.049493187867922839 0 -0.00057321700142132931 -0.049094247942935279 0 -0.00086345906809590339 -0.048226781986472581 0 -0.00015283411679038709 -0.048478728850595294 0 -0.00048773348249479505 -0.047729686100663846 0 -0.00086345906809590339 -0.048226781986472581 0 -0.00078333061306235169 -0.048784461814518551 0 -0.00015283411679038709 -0.048478728850595294 0 -0.00035925392565529858 -0.049493187867922839 0 -3.9223703608351688e-07 -0.049999171294510682 0 4.8960079920868113e-08 -0.049999726764487891 0 -0.00024533260220333246 -0.049016557272869521 0 3.77216946929121e-08 -0.049999562541170169 0 -0.00035925392565529858 -0.049493187867922839 0 -3.9223703608351688e-07 -0.049999171294510682 0 -0.00031414013238854048 -0.049529137799965185 0 -0.00035925392565529858 -0.049493187867922839 0 -0.00031414013238854048 -0.049529137799965185 0 -0.00057321700142132931 -0.049094247942935279 0 -0.00031414013238854048 -0.049529137799965185 0 -0.000543380086016778 -0.049051736856046788 0 -0.00057321700142132931 -0.049094247942935279 0 -0.00031414013238854048 -0.049529137799965185 0 -4.0533423771200595e-07 -0.049998958022920828 0 -0.000543380086016778 -0.049051736856046788 0 -3.9223703608351688e-07 -0.049999171294510682 0 -0.00031414013238854048 -0.049529137799965185 0 -4.0533423771200595e-07 -0.049998958022920828 0 -0.00036262060435318817 -0.049207143923568106 0 -4.0533423771200595e-07 -0.049998958022920828 0 -0.000543380086016778 -0.049051736856046788 0 -0.00036262060435318817 -0.049207143923568106 0 -0.00080220236401834066 -0.047874680016711919 0 -0.000543380086016778 -0.049051736856046788 0 -0.00080220236401834066 -0.047874680016711919 0 -0.000543380086016778 -0.049051736856046788 0 -0.00075757762526333585 -0.048531929554689136 0 -0.00080220236401834066 -0.047874680016711919 0 -0.00071797792906566431 -0.047653278623834901 0 -0.00075757762526333585 -0.048531929554689136 0 -0.00063406487990781593 -0.048493270779164974 0 -0.00071797792906566431 -0.047653278623834901 0 -0.00075757762526333585 -0.048531929554689136 0 -0.00063406487990781593 -0.048493270779164974 0 -0.00078333061306235169 -0.048784461814518551 0 -0.00075757762526333585 -0.048531929554689136 0 -0.00078333061306235169 -0.048784461814518551 0 -0.00075757762526333585 -0.048531929554689136 0 -0.00057321700142132931 -0.049094247942935279 0 -0.000543380086016778 -0.049051736856046788 0 -0.00075757762526333585 -0.048531929554689136 0 -0.00057321700142132931 -0.049094247942935279 0 0.00034226582779474916 -0.029141671824007842 0 -4.5000914086284275e-05 -0.027148340698630199 0 0.00045590972629546474 -0.029660152781936216 0 0.00034226582779474916 -0.029141671824007842 0 -4.5000914086284275e-05 -0.027148340698630199 0 7.4576354347627885e-05 -0.0271980324104126 0 0.00034226582779474916 -0.029141671824007842 0 0.00045590972629546474 -0.029660152781936216 0 0.0014102541983025926 -0.031569209257700043 0 -4.5000914086284275e-05 -0.027148340698630199 0 3.8820514120826487e-07 -0.027409864044547365 0 9.8198941058913979e-05 -0.023756124748082863 0 -4.5000914086284275e-05 -0.027148340698630199 0 3.8820514120826487e-07 -0.027409864044547365 0 0.00029386449661071318 -0.029506372940923835 0 -4.5000914086284275e-05 -0.027148340698630199 0 0.00029386449661071318 -0.029506372940923835 0 0.00045590972629546474 -0.029660152781936216 0 3.8820514120826487e-07 -0.027409864044547365 0 0.00018676211868089208 -0.031627206036632549 0 -4.5692150264226775e-07 -0.032864485899589915 0 3.8820514120826487e-07 -0.027409864044547365 0 0.00029386449661071318 -0.029506372940923835 0 0.00018676211868089208 -0.031627206036632549 0 0.00033032139664411839 -0.029928057341181778 0 0.00015020934650875146 -0.031809079144409204 0 0.00029386449661071318 -0.029506372940923835 0 0.00018676211868089208 -0.031627206036632549 0 0.00071401293126296277 -0.033854239256989944 0 0.00029386449661071318 -0.029506372940923835 0 -0.00010943811173462531 -0.029777900156165809 0 0.00045590972629546474 -0.029660152781936216 0 0.00045590972629546474 -0.029660152781936216 0 0.0001329317599061954 -0.03177200331296446 0 0.0014102541983025926 -0.031569209257700043 0 -0.00010943811173462531 -0.029777900156165809 0 0.00045590972629546474 -0.029660152781936216 0 0.0001329317599061954 -0.03177200331296446 0 -0.00010943811173462531 -0.029777900156165809 0 -0.0013851634165323594 -0.031540497258953602 0 0.0001329317599061954 -0.03177200331296446 0 -6.0095273996599388e-07 -0.040196058434485246 0 -1.3625802761129822e-05 -0.038776366760084315 0 -4.5692150264226775e-07 -0.032864485899589915 0 0.00015020934650875146 -0.031809079144409204 0 -0.00062966806926392077 -0.033913259140508835 0 0.00011829477890928461 -0.036246910142067809 0 -0.0008777678701953922 -0.036400004233297277 0 -0.00029323268077483536 -0.034627609498333246 0 -0.0008777678701953922 -0.036400004233297277 0 -0.00029323268077483536 -0.034627609498333246 0 -0.00028151159729521375 -0.036044168974227624 0 0.00071401293126296277 -0.033854239256989944 0 0.00011829477890928461 -0.036246910142067809 0 -0.00029323268077483536 -0.034627609498333246 0 -0.00029323268077483536 -0.034627609498333246 0 -4.5692150264226775e-07 -0.032864485899589915 0 -0.00028151159729521375 -0.036044168974227624 0 0.00018676211868089208 -0.031627206036632549 0 -0.00029323268077483536 -0.034627609498333246 0 -4.5692150264226775e-07 -0.032864485899589915 0 0.00018676211868089208 -0.031627206036632549 0 0.00071401293126296277 -0.033854239256989944 0 -0.00029323268077483536 -0.034627609498333246 0 -1.3625802761129822e-05 -0.038776366760084315 0 -4.5692150264226775e-07 -0.032864485899589915 0 -0.00028151159729521375 -0.036044168974227624 0 -1.3625802761129822e-05 -0.038776366760084315 0 -0.00028151159729521375 -0.036044168974227624 0 -0.00036123555827027783 -0.037439424748690719 0 -1.3625802761129822e-05 -0.038776366760084315 0 0.00020589460406022787 -0.038868649298961708 0 -0.00036123555827027783 -0.037439424748690719 0 0.00020589460406022787 -0.038868649298961708 0 -0.00036123555827027783 -0.037439424748690719 0 -0.00048479743815740746 -0.037151732309506275 0 -0.0008777678701953922 -0.036400004233297277 0 -0.00028151159729521375 -0.036044168974227624 0 -0.00036123555827027783 -0.037439424748690719 0 -0.0008777678701953922 -0.036400004233297277 0 -0.0024518595947558581 -0.03689154039497955 0 -0.0022961942212927182 -0.037834731205480726 0 -0.0008777678701953922 -0.036400004233297277 0 -0.00036123555827027783 -0.037439424748690719 0 -0.00048479743815740746 -0.037151732309506275 0 -0.0007800194404336434 -0.036607078918167613 0 -0.0018320357887793796 -0.036688423554367369 0 -0.0030715302122139771 -0.037710870437287734 0 -0.0024518595947558581 -0.03689154039497955 0 -0.0022961942212927182 -0.037834731205480726 0 0.00027531030461970963 -0.040723995986791356 0 -0.0018320357887793796 -0.036688423554367369 0 -0.0030715302122139771 -0.037710870437287734 0 -0.0030301787045723476 -0.0386047875222396 0 -0.0022961942212927182 -0.037834731205480726 0 -0.0008777678701953922 -0.036400004233297277 0 -0.0022961942212927182 -0.037834731205480726 0 -0.0011475308507196602 -0.037997900078772552 0 -0.0022961942212927182 -0.037834731205480726 0 -0.0027587337391028581 -0.038655001887576819 0 -0.0011475308507196602 -0.037997900078772552 0 -0.0027587337391028581 -0.038655001887576819 0 -0.0018528709900291328 -0.037104348635391492 0 -0.0027070067502468153 -0.034891854868191845 0 -0.0026812452973440774 -0.038320820612775239 0 -0.0018359296576715319 -0.036388561032924559 0 -0.0030301787045723476 -0.0386047875222396 0 -0.0022961942212927182 -0.037834731205480726 0 -0.0027587337391028581 -0.038655001887576819 0 -0.0030301787045723476 -0.0386047875222396 0 -0.0034328610431026843 -0.04009667422832533 0 -0.0027587337391028581 -0.038655001887576819 0 -0.0034328610431026843 -0.04009667422832533 0 -0.0031275434921498304 -0.040318209572480217 0 -0.0027587337391028581 -0.038655001887576819 0 -0.0027587337391028581 -0.038655001887576819 0 -0.0019228296401660511 -0.03925554985416576 0 -0.0027686358929038721 -0.040873688455429831 0 -0.0031275434921498304 -0.040318209572480217 0 -0.0027587337391028581 -0.038655001887576819 0 -0.0027686358929038721 -0.040873688455429831 0 -0.0031275434921498304 -0.040318209572480217 0 -0.0027686358929038721 -0.040873688455429831 0 -0.0035334592687185514 -0.041703643836606449 0 -0.0027587337391028581 -0.038655001887576819 0 -0.0018528709900291328 -0.037104348635391492 0 -0.0019228296401660511 -0.03925554985416576 0 -0.0018528709900291328 -0.037104348635391492 0 -0.0019228296401660511 -0.03925554985416576 0 -0.00052473473589889521 -0.037820286589453765 0 -0.0019228296401660511 -0.03925554985416576 0 -0.00052473473589889521 -0.037820286589453765 0 -0.00031931499043309888 -0.040070167684061291 0 -0.0018528709900291328 -0.037104348635391492 0 -0.00052473473589889521 -0.037820286589453765 0 -0.00084557499976134075 -0.034760529109138891 0 -0.0018528709900291328 -0.037104348635391492 0 -0.00084557499976134075 -0.034760529109138891 0 -0.0027070067502468153 -0.034891854868191845 0 -0.00062966806926392077 -0.033913259140508835 0 -0.0018359296576715319 -0.036388561032924559 0 0.00011829477890928461 -0.036246910142067809 0 -0.0008777678701953922 -0.036400004233297277 0 -0.0011475308507196602 -0.037997900078772552 0 -0.0013851634165323594 -0.031540497258953602 0 -0.00084557499976134075 -0.034760529109138891 0 -0.0027070067502468153 -0.034891854868191845 0 -0.0013851634165323594 -0.031540497258953602 0 -0.00084557499976134075 -0.034760529109138891 0 0.0001329317599061954 -0.03177200331296446 0 0.0001329317599061954 -0.03177200331296446 0 0.0014102541983025926 -0.031569209257700043 0 0.00054967822975446963 -0.035179490953260395 0 0.0015218657483429825 -0.031640687315503319 0 0.0022080947444832123 -0.032980229267689114 0 0.0014102541983025926 -0.031569209257700043 0 0.00054967822975446963 -0.035179490953260395 0 0.003385978706006799 -0.036409081480699886 0 -0.00084557499976134075 -0.034760529109138891 0 0.0001329317599061954 -0.03177200331296446 0 0.00054967822975446963 -0.035179490953260395 0 -0.00052473473589889521 -0.037820286589453765 0 -0.00084557499976134075 -0.034760529109138891 0 0.00054967822975446963 -0.035179490953260395 0 -0.00052473473589889521 -0.037820286589453765 0 0.00054967822975446963 -0.035179490953260395 0 0.0011105215238025447 -0.038790604251153958 0 -0.00052473473589889521 -0.037820286589453765 0 0.0011105215238025447 -0.038790604251153958 0 -0.00031931499043309888 -0.040070167684061291 0 0.0011105215238025447 -0.038790604251153958 0 0.003385978706006799 -0.036409081480699886 0 0.002389145729320378 -0.03952660866647708 0 0.00054967822975446963 -0.035179490953260395 0 0.0011105215238025447 -0.038790604251153958 0 0.003385978706006799 -0.036409081480699886 0 0.00094656864098675516 -0.028730956712442749 0 0.0005705935942643544 -0.029294775895943211 0 0.00021782042828555497 -0.029067493286731711 0 0.003385978706006799 -0.036409081480699886 0 0.0038081993044061569 -0.039463078339744988 0 0.002389145729320378 -0.03952660866647708 0 0.0011803718773501456 -0.029593400560722873 0 0.00094656864098675516 -0.028730956712442749 0 0.0005705935942643544 -0.029294775895943211 0 0.0022080947444832123 -0.032980229267689114 0 0.0023585895591998448 -0.034052411154408289 0 0.0011803718773501456 -0.029593400560722873 0 0.0005705935942643544 -0.029294775895943211 0 0.00055096999814569284 -0.030100926388590736 0 0.0005705935942643544 -0.029294775895943211 0 0.00055096999814569284 -0.030100926388590736 0 0.00038471336706139356 -0.029574627222693294 0 0.00055096999814569284 -0.030100926388590736 0 0.00041943922454100593 -0.029416738413642247 0 0.00038471336706139356 -0.029574627222693294 0 0.0014102541983025926 -0.031569209257700043 0 0.0011803718773501456 -0.029593400560722873 0 0.00055096999814569284 -0.030100926388590736 0 0.00034226582779474916 -0.029141671824007842 0 0.0014102541983025926 -0.031569209257700043 0 0.00055096999814569284 -0.030100926388590736 0 0.00034226582779474916 -0.029141671824007842 0 0.00055096999814569284 -0.030100926388590736 0 0.00041943922454100593 -0.029416738413642247 0 0.0035930222025650884 -0.043179955648882738 0 0.0028641171414560611 -0.043236990674817878 0 0.0031447356822002126 -0.042570676392760208 0 0.0035930222025650884 -0.043179955648882738 0 0.0028641171414560611 -0.043236990674817878 0 0.0029423855125227196 -0.04377633688973142 0 0.0028641171414560611 -0.043236990674817878 0 0.0019475658942983537 -0.043926074664577548 0 0.0029423855125227196 -0.04377633688973142 0 0.0028641171414560611 -0.043236990674817878 0 0.0031447356822002126 -0.042570676392760208 0 0.0024408860146537441 -0.042661799960006214 0 0.0031447356822002126 -0.042570676392760208 0 0.0029553935065645322 -0.04185201312111763 0 0.0024408860146537441 -0.042661799960006214 0 0.0029553935065645322 -0.04185201312111763 0 0.0020929706977120882 -0.041904725262649066 0 0.0024408860146537441 -0.042661799960006214 0 0.00045593920963700945 -0.028453071123864415 0 0.00056448732920932713 -0.027870280590225196 0 0.00068323927168877313 -0.028048740920417696 0 0.0035930222025650884 -0.043179955648882738 0 0.0031447356822002126 -0.042570676392760208 0 0.0037921173493477237 -0.041683175715313749 0 0.0019921257191654906 -0.035602886358689564 0 0.0021794552126084836 -0.034810910308774888 0 0.00056448732920932713 -0.027870280590225196 0 0.00061497862385673273 -0.028136436206081947 0 0.0006626567526302465 -0.027819079671275383 0 0.00094656864098675516 -0.028730956712442749 0 0.00061497862385673273 -0.028136436206081947 0 0.00021782042828555497 -0.029067493286731711 0 0.00056448732920932713 -0.027870280590225196 0 0.0006626567526302465 -0.027819079671275383 0 0.00068323927168877313 -0.028048740920417696 0 0.00094656864098675516 -0.028730956712442749 0 0.00056448732920932713 -0.027870280590225196 0 0.00061497862385673273 -0.028136436206081947 0 0.0023585895591998448 -0.034052411154408289 0 0.0021794552126084836 -0.034810910308774888 0 0.0038081993044061569 -0.039463078339744988 0 0.0026668549166499675 -0.040943915144054099 0 0.0032958856862429363 -0.041013506004997334 0 0.0038081993044061569 -0.039463078339744988 0 0.0037921173493477237 -0.041683175715313749 0 0.0032958856862429363 -0.041013506004997334 0 0.0038081993044061569 -0.039463078339744988 0 0.0026668549166499675 -0.040943915144054099 0 0.002389145729320378 -0.03952660866647708 0 0.0026668549166499675 -0.040943915144054099 0 0.0032958856862429363 -0.041013506004997334 0 0.0029553935065645322 -0.04185201312111763 0 0.0037921173493477237 -0.041683175715313749 0 0.0032958856862429363 -0.041013506004997334 0 0.0029553935065645322 -0.04185201312111763 0 0.0031447356822002126 -0.042570676392760208 0 0.0037921173493477237 -0.041683175715313749 0 0.0029553935065645322 -0.04185201312111763 0 0.0026668549166499675 -0.040943915144054099 0 0.0029553935065645322 -0.04185201312111763 0 0.0020929706977120882 -0.041904725262649066 0 0.0020929706977120882 -0.041904725262649066 0 0.0012966567139517534 -0.041208562168237359 0 0.0011225963100554572 -0.042721866904828723 0 0.0026668549166499675 -0.040943915144054099 0 0.0020929706977120882 -0.041904725262649066 0 0.0012966567139517534 -0.041208562168237359 0 0.0011105215238025447 -0.038790604251153958 0 0.002389145729320378 -0.03952660866647708 0 0.0012966567139517534 -0.041208562168237359 0 0.0026668549166499675 -0.040943915144054099 0 0.002389145729320378 -0.03952660866647708 0 0.0012966567139517534 -0.041208562168237359 0 0.0012966567139517534 -0.041208562168237359 0 -0.00022966778106556096 -0.041705927716565047 0 -0.00031931499043309888 -0.040070167684061291 0 0.0011105215238025447 -0.038790604251153958 0 0.0012966567139517534 -0.041208562168237359 0 -0.00031931499043309888 -0.040070167684061291 0 0.0012966567139517534 -0.041208562168237359 0 0.0011225963100554572 -0.042721866904828723 0 -0.00022966778106556096 -0.041705927716565047 0 0.0011225963100554572 -0.042721866904828723 0 0.0024408860146537441 -0.042661799960006214 0 0.0019475658942983537 -0.043926074664577548 0 0.0020929706977120882 -0.041904725262649066 0 0.0011225963100554572 -0.042721866904828723 0 0.0024408860146537441 -0.042661799960006214 0 0.0028641171414560611 -0.043236990674817878 0 0.0024408860146537441 -0.042661799960006214 0 0.0019475658942983537 -0.043926074664577548 0 0.0011225963100554572 -0.042721866904828723 0 0.0019475658942983537 -0.043926074664577548 0 0.00034688352022286178 -0.043880442328256414 0 0.00034688352022286178 -0.043880442328256414 0 -0.00050871291421089365 -0.04303326177350851 0 -0.00093556235737609012 -0.044643071231824968 0 -0.0017069827354645303 -0.043688352985938629 0 -0.0025845981815687288 -0.044228522937153993 0 -0.00093556235737609012 -0.044643071231824968 0 -0.0017069827354645303 -0.043688352985938629 0 -0.00050871291421089365 -0.04303326177350851 0 -0.00093556235737609012 -0.044643071231824968 0 -0.0017069827354645303 -0.043688352985938629 0 -0.0014457497978400014 -0.042408145956200877 0 -0.00050871291421089365 -0.04303326177350851 0 0.0011225963100554572 -0.042721866904828723 0 -0.00050871291421089365 -0.04303326177350851 0 -0.00022966778106556096 -0.041705927716565047 0 -0.0014457497978400014 -0.042408145956200877 0 -0.00050871291421089365 -0.04303326177350851 0 -0.00022966778106556096 -0.041705927716565047 0 0.0011225963100554572 -0.042721866904828723 0 0.00034688352022286178 -0.043880442328256414 0 -0.00050871291421089365 -0.04303326177350851 0 -0.00022966778106556096 -0.041705927716565047 0 -0.00031931499043309888 -0.040070167684061291 0 -0.00157201034225293 -0.041021921820241232 0 -0.0019228296401660511 -0.03925554985416576 0 -0.00031931499043309888 -0.040070167684061291 0 -0.00157201034225293 -0.041021921820241232 0 -0.0014457497978400014 -0.042408145956200877 0 -0.00022966778106556096 -0.041705927716565047 0 -0.00157201034225293 -0.041021921820241232 0 -0.0014457497978400014 -0.042408145956200877 0 -0.00157201034225293 -0.041021921820241232 0 -0.0023093378950322348 -0.04200603189428518 0 -0.0014457497978400014 -0.042408145956200877 0 -0.0023093378950322348 -0.04200603189428518 0 -0.0021606939658994069 -0.042969050259172512 0 -0.00157201034225293 -0.041021921820241232 0 -0.0023093378950322348 -0.04200603189428518 0 -0.0027686358929038721 -0.040873688455429831 0 -0.0019228296401660511 -0.03925554985416576 0 -0.00157201034225293 -0.041021921820241232 0 -0.0027686358929038721 -0.040873688455429831 0 -0.0027686358929038721 -0.040873688455429831 0 -0.0030194795163735436 -0.042425116317465747 0 -0.0034187960190488866 -0.042207767949870918 0 -0.0023093378950322348 -0.04200603189428518 0 -0.0027686358929038721 -0.040873688455429831 0 -0.0030194795163735436 -0.042425116317465747 0 -0.0023093378950322348 -0.04200603189428518 0 -0.0030194795163735436 -0.042425116317465747 0 -0.0027377003385022154 -0.043130175686796689 0 -0.0030194795163735436 -0.042425116317465747 0 -0.0032535150867901638 -0.043195016973408239 0 -0.0035185813444709104 -0.042837965556242946 0 -0.0030194795163735436 -0.042425116317465747 0 -0.0032535150867901638 -0.043195016973408239 0 -0.0027377003385022154 -0.043130175686796689 0 -0.0032535150867901638 -0.043195016973408239 0 -0.0027377003385022154 -0.043130175686796689 0 -0.0028359522075434972 -0.044275046001707584 0 -0.0027377003385022154 -0.043130175686796689 0 -0.0024322845228688925 -0.043690670759705043 0 -0.0028359522075434972 -0.044275046001707584 0 -0.0017069827354645303 -0.043688352985938629 0 -0.0014457497978400014 -0.042408145956200877 0 -0.0021606939658994069 -0.042969050259172512 0 -0.0023093378950322348 -0.04200603189428518 0 -0.0027377003385022154 -0.043130175686796689 0 -0.0021606939658994069 -0.042969050259172512 0 -0.0017069827354645303 -0.043688352985938629 0 -0.0021606939658994069 -0.042969050259172512 0 -0.0024322845228688925 -0.043690670759705043 0 -0.0027377003385022154 -0.043130175686796689 0 -0.0021606939658994069 -0.042969050259172512 0 -0.0024322845228688925 -0.043690670759705043 0 -0.0020217635352896518 -0.044826143799703025 0 -0.00097338303415593305 -0.044698994655559841 0 -0.0017069827354645303 -0.043688352985938629 0 -0.0024322845228688925 -0.043690670759705043 0 -0.0025845981815687288 -0.044228522937153993 0 -0.0016013932216456851 -0.045350775464117497 0 -0.0015916783923644487 -0.045629700760785596 0 -0.0015282459559190448 -0.045984506100746239 0 -0.0020217635352896518 -0.044826143799703025 0 -0.002180374340092476 -0.045411266535034363 0 -0.0025845981815687288 -0.044228522937153993 0 -0.0028359522075434972 -0.044275046001707584 0 -0.0028253596008802717 -0.044831019085755444 0 -0.0024322845228688925 -0.043690670759705043 0 -0.0025845981815687288 -0.044228522937153993 0 -0.0028359522075434972 -0.044275046001707584 0 -0.0016419251696994171 -0.045531763784973429 0 -0.0015916783923644487 -0.045629700760785596 0 -0.0015995004471824556 -0.045471250844522991 0 -0.0016419251696994171 -0.045531763784973429 0 -0.0015614557201256182 -0.045620206265140475 0 -0.0015916783923644487 -0.045629700760785596 0 -0.0015614557201256182 -0.045620206265140475 0 -0.0015916783923644487 -0.045629700760785596 0 -0.001510231423329244 -0.045774243785326532 0 -0.0016013932216456851 -0.045350775464117497 0 -0.0015916783923644487 -0.045629700760785596 0 -0.0015995004471824556 -0.045471250844522991 0 -0.0016419251696994171 -0.045531763784973429 0 -0.0013421149845852531 -0.045310129507270126 0 -0.00091937928862208078 -0.045815478839585817 0 -0.0016013932216456851 -0.045350775464117497 0 -0.0015995004471824556 -0.045471250844522991 0 -0.0013421149845852531 -0.045310129507270126 0 -0.0016013932216456851 -0.045350775464117497 0 -0.0013421149845852531 -0.045310129507270126 0 -0.00093556235737609012 -0.044643071231824968 0 -0.0016419251696994171 -0.045531763784973429 0 -0.0015995004471824556 -0.045471250844522991 0 -0.0013421149845852531 -0.045310129507270126 0 -0.0016082653001552594 -0.045474662395668317 0 -0.0016807808115975331 -0.04534878857446506 0 -0.0016389232059747473 -0.045538099673369699 0 -0.0012236016782679277 -0.045622418895216066 0 -0.0016419251696994171 -0.045531763784973429 0 -0.0016127700322732068 -0.045494379414555544 0 -0.0016127778254677639 -0.045410858371276439 0 -0.0016419251696994171 -0.045531763784973429 0 -0.0016127778254677639 -0.045410858371276439 0 -0.001630216071626364 -0.045448284975135846 0 -0.0016419251696994171 -0.045531763784973429 0 -0.0015614557201256182 -0.045620206265140475 0 -0.0016127700322732068 -0.045494379414555544 0 -0.0015614557201256182 -0.045620206265140475 0 -0.0016127700322732068 -0.045494379414555544 0 -0.0014832060839894573 -0.045496937975603627 0 -0.0016127700322732068 -0.045494379414555544 0 -0.0015480162613059646 -0.045381293393368098 0 -0.0014832060839894573 -0.045496937975603627 0 -0.0016127700322732068 -0.045494379414555544 0 -0.0015480162613059646 -0.045381293393368098 0 -0.0016048178969095043 -0.045277065205869105 0 -0.0015480162613059646 -0.045381293393368098 0 -0.0014787494978214051 -0.045291688059583689 0 -0.0014832060839894573 -0.045496937975603627 0 -0.0015480162613059646 -0.045381293393368098 0 -0.0016048178969095043 -0.045277065205869105 0 -0.0014787494978214051 -0.045291688059583689 0 -0.0016048178969095043 -0.045277065205869105 0 -0.0014787494978214051 -0.045291688059583689 0 -0.001489781202563251 -0.045083183748462298 0 -0.0016048178969095043 -0.045277065205869105 0 -0.001489781202563251 -0.045083183748462298 0 -0.0016983346152417839 -0.045147687157387234 0 -0.001489781202563251 -0.045083183748462298 0 -0.0016983346152417839 -0.045147687157387234 0 -0.0017140221335178753 -0.044983544418887397 0 -0.0016048178969095043 -0.045277065205869105 0 -0.0016983346152417839 -0.045147687157387234 0 -0.0017511286898943647 -0.045280131557020382 0 -0.0016127700322732068 -0.045494379414555544 0 -0.0016048178969095043 -0.045277065205869105 0 -0.0017511286898943647 -0.045280131557020382 0 -0.0016807808115975331 -0.04534878857446506 0 -0.0017679695421804163 -0.0451893314073884 0 -0.0016127778254677639 -0.045410858371276439 0 -0.0016533735607224371 -0.045286424073535121 0 -0.001630216071626364 -0.045448284975135846 0 -0.0016983346152417839 -0.045147687157387234 0 -0.0017511286898943647 -0.045280131557020382 0 -0.0018816691191777984 -0.04509409805209183 0 -0.0016983346152417839 -0.045147687157387234 0 -0.0018816691191777984 -0.04509409805209183 0 -0.0017140221335178753 -0.044983544418887397 0 -0.0018816691191777984 -0.04509409805209183 0 -0.0019868707460722512 -0.044933972774275348 0 -0.0018639864728409688 -0.044852602237133957 0 -0.0016533735607224371 -0.045286424073535121 0 -0.001630216071626364 -0.045448284975135846 0 -0.0017615018424010788 -0.04539699997374172 0 -0.0012236016782679277 -0.045622418895216066 0 -0.00059910103487594772 -0.046045980145623736 0 -0.00091937928862208078 -0.045815478839585817 0 0.00045317113876051809 -0.045069606533071176 0 0.00092986387913356484 -0.046424373831551936 0 -0.0013421149845852531 -0.045310129507270126 0 -0.00091937928862208078 -0.045815478839585817 0 -0.00093556235737609012 -0.044643071231824968 0 -0.00091937928862208078 -0.045815478839585817 0 -0.00093556235737609012 -0.044643071231824968 0 0.00045317113876051809 -0.045069606533071176 0 0.00034688352022286178 -0.043880442328256414 0 -0.00093556235737609012 -0.044643071231824968 0 0.00045317113876051809 -0.045069606533071176 0 0.0019475658942983537 -0.043926074664577548 0 0.00034688352022286178 -0.043880442328256414 0 0.00045317113876051809 -0.045069606533071176 0 0.0019655038295336171 -0.043876502539610153 0 0.0026245070307291123 -0.044978579697592093 0 0.0019475658942983537 -0.043926074664577548 0 0.00045317113876051809 -0.045069606533071176 0 0.0024295690457116657 -0.045549525036991327 0 0.0019475658942983537 -0.043926074664577548 0 0.0025525837197460884 -0.044137913409460654 0 0.0029423855125227196 -0.04377633688973142 0 0.0024295690457116657 -0.045549525036991327 0 0.00092986387913356484 -0.046424373831551936 0 0.0029410516956442029 -0.046997862471506141 0 0.00045317113876051809 -0.045069606533071176 0 0.0024295690457116657 -0.045549525036991327 0 0.00092986387913356484 -0.046424373831551936 0 -0.0016533735607224371 -0.045286424073535121 0 -0.0017615018424010788 -0.04539699997374172 0 -0.0018297694869811158 -0.045248691552617244 0 -0.0016533735607224371 -0.045286424073535121 0 -0.0018297694869811158 -0.045248691552617244 0 -0.0017923742770330413 -0.045090452450018137 0 -0.0017679695421804163 -0.0451893314073884 0 -0.0018961061308883759 -0.045011447572430752 0 -0.0017923742770330413 -0.045090452450018137 0 -0.0019692110898129468 -0.045157682498817985 0 -0.002061885928842318 -0.045026079473009177 0 -0.0018297694869811158 -0.045248691552617244 0 -0.0017923742770330413 -0.045090452450018137 0 -0.0019692110898129468 -0.045157682498817985 0 -0.00059910103487594772 -0.046045980145623736 0 0.0013694540526595783 -0.04508035753470975 0 -0.0017615018424010788 -0.04539699997374172 0 -0.0018297694869811158 -0.045248691552617244 0 -0.0020621454534271843 -0.045326559256055353 0 -0.0018297694869811158 -0.045248691552617244 0 -0.0019692110898129468 -0.045157682498817985 0 -0.0020621454534271843 -0.045326559256055353 0 0.0029644544918691015 -0.044238310184046885 0 0.0028522256118303597 -0.044262402701044444 0 0.0029033198306519588 -0.044180573685292178 0 0.0027155629280157458 -0.044864259569275734 0 0.0013694540526595783 -0.04508035753470975 0 0.0029644544918691015 -0.044238310184046885 0 0.0029662115348425928 -0.044244092143515518 0 0.0029853159130336974 -0.044229343345626324 0 0.0029644544918691015 -0.044238310184046885 0 0.0029853159130336974 -0.044229343345626324 0 0.0030141098641045605 -0.044221511402974541 0 -0.0019692110898129468 -0.045157682498817985 0 -0.0021830688306635061 -0.045085500154900642 0 -0.002061885928842318 -0.045026079473009177 0 -0.0019692110898129468 -0.045157682498817985 0 -0.0020621454534271843 -0.045326559256055353 0 -0.0021830688306635061 -0.045085500154900642 0 0.0013694540526595783 -0.04508035753470975 0 0.00043347946387869849 -0.044525984725488382 0 0.0029662115348425928 -0.044244092143515518 0 0.0029853159130336974 -0.044229343345626324 0 0.0030043465077868241 -0.044213066457284622 0 0.0029853159130336974 -0.044229343345626324 0 0.0030043465077868241 -0.044213066457284622 0 0.0030049602681374676 -0.044230602602733357 0 0.0030043465077868241 -0.044213066457284622 0 0.0030049602681374676 -0.044230602602733357 0 0.0029920083911526203 -0.04415497165065764 0 0.00043347946387869849 -0.044525984725488382 0 0.00049855349349673002 -0.043555168435264774 0 0.0011175731161116053 -0.040204186195013196 0 0.0016877443285579156 -0.039689544805766322 0 0.0030049602681374676 -0.044230602602733357 0 0.0030255191041084861 -0.044276567005926276 0 0.0031225287725439354 -0.044224872999211393 0 0.0032672966025711894 -0.045436483571566183 0 0.0011175731161116053 -0.040204186195013196 0 0.0030049602681374676 -0.044230602602733357 0 0.0030840775049244839 -0.04419426686671734 0 0.0030141098641045605 -0.044221511402974541 0 0.0029853159130336974 -0.044229343345626324 0 0.0030049602681374676 -0.044230602602733357 0 0.0030141098641045605 -0.044221511402974541 0 0.0030049602681374676 -0.044230602602733357 0 0.0030840775049244839 -0.04419426686671734 0 0.0031225287725439354 -0.044224872999211393 0 0.0030840775049244839 -0.04419426686671734 0 0.0030141098641045605 -0.044221511402974541 0 0.003080545738624799 -0.044153962483044276 0 0.0029644544918691015 -0.044238310184046885 0 0.0030141098641045605 -0.044221511402974541 0 0.003080545738624799 -0.044153962483044276 0 0.0029644544918691015 -0.044238310184046885 0 0.003080545738624799 -0.044153962483044276 0 0.0029033198306519588 -0.044180573685292178 0 0.003080545738624799 -0.044153962483044276 0 0.0029773911254453054 -0.044046596112754216 0 0.0033753837023994039 -0.043885978972357742 0 0.003080545738624799 -0.044153962483044276 0 0.0029033198306519588 -0.044180573685292178 0 0.0029773911254453054 -0.044046596112754216 0 0.0026245070307291123 -0.044978579697592093 0 0.0013694540526595783 -0.04508035753470975 0 0.0025525837197460884 -0.044137913409460654 0 0.0028522256118303597 -0.044262402701044444 0 0.0029033198306519588 -0.044180573685292178 0 0.0025525837197460884 -0.044137913409460654 0 0.0029033198306519588 -0.044180573685292178 0 0.0029773911254453054 -0.044046596112754216 0 0.0025525837197460884 -0.044137913409460654 0 0.0029773911254453054 -0.044046596112754216 0 0.0029423855125227196 -0.04377633688973142 0 0.0029773911254453054 -0.044046596112754216 0 0.0029423855125227196 -0.04377633688973142 0 0.0033753837023994039 -0.043885978972357742 0 0.0035930222025650884 -0.043179955648882738 0 0.0029423855125227196 -0.04377633688973142 0 0.0033753837023994039 -0.043885978972357742 0 -0.00013830592004577014 -0.047869956904868338 0 6.016756972944237e-05 -0.048313073042167497 0 -0.00028858615936477985 -0.048097552764396909 0 6.016756972944237e-05 -0.048313073042167497 0 -0.00022206670718120702 -0.048927809760611125 0 -0.00028858615936477985 -0.048097552764396909 0 -0.00013830592004577014 -0.047869956904868338 0 -0.00012706014625208281 -0.047535753724782234 0 -0.00012788802383807222 -0.047749616797105196 0 -0.00013830592004577014 -0.047869956904868338 0 -0.00012706014625208281 -0.047535753724782234 0 6.016756972944237e-05 -0.048313073042167497 0 -0.00012706014625208281 -0.047535753724782234 0 -0.00021999148163916136 -0.046660861557659319 0 -1.0699920780167901e-05 -0.046596040028901088 0 -0.00012706014625208281 -0.047535753724782234 0 6.016756972944237e-05 -0.048313073042167497 0 -1.0699920780167901e-05 -0.046596040028901088 0 0.00025231424203151431 -0.048282814697078354 0 -7.8920062797269768e-05 -0.047871266483987922 0 6.016756972944237e-05 -0.048313073042167497 0 0.00015417016532876283 -0.049252449874862804 0 -0.00017277969900876799 -0.049445671694468202 0 6.016756972944237e-05 -0.048313073042167497 0 0.00015417016532876283 -0.049252449874862804 0 0.00088983218448704133 -0.049360141397188084 0 6.016756972944237e-05 -0.048313073042167497 0 -0.00018348342203303826 -0.049390890402349626 0 -0.00017277969900876799 -0.049445671694468202 0 -0.00018348342203303826 -0.049390890402349626 0 -1.6058892139235208e-07 -0.049999157234475268 0 -4.4339304695154605e-07 -0.050002374229811047 0 -0.00018348342203303826 -0.049390890402349626 0 -4.4339304695154605e-07 -0.050002374229811047 0 -0.00017277969900876799 -0.049445671694468202 0 -0.00018348342203303826 -0.049390890402349626 0 -1.6058892139235208e-07 -0.049999157234475268 0 -0.00022206670718120702 -0.048927809760611125 0 6.016756972944237e-05 -0.048313073042167497 0 -0.00018348342203303826 -0.049390890402349626 0 -0.00022206670718120702 -0.048927809760611125 0 -0.00022206670718120702 -0.048927809760611125 0 -2.948648797941504e-07 -0.04999667814794323 0 -0.0002484699805289372 -0.048326843176325983 0 -0.00022206670718120702 -0.048927809760611125 0 -0.0002484699805289372 -0.048326843176325983 0 -0.00028858615936477985 -0.048097552764396909 0 -1.6058892139235208e-07 -0.049999157234475268 0 -0.00022206670718120702 -0.048927809760611125 0 -2.948648797941504e-07 -0.04999667814794323 0 -0.00015283411679038709 -0.048478728850595294 0 -2.948648797941504e-07 -0.04999667814794323 0 -0.0002484699805289372 -0.048326843176325983 0 -0.00015283411679038709 -0.048478728850595294 0 -0.0002484699805289372 -0.048326843176325983 0 -0.00048773348249479505 -0.047729686100663846 0 -0.0002484699805289372 -0.048326843176325983 0 -0.00048773348249479505 -0.047729686100663846 0 -0.0005446899346634211 -0.04704718515390386 0 -0.00048773348249479505 -0.047729686100663846 0 -0.0005446899346634211 -0.04704718515390386 0 -0.0018389589272647855 -0.046447742217320259 0 -0.0002484699805289372 -0.048326843176325983 0 -0.0005446899346634211 -0.04704718515390386 0 -0.00028858615936477985 -0.048097552764396909 0 -0.00013830592004577014 -0.047869956904868338 0 -0.0005446899346634211 -0.04704718515390386 0 -0.00028858615936477985 -0.048097552764396909 0 -0.00013830592004577014 -0.047869956904868338 0 -0.0005446899346634211 -0.04704718515390386 0 -0.00012788802383807222 -0.047749616797105196 0 -0.00072938317946250248 -0.046780718392606724 0 -0.0017109928103676056 -0.04582507134344381 0 -0.0005446899346634211 -0.04704718515390386 0 -0.0018389589272647855 -0.046447742217320259 0 -0.0031638287776193817 -0.043780022514702817 0 -0.00086345906809590339 -0.048226781986472581 0 -0.00048773348249479505 -0.047729686100663846 0 -0.0018389589272647855 -0.046447742217320259 0 -0.0043857851436898106 -0.042984830331126191 0 -0.0018389589272647855 -0.046447742217320259 0 -0.0036270941197199236 -0.044311341519674183 0 -0.0018389589272647855 -0.046447742217320259 0 -0.0036270941197199236 -0.044311341519674183 0 -0.0031638287776193817 -0.043780022514702817 0 -0.0040291893933315755 -0.042626677478730557 0 -0.0036270941197199236 -0.044311341519674183 0 -0.0038765246114879598 -0.043027998338743552 0 -0.0036270941197199236 -0.044311341519674183 0 -0.0038765246114879598 -0.043027998338743552 0 -0.0038525949260874372 -0.043458401064233147 0 -0.0038525949260874372 -0.043458401064233147 0 -0.0038432878503820108 -0.042899068850548554 0 -0.0039336289342550611 -0.04315486810670361 0 -0.0038525949260874372 -0.043458401064233147 0 -0.0031638287776193817 -0.043780022514702817 0 -0.0039336289342550611 -0.04315486810670361 0 -0.0038765246114879598 -0.043027998338743552 0 -0.0038525949260874372 -0.043458401064233147 0 -0.0038432878503820108 -0.042899068850548554 0 -0.0036270941197199236 -0.044311341519674183 0 -0.0038525949260874372 -0.043458401064233147 0 -0.0031638287776193817 -0.043780022514702817 0 -0.0035334592687185514 -0.041703643836606449 0 -0.0038432878503820108 -0.042899068850548554 0 -0.0034187960190488866 -0.042207767949870918 0 -0.0027686358929038721 -0.040873688455429831 0 -0.0035334592687185514 -0.041703643836606449 0 -0.0034187960190488866 -0.042207767949870918 0 -0.0038765246114879598 -0.043027998338743552 0 -0.0035334592687185514 -0.041703643836606449 0 -0.0038432878503820108 -0.042899068850548554 0 -0.0038432878503820108 -0.042899068850548554 0 -0.0035185813444709104 -0.042837965556242946 0 -0.0034187960190488866 -0.042207767949870918 0 -0.0030194795163735436 -0.042425116317465747 0 -0.0035185813444709104 -0.042837965556242946 0 -0.0034187960190488866 -0.042207767949870918 0 -0.0038432878503820108 -0.042899068850548554 0 -0.0035185813444709104 -0.042837965556242946 0 -0.0038084972880156518 -0.043336628672504728 0 -0.0032535150867901638 -0.043195016973408239 0 -0.0028359522075434972 -0.044275046001707584 0 -0.0038084972880156518 -0.043336628672504728 0 -0.0032535150867901638 -0.043195016973408239 0 -0.0035185813444709104 -0.042837965556242946 0 -0.0038084972880156518 -0.043336628672504728 0 -0.0030427000454563771 -0.0446503104903479 0 -0.0025334610425951005 -0.045179989128355566 0 -0.0038432878503820108 -0.042899068850548554 0 -0.0038084972880156518 -0.043336628672504728 0 -0.0039336289342550611 -0.04315486810670361 0 -0.0024983206014456642 -0.045927427131401077 0 -0.0016581605249769904 -0.045938162657670811 0 -0.0011800717044733765 -0.0472190181552824 0 -0.0024983206014456642 -0.045927427131401077 0 -0.0016581605249769904 -0.045938162657670811 0 -0.0028253596008802717 -0.044831019085755444 0 -0.0013970814183346227 -0.046237860437325536 0 -0.002180374340092476 -0.045411266535034363 0 -0.0027891864955534558 -0.044398352216409996 0 -0.0030427000454563771 -0.0446503104903479 0 -0.0028359522075434972 -0.044275046001707584 0 -0.0024983206014456642 -0.045927427131401077 0 -0.0028253596008802717 -0.044831019085755444 0 -0.0011117918519938862 -0.04652187813451391 0 -0.0015282459559190448 -0.045984506100746239 0 -0.0013871962047692869 -0.04594924137000183 0 -0.00012788802383807222 -0.047749616797105196 0 -0.0011800717044733765 -0.0472190181552824 0 -0.00046267359637217493 -0.047040284375527874 0 -0.0017109928103676056 -0.04582507134344381 0 -0.0025334610425951005 -0.045179989128355566 0 -0.00012706014625208281 -0.047535753724782234 0 -0.00012788802383807222 -0.047749616797105196 0 -0.00046267359637217493 -0.047040284375527874 0 -0.0016581605249769904 -0.045938162657670811 0 -0.0011800717044733765 -0.0472190181552824 0 -0.00046267359637217493 -0.047040284375527874 0 -0.0013970814183346227 -0.046237860437325536 0 -0.0005359636691434353 -0.046888683787625042 0 -0.0011117918519938862 -0.04652187813451391 0 -0.00046267359637217493 -0.047040284375527874 0 -0.00079929993649084912 -0.046400907371849216 0 -0.0011117918519938862 -0.04652187813451391 0 -0.00079929993649084912 -0.046400907371849216 0 -0.0011741684734262667 -0.045995370780590017 0 -0.00048779086406473544 -0.046731392626940746 0 -0.00046267359637217493 -0.047040284375527874 0 -0.00079929993649084912 -0.046400907371849216 0 -0.00012706014625208281 -0.047535753724782234 0 -0.00048779086406473544 -0.046731392626940746 0 -0.00046267359637217493 -0.047040284375527874 0 -0.00012706014625208281 -0.047535753724782234 0 -0.00048779086406473544 -0.046731392626940746 0 -0.00021999148163916136 -0.046660861557659319 0 -0.00050982388652189578 -0.046306682503696163 0 -0.00056245603471579114 -0.045691358300712866 0 -3.0811441017567606e-06 -0.046485250871324636 0 -0.00048779086406473544 -0.046731392626940746 0 -0.00021999148163916136 -0.046660861557659319 0 -0.00050982388652189578 -0.046306682503696163 0 -0.00021999148163916136 -0.046660861557659319 0 -0.00050982388652189578 -0.046306682503696163 0 -3.0811441017567606e-06 -0.046485250871324636 0 -0.00048779086406473544 -0.046731392626940746 0 -0.00050982388652189578 -0.046306682503696163 0 -0.00079929993649084912 -0.046400907371849216 0 -0.00079929993649084912 -0.046400907371849216 0 -0.00090830410863109107 -0.045834497109121949 0 -0.0011741684734262667 -0.045995370780590017 0 -0.00050982388652189578 -0.046306682503696163 0 -0.00079929993649084912 -0.046400907371849216 0 -0.00090830410863109107 -0.045834497109121949 0 -0.00050982388652189578 -0.046306682503696163 0 -0.00090830410863109107 -0.045834497109121949 0 -0.00056245603471579114 -0.045691358300712866 0 -0.00090830410863109107 -0.045834497109121949 0 -0.00056245603471579114 -0.045691358300712866 0 -0.00097993160566597838 -0.045254231176466125 0 -0.00057213561481066785 -0.046934683578819858 0 -7.8920062797269768e-05 -0.047871266483987922 0 -0.0015614557201256182 -0.045620206265140475 0 -0.001510231423329244 -0.045774243785326532 0 -0.0014208353814892986 -0.045733399221279218 0 -0.0015916783923644487 -0.045629700760785596 0 -0.0015282459559190448 -0.045984506100746239 0 -0.001510231423329244 -0.045774243785326532 0 -0.0015282459559190448 -0.045984506100746239 0 -0.001510231423329244 -0.045774243785326532 0 -0.0013871962047692869 -0.04594924137000183 0 -0.001510231423329244 -0.045774243785326532 0 -0.0013871962047692869 -0.04594924137000183 0 -0.0014208353814892986 -0.045733399221279218 0 -0.0013871962047692869 -0.04594924137000183 0 -0.0014208353814892986 -0.045733399221279218 0 -0.0011741684734262667 -0.045995370780590017 0 -0.0014208353814892986 -0.045733399221279218 0 -0.0011741684734262667 -0.045995370780590017 0 -0.0012490030919325612 -0.045624540927700311 0 -0.0011117918519938862 -0.04652187813451391 0 -0.0013871962047692869 -0.04594924137000183 0 -0.0011741684734262667 -0.045995370780590017 0 -0.00090830410863109107 -0.045834497109121949 0 -0.0012490030919325612 -0.045624540927700311 0 -0.00097993160566597838 -0.045254231176466125 0 -0.00090830410863109107 -0.045834497109121949 0 -0.0011741684734262667 -0.045995370780590017 0 -0.0012490030919325612 -0.045624540927700311 0 -0.0014208353814892986 -0.045733399221279218 0 -0.0012490030919325612 -0.045624540927700311 0 -0.0014832060839894573 -0.045496937975603627 0 -0.0012490030919325612 -0.045624540927700311 0 -0.0014832060839894573 -0.045496937975603627 0 -0.0013780390618069482 -0.045369089805924925 0 -0.0015614557201256182 -0.045620206265140475 0 -0.0014208353814892986 -0.045733399221279218 0 -0.0014832060839894573 -0.045496937975603627 0 -0.0014787494978214051 -0.045291688059583689 0 -0.0013780390618069482 -0.045369089805924925 0 -0.0013425637142682385 -0.045156019155023507 0 -0.0014787494978214051 -0.045291688059583689 0 -0.0014832060839894573 -0.045496937975603627 0 -0.0013780390618069482 -0.045369089805924925 0 -0.0013780390618069482 -0.045369089805924925 0 -0.0013425637142682385 -0.045156019155023507 0 -0.00097993160566597838 -0.045254231176466125 0 -0.0012490030919325612 -0.045624540927700311 0 -0.0013780390618069482 -0.045369089805924925 0 -0.00097993160566597838 -0.045254231176466125 0 -0.0013425637142682385 -0.045156019155023507 0 -0.00097993160566597838 -0.045254231176466125 0 -0.0012401572585540182 -0.044994437353534471 0 -0.00068982923370161013 -0.046891787473387292 0 -0.00081236664181474363 -0.046343748282675797 0 -0.00044681475793757324 -0.048387279079453401 0 -0.00045912161705466344 -0.048367741361656003 0 -0.00043365563417002169 -0.048384046619250713 0 -0.001489781202563251 -0.045083183748462298 0 -0.0013425637142682385 -0.045156019155023507 0 -0.0012401572585540182 -0.044994437353534471 0 -0.0014787494978214051 -0.045291688059583689 0 -0.001489781202563251 -0.045083183748462298 0 -0.0013425637142682385 -0.045156019155023507 0 -0.0015303533742509322 -0.044862116380261399 0 -0.00081236664181474363 -0.046343748282675797 0 -0.00047088554665095257 -0.048363526052808387 0 -0.00046869621413028479 -0.048373996816460589 0 -0.0004691073958435987 -0.04837768470668509 0 -0.00046869621413028479 -0.048373996816460589 0 -0.00046905499356071758 -0.048367456575849808 0 -0.00046611636831405279 -0.048388081401945414 0 -0.00047088554665095257 -0.048363526052808387 0 -0.00046869621413028479 -0.048373996816460589 0 -0.00046905499356071758 -0.048367456575849808 0 -0.00047088554665095257 -0.048363526052808387 0 -0.00045912161705466344 -0.048367741361656003 0 -0.00046905499356071758 -0.048367456575849808 0 -0.00057213561481066785 -0.046934683578819858 0 -0.00068982923370161013 -0.046891787473387292 0 -0.00045912161705466344 -0.048367741361656003 0 -0.00046905499356071758 -0.048367456575849808 0 -0.00047701125780315264 -0.048389842776073187 0 -0.00045912161705466344 -0.048367741361656003 0 -0.00047701125780315264 -0.048389842776073187 0 -0.00046522455539582945 -0.048396247952498375 0 -0.00044681475793757324 -0.048387279079453401 0 -0.00046522455539582945 -0.048396247952498375 0 -0.000467693494472553 -0.048421287198115649 0 -0.00044681475793757324 -0.048387279079453401 0 -0.00045912161705466344 -0.048367741361656003 0 -0.00046522455539582945 -0.048396247952498375 0 -0.00047701125780315264 -0.048389842776073187 0 -0.00046522455539582945 -0.048396247952498375 0 -0.00050084543907598117 -0.048423570612948746 0 -0.00046905499356071758 -0.048367456575849808 0 -0.00047701125780315264 -0.048389842776073187 0 -0.00053295880802953861 -0.048399568553089758 0 -0.00047701125780315264 -0.048389842776073187 0 -0.00053295880802953861 -0.048399568553089758 0 -0.00050084543907598117 -0.048423570612948746 0 -0.0004767221557560887 -0.048400944909922708 0 -0.00051247587514052339 -0.048287154300657185 0 -0.00047026120984643583 -0.048391748661256957 0 -0.00047409615970288489 -0.048396369659605309 0 -0.00047071597447126455 -0.04840739627457178 0 -0.00046611636831405279 -0.048388081401945414 0 -0.00047026120984643583 -0.048391748661256957 0 -0.00047071597447126455 -0.04840739627457178 0 -0.00026297047476027044 -0.049147193552391465 0 -0.00026175527853468524 -0.049202824694653008 0 -0.00047026120984643583 -0.048391748661256957 0 -0.00047211939373876209 -0.048387857491209996 0 -0.00047409615970288489 -0.048396369659605309 0 -0.00047026120984643583 -0.048391748661256957 0 -0.00047211939373876209 -0.048387857491209996 0 -0.0004691073958435987 -0.04837768470668509 0 -0.00046869621413028479 -0.048373996816460589 0 -0.00046611636831405279 -0.048388081401945414 0 -0.0004691073958435987 -0.04837768470668509 0 -0.00046611636831405279 -0.048388081401945414 0 -0.00047026120984643583 -0.048391748661256957 0 -0.0004691073958435987 -0.04837768470668509 0 -0.0004691073958435987 -0.04837768470668509 0 -0.00047120229651041344 -0.048380342429707276 0 -0.00046664515111178011 -0.048367326893896778 0 -0.00047088554665095257 -0.048363526052808387 0 -0.0004691073958435987 -0.04837768470668509 0 -0.00046664515111178011 -0.048367326893896778 0 -0.00047211939373876209 -0.048387857491209996 0 -0.0004691073958435987 -0.04837768470668509 0 -0.00047120229651041344 -0.048380342429707276 0 7.9202438036216909e-05 -0.049695432833466016 0 0.00015417016532876283 -0.049252449874862804 0 -0.00012549474120670479 -0.049633031521745502 0 7.9202438036216909e-05 -0.049695432833466016 0 0.00015417016532876283 -0.049252449874862804 0 0.00088983218448704133 -0.049360141397188084 0 -0.00019416263363548818 -0.049111859895320069 0 -7.8920062797269768e-05 -0.047871266483987922 0 0.00011963633310827258 -0.047332386609390473 0 -7.8920062797269768e-05 -0.047871266483987922 0 -4.4339304695154605e-07 -0.050002374229811047 0 -0.00017277969900876799 -0.049445671694468202 0 -0.00015115709855441332 -0.049702275438280451 0 1.7513179115827853e-10 -0.050004018964081756 0 -1.3885670916741824e-06 -0.050000305259220931 0 -9.3973467199986388e-11 -0.049999999132388333 0 -5.2169957970564179e-08 -0.050003915836219701 0 -3.9098690664843904e-05 -0.049918245984511708 0 -0.00012549474120670479 -0.049633031521745502 0 -0.00017277969900876799 -0.049445671694468202 0 -0.00015115709855441332 -0.049702275438280451 0 0.00015417016532876283 -0.049252449874862804 0 -0.00012549474120670479 -0.049633031521745502 0 -0.00017277969900876799 -0.049445671694468202 0 -0.00047211939373876209 -0.048387857491209996 0 -0.00047120229651041344 -0.048380342429707276 0 -0.00047453994879201886 -0.048394561020737845 0 -0.00019416263363548818 -0.049111859895320069 0 -0.00011638507816204302 -0.049438887280737455 0 7.9202438036216909e-05 -0.049695432833466016 0 -0.00012549474120670479 -0.049633031521745502 0 -0.00016667475040013538 -0.049776139558529775 0 -3.9098690664843904e-05 -0.049918245984511708 0 -0.00011638507816204302 -0.049438887280737455 0 -0.00012549474120670479 -0.049633031521745502 0 -0.00015115709855441332 -0.049702275438280451 0 -0.00016667475040013538 -0.049776139558529775 0 -1.3885670916741824e-06 -0.050000305259220931 0 -9.3973467199986388e-11 -0.049999999132388333 0 -1.74326129282321e-06 -0.049996879239249843 0 -3.3204700977205253e-06 -0.049994024843521598 0 -4.7821078153815044e-09 -0.04999998692395298 0 -2.4917843953019929e-06 -0.049996144767259811 0 -9.3973467199986388e-11 -0.049999999132388333 0 -1.74326129282321e-06 -0.049996879239249843 0 -7.798430881534483e-10 -0.04999999493863664 0 -0.00011638507816204302 -0.049438887280737455 0 -1.3859722576682481e-07 -0.050000116178733574 0 -3.3204700977205253e-06 -0.049994024843521598 0 -5.2116894073835719e-06 -0.049992088426335832 0 -2.4917843953019929e-06 -0.049996144767259811 0 -0.00047211939373876209 -0.048387857491209996 0 -0.00047453994879201886 -0.048394561020737845 0 -0.00047409615970288489 -0.048396369659605309 0 -0.00011638507816204302 -0.049438887280737455 0 -0.00026297047476027044 -0.049147193552391465 0 -5.2116894073835719e-06 -0.049992088426335832 0 -2.4917843953019929e-06 -0.049996144767259811 0 -3.4472498773395622e-06 -0.049994123924211868 0 -2.4917843953019929e-06 -0.049996144767259811 0 -2.8858415687602012e-09 -0.049999992030920357 0 -3.4472498773395622e-06 -0.049994123924211868 0 -4.7821078153815044e-09 -0.04999998692395298 0 -2.4917843953019929e-06 -0.049996144767259811 0 -2.8858415687602012e-09 -0.049999992030920357 0 -2.8858415687602012e-09 -0.049999992030920357 0 -3.4472498773395622e-06 -0.049994123924211868 0 -2.6080194915582997e-06 -0.049995772412462086 0 -5.2116894073835719e-06 -0.049992088426335832 0 -3.4472498773395622e-06 -0.049994123924211868 0 -6.5483512789178817e-06 -0.049988692131941952 0 -3.4472498773395622e-06 -0.049994123924211868 0 -2.6080194915582997e-06 -0.049995772412462086 0 -6.5483512789178817e-06 -0.049988692131941952 0 -2.7363905187831979e-06 -0.050067247721898724 0 -0.00026175527853468524 -0.049202824694653008 0 -4.7423356395000397e-06 -0.049980031364983836 0 2.9336512597992403e-06 -0.049971534261892631 0 6.0853037287350374e-06 -0.049955698626404518 0 -4.7423356395000397e-06 -0.049980031364983836 0 2.9336512597992403e-06 -0.049971534261892631 0 -2.4065072338705576e-06 -0.049987887177792817 0 -2.8858415687602012e-09 -0.049999992030920357 0 -2.6080194915582997e-06 -0.049995772412462086 0 -1.490924665040533e-10 -0.04999999728893513 0 -4.7423356395000397e-06 -0.049980031364983836 0 -1.3207153512203518e-08 -0.049999975688576316 0 -2.4065072338705576e-06 -0.049987887177792817 0 -2.7363905187831979e-06 -0.050067247721898724 0 3.6231073789066349e-08 -0.049999941755262324 0 -0.00053295880802953861 -0.048399568553089758 0 -0.0005353450574259659 -0.048457287247629939 0 -0.00056121405066750858 -0.04845104083512955 0 -0.00051247587514052339 -0.048287154300657185 0 -0.00026175527853468524 -0.049202824694653008 0 -0.00053295880802953861 -0.048399568553089758 0 -0.00056121405066750858 -0.04845104083512955 0 -0.00059847094837692076 -0.048456277535754488 0 -0.00052082139100958016 -0.048453574075929311 0 -0.00036200775842869785 -0.049322630461725664 0 -0.0005353450574259659 -0.048457287247629939 0 -0.00056121405066750858 -0.04845104083512955 0 -0.00057852121085656498 -0.048493044972178316 0 -0.00026175527853468524 -0.049202824694653008 0 -0.00036200775842869785 -0.049322630461725664 0 -0.00056121405066750858 -0.04845104083512955 0 -0.00059847094837692076 -0.048456277535754488 0 -0.00057852121085656498 -0.048493044972178316 0 2.9336512597992403e-06 -0.049971534261892631 0 6.0853037287350374e-06 -0.049955698626404518 0 1.1864284453221073e-05 -0.049967296997913607 0 -0.00018333670938828467 -0.050131117101352922 0 -0.00015238076229125554 -0.050020759190430149 0 -3.6324021636309003e-05 -0.050024221714209963 0 -0.00036200775842869785 -0.049322630461725664 0 -2.939271873620316e-06 -0.050093053213916175 0 2.9336512597992403e-06 -0.049971534261892631 0 1.1864284453221073e-05 -0.049967296997913607 0 -2.4065072338705576e-06 -0.049987887177792817 0 -0.00020739058331958505 -0.050096876110709065 0 -0.00025272315475188985 -0.050045716060791556 0 -0.00015238076229125554 -0.050020759190430149 0 -0.00020739058331958505 -0.050096876110709065 0 -0.00018333670938828467 -0.050131117101352922 0 -0.00015238076229125554 -0.050020759190430149 0 -0.00042253486838489081 -0.049598001601812727 0 -0.00036200775842869785 -0.049322630461725664 0 -0.00027752457343502139 -0.050077265540802801 0 -0.00037099301822890256 -0.050051543515559134 0 -0.0004758960193652529 -0.050098478836798153 0 -0.00027752457343502139 -0.050077265540802801 0 -0.0004758960193652529 -0.050098478836798153 0 -0.00053870280456569191 -0.050161289529080756 0 -0.00057323027425207741 -0.048467763936038778 0 -0.00063161546570198184 -0.048553202883608031 0 -0.00050306406029729809 -0.048481872025840651 0 -0.00042253486838489081 -0.049598001601812727 0 -0.00061210146009469963 -0.049440760751147839 0 -0.00057323027425207741 -0.048467763936038778 0 -0.00063161546570198184 -0.048553202883608031 0 -0.00064788932244869341 -0.048524648894578713 0 -0.00042253486838489081 -0.049598001601812727 0 -0.00026930172036569207 -0.050016794602077363 0 -0.00027752457343502139 -0.050077265540802801 0 -0.00037099301822890256 -0.050051543515559134 0 -0.00032521263788074157 -0.050003140530490792 0 -0.00040460061912574402 -0.050028873229412477 0 -0.00037099301822890256 -0.050051543515559134 0 -0.00032521263788074157 -0.050003140530490792 0 -0.00040460061912574402 -0.050028873229412477 0 -0.00037099301822890256 -0.050051543515559134 0 -0.0004758960193652529 -0.050098478836798153 0 -0.00035393973666961951 -0.049913586273235867 0 -0.00026930172036569207 -0.050016794602077363 0 -0.00036510181725922969 -0.04990312771068741 0 -0.00040944365339955902 -0.049977533857176321 0 -0.00032521263788074157 -0.050003140530490792 0 -0.00040460061912574402 -0.050028873229412477 0 -0.00040944365339955902 -0.049977533857176321 0 -0.00032521263788074157 -0.050003140530490792 0 -0.00036510181725922969 -0.04990312771068741 0 -0.00025272315475188985 -0.050045716060791556 0 -0.00021320567156777695 -0.049949968221960003 0 -0.00015238076229125554 -0.050020759190430149 0 -9.7739469483054979e-05 -0.049937560930760565 0 -3.6324021636309003e-05 -0.050024221714209963 0 -0.00021320567156777695 -0.049949968221960003 0 -0.00015238076229125554 -0.050020759190430149 0 -9.7739469483054979e-05 -0.049937560930760565 0 -0.00025272315475188985 -0.050045716060791556 0 -0.00021320567156777695 -0.049949968221960003 0 -0.00015238076229125554 -0.050020759190430149 0 -9.7739469483054979e-05 -0.049937560930760565 0 -0.00023228484828741893 -0.049836866075406716 0 -3.1710691312130167e-05 -0.049817180512725982 0 -0.00021320567156777695 -0.049949968221960003 0 -9.7739469483054979e-05 -0.049937560930760565 0 -0.00023228484828741893 -0.049836866075406716 0 -0.00023228484828741893 -0.049836866075406716 0 -0.00033245286014306144 -0.049596275838804084 0 -0.00042077437515115499 -0.049748166521069247 0 -0.00036510181725922969 -0.04990312771068741 0 -0.00021320567156777695 -0.049949968221960003 0 -0.00023228484828741893 -0.049836866075406716 0 -0.00036510181725922969 -0.04990312771068741 0 -0.00023228484828741893 -0.049836866075406716 0 -0.00042077437515115499 -0.049748166521069247 0 1.1899075612424396e-08 -0.049999947750067213 0 -2.939271873620316e-06 -0.050093053213916175 0 5.4833327353771602e-08 -0.049999931734235482 0 -3.6324021636309003e-05 -0.050024221714209963 0 -1.9475757171665338e-05 -0.049927205021299527 0 6.6765257404849532e-09 -0.050000012834729622 0 -1.3207153512203518e-08 -0.049999975688576316 0 -2.4065072338705576e-06 -0.049987887177792817 0 -9.7739469483054979e-05 -0.049937560930760565 0 -3.6324021636309003e-05 -0.050024221714209963 0 -1.9475757171665338e-05 -0.049927205021299527 0 -9.7739469483054979e-05 -0.049937560930760565 0 -1.9475757171665338e-05 -0.049927205021299527 0 -3.1710691312130167e-05 -0.049817180512725982 0 5.4833327353771602e-08 -0.049999931734235482 0 -1.9475757171665338e-05 -0.049927205021299527 0 -3.0119146113903379e-08 -0.04999986969347172 0 -1.9475757171665338e-05 -0.049927205021299527 0 -3.0119146113903379e-08 -0.04999986969347172 0 -4.2427901357928338e-05 -0.049958437006898268 0 -3.0119146113903379e-08 -0.04999986969347172 0 -4.2427901357928338e-05 -0.049958437006898268 0 -1.3866210105661846e-07 -0.050000116675955546 0 -4.2427901357928338e-05 -0.049958437006898268 0 -3.1710691312130167e-05 -0.049817180512725982 0 -4.4635671199003788e-05 -0.049974331793250074 0 -4.2427901357928338e-05 -0.049958437006898268 0 -4.4635671199003788e-05 -0.049974331793250074 0 -5.0463777664419833e-05 -0.049978380972368869 0 -1.9475757171665338e-05 -0.049927205021299527 0 -4.2427901357928338e-05 -0.049958437006898268 0 -3.1710691312130167e-05 -0.049817180512725982 0 -0.00023228484828741893 -0.049836866075406716 0 -3.1710691312130167e-05 -0.049817180512725982 0 -0.00033245286014306144 -0.049596275838804084 0 -3.1710691312130167e-05 -0.049817180512725982 0 -0.00033245286014306144 -0.049596275838804084 0 -2.7634059656683913e-05 -0.049318122987439955 0 -0.00033245286014306144 -0.049596275838804084 0 -2.7634059656683913e-05 -0.049318122987439955 0 -0.00029502591181927869 -0.049159760677230789 0 -0.00033245286014306144 -0.049596275838804084 0 -0.00029502591181927869 -0.049159760677230789 0 -0.00051523297901866325 -0.049331367430031331 0 -2.879956290019776e-05 -0.049800545589840685 0 -4.618797329916429e-05 -0.049644273839715085 0 -4.618797329916429e-05 -0.049644273839715085 0 -0.00014511927693490936 -0.049445358910123687 0 -2.7634059656683913e-05 -0.049318122987439955 0 -0.00029502591181927869 -0.049159760677230789 0 -0.00011591729131704897 -0.048942221004971607 0 -0.00029502591181927869 -0.049159760677230789 0 -0.00027677555497606455 -0.048862601177015207 0 -0.00050775266990542908 -0.048983497845866725 0 -0.00029502591181927869 -0.049159760677230789 0 -0.00027677555497606455 -0.048862601177015207 0 -0.00011591729131704897 -0.048942221004971607 0 -0.00027677555497606455 -0.048862601177015207 0 -0.00011591729131704897 -0.048942221004971607 0 -0.00029425341057119224 -0.048786195806641147 0 -0.00014511927693490936 -0.049445358910123687 0 -0.00029272672203351641 -0.049258308570824201 0 -0.00015829621403628814 -0.049952023123543451 0 -5.0463777664419833e-05 -0.049978380972368869 0 -0.0001070705799676172 -0.04983124794680549 0 -1.3866210105661846e-07 -0.050000116675955546 0 -5.0463777664419833e-05 -0.049978380972368869 0 3.398865059288515e-07 -0.049999419519887948 0 -5.0463777664419833e-05 -0.049978380972368869 0 -0.0001070705799676172 -0.04983124794680549 0 3.398865059288515e-07 -0.049999419519887948 0 -4.2427901357928338e-05 -0.049958437006898268 0 -1.3866210105661846e-07 -0.050000116675955546 0 -5.0463777664419833e-05 -0.049978380972368869 0 -4.4635671199003788e-05 -0.049974331793250074 0 -0.00015829621403628814 -0.049952023123543451 0 -5.0463777664419833e-05 -0.049978380972368869 0 -0.00084219125517584253 -0.049099437971254302 0 -0.0011985631454955025 -0.049136592598692803 0 -0.00091387602472286784 -0.049278469846582192 0 -0.00075680483584518855 -0.049625715353679663 0 -0.0017160754333299456 -0.046928313104443856 0 -0.00084219125517584253 -0.049099437971254302 0 -0.0011884379137463894 -0.048933684425890397 0 -0.0013869696055725845 -0.049188951039471858 0 -0.0011884379137463894 -0.048933684425890397 0 -0.0013869696055725845 -0.049188951039471858 0 -0.0015302013797198497 -0.048761750059385545 0 -0.0017160754333299456 -0.046928313104443856 0 -0.0018936788182728635 -0.047220414860582594 0 -0.0011884379137463894 -0.048933684425890397 0 -0.0010185010581726882 -0.048663238176244218 0 -0.0015302013797198497 -0.048761750059385545 0 -0.00084219125517584253 -0.049099437971254302 0 -0.0011884379137463894 -0.048933684425890397 0 -0.0010185010581726882 -0.048663238176244218 0 -0.00084219125517584253 -0.049099437971254302 0 -0.0010185010581726882 -0.048663238176244218 0 -0.00072813370195370616 -0.04867113936871019 0 -0.00084219125517584253 -0.049099437971254302 0 -0.00050775266990542908 -0.048983497845866725 0 -0.00072813370195370616 -0.04867113936871019 0 -0.00050775266990542908 -0.048983497845866725 0 -0.00044360710993760654 -0.048732127715842982 0 -0.00072813370195370616 -0.04867113936871019 0 -0.00027677555497606455 -0.048862601177015207 0 -0.00050775266990542908 -0.048983497845866725 0 -0.00044360710993760654 -0.048732127715842982 0 -0.00029502591181927869 -0.049159760677230789 0 -0.00050775266990542908 -0.048983497845866725 0 -0.00051523297901866325 -0.049331367430031331 0 -0.00084219125517584253 -0.049099437971254302 0 -0.00050775266990542908 -0.048983497845866725 0 -0.00051523297901866325 -0.049331367430031331 0 -0.00084219125517584253 -0.049099437971254302 0 -0.00075200944157509733 -0.049358284030746206 0 -0.00051523297901866325 -0.049331367430031331 0 -0.00075200944157509733 -0.049358284030746206 0 -0.00051523297901866325 -0.049331367430031331 0 -0.00062049720226927914 -0.049601678584043268 0 -0.00033245286014306144 -0.049596275838804084 0 -0.00062049720226927914 -0.049601678584043268 0 -0.00042077437515115499 -0.049748166521069247 0 -0.00033245286014306144 -0.049596275838804084 0 -0.00051523297901866325 -0.049331367430031331 0 -0.00062049720226927914 -0.049601678584043268 0 -0.00075200944157509733 -0.049358284030746206 0 -0.00062049720226927914 -0.049601678584043268 0 -0.00086800798319257451 -0.049476653137955448 0 -0.00062049720226927914 -0.049601678584043268 0 -0.00086800798319257451 -0.049476653137955448 0 -0.00080804005445277269 -0.049685195662957676 0 -0.0009330971610826582 -0.049585341439028506 0 -0.00086800798319257451 -0.049476653137955448 0 -0.00080804005445277269 -0.049685195662957676 0 -0.0009330971610826582 -0.049585341439028506 0 -0.0010088359620681285 -0.04945212614823237 0 -0.0010607341238396699 -0.049594094143003961 0 -0.0009330971610826582 -0.049585341439028506 0 -0.0010088359620681285 -0.04945212614823237 0 -0.00086800798319257451 -0.049476653137955448 0 -0.0010088359620681285 -0.04945212614823237 0 -0.00086800798319257451 -0.049476653137955448 0 -0.00097186082715635747 -0.049380091516141415 0 -0.00084219125517584253 -0.049099437971254302 0 -0.00075200944157509733 -0.049358284030746206 0 -0.00091387602472286784 -0.049278469846582192 0 -0.00075200944157509733 -0.049358284030746206 0 -0.00086800798319257451 -0.049476653137955448 0 -0.00091387602472286784 -0.049278469846582192 0 -0.00097186082715635747 -0.049380091516141415 0 -0.00091387602472286784 -0.049278469846582192 0 -0.0010900015016190414 -0.049336687311106769 0 -0.00086800798319257451 -0.049476653137955448 0 -0.00097186082715635747 -0.049380091516141415 0 -0.00091387602472286784 -0.049278469846582192 0 -0.0011985631454955025 -0.049136592598692803 0 -0.00091387602472286784 -0.049278469846582192 0 -0.0010900015016190414 -0.049336687311106769 0 -0.0011985631454955025 -0.049136592598692803 0 -0.0010900015016190414 -0.049336687311106769 0 -0.0011400142909591361 -0.049353248432359442 0 -0.0017160754333299456 -0.046928313104443856 0 -0.0011635423296348637 -0.04670671334741431 0 -0.0019820773401760922 -0.04470202429449624 0 -0.0021111761836149746 -0.044191870580199175 0 -0.0016333436651618882 -0.044316355121067484 0 -0.0010088359620681285 -0.04945212614823237 0 -0.0010900015016190414 -0.049336687311106769 0 -0.0011389232748271767 -0.049354945445270366 0 -0.0010088359620681285 -0.04945212614823237 0 -0.00097186082715635747 -0.049380091516141415 0 -0.0010900015016190414 -0.049336687311106769 0 -0.0014134445710251983 -0.047167046310218889 0 -0.0011635423296348637 -0.04670671334741431 0 -0.0010088359620681285 -0.04945212614823237 0 -0.0011389232748271767 -0.049354945445270366 0 -0.0010607341238396699 -0.049594094143003961 0 -0.00095746272442580294 -0.045500063974998846 0 -0.00093936808977394522 -0.045543031032955143 0 -0.00097750588354782002 -0.045522178467102749 0 -0.0011635423296348637 -0.04670671334741431 0 -0.00094599152165929419 -0.047778804858832138 0 -0.00093936808977394522 -0.045543031032955143 0 -0.0010020566391946619 -0.045549881755996474 0 -0.00097750588354782002 -0.045522178467102749 0 -0.00077892726719403784 -0.047058919775485646 0 -0.0012726394013416733 -0.044991876004248643 0 -0.00093936808977394522 -0.045543031032955143 0 -0.00092157588696227522 -0.045606072770471524 0 -0.0010020566391946619 -0.045549881755996474 0 -0.00019092254868182255 -0.044637015898190927 0 -0.0012876395118421591 -0.044293707151823285 0 -0.0010824469224009719 -0.04479956415312436 0 -0.00094599152165929419 -0.047778804858832138 0 -0.00077892726719403784 -0.047058919775485646 0 -0.0009330971610826582 -0.049585341439028506 0 -0.0010607341238396699 -0.049594094143003961 0 -0.00092407530019489575 -0.049711113850366098 0 -0.0010607341238396699 -0.049594094143003961 0 -0.00092407530019489575 -0.049711113850366098 0 -0.00097720453526366257 -0.049805030033076694 0 -0.0009330971610826582 -0.049585341439028506 0 -0.00092407530019489575 -0.049711113850366098 0 -0.00080804005445277269 -0.049685195662957676 0 -0.00092407530019489575 -0.049711113850366098 0 -0.00080804005445277269 -0.049685195662957676 0 -0.0008514919298083898 -0.049774266873733868 0 -0.00080804005445277269 -0.049685195662957676 0 -0.0008514919298083898 -0.049774266873733868 0 -0.00076821921313840037 -0.04984832335211227 0 -0.0008514919298083898 -0.049774266873733868 0 -0.00092559237670907662 -0.049819258361456065 0 -0.00084865075524140614 -0.049836186786143717 0 -0.0008514919298083898 -0.049774266873733868 0 -0.00084865075524140614 -0.049836186786143717 0 -0.00076821921313840037 -0.04984832335211227 0 -0.00092407530019489575 -0.049711113850366098 0 -0.0008514919298083898 -0.049774266873733868 0 -0.00092559237670907662 -0.049819258361456065 0 -0.00092407530019489575 -0.049711113850366098 0 -0.00097720453526366257 -0.049805030033076694 0 -0.00092559237670907662 -0.049819258361456065 0 -0.00077892726719403784 -0.047058919775485646 0 -0.00063656549264719047 -0.047456862653106134 0 -0.00096692781740743701 -0.049803810394333466 0 -0.00092559237670907662 -0.049819258361456065 0 -0.00084920613605460121 -0.049901468618083533 0 -0.00096692781740743701 -0.049803810394333466 0 -0.00084920613605460121 -0.049901468618083533 0 -0.00087653365130555807 -0.050027988235704597 0 -0.00077892726719403784 -0.047058919775485646 0 -0.00038455509761426251 -0.04786673163876716 0 -0.00084920613605460121 -0.049901468618083533 0 -0.00076821921313840037 -0.04984832335211227 0 -0.00073654517966648169 -0.049976830323264151 0 -0.00084865075524140614 -0.049836186786143717 0 -0.00084920613605460121 -0.049901468618083533 0 -0.00076821921313840037 -0.04984832335211227 0 -0.00092559237670907662 -0.049819258361456065 0 -0.00084865075524140614 -0.049836186786143717 0 -0.00084920613605460121 -0.049901468618083533 0 -0.00084920613605460121 -0.049901468618083533 0 -0.00073654517966648169 -0.049976830323264151 0 -0.00087653365130555807 -0.050027988235704597 0 -0.00019092254868182255 -0.044637015898190927 0 -0.0005857200087156407 -0.045015378493940141 0 5.2572507799961129e-05 -0.045566216170676098 0 -0.00019092254868182255 -0.044637015898190927 0 -0.0005857200087156407 -0.045015378493940141 0 -0.0010824469224009719 -0.04479956415312436 0 -0.0005857200087156407 -0.045015378493940141 0 -0.0010824469224009719 -0.04479956415312436 0 -0.001003293826013037 -0.045303473858274546 0 -0.0005857200087156407 -0.045015378493940141 0 -0.00048454895995398551 -0.045562602174985853 0 -0.001003293826013037 -0.045303473858274546 0 -0.00062049720226927914 -0.049601678584043268 0 -0.00042077437515115499 -0.049748166521069247 0 -0.00054523727246504473 -0.049789090802261432 0 -0.00036510181725922969 -0.04990312771068741 0 -0.00054523727246504473 -0.049789090802261432 0 -0.00049773390411516141 -0.049910427189737046 0 -0.00036510181725922969 -0.04990312771068741 0 -0.00042077437515115499 -0.049748166521069247 0 -0.00054523727246504473 -0.049789090802261432 0 -0.00054523727246504473 -0.049789090802261432 0 -0.00067641394752129325 -0.049766358398523523 0 -0.00062124560286821973 -0.049919024769260752 0 -0.00062049720226927914 -0.049601678584043268 0 -0.00054523727246504473 -0.049789090802261432 0 -0.00067641394752129325 -0.049766358398523523 0 -0.00062049720226927914 -0.049601678584043268 0 -0.00080804005445277269 -0.049685195662957676 0 -0.00067641394752129325 -0.049766358398523523 0 -0.00080804005445277269 -0.049685195662957676 0 -0.00067641394752129325 -0.049766358398523523 0 -0.00076821921313840037 -0.04984832335211227 0 -0.00076821921313840037 -0.04984832335211227 0 -0.00073654517966648169 -0.049976830323264151 0 -0.00062124560286821973 -0.049919024769260752 0 -0.00073654517966648169 -0.049976830323264151 0 -0.00062124560286821973 -0.049919024769260752 0 -0.00059653079884565711 -0.050054317905600151 0 -0.00067641394752129325 -0.049766358398523523 0 -0.00076821921313840037 -0.04984832335211227 0 -0.00062124560286821973 -0.049919024769260752 0 -0.00054523727246504473 -0.049789090802261432 0 -0.00062124560286821973 -0.049919024769260752 0 -0.00049773390411516141 -0.049910427189737046 0 -0.00062124560286821973 -0.049919024769260752 0 -0.00048739417228739273 -0.050009749814523996 0 -0.00049773390411516141 -0.049910427189737046 0 -0.00062124560286821973 -0.049919024769260752 0 -0.00048739417228739273 -0.050009749814523996 0 -0.00059653079884565711 -0.050054317905600151 0 -0.00040944365339955902 -0.049977533857176321 0 -0.00048739417228739273 -0.050009749814523996 0 -0.00049773390411516141 -0.049910427189737046 0 -0.00040460061912574402 -0.050028873229412477 0 -0.00040944365339955902 -0.049977533857176321 0 -0.00048739417228739273 -0.050009749814523996 0 -0.00036510181725922969 -0.04990312771068741 0 -0.00040944365339955902 -0.049977533857176321 0 -0.00049773390411516141 -0.049910427189737046 0 -0.00040460061912574402 -0.050028873229412477 0 -0.00048739417228739273 -0.050009749814523996 0 -0.0004758960193652529 -0.050098478836798153 0 -0.00048739417228739273 -0.050009749814523996 0 -0.0004758960193652529 -0.050098478836798153 0 -0.00059653079884565711 -0.050054317905600151 0 -0.0004758960193652529 -0.050098478836798153 0 -0.00059653079884565711 -0.050054317905600151 0 -0.00053870280456569191 -0.050161289529080756 0 -0.00059653079884565711 -0.050054317905600151 0 -0.00071061830825487366 -0.050095604342614015 0 -0.00053870280456569191 -0.050161289529080756 0 -0.00073654517966648169 -0.049976830323264151 0 -0.00059653079884565711 -0.050054317905600151 0 -0.00071061830825487366 -0.050095604342614015 0 -0.00061210146009469963 -0.049440760751147839 0 -0.00032891897456212733 -0.048191305284309878 0 -0.000467693494472553 -0.048421287198115649 0 -0.00050306406029729809 -0.048481872025840651 0 -0.00043049612651625054 -0.048422586110410129 0 -0.00071061830825487366 -0.050095604342614015 0 -0.00053870280456569191 -0.050161289529080756 0 -0.00080935940218201767 -0.050228914952753716 0 -0.00044681475793757324 -0.048387279079453401 0 -0.000467693494472553 -0.048421287198115649 0 -0.00043049612651625054 -0.048422586110410129 0 -0.00046522455539582945 -0.048396247952498375 0 -0.000467693494472553 -0.048421287198115649 0 -0.00050084543907598117 -0.048423570612948746 0 -0.00053295880802953861 -0.048399568553089758 0 -0.0005353450574259659 -0.048457287247629939 0 -0.00050084543907598117 -0.048423570612948746 0 -0.000467693494472553 -0.048421287198115649 0 -0.00050306406029729809 -0.048481872025840651 0 -0.00050084543907598117 -0.048423570612948746 0 -0.00052082139100958016 -0.048453574075929311 0 -0.00051644957661650236 -0.048435590594008752 0 -0.00057323027425207741 -0.048467763936038778 0 -0.00050306406029729809 -0.048481872025840651 0 -0.00050084543907598117 -0.048423570612948746 0 -0.0002127017438543924 -0.046055856233551101 0 -0.00074588455446005376 -0.045971508867761919 0 -0.00048454895995398551 -0.045562602174985853 0 -0.00074588455446005376 -0.045971508867761919 0 -0.00048454895995398551 -0.045562602174985853 0 -0.001003293826013037 -0.045303473858274546 0 -0.0002127017438543924 -0.046055856233551101 0 -0.00048454895995398551 -0.045562602174985853 0 5.2572507799961129e-05 -0.045566216170676098 0 -0.0005857200087156407 -0.045015378493940141 0 -0.00048454895995398551 -0.045562602174985853 0 5.2572507799961129e-05 -0.045566216170676098 0 -0.00071061830825487366 -0.050095604342614015 0 -0.00087653365130555807 -0.050027988235704597 0 -0.00080935940218201767 -0.050228914952753716 0 -0.0002127017438543924 -0.046055856233551101 0 5.2572507799961129e-05 -0.045566216170676098 0 0.00029062559773052732 -0.046513297639716213 0 -0.00038455509761426251 -0.04786673163876716 0 -0.00032891897456212733 -0.048191305284309878 0 -0.00073654517966648169 -0.049976830323264151 0 -0.00071061830825487366 -0.050095604342614015 0 -0.00087653365130555807 -0.050027988235704597 0 -0.0002127017438543924 -0.046055856233551101 0 0.00029062559773052732 -0.046513297639716213 0 -0.00017559906850318598 -0.046666884715351381 0 -0.00044681475793757324 -0.048387279079453401 0 -0.00044266504394596798 -0.048388503287294944 0 -0.00043365563417002169 -0.048384046619250713 0 -0.00037504509195648682 -0.048389562662465475 0 -0.00032891897456212733 -0.048191305284309878 0 -0.00032891897456212733 -0.048191305284309878 0 -0.00081236664181474363 -0.046343748282675797 0 -0.001489781202563251 -0.045083183748462298 0 -0.0013756513705051787 -0.044839988839886574 0 -0.0012304370109251937 -0.045015546665161173 0 -0.0002127017438543924 -0.046055856233551101 0 -0.00074588455446005376 -0.045971508867761919 0 -0.00017559906850318598 -0.046666884715351381 0 -0.0010111562826104926 -0.045533544918448576 0 -0.00081236664181474363 -0.046343748282675797 0 -0.001489781202563251 -0.045083183748462298 0 -0.0013756513705051787 -0.044839988839886574 0 -0.001587893957351388 -0.044843866303361561 0 -0.0013756513705051787 -0.044839988839886574 0 -0.001587893957351388 -0.044843866303361561 0 -0.0014959463666061883 -0.044686828802845524 0 -0.0010111562826104926 -0.045533544918448576 0 -0.00083445256270453462 -0.043167965537801861 0 -0.00074588455446005376 -0.045971508867761919 0 -0.001003293826013037 -0.045303473858274546 0 -0.0013124855887841028 -0.045266267072738182 0 -0.001587893957351388 -0.044843866303361561 0 -0.0017511373685866148 -0.044791617874440047 0 -0.0017013632178393067 -0.044664380945849728 0 -0.001587893957351388 -0.044843866303361561 0 -0.0017013632178393067 -0.044664380945849728 0 -0.0014959463666061883 -0.044686828802845524 0 -0.001489781202563251 -0.045083183748462298 0 -0.001587893957351388 -0.044843866303361561 0 -0.0017140221335178753 -0.044983544418887397 0 -0.001587893957351388 -0.044843866303361561 0 -0.0017140221335178753 -0.044983544418887397 0 -0.0017511373685866148 -0.044791617874440047 0 -0.0018816691191777984 -0.04509409805209183 0 -0.0017140221335178753 -0.044983544418887397 0 -0.0018639864728409688 -0.044852602237133957 0 -0.0017140221335178753 -0.044983544418887397 0 -0.0018639864728409688 -0.044852602237133957 0 -0.0017511373685866148 -0.044791617874440047 0 -0.0018639864728409688 -0.044852602237133957 0 -0.0018608588390035257 -0.044628743022868657 0 -0.0019523819131106858 -0.044701624767649217 0 -0.0018639864728409688 -0.044852602237133957 0 -0.0017511373685866148 -0.044791617874440047 0 -0.0018608588390035257 -0.044628743022868657 0 -0.0017511373685866148 -0.044791617874440047 0 -0.0017013632178393067 -0.044664380945849728 0 -0.0018608588390035257 -0.044628743022868657 0 -7.7813654455957765e-05 -0.038958382932697752 0 0.00010108341096881926 -0.039009671019507787 0 -5.8376728853513593e-06 -0.039058078320106944 0 -7.7813654455957765e-05 -0.038958382932697752 0 0.00018963545700048648 -0.038886113347920366 0 0.00010108341096881926 -0.039009671019507787 0 -0.00090865515022405235 -0.0416802560825007 0 -0.00082099773939904022 -0.04176822224770857 0 -7.7813654455957765e-05 -0.038958382932697752 0 -8.1898616270658861e-05 -0.039085006471890602 0 -5.8376728853513593e-06 -0.039058078320106944 0 0.00018963545700048648 -0.038886113347920366 0 0.00010108341096881926 -0.039009671019507787 0 0.00025024390950833159 -0.039047808418137084 0 0.00072759962120638711 -0.038552554586879659 0 0.00088490905177730642 -0.03849642753149847 0 0.00074635613896374556 -0.038428195000203266 0 0.00010108341096881926 -0.039009671019507787 0 0.00025024390950833159 -0.039047808418137084 0 5.539481998660097e-05 -0.039094631511574392 0 0.00025024390950833159 -0.039047808418137084 0 5.539481998660097e-05 -0.039094631511574392 0 -3.5640225785756856e-05 -0.039226367531202108 0 0.00061790851270691048 -0.038508461719367407 0 0.00014017756369312626 -0.040848818969120189 0 -8.1898616270658861e-05 -0.039085006471890602 0 -5.8376728853513593e-06 -0.039058078320106944 0 -2.7894401295140385e-05 -0.039137063653365424 0 0.00010108341096881926 -0.039009671019507787 0 -5.8376728853513593e-06 -0.039058078320106944 0 5.539481998660097e-05 -0.039094631511574392 0 -5.8376728853513593e-06 -0.039058078320106944 0 5.539481998660097e-05 -0.039094631511574392 0 -2.7894401295140385e-05 -0.039137063653365424 0 5.539481998660097e-05 -0.039094631511574392 0 -2.7894401295140385e-05 -0.039137063653365424 0 -3.5640225785756856e-05 -0.039226367531202108 0 -2.7894401295140385e-05 -0.039137063653365424 0 -6.6405355054055627e-05 -0.039213323738100415 0 -3.5640225785756856e-05 -0.039226367531202108 0 -8.1898616270658861e-05 -0.039085006471890602 0 -2.7894401295140385e-05 -0.039137063653365424 0 -6.6405355054055627e-05 -0.039213323738100415 0 -0.00073894868836059586 -0.042027912991121928 0 0.00014017756369312626 -0.040848818969120189 0 -0.00073894868836059586 -0.042027912991121928 0 -0.0011463884960081223 -0.041637706799756327 0 -0.0023447141068942078 -0.043948294664381021 0 -0.0018256980152717944 -0.044600010511969539 0 -0.0012876395118421591 -0.044293707151823285 0 -0.00073894868836059586 -0.042027912991121928 0 -0.0012726394013416733 -0.044991876004248643 0 -8.1898616270658861e-05 -0.039085006471890602 0 -6.6405355054055627e-05 -0.039213323738100415 0 -0.00017270300352148163 -0.039076554786804309 0 -0.0018256980152717944 -0.044600010511969539 0 -0.0012876395118421591 -0.044293707151823285 0 -0.0010824469224009719 -0.04479956415312436 0 -0.0018256980152717944 -0.044600010511969539 0 -0.0010824469224009719 -0.04479956415312436 0 -0.0012964382169185691 -0.045262278435763297 0 -0.0011463884960081223 -0.041637706799756327 0 -0.00083445256270453462 -0.043167965537801861 0 -0.0010824469224009719 -0.04479956415312436 0 -0.001003293826013037 -0.045303473858274546 0 -0.0012964382169185691 -0.045262278435763297 0 -0.00095947136267663605 -0.04391454198954179 0 -0.00083445256270453462 -0.043167965537801861 0 -7.7813654455957765e-05 -0.038958382932697752 0 -0.00017270300352148163 -0.039076554786804309 0 -0.00026694717602796203 -0.03900810219804985 0 -0.00090865515022405235 -0.0416802560825007 0 -0.00083445256270453462 -0.043167965537801861 0 -7.7813654455957765e-05 -0.038958382932697752 0 -8.1898616270658861e-05 -0.039085006471890602 0 -0.00017270300352148163 -0.039076554786804309 0 -0.0012071045814469761 -0.043923443481887078 0 -0.0014851425325763869 -0.043800127857056566 0 -0.0013603360200442403 -0.043155940279622551 0 -0.0012071045814469761 -0.043923443481887078 0 -0.0014851425325763869 -0.043800127857056566 0 -0.0015132455900807287 -0.044187226180215686 0 -0.0014851425325763869 -0.043800127857056566 0 -0.0018768099691242486 -0.044019417585230293 0 -0.0015132455900807287 -0.044187226180215686 0 -0.0014851425325763869 -0.043800127857056566 0 -0.0015864741819395336 -0.043522391041731577 0 -0.0018768099691242486 -0.044019417585230293 0 -0.0013736806241677719 -0.043644177856472482 0 -0.0011515259321401409 -0.043776486288040005 0 -0.0001405915527266609 -0.039602000209852176 0 0.0011175731161116053 -0.040204186195013196 0 0.0010303698562865559 -0.035379773992934418 0 0.0012257290776358559 -0.036053999485068954 0 0.00069386590387648418 -0.035902227488033511 0 -0.0014851425325763869 -0.043800127857056566 0 -0.0013603360200442403 -0.043155940279622551 0 -0.0015921200507648977 -0.043465919452973283 0 0.0030049602681374676 -0.044230602602733357 0 0.0029430422257072696 -0.044136752893477023 0 0.0029920083911526203 -0.04415497165065764 0 0.0011175731161116053 -0.040204186195013196 0 0.00049855349349673002 -0.043555168435264774 0 0.00023015405259306415 -0.04224259689134819 0 -0.00014666947777186215 -0.042772719632364779 0 -0.00035933387556184149 -0.042182531382913349 0 -0.0011515259321401409 -0.043776486288040005 0 0.00049855349349673002 -0.043555168435264774 0 0.0011175731161116053 -0.040204186195013196 0 -0.0011515259321401409 -0.043776486288040005 0 -0.0022713050288483902 -0.044816188169500004 0 -0.0021527251592817669 -0.044902569340906369 0 -0.0021597796355320082 -0.04477771831372749 0 -0.0022713050288483902 -0.044816188169500004 0 -0.0022370765041098504 -0.044937562918531994 0 -0.0021527251592817669 -0.044902569340906369 0 -0.0021830688306635061 -0.045085500154900642 0 -0.0022370765041098504 -0.044937562918531994 0 -0.0021527251592817669 -0.044902569340906369 0 -0.0021830688306635061 -0.045085500154900642 0 -0.002061885928842318 -0.045026079473009177 0 -0.0021527251592817669 -0.044902569340906369 0 -0.002061885928842318 -0.045026079473009177 0 -0.0021527251592817669 -0.044902569340906369 0 -0.0020704233732422575 -0.04484086997838678 0 -0.0021527251592817669 -0.044902569340906369 0 -0.0020704233732422575 -0.04484086997838678 0 -0.0021597796355320082 -0.04477771831372749 0 -0.0020704233732422575 -0.04484086997838678 0 -0.0021597796355320082 -0.04477771831372749 0 -0.0020256322314089119 -0.044683995365150012 0 -0.0021597796355320082 -0.04477771831372749 0 -0.0021540485239016122 -0.044668965818851929 0 -0.0020256322314089119 -0.044683995365150012 0 -0.0022713050288483902 -0.044816188169500004 0 -0.0021597796355320082 -0.04477771831372749 0 -0.0021540485239016122 -0.044668965818851929 0 -0.0011515259321401409 -0.043776486288040005 0 -0.0020563955857924991 -0.044452589617612968 0 -0.0021540485239016122 -0.044668965818851929 0 -0.0020256322314089119 -0.044683995365150012 0 -0.0019766345852413633 -0.04451045228250463 0 -0.0020256322314089119 -0.044683995365150012 0 -0.0019523819131106858 -0.044701624767649217 0 -0.0020416059968822622 -0.044565384064876444 0 -0.0020256322314089119 -0.044683995365150012 0 -0.0019803628966320206 -0.044807370097231444 0 -0.0019523819131106858 -0.044701624767649217 0 -0.0020704233732422575 -0.04484086997838678 0 -0.0020256322314089119 -0.044683995365150012 0 -0.0019803628966320206 -0.044807370097231444 0 -0.0018961061308883759 -0.045011447572430752 0 -0.0020634093543951976 -0.044857389166922786 0 -0.0017923742770330413 -0.045090452450018137 0 -0.002061885928842318 -0.045026079473009177 0 -0.0020704233732422575 -0.04484086997838678 0 -0.0019868707460722512 -0.044933972774275348 0 -0.0020704233732422575 -0.04484086997838678 0 -0.0019803628966320206 -0.044807370097231444 0 -0.0019868707460722512 -0.044933972774275348 0 -0.0018639864728409688 -0.044852602237133957 0 -0.0019803628966320206 -0.044807370097231444 0 -0.0018639864728409688 -0.044852602237133957 0 -0.0019803628966320206 -0.044807370097231444 0 -0.0019523819131106858 -0.044701624767649217 0 0.00025024390950833159 -0.039047808418137084 0 0.00046246281840094003 -0.038738813174709119 0 0.0004643788852896235 -0.038698025996478327 0 0.00018963545700048648 -0.038886113347920366 0 0.00025024390950833159 -0.039047808418137084 0 0.00046246281840094003 -0.038738813174709119 0 -0.00082099773939904022 -0.04176822224770857 0 -0.00079738089703619845 -0.04162811799478873 0 -0.0018608588390035257 -0.044628743022868657 0 -0.0019523819131106858 -0.044701624767649217 0 -0.0020416059968822622 -0.044565384064876444 0 0.00072759962120638711 -0.038552554586879659 0 0.00064570449880992282 -0.038496663225477762 0 0.0004643788852896235 -0.038698025996478327 0 0.00072759962120638711 -0.038552554586879659 0 0.00064570449880992282 -0.038496663225477762 0 0.00074635613896374556 -0.038428195000203266 0 0.00061790851270691048 -0.038508461719367407 0 0.00038328284100163496 -0.038808226369224028 0 0.00064570449880992282 -0.038496663225477762 0 0.00055386590133730022 -0.038483230019435308 0 0.0004643788852896235 -0.038698025996478327 0 0.00064570449880992282 -0.038496663225477762 0 0.00055386590133730022 -0.038483230019435308 0 0.00064026233140813721 -0.038405068342674091 0 0.00055386590133730022 -0.038483230019435308 0 0.00047590200023782029 -0.038520981424906599 0 0.0004643788852896235 -0.038698025996478327 0 0.00055386590133730022 -0.038483230019435308 0 0.00047590200023782029 -0.038520981424906599 0 0.00047772589144098242 -0.038426097871342733 0 0.00041244878631112954 -0.03848780823119366 0 0.00040946187987095541 -0.038370204168920119 0 0.00047772589144098242 -0.038426097871342733 0 0.00047590200023782029 -0.038520981424906599 0 0.00041244878631112954 -0.03848780823119366 0 0.00047772589144098242 -0.038426097871342733 0 0.00047590200023782029 -0.038520981424906599 0 0.0004643788852896235 -0.038698025996478327 0 0.00041244878631112954 -0.03848780823119366 0 -0.0020416059968822622 -0.044565384064876444 0 -0.0018565312860206193 -0.044497193843778406 0 -0.0019766345852413633 -0.04451045228250463 0 -0.00079738089703619845 -0.04162811799478873 0 -0.0007126061010440328 -0.041798639383404085 0 0.00046246281840094003 -0.038738813174709119 0 0.0004643788852896235 -0.038698025996478327 0 0.00035532699359980811 -0.038609980282614996 0 -0.0020256322314089119 -0.044683995365150012 0 -0.0020416059968822622 -0.044565384064876444 0 -0.0019766345852413633 -0.04451045228250463 0 -0.0018768099691242486 -0.044019417585230293 0 -0.0018565312860206193 -0.044497193843778406 0 -0.0015132455900807287 -0.044187226180215686 0 -0.0018768099691242486 -0.044019417585230293 0 -0.0018565312860206193 -0.044497193843778406 0 -0.0019766345852413633 -0.04451045228250463 0 0.0004643788852896235 -0.038698025996478327 0 0.00035532699359980811 -0.038609980282614996 0 0.00041244878631112954 -0.03848780823119366 0 -0.0020563955857924991 -0.044452589617612968 0 -0.0019769564979381792 -0.044431292919766149 0 0.00035532699359980811 -0.038609980282614996 0 0.00041244878631112954 -0.03848780823119366 0 0.00034310940111804148 -0.038411486424334305 0 0.00035532699359980811 -0.038609980282614996 0 0.00034310940111804148 -0.038411486424334305 0 0.00025691136309190492 -0.038440898313852875 0 0.00041244878631112954 -0.03848780823119366 0 0.00034310940111804148 -0.038411486424334305 0 0.00040946187987095541 -0.038370204168920119 0 0.00025691136309190492 -0.038440898313852875 0 0.00017857607586443033 -0.038317591756647069 0 8.4317142864775849e-05 -0.038563057094323692 0 0.00035532699359980811 -0.038609980282614996 0 0.00025691136309190492 -0.038440898313852875 0 8.4317142864775849e-05 -0.038563057094323692 0 0.00034310940111804148 -0.038411486424334305 0 0.00025691136309190492 -0.038440898313852875 0 0.0002644477106411919 -0.038306469258063719 0 0.00025691136309190492 -0.038440898313852875 0 0.00017857607586443033 -0.038317591756647069 0 0.0002644477106411919 -0.038306469258063719 0 -0.0018565312860206193 -0.044497193843778406 0 -0.0015132455900807287 -0.044187226180215686 0 -0.0010431750140406052 -0.044524650203286727 0 -0.0012071045814469761 -0.043923443481887078 0 -0.0015132455900807287 -0.044187226180215686 0 -0.0010431750140406052 -0.044524650203286727 0 -0.0007126061010440328 -0.041798639383404085 0 -0.00050071950165421302 -0.039114082560096158 0 0.00030715871224594102 -0.038143573865915895 0 0.00018321175078884287 -0.03812337694970281 0 0.00020766401078339421 -0.03808167533280081 0 0.00026762371957646421 -0.038210686448392504 0 0.00030715871224594102 -0.038143573865915895 0 0.00018321175078884287 -0.03812337694970281 0 0.00019813191361479966 -0.038204265882365869 0 0.00026762371957646421 -0.038210686448392504 0 0.00018321175078884287 -0.03812337694970281 0 0.00017857607586443033 -0.038317591756647069 0 0.00019813191361479966 -0.038204265882365869 0 0.0002644477106411919 -0.038306469258063719 0 0.0002644477106411919 -0.038306469258063719 0 0.00026762371957646421 -0.038210686448392504 0 0.00035517488601407297 -0.03827080522000012 0 0.00019813191361479966 -0.038204265882365869 0 0.0002644477106411919 -0.038306469258063719 0 0.00026762371957646421 -0.038210686448392504 0 0.00034310940111804148 -0.038411486424334305 0 0.0002644477106411919 -0.038306469258063719 0 0.00035517488601407297 -0.03827080522000012 0 0.00034310940111804148 -0.038411486424334305 0 0.00035517488601407297 -0.03827080522000012 0 0.00040946187987095541 -0.038370204168920119 0 0.00035517488601407297 -0.03827080522000012 0 0.0004144918019645866 -0.038212517804509856 0 0.00046574352349905548 -0.038318220323776124 0 0.00035517488601407297 -0.03827080522000012 0 0.00040946187987095541 -0.038370204168920119 0 0.00046574352349905548 -0.038318220323776124 0 0.00035517488601407297 -0.03827080522000012 0 0.0004144918019645866 -0.038212517804509856 0 0.00030715871224594102 -0.038143573865915895 0 0.00026762371957646421 -0.038210686448392504 0 0.00035517488601407297 -0.03827080522000012 0 0.00030715871224594102 -0.038143573865915895 0 0.0004144918019645866 -0.038212517804509856 0 0.00030715871224594102 -0.038143573865915895 0 0.000413529339283135 -0.038144932724489253 0 0.0004144918019645866 -0.038212517804509856 0 0.000413529339283135 -0.038144932724489253 0 0.00051800400351131577 -0.038172159959991854 0 0.00051800400351131577 -0.038172159959991854 0 0.00052454922279814736 -0.03827226872785839 0 0.00058540902372121375 -0.038245893366559272 0 0.0004144918019645866 -0.038212517804509856 0 0.00051800400351131577 -0.038172159959991854 0 0.00052454922279814736 -0.03827226872785839 0 0.0004144918019645866 -0.038212517804509856 0 0.00052454922279814736 -0.03827226872785839 0 0.00046574352349905548 -0.038318220323776124 0 0.00040946187987095541 -0.038370204168920119 0 0.00046574352349905548 -0.038318220323776124 0 0.00047772589144098242 -0.038426097871342733 0 0.00055386590133730022 -0.038483230019435308 0 0.00047772589144098242 -0.038426097871342733 0 0.00055071813320560991 -0.038372983907465713 0 0.00046574352349905548 -0.038318220323776124 0 0.00047772589144098242 -0.038426097871342733 0 0.00055071813320560991 -0.038372983907465713 0 0.00052454922279814736 -0.03827226872785839 0 0.00046574352349905548 -0.038318220323776124 0 0.00055071813320560991 -0.038372983907465713 0 0.00055071813320560991 -0.038372983907465713 0 0.000617321107646379 -0.038317996403061584 0 0.00064026233140813721 -0.038405068342674091 0 0.00052454922279814736 -0.03827226872785839 0 0.00055071813320560991 -0.038372983907465713 0 0.000617321107646379 -0.038317996403061584 0 0.00055386590133730022 -0.038483230019435308 0 0.00055071813320560991 -0.038372983907465713 0 0.00064026233140813721 -0.038405068342674091 0 0.00064570449880992282 -0.038496663225477762 0 0.00064026233140813721 -0.038405068342674091 0 0.00074635613896374556 -0.038428195000203266 0 0.00064026233140813721 -0.038405068342674091 0 0.00074635613896374556 -0.038428195000203266 0 0.00070484272845997887 -0.038334345225194834 0 0.000617321107646379 -0.038317996403061584 0 0.00064026233140813721 -0.038405068342674091 0 0.00070484272845997887 -0.038334345225194834 0 0.00067373154185990959 -0.038267549815287571 0 0.00070484272845997887 -0.038334345225194834 0 0.00072291254646417147 -0.038296462904514508 0 0.000617321107646379 -0.038317996403061584 0 0.00067373154185990959 -0.038267549815287571 0 0.00070484272845997887 -0.038334345225194834 0 0.00052454922279814736 -0.03827226872785839 0 0.000617321107646379 -0.038317996403061584 0 0.00058540902372121375 -0.038245893366559272 0 0.000617321107646379 -0.038317996403061584 0 0.00067373154185990959 -0.038267549815287571 0 0.00058540902372121375 -0.038245893366559272 0 0.00051800400351131577 -0.038172159959991854 0 0.00058540902372121375 -0.038245893366559272 0 0.00063106182953422672 -0.038202857193415887 0 0.00067373154185990959 -0.038267549815287571 0 0.00063106182953422672 -0.038202857193415887 0 0.00074678743217137101 -0.0382585376805753 0 0.00067373154185990959 -0.038267549815287571 0 0.00058540902372121375 -0.038245893366559272 0 0.00063106182953422672 -0.038202857193415887 0 0.00063106182953422672 -0.038202857193415887 0 0.00064049121745189989 -0.038090247120723099 0 0.00074678743217137101 -0.0382585376805753 0 0.00051800400351131577 -0.038172159959991854 0 0.00063106182953422672 -0.038202857193415887 0 0.00064049121745189989 -0.038090247120723099 0 -2.9840133781958173e-05 -0.045146707127999432 0 0.00042599528578993304 -0.04566789953007331 0 -0.00021319178071465913 -0.045974487684261676 0 0.00037228853015110923 -0.041650018945556151 0 0.00099416200042761653 -0.040801799438170513 0 0.00090071605542845748 -0.038196002695926552 0 0.00078649722890237388 -0.038075180890249555 0 0.00079151289402496405 -0.038037823623584752 0 0.0010532781840133405 -0.039183244153729861 0 0.00099416200042761653 -0.040801799438170513 0 0.00078649722890237388 -0.038075180890249555 0 0.00079038710705784949 -0.038031384550525647 0 0.0007208077889667299 -0.038031492448437836 0 0.00078649722890237388 -0.038075180890249555 0 0.0007208077889667299 -0.038031492448437836 0 0.00071089626577133043 -0.038136048710647054 0 0.00037228853015110923 -0.041650018945556151 0 0.00063992270505518743 -0.037746980543241937 0 0.00051800400351131577 -0.038172159959991854 0 0.00064049121745189989 -0.038090247120723099 0 0.00041881594397802309 -0.038052167385560332 0 0.00090071605542845748 -0.038196002695926552 0 0.00078649722890237388 -0.038075180890249555 0 0.00071089626577133043 -0.038136048710647054 0 0.000413529339283135 -0.038144932724489253 0 0.00051800400351131577 -0.038172159959991854 0 0.00041881594397802309 -0.038052167385560332 0 0.00063992270505518743 -0.037746980543241937 0 0.00039292937883020481 -0.038092357124468276 0 0.00030715871224594102 -0.038143573865915895 0 0.00041881594397802309 -0.038052167385560332 0 0.0002391491451150897 -0.038041477752672401 0 0.00030715871224594102 -0.038143573865915895 0 0.000413529339283135 -0.038144932724489253 0 0.00041881594397802309 -0.038052167385560332 0 0.00071089626577133043 -0.038136048710647054 0 0.00064326442932244538 -0.038013204282152983 0 0.00056312002657766581 -0.038069017930971366 0 0.0007208077889667299 -0.038031492448437836 0 0.00071089626577133043 -0.038136048710647054 0 0.00064326442932244538 -0.038013204282152983 0 0.00056312002657766581 -0.038069017930971366 0 0.000556992493837493 -0.037922056969730361 0 0.0004859899182555348 -0.037949814112467131 0 0.00064326442932244538 -0.038013204282152983 0 0.00056312002657766581 -0.038069017930971366 0 0.000556992493837493 -0.037922056969730361 0 0.00030715871224594102 -0.038143573865915895 0 0.0002391491451150897 -0.038041477752672401 0 0.00020766401078339421 -0.03808167533280081 0 -0.001022663784118727 -0.044503320653089803 0 -0.0014176588894054514 -0.043868737724871099 0 -0.0008890834082483308 -0.043962637178202993 0 -0.0021111761836149746 -0.044191870580199175 0 -0.0016333436651618882 -0.044316355121067484 0 -0.0014176588894054514 -0.043868737724871099 0 -0.0019820773401760922 -0.04470202429449624 0 -0.001022663784118727 -0.044503320653089803 0 -0.0016333436651618882 -0.044316355121067484 0 -0.001022663784118727 -0.044503320653089803 0 -0.0016333436651618882 -0.044316355121067484 0 -0.0014176588894054514 -0.043868737724871099 0 -0.00095746272442580294 -0.045500063974998846 0 -0.0010113017502693239 -0.045500098565396427 0 -0.00097750588354782002 -0.045522178467102749 0 -0.0011635423296348637 -0.04670671334741431 0 -0.0013659061365238071 -0.044790719534096288 0 -0.0010020566391946619 -0.045549881755996474 0 -0.0010113017502693239 -0.045500098565396427 0 -0.00097750588354782002 -0.045522178467102749 0 -0.0010520235215890285 -0.045487371885737891 0 -0.0010020566391946619 -0.045549881755996474 0 -0.0010113017502693239 -0.045500098565396427 0 -0.0013659061365238071 -0.044790719534096288 0 -0.00060927769359466432 -0.041862623590579164 0 -0.0010520235215890285 -0.045487371885737891 0 -0.0010113017502693239 -0.045500098565396427 0 -0.0010540996141781642 -0.045482363369470341 0 -0.0014176588894054514 -0.043868737724871099 0 -0.0008890834082483308 -0.043962637178202993 0 -0.0007221776293177939 -0.043546188024271987 0 0.00098124266065355271 -0.038542354540931162 0 0.00096384894948155372 -0.038547722517194009 0 0.00087681469305532836 -0.038385133392095858 0 0.00096384894948155372 -0.038547722517194009 0 0.00087681469305532836 -0.038385133392095858 0 0.00074635613896374556 -0.038428195000203266 0 -0.00017136009538892553 -0.041474738200804204 0 -0.0005401358486842499 -0.041038180953308023 0 -0.0010007837154029676 -0.041231906478685604 0 -0.00073894868836059586 -0.042027912991121928 0 -0.00060927769359466432 -0.041862623590579164 0 -0.00060927769359466432 -0.041862623590579164 0 0.00014017756369312626 -0.040848818969120189 0 -0.00060927769359466432 -0.041862623590579164 0 0.00013583525865529732 -0.04114772124587944 0 -0.0008890834082483308 -0.043962637178202993 0 -0.0007221776293177939 -0.043546188024271987 0 -0.00039419342419934691 -0.04393089573383431 0 0.00014017756369312626 -0.040848818969120189 0 0.00089842570010660149 -0.038110798281130426 0 0.00087681469305532836 -0.038385133392095858 0 0.00074635613896374556 -0.038428195000203266 0 0.00076675258902309093 -0.038326037441870492 0 0.00074635613896374556 -0.038428195000203266 0 0.00070484272845997887 -0.038334345225194834 0 0.00076675258902309093 -0.038326037441870492 0 0.00064049121745189989 -0.038090247120723099 0 0.00077272885533023273 -0.038258494006879182 0 0.00074678743217137101 -0.0382585376805753 0 0.00067373154185990959 -0.038267549815287571 0 0.00072291254646417147 -0.038296462904514508 0 0.00074678743217137101 -0.0382585376805753 0 0.00070484272845997887 -0.038334345225194834 0 0.00072291254646417147 -0.038296462904514508 0 0.00076675258902309093 -0.038326037441870492 0 0.00072291254646417147 -0.038296462904514508 0 0.00076675258902309093 -0.038326037441870492 0 0.00074678743217137101 -0.0382585376805753 0 0.00076675258902309093 -0.038326037441870492 0 0.00077442140901970078 -0.038256991305884752 0 0.00074678743217137101 -0.0382585376805753 0 0.00013583525865529732 -0.04114772124587944 0 -8.3803758327802832e-06 -0.042064322687130853 0 0.00087681469305532836 -0.038385133392095858 0 0.00076675258902309093 -0.038326037441870492 0 0.00077442140901970078 -0.038256991305884752 0 -8.3803758327802832e-06 -0.042064322687130853 0 0.00030578901970009772 -0.041731138850896667 0 -0.001022663784118727 -0.044503320653089803 0 -0.0008890834082483308 -0.043962637178202993 0 -0.00039419342419934691 -0.04393089573383431 0 -0.0013654051035131383 -0.044654465930961562 0 -8.3803758327802832e-06 -0.042064322687130853 0 -0.001022663784118727 -0.044503320653089803 0 -0.00039419342419934691 -0.04393089573383431 0 -6.7344612511249319e-05 -0.04430533796194433 0 -0.001396630565723861 -0.044723447770029123 0 -0.00039432665810846108 -0.044495933620627919 0 -0.00078060602399795758 -0.045063268266897161 0 0.00037228853015110923 -0.041650018945556151 0 -0.00088837020152035214 -0.045493631440478063 0 8.5474254423356882e-05 -0.045037698269123259 0 -0.00039432665810846108 -0.044495933620627919 0 -0.00078060602399795758 -0.045063268266897161 0 -2.9840133781958173e-05 -0.045146707127999432 0 -0.00083662955802171724 -0.045155576850676837 0 -0.00081138511463569446 -0.045715912562152933 0 0.00037228853015110923 -0.041650018945556151 0 -8.3803758327802832e-06 -0.042064322687130853 0 -2.9840133781958173e-05 -0.045146707127999432 0 -0.00081138511463569446 -0.045715912562152933 0 -0.00021319178071465913 -0.045974487684261676 0 -0.00083662955802171724 -0.045155576850676837 0 -0.00081138511463569446 -0.045715912562152933 0 -0.0012916109238681739 -0.045495873760954979 0 -0.00081138511463569446 -0.045715912562152933 0 -0.0012916109238681739 -0.045495873760954979 0 -0.0013887882860400937 -0.045938722641208379 0 -0.0012916109238681739 -0.045495873760954979 0 -0.0017822770843942569 -0.045635258689743004 0 -0.0013887882860400937 -0.045938722641208379 0 -0.0012916109238681739 -0.045495873760954979 0 -0.0016669954549295314 -0.045109637116214754 0 -0.0017822770843942569 -0.045635258689743004 0 -0.00088837020152035214 -0.045493631440478063 0 -0.0015958507675938106 -0.045021843468920367 0 -0.001396630565723861 -0.044723447770029123 0 -0.00078060602399795758 -0.045063268266897161 0 -0.0016669954549295314 -0.045109637116214754 0 -0.00083662955802171724 -0.045155576850676837 0 -0.0012916109238681739 -0.045495873760954979 0 -0.0016669954549295314 -0.045109637116214754 0 -0.0024193818732290611 -0.044941970146577095 0 -0.001396630565723861 -0.044723447770029123 0 -0.0016669954549295314 -0.045109637116214754 0 -0.0024193818732290611 -0.044941970146577095 0 -0.002040999068939221 -0.045309667028441553 0 -0.0022343948600349718 -0.045649712743913023 0 -0.0024193818732290611 -0.044941970146577095 0 -0.0016669954549295314 -0.045109637116214754 0 -0.002040999068939221 -0.045309667028441553 0 -0.0017160754333299456 -0.046928313104443856 0 -0.0013654051035131383 -0.044654465930961562 0 -0.0016669954549295314 -0.045109637116214754 0 -0.002040999068939221 -0.045309667028441553 0 -0.0017822770843942569 -0.045635258689743004 0 -0.0017822770843942569 -0.045635258689743004 0 -0.0022343948600349718 -0.045649712743913023 0 -0.0020444457547994861 -0.046370401815359827 0 -0.002040999068939221 -0.045309667028441553 0 -0.0017822770843942569 -0.045635258689743004 0 -0.0022343948600349718 -0.045649712743913023 0 -0.0018936788182728635 -0.047220414860582594 0 -0.0018595972465559434 -0.047257775049405662 0 -0.0020444457547994861 -0.046370401815359827 0 -0.0014391315349684616 -0.046568860082815237 0 -0.0017477696888487141 -0.047195512143876434 0 -0.0017181222880321538 -0.048167322666133806 0 -0.0017477696888487141 -0.047195512143876434 0 -0.0014239975846060183 -0.047622194121121876 0 -0.0018595972465559434 -0.047257775049405662 0 -0.0017826801660960751 -0.047220560756693938 0 -0.0014391315349684616 -0.046568860082815237 0 -0.0011988934582521501 -0.046989497164453498 0 -0.0017477696888487141 -0.047195512143876434 0 -0.0017822770843942569 -0.045635258689743004 0 -0.0020444457547994861 -0.046370401815359827 0 -0.0013887882860400937 -0.045938722641208379 0 -0.0014391315349684616 -0.046568860082815237 0 -0.0013887882860400937 -0.045938722641208379 0 -0.00091090784185464554 -0.046299432463610443 0 -0.0020444457547994861 -0.046370401815359827 0 -0.0014391315349684616 -0.046568860082815237 0 -0.0013887882860400937 -0.045938722641208379 0 -0.00081138511463569446 -0.045715912562152933 0 -0.0013887882860400937 -0.045938722641208379 0 -0.00091090784185464554 -0.046299432463610443 0 -0.00091090784185464554 -0.046299432463610443 0 -0.00036428660865368254 -0.046662744341437877 0 -0.00021319178071465913 -0.045974487684261676 0 -0.00081138511463569446 -0.045715912562152933 0 -0.00091090784185464554 -0.046299432463610443 0 -0.00021319178071465913 -0.045974487684261676 0 -0.00091090784185464554 -0.046299432463610443 0 -0.00036428660865368254 -0.046662744341437877 0 -0.0011988934582521501 -0.046989497164453498 0 -0.0014391315349684616 -0.046568860082815237 0 -0.00091090784185464554 -0.046299432463610443 0 -0.0011988934582521501 -0.046989497164453498 0 -0.0011988934582521501 -0.046989497164453498 0 -0.00060597439446094113 -0.04730966569163874 0 -0.0014185169689134019 -0.047393530430952804 0 -0.00036428660865368254 -0.046662744341437877 0 -0.0011988934582521501 -0.046989497164453498 0 -0.00060597439446094113 -0.04730966569163874 0 -0.00011466331048512371 -0.046355325409084325 0 -0.00040815402773125342 -0.047014185649520479 0 0.00017498263780339884 -0.047318785281269059 0 -0.00047807694487195907 -0.04731834049917908 0 -0.0011074813992361524 -0.046980831859044954 0 -0.00011466331048512371 -0.046355325409084325 0 -0.00092893632656794109 -0.046724252299028997 0 -0.00040815402773125342 -0.047014185649520479 0 -0.0011074813992361524 -0.046980831859044954 0 -0.0015597976757313334 -0.047168609947575782 0 -0.00092893632656794109 -0.046724252299028997 0 -0.0015808916294624696 -0.047156797836815693 0 -0.0011971012267248783 -0.047150806570614941 0 -0.0014185169689134019 -0.047393530430952804 0 -0.0015808916294624696 -0.047156797836815693 0 -0.0015989626766368483 -0.047246991443302466 0 -0.0015808916294624696 -0.047156797836815693 0 -0.0015742140300683142 -0.047156368331267573 0 -0.0015989626766368483 -0.047246991443302466 0 -0.0015742140300683142 -0.047156368331267573 0 -0.0015989626766368483 -0.047246991443302466 0 -0.0017477696888487141 -0.047195512143876434 0 -0.0015742140300683142 -0.047156368331267573 0 -0.0017477696888487141 -0.047195512143876434 0 -0.0014700658317380552 -0.047278750159560741 0 -0.0017477696888487141 -0.047195512143876434 0 -0.0014239975846060183 -0.047622194121121876 0 -0.0014700658317380552 -0.047278750159560741 0 -0.0011988934582521501 -0.046989497164453498 0 -0.0014185169689134019 -0.047393530430952804 0 -0.0015989626766368483 -0.047246991443302466 0 -0.0011988934582521501 -0.046989497164453498 0 -0.0015989626766368483 -0.047246991443302466 0 -0.0017477696888487141 -0.047195512143876434 0 0.00058401415939595845 -0.037832466346597551 0 0.000556992493837493 -0.037922056969730361 0 0.0005260318405270626 -0.037836580565756256 0 0.00058401415939595845 -0.037832466346597551 0 0.000556992493837493 -0.037922056969730361 0 0.00067780005553741667 -0.037908669447786959 0 0.00064326442932244538 -0.038013204282152983 0 0.000556992493837493 -0.037922056969730361 0 0.00067780005553741667 -0.037908669447786959 0 0.0007208077889667299 -0.038031492448437836 0 0.00064326442932244538 -0.038013204282152983 0 0.00067780005553741667 -0.037908669447786959 0 0.00098628488787002471 -0.038783114445636056 0 0.00094870517088813631 -0.038264064841742634 0 0.0011540523311112159 -0.038447221764566546 0 0.00069515592077459192 -0.03813550454202784 0 0.00069698797348068738 -0.038054999699470633 0 0.00071095187486748881 -0.038328205633081841 0 0.00098628488787002471 -0.038783114445636056 0 0.00094870517088813631 -0.038264064841742634 0 0.0011540523311112159 -0.038447221764566546 0 0.0013970805001737754 -0.038664554506135311 0 0.0014222693113016085 -0.038123493824374487 0 0.0008624086440041464 -0.042775713094584042 0 0.00065494846651638697 -0.04285488758586399 0 0.00094870517088813631 -0.038264064841742634 0 0.0011540523311112159 -0.038447221764566546 0 0.0011543984836986233 -0.038172319836040261 0 0.00098628488787002471 -0.038783114445636056 0 0.0011540523311112159 -0.038447221764566546 0 0.0013970805001737754 -0.038664554506135311 0 0.00079038710705784949 -0.038031384550525647 0 0.0007208077889667299 -0.038031492448437836 0 0.00067780005553741667 -0.037908669447786959 0 0.00099416200042761653 -0.040801799438170513 0 0.00069698797348068738 -0.038054999699470633 0 0.00099416200042761653 -0.040801799438170513 0 0.0008624086440041464 -0.042775713094584042 0 0.0013486473211813932 -0.03925728460110979 0 0.00098628488787002471 -0.038783114445636056 0 0.0013970805001737754 -0.038664554506135311 0 0.00042599528578993304 -0.04566789953007331 0 0.00035537914981877367 -0.046355581108350599 0 -0.00021319178071465913 -0.045974487684261676 0 -0.00036428660865368254 -0.046662744341437877 0 0.00035537914981877367 -0.046355581108350599 0 -0.00021319178071465913 -0.045974487684261676 0 -0.00036428660865368254 -0.046662744341437877 0 0.00035537914981877367 -0.046355581108350599 0 0.00028018912761854764 -0.04704026746750916 0 -0.00036428660865368254 -0.046662744341437877 0 -0.00060597439446094113 -0.04730966569163874 0 0.00028018912761854764 -0.04704026746750916 0 -0.00047807694487195907 -0.04731834049917908 0 0.00065494846651638697 -0.04285488758586399 0 -0.00011466331048512371 -0.046355325409084325 0 0.00071830158236111091 -0.046680381279750244 0 0.00078794991229130633 -0.04601714533530929 0 -0.00011466331048512371 -0.046355325409084325 0 0.00071830158236111091 -0.046680381279750244 0 0.00017498263780339884 -0.047318785281269059 0 0.00068018290589694295 -0.041171772601825203 0 0.00065494846651638697 -0.04285488758586399 0 0.0011748934878716706 -0.037714366711407911 0 0.001123567438931066 -0.038125940842314007 0 0.0010189770149553791 -0.037811257042709052 0 0.00068018290589694295 -0.041171772601825203 0 0.0016054978881799519 -0.037161732581681275 0 0.0013889435293121968 -0.037744902375003324 0 0.0011748934878716706 -0.037714366711407911 0 0.001123567438931066 -0.038125940842314007 0 0.0013889435293121968 -0.037744902375003324 0 0.0011748934878716706 -0.037714366711407911 0 0.0012881310243629124 -0.037460059120643478 0 0.0011748934878716706 -0.037714366711407911 0 0.0010189770149553791 -0.037811257042709052 0 0.0010373406706398716 -0.037547338505013454 0 0.00096297024703206923 -0.038500513967630254 0 0.0010501848678206116 -0.038221702149293026 0 0.00096765501869587004 -0.038166351573800765 0 0.00096297024703206923 -0.038500513967630254 0 0.001123567438931066 -0.038125940842314007 0 0.0010501848678206116 -0.038221702149293026 0 0.00065494846651638697 -0.04285488758586399 0 0.0018071404182752647 -0.039601522620628604 0 0.0010501848678206116 -0.038221702149293026 0 0.00096765501869587004 -0.038166351573800765 0 0.0011543984836986233 -0.038172319836040261 0 0.001123567438931066 -0.038125940842314007 0 0.0011543984836986233 -0.038172319836040261 0 0.0010172827178602463 -0.038118116602203239 0 0.0011540523311112159 -0.038447221764566546 0 0.0014222693113016085 -0.038123493824374487 0 0.0011543984836986233 -0.038172319836040261 0 0.001123567438931066 -0.038125940842314007 0 0.0010501848678206116 -0.038221702149293026 0 0.0011543984836986233 -0.038172319836040261 0 0.00071095187486748881 -0.038328205633081841 0 0.0008749236670179193 -0.038014161372988388 0 0.00068296850883108181 -0.037898838849711985 0 0.00094870517088813631 -0.038264064841742634 0 0.0011543984836986233 -0.038172319836040261 0 0.0010172827178602463 -0.038118116602203239 0 0.00094870517088813631 -0.038264064841742634 0 0.0010172827178602463 -0.038118116602203239 0 0.0008749236670179193 -0.038014161372988388 0 0.00071095187486748881 -0.038328205633081841 0 0.00094870517088813631 -0.038264064841742634 0 0.0008749236670179193 -0.038014161372988388 0 0.0008749236670179193 -0.038014161372988388 0 0.00074998431917584123 -0.037768969193975516 0 0.00068296850883108181 -0.037898838849711985 0 0.0008749236670179193 -0.038014161372988388 0 0.0010082379572637704 -0.038017846784195543 0 0.0010189770149553791 -0.037811257042709052 0 0.001123567438931066 -0.038125940842314007 0 0.0010082379572637704 -0.038017846784195543 0 0.0010189770149553791 -0.037811257042709052 0 0.0010172827178602463 -0.038118116602203239 0 0.0008749236670179193 -0.038014161372988388 0 0.0010082379572637704 -0.038017846784195543 0 0.001123567438931066 -0.038125940842314007 0 0.0010172827178602463 -0.038118116602203239 0 0.0010082379572637704 -0.038017846784195543 0 0.00074998431917584123 -0.037768969193975516 0 0.00056401011845706348 -0.037702056045761614 0 0.0010463902286984672 -0.037447954160085249 0 0.0010258617346923598 -0.034466451756867106 0 0.0011056010022177354 -0.035769445589229065 0 0.0010189770149553791 -0.037811257042709052 0 0.00074998431917584123 -0.037768969193975516 0 0.0010373406706398716 -0.037547338505013454 0 0.00051240329834748347 -0.038132094708466825 0 0.0011056010022177354 -0.035769445589229065 0 0.0008749236670179193 -0.038014161372988388 0 0.0010189770149553791 -0.037811257042709052 0 0.00074998431917584123 -0.037768969193975516 0 0.00074998431917584123 -0.037768969193975516 0 0.00056401011845706348 -0.037702056045761614 0 0.00068296850883108181 -0.037898838849711985 0 0.00056401011845706348 -0.037702056045761614 0 0.00053139700772577051 -0.037840963046674427 0 0.00068296850883108181 -0.037898838849711985 0 0.00058401415939595845 -0.037832466346597551 0 0.00053139700772577051 -0.037840963046674427 0 0.0005260318405270626 -0.037836580565756256 0 0.00071095187486748881 -0.038328205633081841 0 0.00053139700772577051 -0.037840963046674427 0 0.00068296850883108181 -0.037898838849711985 0 0.00069515592077459192 -0.03813550454202784 0 0.00052568189784833145 -0.037860734570871309 0 0.0015300350209907433 -0.033075952106885569 0 0.0012005873018704396 -0.032332513561105447 0 0.0021302363417166317 -0.032165866228551103 0 0.0015300350209907433 -0.033075952106885569 0 0.0012005873018704396 -0.032332513561105447 0 0.00042317212334480408 -0.033161241745579849 0 0.0015779066024878329 -0.031482573270445589 0 0.0012005873018704396 -0.032332513561105447 0 0.0021302363417166317 -0.032165866228551103 0 0.0015779066024878329 -0.031482573270445589 0 0.0012005873018704396 -0.032332513561105447 0 0.00038829807934635151 -0.031934049905348011 0 0.0012005873018704396 -0.032332513561105447 0 0.00038829807934635151 -0.031934049905348011 0 0.00042317212334480408 -0.033161241745579849 0 0.0012293289084183276 -0.033031107804145386 0 -0.00022577136706301414 -0.032939655167096779 0 -0.00022577136706301414 -0.032939655167096779 0 -0.0016635535573288052 -0.034719425124666962 0 0.00042317212334480408 -0.033161241745579849 0 -0.00067421147756528156 -0.032905382854326759 0 -0.00070884234130667585 -0.033223608397048167 0 0.00038829807934635151 -0.031934049905348011 0 0.00042317212334480408 -0.033161241745579849 0 -0.00067421147756528156 -0.032905382854326759 0 0.0011056010022177354 -0.035769445589229065 0 0.00011116353166954713 -0.036972129634979291 0 0.001051018038287433 -0.037545405049234704 0 0.0012881310243629124 -0.037460059120643478 0 0.0014096339284320563 -0.037203835079471469 0 0.0011056010022177354 -0.035769445589229065 0 0.0010072705203321439 -0.037368158157599377 0 0.0011748934878716706 -0.037714366711407911 0 0.0010373406706398716 -0.037547338505013454 0 0.0012881310243629124 -0.037460059120643478 0 0.0013889435293121968 -0.037744902375003324 0 0.0012881310243629124 -0.037460059120643478 0 0.0014096339284320563 -0.037203835079471469 0 0.00068018290589694295 -0.041171772601825203 0 0.00011116353166954713 -0.036972129634979291 0 0.00019526627064358283 -0.040813631762206988 0 9.4368490825810281e-05 -0.041731567470292136 0 -0.00031047482524830408 -0.041393779536778127 0 0.00068018290589694295 -0.041171772601825203 0 -0.00026999202803885969 -0.044784842059954227 0 9.4368490825810281e-05 -0.041731567470292136 0 -0.00013817973052106478 -0.041950882689010253 0 -0.00031047482524830408 -0.041393779536778127 0 0.00011116353166954713 -0.036972129634979291 0 -0.0016635535573288052 -0.034719425124666962 0 0.00011116353166954713 -0.036972129634979291 0 -0.0011893743522433428 -0.038312995627631533 0 -0.0016635535573288052 -0.034719425124666962 0 -0.0011893743522433428 -0.038312995627631533 0 -0.00014406846179113096 -0.036583161395557208 0 -0.00022221783001683703 -0.037338350584849828 0 -0.00099422249382489451 -0.03735640570761431 0 -0.0028295718375055115 -0.033999560439285502 0 -0.0032431665453814163 -0.034564789462831903 0 -0.0029358398290439945 -0.035309521189248474 0 -0.0016635535573288052 -0.034719425124666962 0 -0.0031818437777550814 -0.034726106031412178 0 -0.0027079706211233204 -0.0330093187059122 0 -0.0029358398290439945 -0.035309521189248474 0 -0.0016957007066658368 -0.034215287208565766 0 -0.0028295718375055115 -0.033999560439285502 0 -0.0031433737586141876 -0.034006142149883817 0 -0.0032431665453814163 -0.034564789462831903 0 -0.0029358398290439945 -0.035309521189248474 0 -0.0011454916725020814 -0.035325459974729773 0 -0.0016957007066658368 -0.034215287208565766 0 -0.00084399893289692203 -0.032989178959417671 0 -0.0027079706211233204 -0.0330093187059122 0 -0.0016957007066658368 -0.034215287208565766 0 0.00090225530325568828 -0.032963866349583384 0 -0.00084399893289692203 -0.032989178959417671 0 -0.00024273981801203973 -0.034227982797716751 0 -0.00084399893289692203 -0.032989178959417671 0 -0.0016957007066658368 -0.034215287208565766 0 -0.00024273981801203973 -0.034227982797716751 0 -0.0011454916725020814 -0.035325459974729773 0 -0.0016957007066658368 -0.034215287208565766 0 -0.00024273981801203973 -0.034227982797716751 0 -0.0011454916725020814 -0.035325459974729773 0 -0.00024273981801203973 -0.034227982797716751 0 0.00023356262548159784 -0.035531812116679003 0 0.0010948333255187412 -0.034069907365757206 0 0.001914803579010173 -0.034774663364999514 0 0.00023356262548159784 -0.035531812116679003 0 -0.00024273981801203973 -0.034227982797716751 0 0.0010948333255187412 -0.034069907365757206 0 0.00023356262548159784 -0.035531812116679003 0 0.00090225530325568828 -0.032963866349583384 0 -0.00024273981801203973 -0.034227982797716751 0 0.0010948333255187412 -0.034069907365757206 0 -0.00095708519296935544 -0.048451798343140458 0 -0.00026261562788227564 -0.046609099435092761 0 -0.0011398388833482836 -0.047801199406864628 0 -0.0012839279676107476 -0.047480245203003688 0 -0.00077910222711457557 -0.047350013609419012 0 -0.0011398388833482836 -0.047801199406864628 0 -0.00077910222711457557 -0.047350013609419012 0 -0.00053036412045918133 -0.047787143797157143 0 -0.00095708519296935544 -0.048451798343140458 0 -0.00061456248118502556 -0.048364125452032822 0 -0.0012839279676107476 -0.047480245203003688 0 -0.0014926193282183069 -0.04734811417797103 0 -0.0016770753672706007 -0.047780514182293066 0 -0.0011398388833482836 -0.047801199406864628 0 -0.0012839279676107476 -0.047480245203003688 0 -0.0016770753672706007 -0.047780514182293066 0 -0.0012839279676107476 -0.047480245203003688 0 -0.0014926193282183069 -0.04734811417797103 0 -0.0011971012267248783 -0.047150806570614941 0 -0.0015808916294624696 -0.047156797836815693 0 -0.0014926193282183069 -0.04734811417797103 0 -0.0011971012267248783 -0.047150806570614941 0 -0.0012839279676107476 -0.047480245203003688 0 -0.0011971012267248783 -0.047150806570614941 0 -0.00077910222711457557 -0.047350013609419012 0 -0.00092893632656794109 -0.046724252299028997 0 -0.0011971012267248783 -0.047150806570614941 0 -0.00077910222711457557 -0.047350013609419012 0 -0.00092893632656794109 -0.046724252299028997 0 -0.00040815402773125342 -0.047014185649520479 0 -0.00077910222711457557 -0.047350013609419012 0 -0.00040815402773125342 -0.047014185649520479 0 -0.00077910222711457557 -0.047350013609419012 0 -0.00040145967857902268 -0.04749644084166614 0 -0.00040815402773125342 -0.047014185649520479 0 0.00017498263780339884 -0.047318785281269059 0 -0.00040145967857902268 -0.04749644084166614 0 -0.00026999202803885969 -0.044784842059954227 0 -0.00035066948114531848 -0.044935438178289565 0 -0.00013817973052106478 -0.041950882689010253 0 -0.00031047482524830408 -0.041393779536778127 0 -0.0008185883691915123 -0.041996337042551159 0 -0.0011893743522433428 -0.038312995627631533 0 -0.00035066948114531848 -0.044935438178289565 0 0.00017498263780339884 -0.047318785281269059 0 -0.00040145967857902268 -0.04749644084166614 0 -0.00033219259907815219 -0.047882630146817137 0 -0.00065557985642800468 -0.047748077268663945 0 -0.00026261562788227564 -0.046609099435092761 0 -0.00077910222711457557 -0.047350013609419012 0 -0.00040145967857902268 -0.04749644084166614 0 -0.00045040638980437892 -0.047884524185162862 0 -0.00040145967857902268 -0.04749644084166614 0 -0.00033219259907815219 -0.047882630146817137 0 -0.00045040638980437892 -0.047884524185162862 0 -0.00035066948114531848 -0.044935438178289565 0 -0.00026261562788227564 -0.046609099435092761 0 -0.00090701035490821304 -0.048731533535884934 0 -0.00068471219002505285 -0.04841398320953496 0 -0.00070329348533040511 -0.048651746855648138 0 -0.00018917315593094247 -0.045789078867418169 0 -0.00019858496110966426 -0.047589286180253466 0 0.0010281513425051266 -0.045382381860778628 0 0.0013301679120253287 -0.045912190378192913 0 0.00078376422571504773 -0.046450804622664342 0 -0.00088882394353694124 -0.048771762419658291 0 -0.00090701035490821304 -0.048731533535884934 0 -0.00070329348533040511 -0.048651746855648138 0 -0.00084607715795229912 -0.041853118400210901 0 -0.00087453537682938775 -0.04188950893456634 0 -0.00079381003518285169 -0.042026365086474476 0 -0.00026261562788227564 -0.046609099435092761 0 -0.00018917315593094247 -0.045789078867418169 0 -0.00039450394027328321 -0.045693967598206001 0 -0.00059945143930206931 -0.045699587819307531 0 -0.0005199423828875484 -0.045840792814182733 0 -0.00035066948114531848 -0.044935438178289565 0 -0.00018917315593094247 -0.045789078867418169 0 -0.0011893743522433428 -0.038312995627631533 0 -0.00081618113995902085 -0.041662532301669247 0 -0.00059202920660910699 -0.04181608020312462 0 -0.00084607715795229912 -0.041853118400210901 0 -0.00079381003518285169 -0.042026365086474476 0 -0.0031433737586141876 -0.034006142149883817 0 -0.0032431665453814163 -0.034564789462831903 0 -0.0040297980382708043 -0.034752744146446218 0 -0.00018917315593094247 -0.045789078867418169 0 -0.00081618113995902085 -0.041662532301669247 0 -0.00081618113995902085 -0.041662532301669247 0 -0.0020669203626976951 -0.041209943825566954 0 -0.0032431665453814163 -0.034564789462831903 0 -0.0029358398290439945 -0.035309521189248474 0 -0.0040297980382708043 -0.034752744146446218 0 0.0002135781598831744 -0.047157045537028423 0 0.0002754613319617592 -0.046754246005113777 0 -0.00030584004455912894 -0.046654959055250134 0 -0.0029358398290439945 -0.035309521189248474 0 -0.0040297980382708043 -0.034752744146446218 0 -0.0034339300664217322 -0.036170516346363875 0 0.0002135781598831744 -0.047157045537028423 0 0.00040424136622172689 -0.046880989614276565 0 0.0002754613319617592 -0.046754246005113777 0 0.0010281513425051266 -0.045382381860778628 0 0.00078376422571504773 -0.046450804622664342 0 0.00027465329888428302 -0.046311533266516179 0 -0.00081618113995902085 -0.041662532301669247 0 0.00029919673499072057 -0.046938353860833337 0 0.00078376422571504773 -0.046450804622664342 0 0.00027465329888428302 -0.046311533266516179 0 0.00027879912668375933 -0.047014143842728194 0 -0.00068471219002505285 -0.04841398320953496 0 -0.00036646172149847002 -0.048310581900219841 0 -0.00015545458340694018 -0.047669982978821974 0 -0.00068471219002505285 -0.04841398320953496 0 -0.00051747189281539077 -0.048554132785640899 0 -0.00036646172149847002 -0.048310581900219841 0 -0.00068471219002505285 -0.04841398320953496 0 -0.00051747189281539077 -0.048554132785640899 0 -0.00070329348533040511 -0.048651746855648138 0 -0.00048393488609986595 -0.048796146496812229 0 -0.00088882394353694124 -0.048771762419658291 0 -0.00070329348533040511 -0.048651746855648138 0 -0.00048393488609986595 -0.048796146496812229 0 -0.00051747189281539077 -0.048554132785640899 0 -0.0003810596420300197 -0.048615762110261349 0 -0.00048393488609986595 -0.048796146496812229 0 -0.00051747189281539077 -0.048554132785640899 0 -0.00070329348533040511 -0.048651746855648138 0 -0.00048393488609986595 -0.048796146496812229 0 -0.0002383278066761997 -0.048628943026661493 0 -6.8078661524522587e-05 -0.048771035123843273 0 -0.00048393488609986595 -0.048796146496812229 0 -0.0003810596420300197 -0.048615762110261349 0 -0.0002383278066761997 -0.048628943026661493 0 -0.00051747189281539077 -0.048554132785640899 0 -0.0003810596420300197 -0.048615762110261349 0 -0.00028330773165260098 -0.048469288487688326 0 -0.0003810596420300197 -0.048615762110261349 0 -0.0002383278066761997 -0.048628943026661493 0 -0.00028330773165260098 -0.048469288487688326 0 -0.0002383278066761997 -0.048628943026661493 0 -0.00028330773165260098 -0.048469288487688326 0 -0.00013848985982772312 -0.048491402282946509 0 -0.00028330773165260098 -0.048469288487688326 0 -0.00014508779743257604 -0.048347837859194255 0 -0.00013848985982772312 -0.048491402282946509 0 -0.00051747189281539077 -0.048554132785640899 0 -0.00028330773165260098 -0.048469288487688326 0 -0.00036646172149847002 -0.048310581900219841 0 -0.00028330773165260098 -0.048469288487688326 0 -0.00036646172149847002 -0.048310581900219841 0 -0.00019987734850615807 -0.048203304084299195 0 -0.00028330773165260098 -0.048469288487688326 0 -0.00014508779743257604 -0.048347837859194255 0 -0.00019987734850615807 -0.048203304084299195 0 -0.00014508779743257604 -0.048347837859194255 0 -0.00019987734850615807 -0.048203304084299195 0 -8.7542456715356733e-05 -0.048229166547044157 0 -0.00014508779743257604 -0.048347837859194255 0 -8.3202710531201659e-05 -0.04837788750103706 0 -0.00013848985982772312 -0.048491402282946509 0 -0.00014508779743257604 -0.048347837859194255 0 -8.3202710531201659e-05 -0.04837788750103706 0 -8.7542456715356733e-05 -0.048229166547044157 0 -8.3202710531201659e-05 -0.04837788750103706 0 -6.2814314504960783e-05 -0.048306332086381597 0 -8.7542456715356733e-05 -0.048229166547044157 0 -8.3202710531201659e-05 -0.04837788750103706 0 -7.5344403334991019e-05 -0.04846537877208159 0 -8.2558860908948112e-05 -0.048509346836987613 0 -8.3202710531201659e-05 -0.04837788750103706 0 -7.5344403334991019e-05 -0.04846537877208159 0 -6.2814314504960783e-05 -0.048306332086381597 0 -8.2558860908948112e-05 -0.048509346836987613 0 -9.5755065798296371e-05 -0.048603820877995564 0 -8.5587508227735618e-05 -0.048597915056032399 0 -7.5344403334991019e-05 -0.04846537877208159 0 -8.2558860908948112e-05 -0.048509346836987613 0 -9.5755065798296371e-05 -0.048603820877995564 0 -8.3202710531201659e-05 -0.04837788750103706 0 -8.2558860908948112e-05 -0.048509346836987613 0 -0.00013848985982772312 -0.048491402282946509 0 -8.2558860908948112e-05 -0.048509346836987613 0 -0.00013848985982772312 -0.048491402282946509 0 -9.4115933426347639e-05 -0.048622904487357364 0 -0.00012324338756773597 -0.048624252651915105 0 -0.00018577241077731278 -0.048742073640102801 0 -0.00018199484540084435 -0.048703427251224875 0 -7.5344403334991019e-05 -0.04846537877208159 0 -0.00012324338756773597 -0.048624252651915105 0 -0.00011641705467385418 -0.048552947529592369 0 -7.5344403334991019e-05 -0.04846537877208159 0 -0.00012324338756773597 -0.048624252651915105 0 -9.5755065798296371e-05 -0.048603820877995564 0 -0.00012324338756773597 -0.048624252651915105 0 -0.00015596665064053421 -0.048731314391007641 0 -0.00018577241077731278 -0.048742073640102801 0 -0.00012324338756773597 -0.048624252651915105 0 -9.5755065798296371e-05 -0.048603820877995564 0 -0.00015596665064053421 -0.048731314391007641 0 -0.00015596665064053421 -0.048731314391007641 0 -0.0001355429972154262 -0.048668287162121147 0 -9.7034530092239262e-05 -0.048641061343674415 0 -0.0001355429972154262 -0.048668287162121147 0 -9.7034530092239262e-05 -0.048641061343674415 0 -8.9490054628349084e-05 -0.048622863853966539 0 -3.3682697351870612e-05 -0.048738662958099768 0 -0.00061456248118502556 -0.048364125452032822 0 -9.5755065798296371e-05 -0.048603820877995564 0 -0.00015596665064053421 -0.048731314391007641 0 -9.7034530092239262e-05 -0.048641061343674415 0 -9.5755065798296371e-05 -0.048603820877995564 0 -9.7034530092239262e-05 -0.048641061343674415 0 -8.5587508227735618e-05 -0.048597915056032399 0 -0.0002383278066761997 -0.048628943026661493 0 -0.00013848985982772312 -0.048491402282946509 0 -9.4115933426347639e-05 -0.048622904487357364 0 -9.7034530092239262e-05 -0.048641061343674415 0 -9.4115933426347639e-05 -0.048622904487357364 0 -8.5587508227735618e-05 -0.048597915056032399 0 -8.2558860908948112e-05 -0.048509346836987613 0 -9.4115933426347639e-05 -0.048622904487357364 0 -8.5587508227735618e-05 -0.048597915056032399 0 -9.7034530092239262e-05 -0.048641061343674415 0 -9.4115933426347639e-05 -0.048622904487357364 0 -8.9490054628349084e-05 -0.048622863853966539 0 -0.00030988502265100345 -0.048684959486928261 0 -0.00061456248118502556 -0.048364125452032822 0 -0.0002383278066761997 -0.048628943026661493 0 -9.4115933426347639e-05 -0.048622904487357364 0 -6.8078661524522587e-05 -0.048771035123843273 0 -0.00024987190526437895 -0.048800743533373415 0 -0.00018688950949036299 -0.048863447269040343 0 -0.00023629547131666045 -0.048908715175570071 0 -0.00061456248118502556 -0.048364125452032822 0 -0.00098876146534748808 -0.048084443591488689 0 -0.00015269551707927339 -0.04880696858793953 0 -0.00024987190526437895 -0.048800743533373415 0 -0.00018688950949036299 -0.048863447269040343 0 -0.00015269551707927339 -0.04880696858793953 0 -0.00018688950949036299 -0.048863447269040343 0 -0.00012400593151161793 -0.048865368760202761 0 -0.00018688950949036299 -0.048863447269040343 0 -0.00014480627049630375 -0.048923807915364007 0 -0.00012400593151161793 -0.048865368760202761 0 -0.00018688950949036299 -0.048863447269040343 0 -0.00018904049561490661 -0.048911008272915092 0 -0.00023629547131666045 -0.048908715175570071 0 -0.00018688950949036299 -0.048863447269040343 0 -0.00014480627049630375 -0.048923807915364007 0 -0.00018904049561490661 -0.048911008272915092 0 -0.00014480627049630375 -0.048923807915364007 0 -0.00018904049561490661 -0.048911008272915092 0 -0.00019035329814918423 -0.048947879812606392 0 -0.00018904049561490661 -0.048911008272915092 0 -0.00023629547131666045 -0.048908715175570071 0 -0.00019035329814918423 -0.048947879812606392 0 -0.0014926193282183069 -0.04734811417797103 0 -0.0016770753672706007 -0.047780514182293066 0 -0.0016743730318003424 -0.04722531201021115 0 -0.0015808916294624696 -0.047156797836815693 0 -0.0014926193282183069 -0.04734811417797103 0 -0.0016743730318003424 -0.04722531201021115 0 -7.4173714277149481e-05 -0.048919329321131799 0 -1.311230583700031e-07 -0.048902531198902741 0 -2.1039354034226251e-05 -0.048988914514531766 0 -7.4173714277149481e-05 -0.048919329321131799 0 -6.5218266351224481e-05 -0.048812987952633724 0 -1.311230583700031e-07 -0.048902531198902741 0 -0.00014480627049630375 -0.048923807915364007 0 -7.4173714277149481e-05 -0.048919329321131799 0 -0.00012400593151161793 -0.048865368760202761 0 -0.00015269551707927339 -0.04880696858793953 0 -0.00012400593151161793 -0.048865368760202761 0 -6.5218266351224481e-05 -0.048812987952633724 0 -0.0003533741939658127 -0.049129433168989455 0 -0.00018322814724349039 -0.049409058855598917 0 -7.4173714277149481e-05 -0.048919329321131799 0 -0.00012400593151161793 -0.048865368760202761 0 -6.5218266351224481e-05 -0.048812987952633724 0 -0.0003533741939658127 -0.049129433168989455 0 -0.00037682839060334975 -0.048924090201589769 0 -0.00034001504411006211 -0.049151141048824606 0 -0.00031852993557115577 -0.048900354202323026 0 -0.00032847914115824455 -0.048997905046830548 0 -0.00035642949890713475 -0.04914143069589718 0 -0.00034001504411006211 -0.049151141048824606 0 -0.00031852993557115577 -0.048900354202323026 0 -3.3682697351870612e-05 -0.048738662958099768 0 -0.0003533741939658127 -0.049129433168989455 0 -0.00015596665064053421 -0.048731314391007641 0 -0.0001355429972154262 -0.048668287162121147 0 -0.00031852993557115577 -0.048900354202323026 0 -0.0001355429972154262 -0.048668287162121147 0 -0.0004345202749491897 -0.04875553719542388 0 -0.00031852993557115577 -0.048900354202323026 0 -0.00015596665064053421 -0.048731314391007641 0 -0.00031852993557115577 -0.048900354202323026 0 -0.00026628713833109038 -0.048863905759626847 0 -0.00015596665064053421 -0.048731314391007641 0 -0.00026628713833109038 -0.048863905759626847 0 -0.00018577241077731278 -0.048742073640102801 0 -0.00031852993557115577 -0.048900354202323026 0 -0.00026628713833109038 -0.048863905759626847 0 -0.00032847914115824455 -0.048997905046830548 0 -0.00026628713833109038 -0.048863905759626847 0 -0.00032847914115824455 -0.048997905046830548 0 -0.00028111513311265861 -0.04888132619580389 0 -0.00026628713833109038 -0.048863905759626847 0 -0.00018577241077731278 -0.048742073640102801 0 -0.00028111513311265861 -0.04888132619580389 0 -0.00032847914115824455 -0.048997905046830548 0 -0.00033284769875833569 -0.049200237912814679 0 -0.00035808612182165571 -0.049053206856602236 0 -0.00034001504411006211 -0.049151141048824606 0 -0.00032847914115824455 -0.048997905046830548 0 -0.00033284769875833569 -0.049200237912814679 0 -0.00033284769875833569 -0.049200237912814679 0 -0.00022125478219211004 -0.04941312583012554 0 -0.00030441799067940973 -0.049152199602543245 0 -0.00022125478219211004 -0.04941312583012554 0 -0.00027472985490845135 -0.049560128582467583 0 -7.6461336270024398e-05 -0.049753789821026795 0 -0.00033284769875833569 -0.049200237912814679 0 -0.00022125478219211004 -0.04941312583012554 0 -0.00027472985490845135 -0.049560128582467583 0 -0.0003533741939658127 -0.049129433168989455 0 -0.00031968761712828449 -0.049575180058747184 0 -0.00035642949890713475 -0.04914143069589718 0 -0.00034001504411006211 -0.049151141048824606 0 -0.00027472985490845135 -0.049560128582467583 0 -0.00034001504411006211 -0.049151141048824606 0 -0.00033284769875833569 -0.049200237912814679 0 -0.00027472985490845135 -0.049560128582467583 0 -6.2028258158449001e-08 -0.049999861597469754 0 -0.00011627376270340837 -0.049704667557656498 0 1.4108273541008246e-07 -0.049998928382266911 0 -7.6461336270024398e-05 -0.049753789821026795 0 -7.9515417336451042e-05 -0.049449444971614208 0 4.0148157256370625e-09 -0.050000055838485991 0 -0.000106787506680717 -0.049976493442291492 0 -3.1373591561722279e-08 -0.050000035891685585 0 -0.00022125478219211004 -0.04941312583012554 0 -7.6461336270024398e-05 -0.049753789821026795 0 -7.9515417336451042e-05 -0.049449444971614208 0 1.4108273541008246e-07 -0.049998928382266911 0 -7.6461336270024398e-05 -0.049753789821026795 0 -2.0789915935261443e-08 -0.050000011758392457 0 -7.6461336270024398e-05 -0.049753789821026795 0 -2.0789915935261443e-08 -0.050000011758392457 0 -9.9268430092639128e-05 -0.049905682842631728 0 -0.00027472985490845135 -0.049560128582467583 0 -7.6461336270024398e-05 -0.049753789821026795 0 -9.9268430092639128e-05 -0.049905682842631728 0 -9.9268430092639128e-05 -0.049905682842631728 0 -2.3265047589735309e-05 -0.049983497969297748 0 -5.66265744028347e-05 -0.050052549419203625 0 -2.0789915935261443e-08 -0.050000011758392457 0 -9.9268430092639128e-05 -0.049905682842631728 0 -2.3265047589735309e-05 -0.049983497969297748 0 -2.0789915935261443e-08 -0.050000011758392457 0 -2.3265047589735309e-05 -0.049983497969297748 0 -1.124247263625937e-08 -0.050000039966430598 0 -0.00063587756563255303 -0.049563644517633135 0 -0.00027472985490845135 -0.049560128582467583 0 -0.00038748436494905975 -0.049882200658331786 0 -0.00027472985490845135 -0.049560128582467583 0 -9.9268430092639128e-05 -0.049905682842631728 0 -0.00038748436494905975 -0.049882200658331786 0 -9.9268430092639128e-05 -0.049905682842631728 0 -0.00038748436494905975 -0.049882200658331786 0 -0.00019274188141934475 -0.050082422685025302 0 -1.311230583700031e-07 -0.048902531198902741 0 -2.1039354034226251e-05 -0.048988914514531766 0 6.2595128026918392e-05 -0.048989851367393929 0 -0.0001356630126767467 -0.049006924768047772 0 -0.00010644815486751783 -0.049499545867120145 0 -0.00018322814724349039 -0.049409058855598917 0 -0.00010644815486751783 -0.049499545867120145 0 -0.00026549785798828519 -0.049124080344419965 0 -0.00027203560807298862 -0.04904944947905758 0 -0.00034197831503966639 -0.049178565556365426 0 -0.00027203560807298862 -0.04904944947905758 0 -0.00034197831503966639 -0.049178565556365426 0 -0.0001981307988567689 -0.04945298841791055 0 -0.00026549785798828519 -0.049124080344419965 0 -0.00034197831503966639 -0.049178565556365426 0 -0.0002257143972400026 -0.049019911035416495 0 -2.3265047589735309e-05 -0.049983497969297748 0 -1.124247263625937e-08 -0.050000039966430598 0 -5.66265744028347e-05 -0.050052549419203625 0 -2.4620335438152113e-10 -0.049999988396796896 0 -4.4295135754692676e-06 -0.049992995900716333 0 -1.4121345823428864e-06 -0.049998078057268622 0 -1.2611208997323167e-08 -0.050000011814711649 0 -4.0339333609354668e-05 -0.050030614779224603 0 -9.9268430092639128e-05 -0.049905682842631728 0 -0.00019274188141934475 -0.050082422685025302 0 -5.66265744028347e-05 -0.050052549419203625 0 -0.00010644815486751783 -0.049499545867120145 0 -4.0339333609354668e-05 -0.050030614779224603 0 -0.00010644815486751783 -0.049499545867120145 0 -2.6584539478025723e-05 -0.049731612735235776 0 -0.00027203560807298862 -0.04904944947905758 0 -8.0226632403635617e-06 -0.049466222672317109 0 -0.0001981307988567689 -0.04945298841791055 0 -1.2392362228823377e-05 -0.049989166284962229 0 -4.4295135754692676e-06 -0.049992995900716333 0 -3.434140438921409e-06 -0.049999410269533355 0 -1.4121345823428864e-06 -0.049998078057268622 0 -2.5839667817525681e-09 -0.049999999050150221 0 -3.434140438921409e-06 -0.049999410269533355 0 -4.4295135754692676e-06 -0.049992995900716333 0 -1.4121345823428864e-06 -0.049998078057268622 0 -3.434140438921409e-06 -0.049999410269533355 0 -2.4620335438152113e-10 -0.049999988396796896 0 -1.4121345823428864e-06 -0.049998078057268622 0 -2.5839667817525681e-09 -0.049999999050150221 0 -2.5839667817525681e-09 -0.049999999050150221 0 -3.434140438921409e-06 -0.049999410269533355 0 9.4059022904518309e-10 -0.050000001485268612 0 -8.0226632403635617e-06 -0.049466222672317109 0 -0.0001070705799676172 -0.04983124794680549 0 -0.0001981307988567689 -0.04945298841791055 0 -8.0226632403635617e-06 -0.049466222672317109 0 -0.0001070705799676172 -0.04983124794680549 0 3.398865059288515e-07 -0.049999419519887948 0 -2.6584539478025723e-05 -0.049731612735235776 0 -6.8054563421140127e-09 -0.049999886078098729 0 -0.00034197831503966639 -0.049178565556365426 0 -0.0002257143972400026 -0.049019911035416495 0 -0.00027868107421041686 -0.048929793258335755 0 -0.0002257143972400026 -0.049019911035416495 0 -0.00027868107421041686 -0.048929793258335755 0 -0.00026201677628697324 -0.048761817148939152 0 -0.00034197831503966639 -0.049178565556365426 0 -0.00027868107421041686 -0.048929793258335755 0 -0.00029425341057119224 -0.048786195806641147 0 -0.00033736627997448258 -0.04918894825723228 0 -0.00029272672203351641 -0.049258308570824201 0 -0.00034197831503966639 -0.049178565556365426 0 -0.0001981307988567689 -0.04945298841791055 0 -0.00031980813427784398 -0.049716735703461259 0 -0.0001070705799676172 -0.04983124794680549 0 -0.0001981307988567689 -0.04945298841791055 0 -0.00031980813427784398 -0.049716735703461259 0 -0.00015829621403628814 -0.049952023123543451 0 -0.0001070705799676172 -0.04983124794680549 0 -0.00031980813427784398 -0.049716735703461259 0 -0.00027677555497606455 -0.048862601177015207 0 -0.00029425341057119224 -0.048786195806641147 0 -0.00026201677628697324 -0.048761817148939152 0 -0.00027677555497606455 -0.048862601177015207 0 -0.00026201677628697324 -0.048761817148939152 0 -0.00044360710993760654 -0.048732127715842982 0 -0.00027868107421041686 -0.048929793258335755 0 -0.00029425341057119224 -0.048786195806641147 0 -0.00026201677628697324 -0.048761817148939152 0 -0.00026201677628697324 -0.048761817148939152 0 -0.00044360710993760654 -0.048732127715842982 0 -0.00051039241076262782 -0.048355027125824478 0 -0.00044360710993760654 -0.048732127715842982 0 -0.00051039241076262782 -0.048355027125824478 0 -0.00072813370195370616 -0.04867113936871019 0 -0.0002257143972400026 -0.049019911035416495 0 -0.00013919773012450093 -0.048968336304837039 0 -0.0001714128253999148 -0.049036904595737618 0 -0.00027445490630012131 -0.048738374168516271 0 -0.00036272866958536631 -0.048646570029473063 0 -0.0002257143972400026 -0.049019911035416495 0 -0.00026201677628697324 -0.048761817148939152 0 -0.00013919773012450093 -0.048968336304837039 0 -0.00036272866958536631 -0.048646570029473063 0 -0.00041097465711394414 -0.048621894907456158 0 -0.00013919773012450093 -0.048968336304837039 0 -0.00014027989918568873 -0.049028119843117099 0 -0.0001714128253999148 -0.049036904595737618 0 -0.00051039241076262782 -0.048355027125824478 0 -0.0008508164200381307 -0.048319106739843361 0 -0.00084279275515260633 -0.048074581317529036 0 -0.00051039241076262782 -0.048355027125824478 0 -0.00072813370195370616 -0.04867113936871019 0 -0.0008508164200381307 -0.048319106739843361 0 -0.0010185010581726882 -0.048663238176244218 0 -0.0008508164200381307 -0.048319106739843361 0 -0.0010864692476963273 -0.048188925754889089 0 -0.0010185010581726882 -0.048663238176244218 0 -0.00072813370195370616 -0.04867113936871019 0 -0.0008508164200381307 -0.048319106739843361 0 -0.0015302013797198497 -0.048761750059385545 0 -0.0017181222880321538 -0.048167322666133806 0 -0.0010864692476963273 -0.048188925754889089 0 -0.0010185010581726882 -0.048663238176244218 0 -0.0015302013797198497 -0.048761750059385545 0 -0.0010864692476963273 -0.048188925754889089 0 -0.0017181222880321538 -0.048167322666133806 0 -0.0010864692476963273 -0.048188925754889089 0 -0.0014239975846060183 -0.047622194121121876 0 -0.0011269185075304265 -0.047992443260969408 0 -0.00095740911251243838 -0.047944016694457095 0 -0.0010864692476963273 -0.048188925754889089 0 -0.0014239975846060183 -0.047622194121121876 0 -0.0011636544905151778 -0.047173012107306199 0 -0.0010864692476963273 -0.048188925754889089 0 -0.00084279275515260633 -0.048074581317529036 0 -0.001074391268902527 -0.047945948802389664 0 -0.0008508164200381307 -0.048319106739843361 0 -0.0010864692476963273 -0.048188925754889089 0 -0.00084279275515260633 -0.048074581317529036 0 -0.00041097465711394414 -0.048621894907456158 0 -0.00095740911251243838 -0.047944016694457095 0 -0.00014027989918568873 -0.049028119843117099 0 -0.0001818826376686333 -0.048997210446693078 0 -0.0001425988030446451 -0.04905315222607514 0 -0.00014027989918568873 -0.049028119843117099 0 -0.0001818826376686333 -0.048997210446693078 0 -0.00021212520298341335 -0.049014214061729185 0 -0.0014239975846060183 -0.047622194121121876 0 -0.0014700658317380552 -0.047278750159560741 0 -0.0011636544905151778 -0.047173012107306199 0 -0.0017319855559508937 -0.047093734333601561 0 -0.00095740911251243838 -0.047944016694457095 0 -0.0015742140300683142 -0.047156368331267573 0 -0.0014700658317380552 -0.047278750159560741 0 -0.0011636544905151778 -0.047173012107306199 0 -0.00023629547131666045 -0.048908715175570071 0 -0.00021212520298341335 -0.049014214061729185 0 -0.00019035329814918423 -0.048947879812606392 0 -0.00098876146534748808 -0.048084443591488689 0 -0.00095740911251243838 -0.047944016694457095 0 -0.0015808916294624696 -0.047156797836815693 0 -0.0016743730318003424 -0.04722531201021115 0 -0.0016046423993173074 -0.047121680852969985 0 -0.0015808916294624696 -0.047156797836815693 0 -0.0015742140300683142 -0.047156368331267573 0 -0.0016046423993173074 -0.047121680852969985 0 -0.0001818826376686333 -0.048997210446693078 0 -0.00021212520298341335 -0.049014214061729185 0 -0.00019035329814918423 -0.048947879812606392 0 -0.0001818826376686333 -0.048997210446693078 0 -0.00015456379800440786 -0.048965050629534469 0 -0.00010437708581768479 -0.048989596594415832 0 -0.00017857134805091541 -0.049002221130556731 0 -0.0001330894079451041 -0.049026409849738925 0 -0.0001818826376686333 -0.048997210446693078 0 -0.00015456379800440786 -0.048965050629534469 0 -0.00019035329814918423 -0.048947879812606392 0 -0.00014480627049630375 -0.048923807915364007 0 -0.00015456379800440786 -0.048965050629534469 0 -0.00019035329814918423 -0.048947879812606392 0 -0.00014480627049630375 -0.048923807915364007 0 -0.00015456379800440786 -0.048965050629534469 0 -0.00010437708581768479 -0.048989596594415832 0 -0.00014480627049630375 -0.048923807915364007 0 -7.4173714277149481e-05 -0.048919329321131799 0 -0.00010437708581768479 -0.048989596594415832 0 -7.4173714277149481e-05 -0.048919329321131799 0 -2.1039354034226251e-05 -0.048988914514531766 0 -0.00010437708581768479 -0.048989596594415832 0 -0.0001356630126767467 -0.049006924768047772 0 -0.0001330894079451041 -0.049026409849738925 0 -0.00026549785798828519 -0.049124080344419965 0 -0.0001425988030446451 -0.04905315222607514 0 -0.0001714128253999148 -0.049036904595737618 0 -0.00026549785798828519 -0.049124080344419965 0 -0.0002257143972400026 -0.049019911035416495 0 -0.0001714128253999148 -0.049036904595737618 0 -0.00014027989918568873 -0.049028119843117099 0 -0.0001425988030446451 -0.04905315222607514 0 -0.0001714128253999148 -0.049036904595737618 0 -0.0013770483802921141 -0.023649818706193176 0 -0.0014134627288657118 -0.023454574887420747 0 -0.0010080605960596364 -0.024306006286072532 0 -0.0013556887234255845 -0.023711778138279578 0 -0.0015128167920481848 -0.024690842181321955 0 -0.00091245722307372202 -0.023921102124237939 0 -0.0010080605960596364 -0.024306006286072532 0 -0.0013556887234255845 -0.023711778138279578 0 -0.00085143050583793049 -0.023278513058846963 0 -0.0013556887234255845 -0.023711778138279578 0 -0.0013920501971129797 -0.022323541876369923 0 -0.00085143050583793049 -0.023278513058846963 0 -0.0006634853987579184 -0.021834733406749907 0 -5.7396896165893417e-06 -0.022958456695862606 0 -0.00085143050583793049 -0.023278513058846963 0 -0.0013920501971129797 -0.022323541876369923 0 -0.0006634853987579184 -0.021834733406749907 0 -0.00085143050583793049 -0.023278513058846963 0 -0.00075128922888582027 -0.024022606555047184 0 -0.0011599350629000454 -0.023868415742802462 0 -0.00085143050583793049 -0.023278513058846963 0 -0.00075128922888582027 -0.024022606555047184 0 -0.00034942068681490901 -0.023683937427721083 0 -0.00075128922888582027 -0.024022606555047184 0 -0.00034942068681490901 -0.023683937427721083 0 -0.00026849106558850521 -0.024264211043096607 0 -0.00075128922888582027 -0.024022606555047184 0 -0.0011599350629000454 -0.023868415742802462 0 -0.0010949377699131324 -0.024368595848141286 0 -0.0011599350629000454 -0.023868415742802462 0 -0.0014856500251956585 -0.023854268978531164 0 -0.0010949377699131324 -0.024368595848141286 0 -0.00085143050583793049 -0.023278513058846963 0 -0.0011599350629000454 -0.023868415742802462 0 -0.0013556887234255845 -0.023711778138279578 0 -0.0011599350629000454 -0.023868415742802462 0 -0.0013556887234255845 -0.023711778138279578 0 -0.0014856500251956585 -0.023854268978531164 0 -0.00095553103450336167 -0.024076068236275693 0 -0.0013057600944256919 -0.022945528400759849 0 -0.00091245722307372202 -0.023921102124237939 0 -0.0013556887234255845 -0.023711778138279578 0 -0.0014856500251956585 -0.023854268978531164 0 -0.00091245722307372202 -0.023921102124237939 0 -0.0010634412065362736 -0.023024151331102475 0 -0.00057500262429367971 -0.023373955206505318 0 -0.0010634412065362736 -0.023024151331102475 0 -0.00066454234555893158 -0.022874786322236926 0 -0.00057500262429367971 -0.023373955206505318 0 -0.00066454234555893158 -0.022874786322236926 0 -0.00010132872153041926 -0.023299262366657109 0 -0.00057500262429367971 -0.023373955206505318 0 -0.00066454234555893158 -0.022874786322236926 0 -0.00010132872153041926 -0.023299262366657109 0 -0.00020051482158789174 -0.022608688976172259 0 -0.00010132872153041926 -0.023299262366657109 0 0.00070536460637708471 -0.023358707111462932 0 -0.00020051482158789174 -0.022608688976172259 0 -0.00010132872153041926 -0.023299262366657109 0 0.0002567773915219632 -0.02376247942843571 0 -0.00017791031351333433 -0.023782593096608538 0 -0.00010132872153041926 -0.023299262366657109 0 -0.00057500262429367971 -0.023373955206505318 0 -0.00017791031351333433 -0.023782593096608538 0 -0.00091245722307372202 -0.023921102124237939 0 -0.00057500262429367971 -0.023373955206505318 0 -0.00017791031351333433 -0.023782593096608538 0 0.0040262841036177652 -0.026613640039148435 0 0.0038753540086721304 -0.026662550841993898 0 0.0064040984821237511 -0.030013176154688074 0 0.0065730427811876166 -0.030495837769107734 0 0.0072851874345032392 -0.030491566403050625 0 0.0017035103460156143 -0.023304713624677873 0 0.00070536460637708471 -0.023358707111462932 0 -0.00020051482158789174 -0.022608688976172259 0 0.00070536460637708471 -0.023358707111462932 0 0.0002567773915219632 -0.02376247942843571 0 0.00061194488339155631 -0.024159614634780963 0 -0.00010132872153041926 -0.023299262366657109 0 0.00070536460637708471 -0.023358707111462932 0 0.0002567773915219632 -0.02376247942843571 0 0.00068365821717313296 -0.023548439252609306 0 0.00085515799225625215 -0.024660175936636802 0 0.0017035103460156143 -0.023304713624677873 0 0.00070536460637708471 -0.023358707111462932 0 0.0014452819542136426 -0.024195419960726529 0 0.00070536460637708471 -0.023358707111462932 0 0.0014452819542136426 -0.024195419960726529 0 0.0010006128917164196 -0.025306310640216035 0 0.0014452819542136426 -0.024195419960726529 0 0.0010006128917164196 -0.025306310640216035 0 0.0024306989336257789 -0.024859693751524761 0 0.0002567773915219632 -0.02376247942843571 0 0.00061194488339155631 -0.024159614634780963 0 0.00012823075876136945 -0.024098352034709149 0 0.00061194488339155631 -0.024159614634780963 0 0.00012823075876136945 -0.024098352034709149 0 0.00013823736081778029 -0.024454147432142512 0 0.00061194488339155631 -0.024159614634780963 0 0.00013823736081778029 -0.024454147432142512 0 0.00080794967586173591 -0.025100956554573131 0 0.00085515799225625215 -0.024660175936636802 0 0.0020918956895634149 -0.026281014629105023 0 0.0010006128917164196 -0.025306310640216035 0 0.0019082444544848086 -0.026184849214706096 0 0.0024306989336257789 -0.024859693751524761 0 0.0010006128917164196 -0.025306310640216035 0 0.0013968075777596727 -0.027348625191232531 0 0.0019082444544848086 -0.026184849214706096 0 -0.00091245722307372202 -0.023921102124237939 0 -0.00017791031351333433 -0.023782593096608538 0 -0.00035524067246076079 -0.024360117984377261 0 0.00012823075876136945 -0.024098352034709149 0 -0.00017791031351333433 -0.023782593096608538 0 -0.00035524067246076079 -0.024360117984377261 0 0.0002567773915219632 -0.02376247942843571 0 0.00012823075876136945 -0.024098352034709149 0 -0.00017791031351333433 -0.023782593096608538 0 0.00013823736081778029 -0.024454147432142512 0 -0.00035524067246076079 -0.024360117984377261 0 -0.00026315212351591348 -0.024856645891488536 0 0.00012823075876136945 -0.024098352034709149 0 0.00013823736081778029 -0.024454147432142512 0 -0.00035524067246076079 -0.024360117984377261 0 -0.00091245722307372202 -0.023921102124237939 0 -0.0010080605960596364 -0.024306006286072532 0 -0.00035524067246076079 -0.024360117984377261 0 -0.0010080605960596364 -0.024306006286072532 0 -0.00035524067246076079 -0.024360117984377261 0 -0.00077591667526527629 -0.024834651968133042 0 -0.00026315212351591348 -0.024856645891488536 0 0.00029497699983625569 -0.025070340804076056 0 -0.00060933250253327321 -0.025490891649662901 0 -0.00035524067246076079 -0.024360117984377261 0 -0.00077591667526527629 -0.024834651968133042 0 -0.00026315212351591348 -0.024856645891488536 0 0.0017953839508272795 -0.025930201493560855 0 0.0013209554739119496 -0.026011423188827442 0 -0.00077591667526527629 -0.024834651968133042 0 -0.00026315212351591348 -0.024856645891488536 0 -0.00060933250253327321 -0.025490891649662901 0 0.002692591431218719 -0.026199638710769173 0 0.0025248021646927538 -0.026299958490171638 0 0.0028225971309478507 -0.026806824438400993 0 0.00019089292688900393 -0.024217175080887013 0 0.0017953839508272795 -0.025930201493560855 0 0.00013823736081778029 -0.024454147432142512 0 -0.00026315212351591348 -0.024856645891488536 0 0.00029497699983625569 -0.025070340804076056 0 0.00013823736081778029 -0.024454147432142512 0 0.00080794967586173591 -0.025100956554573131 0 0.00045334870681202895 -0.025315163682385292 0 0.0020918956895634149 -0.026281014629105023 0 0.0017953839508272795 -0.025930201493560855 0 0.0032356982227942604 -0.026634508067691784 0 0.003193832409805046 -0.026625303532042739 0 0.0031863326804427968 -0.026655460042000867 0 0.0017953839508272795 -0.025930201493560855 0 0.0030702216054771638 -0.026877859080724122 0 0.0020918956895634149 -0.026281014629105023 0 0.0030965950632998521 -0.027249740552336917 0 0.0031987179442494675 -0.026589226109323971 0 0.0032356982227942604 -0.026634508067691784 0 0.003193832409805046 -0.026625303532042739 0 0.0025248021646927538 -0.026299958490171638 0 0.0027409554175419053 -0.026855512905803961 0 0.0028225971309478507 -0.026806824438400993 0 0.0031609366072882631 -0.026633958045014252 0 0.0031666383243144458 -0.026667712540407326 0 0.0031863326804427968 -0.026655460042000867 0 0.0031987179442494675 -0.026589226109323971 0 0.003193832409805046 -0.026625303532042739 0 0.0031609366072882631 -0.026633958045014252 0 0.003193832409805046 -0.026625303532042739 0 0.0031609366072882631 -0.026633958045014252 0 0.0031863326804427968 -0.026655460042000867 0 0.0013209554739119496 -0.026011423188827442 0 0.00081429652704715825 -0.026533718973511467 0 0.0031609366072882631 -0.026633958045014252 0 0.003167982292675117 -0.026675322934309968 0 0.0031666383243144458 -0.026667712540407326 0 -0.00060933250253327321 -0.025490891649662901 0 -0.0012069844376141464 -0.025289687304701467 0 -0.0013510670219318691 -0.025772764562189899 0 -0.0010080605960596364 -0.024306006286072532 0 -0.00077591667526527629 -0.024834651968133042 0 -0.0015128167920481848 -0.024690842181321955 0 -0.00077591667526527629 -0.024834651968133042 0 -0.00060933250253327321 -0.025490891649662901 0 -0.0012069844376141464 -0.025289687304701467 0 -0.00077591667526527629 -0.024834651968133042 0 -0.0012069844376141464 -0.025289687304701467 0 -0.0015128167920481848 -0.024690842181321955 0 -0.0013920501971129797 -0.022323541876369923 0 -0.0006634853987579184 -0.021834733406749907 0 -0.0011415124247903905 -0.020817697377930044 0 -0.0012069844376141464 -0.025289687304701467 0 -0.0015128167920481848 -0.024690842181321955 0 -0.0016721497560553559 -0.025479499598510296 0 -0.0014134627288657118 -0.023454574887420747 0 -0.0014992227545389462 -0.023195138402262411 0 -0.0006634853987579184 -0.021834733406749907 0 -0.0011415124247903905 -0.020817697377930044 0 -0.00055934638579982216 -0.020616789079607668 0 -0.0012069844376141464 -0.025289687304701467 0 -0.0016721497560553559 -0.025479499598510296 0 -0.0013510670219318691 -0.025772764562189899 0 -0.0011415124247903905 -0.020817697377930044 0 -0.00055934638579982216 -0.020616789079607668 0 -0.00062324867357831473 -0.019966922723006032 0 -0.00055934638579982216 -0.020616789079607668 0 -9.095497394449974e-05 -0.021036564899090619 0 -0.0001115756635783004 -0.0201442569220186 0 -0.0006634853987579184 -0.021834733406749907 0 -0.00055934638579982216 -0.020616789079607668 0 -9.095497394449974e-05 -0.021036564899090619 0 -0.00055934638579982216 -0.020616789079607668 0 -0.0001115756635783004 -0.0201442569220186 0 -0.00062324867357831473 -0.019966922723006032 0 -9.095497394449974e-05 -0.021036564899090619 0 0.00048626826745480677 -0.020656380571988299 0 0.00044973551680994043 -0.021871268756091376 0 -9.095497394449974e-05 -0.021036564899090619 0 -0.0001115756635783004 -0.0201442569220186 0 0.00048626826745480677 -0.020656380571988299 0 0.0012561016766992929 -0.021047049169453651 0 0.00048626826745480677 -0.020656380571988299 0 0.00044973551680994043 -0.021871268756091376 0 -0.0001115756635783004 -0.0201442569220186 0 0.00048626826745480677 -0.020656380571988299 0 0.0004608782224163912 -0.019666280559552281 0 0.0011458521197189151 -0.020085363203223693 0 0.00048626826745480677 -0.020656380571988299 0 0.0004608782224163912 -0.019666280559552281 0 0.0011458521197189151 -0.020085363203223693 0 0.0012561016766992929 -0.021047049169453651 0 0.00048626826745480677 -0.020656380571988299 0 0.0013043585565363325 -0.022036450665965199 0 0.00044973551680994043 -0.021871268756091376 0 0.0011832525145781885 -0.023060300455495467 0 0.0012561016766992929 -0.021047049169453651 0 0.0013043585565363325 -0.022036450665965199 0 0.00044973551680994043 -0.021871268756091376 0 -0.0006634853987579184 -0.021834733406749907 0 0.00044973551680994043 -0.021871268756091376 0 -5.7396896165893417e-06 -0.022958456695862606 0 -0.0006634853987579184 -0.021834733406749907 0 -9.095497394449974e-05 -0.021036564899090619 0 0.00044973551680994043 -0.021871268756091376 0 0.0012877657365882879 -0.016593306663969656 0 0.0024069408941992704 -0.017171104060134387 0 0.0013504059647069496 -0.016661712724071607 0 0.0017044427040247632 -0.016147541046664913 0 0.0017315804293523559 -0.016279663105102475 0 0.0013504059647069496 -0.016661712724071607 0 0.0017094433152984405 -0.017904028953388045 0 0.0027130988207094814 -0.017714072426945674 0 0.0015097133524936089 -0.020509769372017855 0 0.0016122547967372882 -0.018025214698890717 0 0.0013504059647069496 -0.016661712724071607 0 0.00071623930171658262 -0.018868341850962648 0 0.0010392419222229688 -0.016177887801644687 0 0.0012561016766992929 -0.021047049169453651 0 0.0022482323480893999 -0.022155795847149537 0 0.0022670666073882099 -0.019812138946902948 0 0.0011458521197189151 -0.020085363203223693 0 0.0012561016766992929 -0.021047049169453651 0 0.0022670666073882099 -0.019812138946902948 0 0.0012561016766992929 -0.021047049169453651 0 0.0013043585565363325 -0.022036450665965199 0 0.0022482323480893999 -0.022155795847149537 0 0.00071623930171658262 -0.018868341850962648 0 0.002225065762744251 -0.018697938051401474 0 0.002608873739828889 -0.020227858245497291 0 0.0013504059647069496 -0.016661712724071607 0 0.00071623930171658262 -0.018868341850962648 0 0.0017094433152984405 -0.017904028953388045 0 0.00071623930171658262 -0.018868341850962648 0 0.0017094433152984405 -0.017904028953388045 0 0.002225065762744251 -0.018697938051401474 0 0.0017094433152984405 -0.017904028953388045 0 0.002225065762744251 -0.018697938051401474 0 0.0027130988207094814 -0.017714072426945674 0 0.00071623930171658262 -0.018868341850962648 0 0.0010309790150694483 -0.021977847343295647 0 0.002608873739828889 -0.020227858245497291 0 0.0015097133524936089 -0.020509769372017855 0 0.0016089316863546622 -0.022955341757809521 0 0.0022482323480893999 -0.022155795847149537 0 0.00217177564177491 -0.023949288712584452 0 0.0011832525145781885 -0.023060300455495467 0 0.0013043585565363325 -0.022036450665965199 0 0.0022482323480893999 -0.022155795847149537 0 0.0011832525145781885 -0.023060300455495467 0 0.00217177564177491 -0.023949288712584452 0 0.001223226529993105 -0.024033906768055543 0 0.001520453327547424 -0.024632712882831757 0 0.00217177564177491 -0.023949288712584452 0 0.0011832525145781885 -0.023060300455495467 0 0.001223226529993105 -0.024033906768055543 0 0.0010309790150694483 -0.021977847343295647 0 0.002608873739828889 -0.020227858245497291 0 0.0026501609215138925 -0.022913172468954753 0 -0.00085143050583793049 -0.023278513058846963 0 -5.7396896165893417e-06 -0.022958456695862606 0 -0.00034942068681490901 -0.023683937427721083 0 -5.7396896165893417e-06 -0.022958456695862606 0 0.0011832525145781885 -0.023060300455495467 0 0.00029827469028268237 -0.023835895488207082 0 0.00044973551680994043 -0.021871268756091376 0 -5.7396896165893417e-06 -0.022958456695862606 0 0.0011832525145781885 -0.023060300455495467 0 0.0011832525145781885 -0.023060300455495467 0 0.001223226529993105 -0.024033906768055543 0 0.00029827469028268237 -0.023835895488207082 0 0.001223226529993105 -0.024033906768055543 0 0.00029827469028268237 -0.023835895488207082 0 0.00088019886748704585 -0.024615954972082368 0 -5.7396896165893417e-06 -0.022958456695862606 0 0.00029827469028268237 -0.023835895488207082 0 -0.00034942068681490901 -0.023683937427721083 0 0.00029827469028268237 -0.023835895488207082 0 -0.00034942068681490901 -0.023683937427721083 0 -0.00026849106558850521 -0.024264211043096607 0 -0.00026849106558850521 -0.024264211043096607 0 -0.0002433063623992361 -0.024818590876015109 0 0.00024071453429911735 -0.024554688246156104 0 -0.0002433063623992361 -0.024818590876015109 0 0.00024071453429911735 -0.024554688246156104 0 0.00034685582578456868 -0.025196154430426904 0 0.00024071453429911735 -0.024554688246156104 0 0.00088019886748704585 -0.024615954972082368 0 0.00034685582578456868 -0.025196154430426904 0 0.00029827469028268237 -0.023835895488207082 0 -0.00026849106558850521 -0.024264211043096607 0 0.00024071453429911735 -0.024554688246156104 0 0.00029827469028268237 -0.023835895488207082 0 0.00024071453429911735 -0.024554688246156104 0 0.00088019886748704585 -0.024615954972082368 0 0.00088019886748704585 -0.024615954972082368 0 0.001520453327547424 -0.024632712882831757 0 0.0013224387307789888 -0.025437540810266984 0 0.001223226529993105 -0.024033906768055543 0 0.00088019886748704585 -0.024615954972082368 0 0.001520453327547424 -0.024632712882831757 0 0.00088019886748704585 -0.024615954972082368 0 0.00034685582578456868 -0.025196154430426904 0 0.0013224387307789888 -0.025437540810266984 0 0.00034685582578456868 -0.025196154430426904 0 0.0013224387307789888 -0.025437540810266984 0 0.00039946351712160565 -0.026067559282428081 0 0.00034685582578456868 -0.025196154430426904 0 0.00039946351712160565 -0.026067559282428081 0 -0.00058600189211589413 -0.025509061359196037 0 -0.0002433063623992361 -0.024818590876015109 0 0.00034685582578456868 -0.025196154430426904 0 -0.00058600189211589413 -0.025509061359196037 0 0.0010309790150694483 -0.021977847343295647 0 0.001856112033244187 -0.025068327991669779 0 0.0026501609215138925 -0.022913172468954753 0 0.0016089316863546622 -0.022955341757809521 0 0.0018471685084296228 -0.024932159401892532 0 0.00217177564177491 -0.023949288712584452 0 0.001520453327547424 -0.024632712882831757 0 0.001856112033244187 -0.025068327991669779 0 0.001520453327547424 -0.024632712882831757 0 0.0013224387307789888 -0.025437540810266984 0 0.001856112033244187 -0.025068327991669779 0 0.0013224387307789888 -0.025437540810266984 0 0.001856112033244187 -0.025068327991669779 0 0.0014660354545473957 -0.02612101067222904 0 0.001856112033244187 -0.025068327991669779 0 0.0020787026167832031 -0.026129522459669988 0 0.0027398709845329267 -0.025806799143964519 0 0.001856112033244187 -0.025068327991669779 0 0.0020787026167832031 -0.026129522459669988 0 0.0016695563752260538 -0.026326155583282263 0 0.001856112033244187 -0.025068327991669779 0 0.0016695563752260538 -0.026326155583282263 0 0.0014660354545473957 -0.02612101067222904 0 0.0016695563752260538 -0.026326155583282263 0 0.0014660354545473957 -0.02612101067222904 0 0.0014200799832860328 -0.026671296524778357 0 0.0014660354545473957 -0.02612101067222904 0 0.0014200799832860328 -0.026671296524778357 0 0.0012545214491783147 -0.026749662259130908 0 0.0014200799832860328 -0.026671296524778357 0 0.0015236332648575562 -0.026530476363881932 0 0.0014359666230811144 -0.026603527956576379 0 0.0016695563752260538 -0.026326155583282263 0 0.0014200799832860328 -0.026671296524778357 0 0.0015236332648575562 -0.026530476363881932 0 0.0016695563752260538 -0.026326155583282263 0 0.0015236332648575562 -0.026530476363881932 0 0.001740218691887632 -0.026411063060550723 0 0.0015236332648575562 -0.026530476363881932 0 0.001740218691887632 -0.026411063060550723 0 0.0014557485672139613 -0.026401064130848331 0 0.0020787026167832031 -0.026129522459669988 0 0.0016695563752260538 -0.026326155583282263 0 0.001740218691887632 -0.026411063060550723 0 0.0014860459254551603 -0.026892907793305047 0 0.0010253480713706814 -0.027363565301721782 0 0.00039946351712160565 -0.026067559282428081 0 8.0171611583823327e-05 -0.026939020832466999 0 -0.00048101703429832121 -0.026363216791272411 0 0.00039946351712160565 -0.026067559282428081 0 -0.00048101703429832121 -0.026363216791272411 0 -0.00058600189211589413 -0.025509061359196037 0 0.00039946351712160565 -0.026067559282428081 0 0.0012545214491783147 -0.026749662259130908 0 8.0171611583823327e-05 -0.026939020832466999 0 0.0013224387307789888 -0.025437540810266984 0 0.00039946351712160565 -0.026067559282428081 0 0.0012545214491783147 -0.026749662259130908 0 0.0013224387307789888 -0.025437540810266984 0 0.0014660354545473957 -0.02612101067222904 0 0.0012545214491783147 -0.026749662259130908 0 0.0014200799832860328 -0.026671296524778357 0 0.0017377269123663307 -0.027002109094987944 0 0.0014359666230811144 -0.026603527956576379 0 0.0014200799832860328 -0.026671296524778357 0 0.0012545214491783147 -0.026749662259130908 0 0.0017377269123663307 -0.027002109094987944 0 0.0012545214491783147 -0.026749662259130908 0 0.0017377269123663307 -0.027002109094987944 0 0.0024415150578658402 -0.027833847389160088 0 0.0017377269123663307 -0.027002109094987944 0 0.0028918891567313687 -0.027560976667246852 0 0.0023972321779236611 -0.026677290585620829 0 0.0017377269123663307 -0.027002109094987944 0 0.0024415150578658402 -0.027833847389160088 0 0.0028918891567313687 -0.027560976667246852 0 0.0010253480713706814 -0.027363565301721782 0 0.0036120479708232072 -0.028919874657518448 0 8.0171611583823327e-05 -0.026939020832466999 0 -0.0009140131706994784 -0.027162591292204559 0 -0.00048101703429832121 -0.026363216791272411 0 0.0028918891567313687 -0.027560976667246852 0 0.0040285158084034768 -0.027952367632419001 0 0.004015041930865413 -0.02830177736195225 0 0.0024415150578658402 -0.027833847389160088 0 0.0028918891567313687 -0.027560976667246852 0 0.004015041930865413 -0.02830177736195225 0 0.0040285158084034768 -0.027952367632419001 0 0.0043949321886255924 -0.029251530258161223 0 0.0054419751932478777 -0.028542763851217724 0 0.0037824338383214179 -0.028278946291546241 0 0.0036120479708232072 -0.028919874657518448 0 0.0043949321886255924 -0.029251530258161223 0 0.0054419751932478777 -0.028542763851217724 0 0.0069320966020052924 -0.029302077365515378 0 0.0036120479708232072 -0.028919874657518448 0 0.0078739082889477379 -0.03115070407251554 0 0.0084166849322717396 -0.032656367100609096 0 0.0078149690786270803 -0.032554533780757983 0 0.0080218721448027195 -0.03227632614224988 0 0.0084166849322717396 -0.032656367100609096 0 0.0078149690786270803 -0.032554533780757983 0 0.0076182387057747306 -0.032787075146388581 0 0.0054419751932478777 -0.028542763851217724 0 0.0069320966020052924 -0.029302077365515378 0 0.0061317250827396634 -0.028492038638811858 0 0.0084166849322717396 -0.032656367100609096 0 0.0080218721448027195 -0.03227632614224988 0 0.0082991511014575241 -0.031863152527462774 0 0.0080218721448027195 -0.03227632614224988 0 0.0078072352225843165 -0.031924813555122479 0 0.0077581028615989383 -0.032299842492048952 0 0.0078149690786270803 -0.032554533780757983 0 0.0080218721448027195 -0.03227632614224988 0 0.0077581028615989383 -0.032299842492048952 0 0.0080218721448027195 -0.03227632614224988 0 0.0082991511014575241 -0.031863152527462774 0 0.0078072352225843165 -0.031924813555122479 0 -0.0009140131706994784 -0.027162591292204559 0 -0.0012215961312659939 -0.025970937390915629 0 -0.00048101703429832121 -0.026363216791272411 0 0.0036120479708232072 -0.028919874657518448 0 0.0037397580855419886 -0.029416516901361184 0 -0.0012215961312659939 -0.025970937390915629 0 -0.00048101703429832121 -0.026363216791272411 0 -0.00058600189211589413 -0.025509061359196037 0 -0.0012215961312659939 -0.025970937390915629 0 -0.00058600189211589413 -0.025509061359196037 0 -0.0011188127124928413 -0.02495251525321375 0 -0.00058600189211589413 -0.025509061359196037 0 -0.0011188127124928413 -0.02495251525321375 0 -0.00072185894956471063 -0.024665688073629354 0 0.0082991511014575241 -0.031863152527462774 0 0.0079558100992836393 -0.031504320537749514 0 0.0081035725787954628 -0.030924232679177151 0 -0.0012215961312659939 -0.025970937390915629 0 -0.0011188127124928413 -0.02495251525321375 0 -0.0014938170588415121 -0.024773971451852374 0 0.0037397580855419886 -0.029416516901361184 0 0.0017094511250238902 -0.026399708166976253 0 0.0082991511014575241 -0.031863152527462774 0 0.0078072352225843165 -0.031924813555122479 0 0.0079558100992836393 -0.031504320537749514 0 0.0078072352225843165 -0.031924813555122479 0 0.0079558100992836393 -0.031504320537749514 0 0.0076734055207220934 -0.031474243517657076 0 0.0079558100992836393 -0.031504320537749514 0 0.0078541305793127392 -0.031204051798294705 0 0.0081035725787954628 -0.030924232679177151 0 0.0079558100992836393 -0.031504320537749514 0 0.0078541305793127392 -0.031204051798294705 0 0.0076734055207220934 -0.031474243517657076 0 -0.0011188127124928413 -0.02495251525321375 0 -0.0014476835792722202 -0.024741861008586174 0 -0.0010949377699131324 -0.024368595848141286 0 -0.00099897912348465034 -0.025074252064731371 0 0.0017094511250238902 -0.026399708166976253 0 0.0078541305793127392 -0.031204051798294705 0 0.0081035725787954628 -0.030924232679177151 0 0.0075889600078701989 -0.031010499896313857 0 -0.0013057600944256919 -0.022945528400759849 0 0.0017094511250238902 -0.026399708166976253 0 -0.0010634412065362736 -0.023024151331102475 0 -0.00066454234555893158 -0.022874786322236926 0 -0.0012433567609478763 -0.022249680344703347 0 -0.0014856500251956585 -0.023854268978531164 0 -0.0014476835792722202 -0.024741861008586174 0 -0.0010949377699131324 -0.024368595848141286 0 -0.00075128922888582027 -0.024022606555047184 0 -0.0010949377699131324 -0.024368595848141286 0 -0.00072185894956471063 -0.024665688073629354 0 -0.00075128922888582027 -0.024022606555047184 0 -0.00026849106558850521 -0.024264211043096607 0 -0.00072185894956471063 -0.024665688073629354 0 -0.00026849106558850521 -0.024264211043096607 0 -0.0002433063623992361 -0.024818590876015109 0 -0.00072185894956471063 -0.024665688073629354 0 -0.0002433063623992361 -0.024818590876015109 0 -0.00058600189211589413 -0.025509061359196037 0 -0.00072185894956471063 -0.024665688073629354 0 -0.0011188127124928413 -0.02495251525321375 0 -0.0010949377699131324 -0.024368595848141286 0 -0.00072185894956471063 -0.024665688073629354 0 0.0068594609303597341 -0.030860058317516779 0 0.0065730427811876166 -0.030495837769107734 0 0.0072851874345032392 -0.030491566403050625 0 0.0068594609303597341 -0.030860058317516779 0 0.0071687047490733343 -0.031050135869064802 0 0.0068452389374058864 -0.031275172029866995 0 0.0068594609303597341 -0.030860058317516779 0 0.0064692448101774094 -0.030949319858808944 0 0.0065730427811876166 -0.030495837769107734 0 0.0068594609303597341 -0.030860058317516779 0 0.0064692448101774094 -0.030949319858808944 0 0.0068452389374058864 -0.031275172029866995 0 0.0017094511250238902 -0.026399708166976253 0 0.0038753540086721304 -0.026662550841993898 0 -0.00066454234555893158 -0.022874786322236926 0 -0.0012433567609478763 -0.022249680344703347 0 -0.00020051482158789174 -0.022608688976172259 0 0.0081035725787954628 -0.030924232679177151 0 0.0072851874345032392 -0.030491566403050625 0 0.0075889600078701989 -0.031010499896313857 0 0.0072851874345032392 -0.030491566403050625 0 0.0075889600078701989 -0.031010499896313857 0 0.0071687047490733343 -0.031050135869064802 0 0.0068594609303597341 -0.030860058317516779 0 0.0072851874345032392 -0.030491566403050625 0 0.0071687047490733343 -0.031050135869064802 0 0.0075889600078701989 -0.031010499896313857 0 0.0071687047490733343 -0.031050135869064802 0 0.0073125162332863839 -0.031425260070351173 0 0.0075889600078701989 -0.031010499896313857 0 0.0073125162332863839 -0.031425260070351173 0 0.0076734055207220934 -0.031474243517657076 0 0.0078541305793127392 -0.031204051798294705 0 0.0075889600078701989 -0.031010499896313857 0 0.0076734055207220934 -0.031474243517657076 0 0.0078072352225843165 -0.031924813555122479 0 0.0076734055207220934 -0.031474243517657076 0 0.0073960359512396674 -0.031820049397173103 0 0.0073125162332863839 -0.031425260070351173 0 0.0076734055207220934 -0.031474243517657076 0 0.0073960359512396674 -0.031820049397173103 0 0.0073125162332863839 -0.031425260070351173 0 0.0073960359512396674 -0.031820049397173103 0 0.0069389961214781047 -0.031730526166880269 0 0.0071687047490733343 -0.031050135869064802 0 0.0073125162332863839 -0.031425260070351173 0 0.0068452389374058864 -0.031275172029866995 0 0.0073125162332863839 -0.031425260070351173 0 0.0069389961214781047 -0.031730526166880269 0 0.0068452389374058864 -0.031275172029866995 0 0.0064692448101774094 -0.030949319858808944 0 0.0068452389374058864 -0.031275172029866995 0 0.0064133572982234648 -0.031524608537009099 0 0.0069389961214781047 -0.031730526166880269 0 0.0068452389374058864 -0.031275172029866995 0 0.0064133572982234648 -0.031524608537009099 0 0.0069389961214781047 -0.031730526166880269 0 0.0064154131193193617 -0.03216654088034903 0 0.0064133572982234648 -0.031524608537009099 0 0.0069389961214781047 -0.031730526166880269 0 0.0070640040833255414 -0.032150468491927701 0 0.0064154131193193617 -0.03216654088034903 0 0.0073960359512396674 -0.031820049397173103 0 0.0069389961214781047 -0.031730526166880269 0 0.0070640040833255414 -0.032150468491927701 0 0.0070640040833255414 -0.032150468491927701 0 0.00679354977959103 -0.032461350173659878 0 0.0072348615961313183 -0.032535360273801606 0 0.00679354977959103 -0.032461350173659878 0 0.0063265415328566076 -0.032901173423672929 0 0.0064154131193193617 -0.03216654088034903 0 0.0070640040833255414 -0.032150468491927701 0 0.00679354977959103 -0.032461350173659878 0 0.0064154131193193617 -0.03216654088034903 0 0.0078072352225843165 -0.031924813555122479 0 0.0074969378161020492 -0.032192144338588601 0 0.0077581028615989383 -0.032299842492048952 0 0.0078072352225843165 -0.031924813555122479 0 0.0073960359512396674 -0.031820049397173103 0 0.0074969378161020492 -0.032192144338588601 0 0.0073960359512396674 -0.031820049397173103 0 0.0070640040833255414 -0.032150468491927701 0 0.0074969378161020492 -0.032192144338588601 0 0.0070640040833255414 -0.032150468491927701 0 0.0072348615961313183 -0.032535360273801606 0 0.0074969378161020492 -0.032192144338588601 0 0.0072348615961313183 -0.032535360273801606 0 0.0074969378161020492 -0.032192144338588601 0 0.0076343018669194334 -0.032501430773445722 0 0.0074969378161020492 -0.032192144338588601 0 0.0076343018669194334 -0.032501430773445722 0 0.0077581028615989383 -0.032299842492048952 0 0.0078149690786270803 -0.032554533780757983 0 0.0076343018669194334 -0.032501430773445722 0 0.0077581028615989383 -0.032299842492048952 0 0.0078739082889477379 -0.03115070407251554 0 0.0087517560475690176 -0.031368374720283879 0 0.0069320966020052924 -0.029302077365515378 0 0.0093256229324928976 -0.029783758357700672 0 0.0077705884401148726 -0.029029909063675727 0 0.0076590948754180783 -0.032829496168876197 0 0.0076182387057747306 -0.032787075146388581 0 0.0083176873441503391 -0.032646080584740923 0 0.0078149690786270803 -0.032554533780757983 0 0.0076343018669194334 -0.032501430773445722 0 0.0076590948754180783 -0.032829496168876197 0 0.0078149690786270803 -0.032554533780757983 0 0.0076590948754180783 -0.032829496168876197 0 0.0076182387057747306 -0.032787075146388581 0 0.0072348615961313183 -0.032535360273801606 0 0.0076343018669194334 -0.032501430773445722 0 0.0076590948754180783 -0.032829496168876197 0 0.00679354977959103 -0.032461350173659878 0 0.0072348615961313183 -0.032535360273801606 0 0.0063265415328566076 -0.032901173423672929 0 0.0072348615961313183 -0.032535360273801606 0 0.0076590948754180783 -0.032829496168876197 0 0.0063265415328566076 -0.032901173423672929 0 0.0076590948754180783 -0.032829496168876197 0 0.0085338193871511286 -0.032867632617304271 0 0.0083176873441503391 -0.032646080584740923 0 0.0076462707669686181 -0.03284574374334788 0 0.0074026634138555109 -0.032863458817637296 0 0.0082892267981411836 -0.032825399761507633 0 0.0085338193871511286 -0.032867632617304271 0 0.0078730511364770855 -0.032645854095485372 0 0.0074026634138555109 -0.032863458817637296 0 0.0065143038747425813 -0.032856847147937226 0 0.0084932252319202123 -0.032888478215535817 0 0.0085338193871511286 -0.032867632617304271 0 0.0083176873441503391 -0.032646080584740923 0 0.0063265415328566076 -0.032901173423672929 0 0.0060362419579007712 -0.032518095555322667 0 0.0055564219294842176 -0.032654272147487624 0 0.0084932252319202123 -0.032888478215535817 0 0.0082892267981411836 -0.032825399761507633 0 0.0085338193871511286 -0.032867632617304271 0 0.0063265415328566076 -0.032901173423672929 0 0.0060362419579007712 -0.032518095555322667 0 0.0064154131193193617 -0.03216654088034903 0 0.0057292537465763356 -0.03230464084007921 0 0.0064154131193193617 -0.03216654088034903 0 0.0055385821887844848 -0.031648105494041782 0 0.0060362419579007712 -0.032518095555322667 0 0.0057292537465763356 -0.03230464084007921 0 0.0064154131193193617 -0.03216654088034903 0 0.0060362419579007712 -0.032518095555322667 0 0.0057292537465763356 -0.03230464084007921 0 0.0055564219294842176 -0.032654272147487624 0 0.0052590402301374859 -0.032168311181076874 0 0.0051861727857321956 -0.032946382374173092 0 0.0041383052010335901 -0.031263951049739336 0 0.0057292537465763356 -0.03230464084007921 0 0.0052590402301374859 -0.032168311181076874 0 0.0055385821887844848 -0.031648105494041782 0 0.0057292537465763356 -0.03230464084007921 0 0.0052590402301374859 -0.032168311181076874 0 0.0055564219294842176 -0.032654272147487624 0 0.0052590402301374859 -0.032168311181076874 0 0.0055564219294842176 -0.032654272147487624 0 0.0051861727857321956 -0.032946382374173092 0 0.0055564219294842176 -0.032654272147487624 0 0.0051886160332506957 -0.032935622521944374 0 0.0051861727857321956 -0.032946382374173092 0 0.0063265415328566076 -0.032901173423672929 0 0.0055564219294842176 -0.032654272147487624 0 0.0051886160332506957 -0.032935622521944374 0 0.0084932252319202123 -0.032888478215535817 0 0.0082892267981411836 -0.032825399761507633 0 0.0079929011132624187 -0.033096699451226008 0 0.0082892267981411836 -0.032825399761507633 0 0.0078730511364770855 -0.032645854095485372 0 0.0079929011132624187 -0.033096699451226008 0 0.0078730511364770855 -0.032645854095485372 0 0.0079929011132624187 -0.033096699451226008 0 0.007555670557041652 -0.033227705073328818 0 0.0079929011132624187 -0.033096699451226008 0 0.007555670557041652 -0.033227705073328818 0 0.0075277232223597591 -0.033518997640633548 0 0.0065143038747425813 -0.032856847147937226 0 0.0055254835519724932 -0.033146859211553775 0 0.0078730511364770855 -0.032645854095485372 0 0.007555670557041652 -0.033227705073328818 0 0.0067713429510682394 -0.033552560117294586 0 0.007555670557041652 -0.033227705073328818 0 0.0067713429510682394 -0.033552560117294586 0 0.0075277232223597591 -0.033518997640633548 0 0.0078730511364770855 -0.032645854095485372 0 0.0067713429510682394 -0.033552560117294586 0 0.0054245659309836922 -0.033253436058767551 0 0.0051886160332506957 -0.032935622521944374 0 0.0051861727857321956 -0.032946382374173092 0 0.0054245659309836922 -0.033253436058767551 0 0.0054245659309836922 -0.033253436058767551 0 0.0045350218310519236 -0.034118706837055153 0 0.0055738976162009318 -0.034230132202671633 0 0.0067713429510682394 -0.033552560117294586 0 0.0054245659309836922 -0.033253436058767551 0 0.0055738976162009318 -0.034230132202671633 0 0.0054245659309836922 -0.033253436058767551 0 0.0053351322792871544 -0.032982679897828604 0 0.0049526584601611084 -0.03285638092992238 0 0.0051481318036841551 -0.032818737988198052 0 0.0048207836453727886 -0.032042278577852731 0 0.0051861727857321956 -0.032946382374173092 0 0.0054245659309836922 -0.033253436058767551 0 0.0053351322792871544 -0.032982679897828604 0 0.0051861727857321956 -0.032946382374173092 0 0.0053351322792871544 -0.032982679897828604 0 0.0055247279348185135 -0.032667442681117861 0 0.0055247279348185135 -0.032667442681117861 0 0.0049526584601611084 -0.03285638092992238 0 0.0048848571736262517 -0.032203907431321309 0 0.0053351322792871544 -0.032982679897828604 0 0.0055247279348185135 -0.032667442681117861 0 0.0049526584601611084 -0.03285638092992238 0 0.0055247279348185135 -0.032667442681117861 0 0.0048848571736262517 -0.032203907431321309 0 0.0053008606689236458 -0.031490515254863259 0 0.0048207836453727886 -0.032042278577852731 0 0.0044555023197059545 -0.029903236066459175 0 0.0041383052010335901 -0.031263951049739336 0 0.0043959350071269034 -0.029475684581548266 0 0.0033501441674350855 -0.029291484095601623 0 0.0041383052010335901 -0.031263951049739336 0 0.0054215910184825418 -0.030165362991295765 0 0.0043959350071269034 -0.029475684581548266 0 0.0054729161748025609 -0.030605034501591945 0 0.0060114870521707749 -0.031074751716260448 0 0.0055385821887844848 -0.031648105494041782 0 0.0064692448101774094 -0.030949319858808944 0 0.0065730427811876166 -0.030495837769107734 0 0.0060893505473689404 -0.0305446927426445 0 0.0064692448101774094 -0.030949319858808944 0 0.0060893505473689404 -0.0305446927426445 0 0.0060114870521707749 -0.031074751716260448 0 0.0054729161748025609 -0.030605034501591945 0 0.0060893505473689404 -0.0305446927426445 0 0.0060114870521707749 -0.031074751716260448 0 0.0060114870521707749 -0.031074751716260448 0 0.0064133572982234648 -0.031524608537009099 0 0.0055385821887844848 -0.031648105494041782 0 0.0064154131193193617 -0.03216654088034903 0 0.0064133572982234648 -0.031524608537009099 0 0.0055385821887844848 -0.031648105494041782 0 0.0064692448101774094 -0.030949319858808944 0 0.0060114870521707749 -0.031074751716260448 0 0.0064133572982234648 -0.031524608537009099 0 0.0052590402301374859 -0.032168311181076874 0 0.0041383052010335901 -0.031263951049739336 0 0.0055385821887844848 -0.031648105494041782 0 0.0055094919741980677 -0.030690651776978717 0 0.0055085779393599446 -0.031437042283557697 0 0.0041383052010335901 -0.031263951049739336 0 0.0054215910184825418 -0.030165362991295765 0 0.0055385821887844848 -0.031648105494041782 0 0.00090225530325568828 -0.032963866349583384 0 0.0010948333255187412 -0.034069907365757206 0 0.0025552076103574082 -0.03297037263236479 0 0.0010948333255187412 -0.034069907365757206 0 0.001914803579010173 -0.034774663364999514 0 0.0025552076103574082 -0.03297037263236479 0 0.001914803579010173 -0.034774663364999514 0 0.0029638725445565481 -0.033963061898298244 0 0.0026990830238717459 -0.035604818761869189 0 0.0029638725445565481 -0.033963061898298244 0 0.0036140819797190766 -0.034598919535723881 0 0.0026990830238717459 -0.035604818761869189 0 0.001914803579010173 -0.034774663364999514 0 0.0029638725445565481 -0.033963061898298244 0 0.0025552076103574082 -0.03297037263236479 0 0.0029638725445565481 -0.033963061898298244 0 0.003481464254226619 -0.032903387865615433 0 0.0025552076103574082 -0.03297037263236479 0 0.0029638725445565481 -0.033963061898298244 0 0.0043204220011154306 -0.033359668215736465 0 0.003481464254226619 -0.032903387865615433 0 0.0036140819797190766 -0.034598919535723881 0 0.0045350218310519236 -0.034118706837055153 0 0.0043204220011154306 -0.033359668215736465 0 0.0029638725445565481 -0.033963061898298244 0 0.0036140819797190766 -0.034598919535723881 0 0.0043204220011154306 -0.033359668215736465 0 0.0036140819797190766 -0.034598919535723881 0 0.0045350218310519236 -0.034118706837055153 0 0.0046125548646625452 -0.035140114167050193 0 0.0054245659309836922 -0.033253436058767551 0 0.0045350218310519236 -0.034118706837055153 0 0.0043204220011154306 -0.033359668215736465 0 0.0054245659309836922 -0.033253436058767551 0 0.0049526584601611084 -0.03285638092992238 0 0.0043204220011154306 -0.033359668215736465 0 0.0049526584601611084 -0.03285638092992238 0 0.0043204220011154306 -0.033359668215736465 0 0.0041648978453455946 -0.032334033270741837 0 0.0049526584601611084 -0.03285638092992238 0 0.0048848571736262517 -0.032203907431321309 0 0.0041648978453455946 -0.032334033270741837 0 0.0048848571736262517 -0.032203907431321309 0 0.0041648978453455946 -0.032334033270741837 0 0.0043790905159679528 -0.031535178460337654 0 0.0041648978453455946 -0.032334033270741837 0 0.0036363506596014464 -0.031470603850862366 0 0.0043790905159679528 -0.031535178460337654 0 0.0041648978453455946 -0.032334033270741837 0 0.0031511006060077323 -0.032093674826088409 0 0.0036363506596014464 -0.031470603850862366 0 0.0041648978453455946 -0.032334033270741837 0 0.003481464254226619 -0.032903387865615433 0 0.0031511006060077323 -0.032093674826088409 0 0.0043204220011154306 -0.033359668215736465 0 0.0041648978453455946 -0.032334033270741837 0 0.003481464254226619 -0.032903387865615433 0 0.0025552076103574082 -0.03297037263236479 0 0.0031511006060077323 -0.032093674826088409 0 0.0021302363417166317 -0.032165866228551103 0 0.003481464254226619 -0.032903387865615433 0 0.0025552076103574082 -0.03297037263236479 0 0.0031511006060077323 -0.032093674826088409 0 0.0031511006060077323 -0.032093674826088409 0 0.0021302363417166317 -0.032165866228551103 0 0.0027617022658082526 -0.031063766271614543 0 0.0015300350209907433 -0.033075952106885569 0 0.0025552076103574082 -0.03297037263236479 0 0.0021302363417166317 -0.032165866228551103 0 0.0012293289084183276 -0.033031107804145386 0 0.0024511327062047721 -0.032975858376520673 0 0.00053139700772577051 -0.037840963046674427 0 0.00048524566138002522 -0.037808177807003074 0 0.0005260318405270626 -0.037836580565756256 0 0.00053139700772577051 -0.037840963046674427 0 0.00048524566138002522 -0.037808177807003074 0 0.00045184559878957373 -0.037747874879169148 0 0.0010258617346923598 -0.034466451756867106 0 0.001636567797448371 -0.034375220257419216 0 0.00056401011845706348 -0.037702056045761614 0 0.00053139700772577051 -0.037840963046674427 0 0.00045184559878957373 -0.037747874879169148 0 0.0015779066024878329 -0.031482573270445589 0 0.0021302363417166317 -0.032165866228551103 0 0.0027617022658082526 -0.031063766271614543 0 0.0031511006060077323 -0.032093674826088409 0 0.0027617022658082526 -0.031063766271614543 0 0.0036363506596014464 -0.031470603850862366 0 0.00048524566138002522 -0.037808177807003074 0 0.00045184559878957373 -0.037747874879169148 0 0.00042601720583474063 -0.03777994701028501 0 0.00045184559878957373 -0.037747874879169148 0 0.00037283403771181788 -0.037709766104420485 0 0.00042601720583474063 -0.03777994701028501 0 0.001636567797448371 -0.034375220257419216 0 0.0020249278330231745 -0.034545500209755456 0 0.0038758162024601821 -0.030712736336716541 0 0.0036363506596014464 -0.031470603850862366 0 0.0043790905159679528 -0.031535178460337654 0 0.0027617022658082526 -0.031063766271614543 0 0.0038758162024601821 -0.030712736336716541 0 0.0036363506596014464 -0.031470603850862366 0 0.0038758162024601821 -0.030712736336716541 0 0.0043790905159679528 -0.031535178460337654 0 0.0046204618624293833 -0.031021544106783774 0 0.0038758162024601821 -0.030712736336716541 0 0.0046204618624293833 -0.031021544106783774 0 0.0049183044283240196 -0.03034086108832974 0 0.0020249278330231745 -0.034545500209755456 0 0.002616371765266301 -0.031472505008534483 0 0.00037283403771181788 -0.037709766104420485 0 0.00033526108736785579 -0.037771172939862645 0 0.00026806356691991989 -0.037683547735839137 0 0.00033526108736785579 -0.037771172939862645 0 0.00026509002652286425 -0.037836166857864693 0 0.00026806356691991989 -0.037683547735839137 0 0.00033526108736785579 -0.037771172939862645 0 0.00026509002652286425 -0.037836166857864693 0 0.00036576747487573381 -0.037857115763858133 0 0.00033526108736785579 -0.037771172939862645 0 0.00036576747487573381 -0.037857115763858133 0 0.00042601720583474063 -0.03777994701028501 0 0.00037283403771181788 -0.037709766104420485 0 0.00033526108736785579 -0.037771172939862645 0 0.00042601720583474063 -0.03777994701028501 0 0.00048524566138002522 -0.037808177807003074 0 0.00042601720583474063 -0.03777994701028501 0 0.00046533600590925069 -0.037858883010594625 0 0.00036576747487573381 -0.037857115763858133 0 0.00042601720583474063 -0.03777994701028501 0 0.00046533600590925069 -0.037858883010594625 0 0.00046533600590925069 -0.037858883010594625 0 0.0004859899182555348 -0.037949814112467131 0 0.00041156782570255949 -0.03793419541084507 0 0.00036576747487573381 -0.037857115763858133 0 0.00046533600590925069 -0.037858883010594625 0 0.00041156782570255949 -0.03793419541084507 0 0.000556992493837493 -0.037922056969730361 0 0.00046533600590925069 -0.037858883010594625 0 0.0004859899182555348 -0.037949814112467131 0 0.000556992493837493 -0.037922056969730361 0 0.00046533600590925069 -0.037858883010594625 0 0.0005260318405270626 -0.037836580565756256 0 0.00048524566138002522 -0.037808177807003074 0 0.00046533600590925069 -0.037858883010594625 0 0.0005260318405270626 -0.037836580565756256 0 0.0038875792416456063 -0.028071840634877339 0 0.0038798061923038737 -0.027898822068996996 0 0.0037956511748730485 -0.027930299226376396 0 0.0044672339595932288 -0.027745876347903334 0 0.0039174331217519797 -0.026925970592929303 0 0.0044672339595932288 -0.027745876347903334 0 0.0039538485213372748 -0.028236720811624001 0 0.0038875792416456063 -0.028071840634877339 0 0.0037722761683167843 -0.028103910931876853 0 0.0037956511748730485 -0.027930299226376396 0 0.0042327768066233997 -0.024595927116226202 0 0.003201565184228124 -0.026278993988376301 0 0.0040052617797292547 -0.026555626477148365 0 0.003201565184228124 -0.026278993988376301 0 0.0019082444544848086 -0.026184849214706096 0 0.0024306989336257789 -0.024859693751524761 0 0.0042327768066233997 -0.024595927116226202 0 0.003201565184228124 -0.026278993988376301 0 0.0024306989336257789 -0.024859693751524761 0 0.0040262841036177652 -0.026613640039148435 0 0.0044672339595932288 -0.027745876347903334 0 0.0017035103460156143 -0.023304713624677873 0 0.0042327768066233997 -0.024595927116226202 0 0.0024306989336257789 -0.024859693751524761 0 0.0054729161748025609 -0.030605034501591945 0 0.0060893505473689404 -0.0305446927426445 0 0.0054447742217379712 -0.029537546344577222 0 0.0064040984821237511 -0.030013176154688074 0 0.0060893505473689404 -0.0305446927426445 0 0.0054447742217379712 -0.029537546344577222 0 0.0017035103460156143 -0.023304713624677873 0 0.0014452819542136426 -0.024195419960726529 0 0.0024306989336257789 -0.024859693751524761 0 0.0064040984821237511 -0.030013176154688074 0 0.0065730427811876166 -0.030495837769107734 0 0.0060893505473689404 -0.0305446927426445 0 0.0054215910184825418 -0.030165362991295765 0 0.0053207339120022457 -0.028667568843597543 0 0.0043959350071269034 -0.029475684581548266 0 0.0053207339120022457 -0.028667568843597543 0 0.0043959350071269034 -0.029475684581548266 0 0.0037722761683167843 -0.028103910931876853 0 0.0055094919741980677 -0.030690651776978717 0 0.0044672339595932288 -0.027745876347903334 0 0.0043959350071269034 -0.029475684581548266 0 0.0033501441674350855 -0.029291484095601623 0 0.0037722761683167843 -0.028103910931876853 0 0.0048848571736262517 -0.032203907431321309 0 0.0043790905159679528 -0.031535178460337654 0 0.0053008606689236458 -0.031490515254863259 0 0.0043790905159679528 -0.031535178460337654 0 0.0046204618624293833 -0.031021544106783774 0 0.0053008606689236458 -0.031490515254863259 0 0.0044555023197059545 -0.029903236066459175 0 0.002616371765266301 -0.031472505008534483 0 0.0033501441674350855 -0.029291484095601623 0 0.0037722761683167843 -0.028103910931876853 0 0.0029692469854690037 -0.027783112225317822 0 0.0046204618624293833 -0.031021544106783774 0 0.0053008606689236458 -0.031490515254863259 0 0.0049183044283240196 -0.03034086108832974 0 0.0037722761683167843 -0.028103910931876853 0 0.003617100235665794 -0.027713143804802266 0 0.0029692469854690037 -0.027783112225317822 0 0.0037722761683167843 -0.028103910931876853 0 0.003617100235665794 -0.027713143804802266 0 0.0037956511748730485 -0.027930299226376396 0 0.003617100235665794 -0.027713143804802266 0 0.0036784139687697066 -0.027670166706331843 0 0.0037956511748730485 -0.027930299226376396 0 0.0037624873765194568 -0.027725366616641406 0 0.003581651987475815 -0.027719466490420581 0 0.0033816620346330596 -0.027817657228601821 0 0.003456047393097779 -0.027631300479634722 0 0.0036784139687697066 -0.027670166706331843 0 0.0015917130738581748 -0.032961895612561611 0 0.002616371765266301 -0.031472505008534483 0 0.0033816620346330596 -0.027817657228601821 0 0.0031809025018810413 -0.027912597147600703 0 0.0033031531102138503 -0.02763968832458169 0 0.0037624873765194568 -0.027725366616641406 0 0.002616371765266301 -0.031472505008534483 0 0.0031055549214430577 -0.027589153324978296 0 0.0033031531102138503 -0.02763968832458169 0 0.0032349878376683352 -0.027452889696285902 0 0.0031055549214430577 -0.027589153324978296 0 0.0031809025018810413 -0.027912597147600703 0 0.0033031531102138503 -0.02763968832458169 0 0.0033031531102138503 -0.02763968832458169 0 0.0034432189670493911 -0.027486457270550251 0 0.0032349878376683352 -0.027452889696285902 0 0.0033816620346330596 -0.027817657228601821 0 0.003456047393097779 -0.027631300479634722 0 0.0033031531102138503 -0.02763968832458169 0 0.003456047393097779 -0.027631300479634722 0 0.0035712307878182879 -0.027539629937149129 0 0.0034432189670493911 -0.027486457270550251 0 0.003456047393097779 -0.027631300479634722 0 0.0033031531102138503 -0.02763968832458169 0 0.0034432189670493911 -0.027486457270550251 0 0.0035632210551287931 -0.027491881963520655 0 0.0035712307878182879 -0.027539629937149129 0 0.0034432189670493911 -0.027486457270550251 0 0.0035632210551287931 -0.027491881963520655 0 0.0036948430780730287 -0.027485760763441825 0 0.0035712307878182879 -0.027539629937149129 0 0.0035632210551287931 -0.027491881963520655 0 0.0036948430780730287 -0.027485760763441825 0 0.0034904837935858597 -0.027498444996590782 0 0.0036948430780730287 -0.027485760763441825 0 0.0035712307878182879 -0.027539629937149129 0 0.0036784139687697066 -0.027670166706331843 0 0.003456047393097779 -0.027631300479634722 0 0.0035712307878182879 -0.027539629937149129 0 0.0036784139687697066 -0.027670166706331843 0 0.0037761639338518083 -0.027547576408157456 0 0.0039174331217519797 -0.026925970592929303 0 0.0036948430780730287 -0.027485760763441825 0 0.0036784139687697066 -0.027670166706331843 0 0.0038798061923038737 -0.027898822068996996 0 0.0036948430780730287 -0.027485760763441825 0 0.0040052617797292547 -0.026555626477148365 0 0.003446189597569854 -0.026798130501147568 0 0.0036784139687697066 -0.027670166706331843 0 0.0038798061923038737 -0.027898822068996996 0 0.0037956511748730485 -0.027930299226376396 0 0.0020918956895634149 -0.026281014629105023 0 0.0029682372110485405 -0.02641990355698233 0 0.0013968075777596727 -0.027348625191232531 0 0.003201565184228124 -0.026278993988376301 0 0.0019082444544848086 -0.026184849214706096 0 0.0028167552296436294 -0.026842946948624016 0 0.003201565184228124 -0.026278993988376301 0 0.003446189597569854 -0.026798130501147568 0 0.003201565184228124 -0.026278993988376301 0 0.0040052617797292547 -0.026555626477148365 0 0.003446189597569854 -0.026798130501147568 0 0.0036948430780730287 -0.027485760763441825 0 0.003446189597569854 -0.026798130501147568 0 0.0033306429276064122 -0.027098176127878258 0 0.0028167552296436294 -0.026842946948624016 0 0.003446189597569854 -0.026798130501147568 0 0.0033306429276064122 -0.027098176127878258 0 0.0028167552296436294 -0.026842946948624016 0 0.0033306429276064122 -0.027098176127878258 0 0.0032813420673692625 -0.02750651971469998 0 0.0033306429276064122 -0.027098176127878258 0 0.0034544981788290894 -0.027429966107474536 0 0.0032813420673692625 -0.02750651971469998 0 0.0036948430780730287 -0.027485760763441825 0 0.0033306429276064122 -0.027098176127878258 0 0.0034544981788290894 -0.027429966107474536 0 0.0036948430780730287 -0.027485760763441825 0 0.0034544981788290894 -0.027429966107474536 0 0.0034904837935858597 -0.027498444996590782 0 0.0034544981788290894 -0.027429966107474536 0 0.0032813420673692625 -0.02750651971469998 0 0.0034904837935858597 -0.027498444996590782 0 0.0027409554175419053 -0.026855512905803961 0 0.0028225971309478507 -0.026806824438400993 0 0.0029518304204987872 -0.027380923641582497 0 0.0030702216054771638 -0.026877859080724122 0 0.0032658128810730091 -0.027016349475251188 0 0.0030965950632998521 -0.027249740552336917 0 0.0032658128810730091 -0.027016349475251188 0 0.0032813420673692625 -0.02750651971469998 0 0.0034904837935858597 -0.027498444996590782 0 0.003554746310595137 -0.027426645208190773 0 0.0034904837935858597 -0.027498444996590782 0 0.0034887129665635936 -0.027419733598805569 0 0.003554746310595137 -0.027426645208190773 0 0.0032658128810730091 -0.027016349475251188 0 0.0034743322581881481 -0.027012862386933675 0 0.003554746310595137 -0.027426645208190773 0 0.0034346954944732338 -0.027280096007664647 0 0.0034352589614632507 -0.027027327107940358 0 0.0033667359306343123 -0.02652929611668808 0 0.0033684940050872619 -0.026834042847541355 0 0.0034352589614632507 -0.027027327107940358 0 0.0032658128810730091 -0.027016349475251188 0 0.0033252378146846249 -0.026718041696129246 0 0.0033059322639181596 -0.026694393182111281 0 0.0033684940050872619 -0.026834042847541355 0 0.0032657509298754488 -0.026745030728370523 0 0.0034887129665635936 -0.027419733598805569 0 0.003554746310595137 -0.027426645208190773 0 0.0034346954944732338 -0.027280096007664647 0 0.0033684940050872619 -0.026834042847541355 0 0.0032701004518915213 -0.02683094482238298 0 0.0032657509298754488 -0.026745030728370523 0 0.0034346954944732338 -0.027280096007664647 0 0.0034246376930042528 -0.02737823823759019 0 0.0033571364065364856 -0.027228420111680397 0 0.0034346954944732338 -0.027280096007664647 0 0.0033571364065364856 -0.027228420111680397 0 0.0034148073245598067 -0.027140323624738914 0 0.0034887129665635936 -0.027419733598805569 0 0.0034346954944732338 -0.027280096007664647 0 0.0034246376930042528 -0.02737823823759019 0 0.0034887129665635936 -0.027419733598805569 0 0.0034246376930042528 -0.02737823823759019 0 0.0035048106885526109 -0.02745974553407466 0 0.0035632210551287931 -0.027491881963520655 0 0.0034904837935858597 -0.027498444996590782 0 0.0035048106885526109 -0.02745974553407466 0 0.0034904837935858597 -0.027498444996590782 0 0.0034887129665635936 -0.027419733598805569 0 0.0035048106885526109 -0.02745974553407466 0 0.0035632210551287931 -0.027491881963520655 0 0.0035048106885526109 -0.02745974553407466 0 0.0034432189670493911 -0.027486457270550251 0 0.0034246376930042528 -0.02737823823759019 0 0.0035048106885526109 -0.02745974553407466 0 0.0034432189670493911 -0.027486457270550251 0 0.0034432189670493911 -0.027486457270550251 0 0.0032349878376683352 -0.027452889696285902 0 0.0033383782698340305 -0.027376750160623017 0 0.0034246376930042528 -0.02737823823759019 0 0.0034432189670493911 -0.027486457270550251 0 0.0033383782698340305 -0.027376750160623017 0 0.0032349878376683352 -0.027452889696285902 0 0.0032247062420562565 -0.027304113678538643 0 0.0033383782698340305 -0.027376750160623017 0 0.0032349878376683352 -0.027452889696285902 0 0.0032247062420562565 -0.027304113678538643 0 0.0030429095954483641 -0.027374268120291534 0 0.0034246376930042528 -0.02737823823759019 0 0.0033383782698340305 -0.027376750160623017 0 0.0033571364065364856 -0.027228420111680397 0 0.0032247062420562565 -0.027304113678538643 0 0.0033383782698340305 -0.027376750160623017 0 0.0033571364065364856 -0.027228420111680397 0 0.0032247062420562565 -0.027304113678538643 0 0.0033571364065364856 -0.027228420111680397 0 0.0032041843178474321 -0.02713828026240506 0 0.0033571364065364856 -0.027228420111680397 0 0.0032041843178474321 -0.02713828026240506 0 0.003442132181090254 -0.027091601487675251 0 0.0032247062420562565 -0.027304113678538643 0 0.0032041843178474321 -0.02713828026240506 0 0.0030429095954483641 -0.027374268120291534 0 0.0016700223418355275 -0.026214446682684238 0 0.0017241996506898898 -0.026091514534881188 0 0.0016469170665780325 -0.026086653203168227 0 0.0016700223418355275 -0.026214446682684238 0 0.001836409241947909 -0.026099794601362806 0 0.0019189363862578397 -0.0262624609546806 0 0.0016700223418355275 -0.026214446682684238 0 0.001836409241947909 -0.026099794601362806 0 0.0017241996506898898 -0.026091514534881188 0 0.0026137403453616193 -0.02592663376713198 0 0.0026470046051445761 -0.026779951630297793 0 0.001836409241947909 -0.026099794601362806 0 0.0019189363862578397 -0.0262624609546806 0 0.0020655136496557903 -0.026064783723892229 0 0.0020655136496557903 -0.026064783723892229 0 0.002347361341836007 -0.025948876107089115 0 0.0023638811855494863 -0.026390799303515639 0 0.0019189363862578397 -0.0262624609546806 0 0.0020655136496557903 -0.026064783723892229 0 0.0023638811855494863 -0.026390799303515639 0 0.003442132181090254 -0.027091601487675251 0 0.0034352589614632507 -0.027027327107940358 0 0.0032730302191036251 -0.026929990676318856 0 0.0034352589614632507 -0.027027327107940358 0 0.0032730302191036251 -0.026929990676318856 0 0.0032701004518915213 -0.02683094482238298 0 0.0026470046051445761 -0.026779951630297793 0 0.002851088600999667 -0.026638419726669298 0 0.0033684940050872619 -0.026834042847541355 0 0.0034352589614632507 -0.027027327107940358 0 0.0032701004518915213 -0.02683094482238298 0 0.0033571364065364856 -0.027228420111680397 0 0.003442132181090254 -0.027091601487675251 0 0.0034148073245598067 -0.027140323624738914 0 0.0034346954944732338 -0.027280096007664647 0 0.0034352589614632507 -0.027027327107940358 0 0.0034148073245598067 -0.027140323624738914 0 0.003442132181090254 -0.027091601487675251 0 0.0034352589614632507 -0.027027327107940358 0 0.0034148073245598067 -0.027140323624738914 0 0.00039292937883020481 -0.038092357124468276 0 0.00033234510008469374 -0.038031139940192332 0 0.00020326708966037819 -0.038057058053099106 0 0.00018723705503670933 -0.038075849697180572 0 0.00020766401078339421 -0.03808167533280081 0 0.0002391491451150897 -0.038041477752672401 0 0.00020326708966037819 -0.038057058053099106 0 0.00020766401078339421 -0.03808167533280081 0 0.00056312002657766581 -0.038069017930971366 0 0.0004859899182555348 -0.037949814112467131 0 0.00045240420639529094 -0.038022595172933854 0 0.0004859899182555348 -0.037949814112467131 0 0.00041156782570255949 -0.03793419541084507 0 0.00045240420639529094 -0.038022595172933854 0 0.00041156782570255949 -0.03793419541084507 0 0.00045240420639529094 -0.038022595172933854 0 0.00030557390714180558 -0.037987024420705458 0 0.00020326708966037819 -0.038057058053099106 0 0.00021797244504403998 -0.038053304954559414 0 0.00018723705503670933 -0.038075849697180572 0 0.00033234510008469374 -0.038031139940192332 0 0.00030177402630819503 -0.037999155474761945 0 0.00020326708966037819 -0.038057058053099106 0 0.00025384462622604365 -0.038015443400800548 0 0.00021797244504403998 -0.038053304954559414 0 0.00020326708966037819 -0.038057058053099106 0 0.00030557390714180558 -0.037987024420705458 0 0.00025384462622604365 -0.038015443400800548 0 0.00030557390714180558 -0.037987024420705458 0 0.00025384462622604365 -0.038015443400800548 0 0.00027419928459665222 -0.037993761031318768 0 0.00030557390714180558 -0.037987024420705458 0 0.00027509397680160988 -0.037976723039713438 0 0.00027419928459665222 -0.037993761031318768 0 0.00026509002652286425 -0.037836166857864693 0 0.00036576747487573381 -0.037857115763858133 0 0.00030557390714180558 -0.037987024420705458 0 0.00036576747487573381 -0.037857115763858133 0 0.00041156782570255949 -0.03793419541084507 0 0.00030557390714180558 -0.037987024420705458 0 0.0015917130738581748 -0.032961895612561611 0 0.0017075242851221969 -0.032705532948439989 0 0.0031055549214430577 -0.027589153324978296 0 0.0032349878376683352 -0.027452889696285902 0 0.0030429095954483641 -0.027374268120291534 0 0.00026509002652286425 -0.037836166857864693 0 0.00030557390714180558 -0.037987024420705458 0 0.00027509397680160988 -0.037976723039713438 0 0.0017075242851221969 -0.032705532948439989 0 0.0013763633273968067 -0.032230784543135008 0 0.0032041843178474321 -0.02713828026240506 0 0.0030429095954483641 -0.027374268120291534 0 0.0029681311614390602 -0.027198252396530023 0 0.0026137403453616193 -0.02592663376713198 0 0.0013763633273968067 -0.032230784543135008 0 0.0016700223418355275 -0.026214446682684238 0 0.0015167116072555234 -0.026256685043371631 0 0.0016469170665780325 -0.026086653203168227 0 0.0013763633273968067 -0.032230784543135008 0 -1.5723135292297681e-05 -0.038760653470007206 0 0.00027509397680160988 -0.037976723039713438 0 0.00027123519119427172 -0.037974831173301984 0 0.00027419928459665222 -0.037993761031318768 0 0.00027123519119427172 -0.037974831173301984 0 0.00025384462622604365 -0.038015443400800548 0 0.00027419928459665222 -0.037993761031318768 0 0.00027123519119427172 -0.037974831173301984 0 0.00025384462622604365 -0.038015443400800548 0 0.00024702860097328871 -0.038038919836770338 0 0.00025384462622604365 -0.038015443400800548 0 0.00021797244504403998 -0.038053304954559414 0 0.00024702860097328871 -0.038038919836770338 0 0.00021797244504403998 -0.038053304954559414 0 0.00024702860097328871 -0.038038919836770338 0 0.00016316452962412986 -0.038085856446741395 0 0.00064586531313007571 -0.037994792498703099 0 0.00024702860097328871 -0.038038919836770338 0 0.00027616449217335651 -0.037791039767133265 0 0.00024702860097328871 -0.038038919836770338 0 8.8680120561904425e-05 -0.038087900597489545 0 0.00027616449217335651 -0.037791039767133265 0 0.00024702860097328871 -0.038038919836770338 0 8.8680120561904425e-05 -0.038087900597489545 0 0.00016316452962412986 -0.038085856446741395 0 8.8680120561904425e-05 -0.038087900597489545 0 0.00018321175078884287 -0.03812337694970281 0 0.00016316452962412986 -0.038085856446741395 0 0.00017857607586443033 -0.038317591756647069 0 0.00019813191361479966 -0.038204265882365869 0 8.8680120561904425e-05 -0.038087900597489545 0 0.00019813191361479966 -0.038204265882365869 0 8.8680120561904425e-05 -0.038087900597489545 0 0.00018321175078884287 -0.03812337694970281 0 0.00021797244504403998 -0.038053304954559414 0 0.00016316452962412986 -0.038085856446741395 0 0.00018723705503670933 -0.038075849697180572 0 0.00018321175078884287 -0.03812337694970281 0 0.00016316452962412986 -0.038085856446741395 0 0.00018723705503670933 -0.038075849697180572 0 0.00018321175078884287 -0.03812337694970281 0 0.00018723705503670933 -0.038075849697180572 0 0.00020766401078339421 -0.03808167533280081 0 0.0010303698562865559 -0.035379773992934418 0 0.00054030133193059507 -0.035104111237074062 0 0.00084350269082781161 -0.034753294901311745 0 0.00054030133193059507 -0.035104111237074062 0 0.00084350269082781161 -0.034753294901311745 0 0.0003347619368936635 -0.034673796418880735 0 -0.0001405915527266609 -0.039602000209852176 0 -0.00050071950165421302 -0.039114082560096158 0 -0.00050071950165421302 -0.039114082560096158 0 0.00030303312375154717 -0.03604222300985601 0 8.8680120561904425e-05 -0.038087900597489545 0 -0.00012247678799092178 -0.037489557939960491 0 0.00027616449217335651 -0.037791039767133265 0 -0.00012247678799092178 -0.037489557939960491 0 0.00027616449217335651 -0.037791039767133265 0 0.00020706844810624837 -0.037510668161372947 0 0.00017857607586443033 -0.038317591756647069 0 8.8680120561904425e-05 -0.038087900597489545 0 8.4317142864775849e-05 -0.038563057094323692 0 0.00015250865218242022 -0.037663621042324576 0 -0.00050071950165421302 -0.039114082560096158 0 0.00027616449217335651 -0.037791039767133265 0 0.00020706844810624837 -0.037510668161372947 0 0.00051026778518599187 -0.037523443077919452 0 0.0003347619368936635 -0.034673796418880735 0 -0.000174420166169582 -0.034593968465018131 0 2.6404569734284043e-06 -0.035178232537271502 0 0.00054030133193059507 -0.035104111237074062 0 0.0003347619368936635 -0.034673796418880735 0 2.6404569734284043e-06 -0.035178232537271502 0 0.00030303312375154717 -0.03604222300985601 0 0.0010267831005767601 -0.031071068844309203 0 0.001625417642292213 -0.026061491998454332 0 0.0016320415925672855 -0.026078008741831325 0 0.0015979385645034914 -0.02605754191667024 0 0.0010267831005767601 -0.031071068844309203 0 0.00079981625443833082 -0.030626692905441327 0 0.001625417642292213 -0.026061491998454332 0 0.0016320415925672855 -0.026078008741831325 0 0.0016506936170890831 -0.026097355841426778 0 0.0015167116072555234 -0.026256685043371631 0 0.0014694931617759714 -0.026103232580162609 0 0.0015979385645034914 -0.02605754191667024 0 0.0013763633273968067 -0.032230784543135008 0 0.0010267831005767601 -0.031071068844309203 0 0.0010267831005767601 -0.031071068844309203 0 0.0016675770163016061 -0.025511870882237022 0 0.00064586531313007571 -0.037994792498703099 0 0.00027616449217335651 -0.037791039767133265 0 0.00051026778518599187 -0.037523443077919452 0 0.0015167116072555234 -0.026256685043371631 0 0.0015979385645034914 -0.02605754191667024 0 0.0016469170665780325 -0.026086653203168227 0 0.001625417642292213 -0.026061491998454332 0 0.0015979385645034914 -0.02605754191667024 0 0.0016283942786415471 -0.026018655918423467 0 0.001625417642292213 -0.026061491998454332 0 0.0016283942786415471 -0.026018655918423467 0 0.0016302415933000408 -0.026069056177478067 0 0.0016283942786415471 -0.026018655918423467 0 0.0016302415933000408 -0.026069056177478067 0 0.0016277341256282077 -0.02600074665609016 0 0.0027877758316283193 -0.024578704048801064 0 0.0028003884702454095 -0.024544916262710267 0 0.0028005818773891734 -0.024531811122225484 0 0.0027877758316283193 -0.024578704048801064 0 0.0028003884702454095 -0.024544916262710267 0 0.0027826182240075687 -0.024586729776805399 0 0.0027877758316283193 -0.024578704048801064 0 0.0027612811417653694 -0.024640132709345949 0 0.0027826182240075687 -0.024586729776805399 0 0.0022710273047963333 -0.024770405522999597 0 0.0014906820936804964 -0.03006537207356769 0 0.001625417642292213 -0.026061491998454332 0 0.0016302415933000408 -0.026069056177478067 0 0.0016506936170890831 -0.026097355841426778 0 0.0016302415933000408 -0.026069056177478067 0 0.0016506936170890831 -0.026097355841426778 0 0.0016674607876522329 -0.026147661403450002 0 2.6404569734284043e-06 -0.035178232537271502 0 0.00018324566314878915 -0.03575959769180663 0 0.00049021272190400583 -0.035501974922557092 0 0.00079981625443833082 -0.030626692905441327 0 0.0014906820936804964 -0.03006537207356769 0 0.00054030133193059507 -0.035104111237074062 0 2.6404569734284043e-06 -0.035178232537271502 0 0.00049021272190400583 -0.035501974922557092 0 0.0010194851969175774 -0.034221820855995559 0 0.00093764916370801549 -0.034248337962431388 0 0.00099829146606894938 -0.034145727722429679 0 0.0014906820936804964 -0.03006537207356769 0 0.0016881077770483468 -0.028688295436776638 0 0.00018324566314878915 -0.03575959769180663 0 0.00069386590387648418 -0.035902227488033511 0 0.00049021272190400583 -0.035501974922557092 0 0.0014906820936804964 -0.03006537207356769 0 0.00064987500758281595 -0.035023419391870425 0 0.00083316493981612646 -0.03427262756994718 0 0.00093764916370801549 -0.034248337962431388 0 0.00090129218659300021 -0.034154326352392933 0 0.0011175731161116053 -0.040204186195013196 0 0.00064987500758281595 -0.035023419391870425 0 0.0010303698562865559 -0.035379773992934418 0 0.00054030133193059507 -0.035104111237074062 0 0.00049021272190400583 -0.035501974922557092 0 0.0010303698562865559 -0.035379773992934418 0 0.00069386590387648418 -0.035902227488033511 0 0.00049021272190400583 -0.035501974922557092 0 0.0018749089060846528 -0.025784096850074389 0 0.0020283858417517692 -0.02568447261400552 0 0.0019478800342341649 -0.025912993439618781 0 0.0018749089060846528 -0.025784096850074389 0 0.0017614121263442349 -0.025740157529637465 0 0.0019316370003918425 -0.025559696366654346 0 0.0018749089060846528 -0.025784096850074389 0 0.0020283858417517692 -0.02568447261400552 0 0.0019316370003918425 -0.025559696366654346 0 0.0020283858417517692 -0.02568447261400552 0 0.0021929714867937743 -0.025476452483614558 0 0.002292114750487944 -0.025625296605188568 0 0.0020283858417517692 -0.02568447261400552 0 0.0021261404257426151 -0.025832940945758925 0 0.002292114750487944 -0.025625296605188568 0 0.0020283858417517692 -0.02568447261400552 0 0.0019316370003918425 -0.025559696366654346 0 0.0021929714867937743 -0.025476452483614558 0 0.0020283858417517692 -0.02568447261400552 0 0.0021261404257426151 -0.025832940945758925 0 0.0019478800342341649 -0.025912993439618781 0 0.0020655136496557903 -0.026064783723892229 0 0.0021261404257426151 -0.025832940945758925 0 0.002347361341836007 -0.025948876107089115 0 0.0021261404257426151 -0.025832940945758925 0 0.002292114750487944 -0.025625296605188568 0 0.002347361341836007 -0.025948876107089115 0 0.0020655136496557903 -0.026064783723892229 0 0.0021261404257426151 -0.025832940945758925 0 0.0019478800342341649 -0.025912993439618781 0 0.0018749089060846528 -0.025784096850074389 0 0.0019478800342341649 -0.025912993439618781 0 0.0017556443873151847 -0.02595480233254794 0 0.001836409241947909 -0.026099794601362806 0 0.0020655136496557903 -0.026064783723892229 0 0.0019478800342341649 -0.025912993439618781 0 0.001836409241947909 -0.026099794601362806 0 0.0019478800342341649 -0.025912993439618781 0 0.0017556443873151847 -0.02595480233254794 0 0.001836409241947909 -0.026099794601362806 0 0.0017241996506898898 -0.026091514534881188 0 0.0017556443873151847 -0.02595480233254794 0 0.0017241996506898898 -0.026091514534881188 0 0.0017556443873151847 -0.02595480233254794 0 0.0016469170665780325 -0.026086653203168227 0 0.0015979385645034914 -0.02605754191667024 0 0.0016469170665780325 -0.026086653203168227 0 0.0016389667578428138 -0.025954914074501383 0 0.0017556443873151847 -0.02595480233254794 0 0.0016469170665780325 -0.026086653203168227 0 0.0016389667578428138 -0.025954914074501383 0 0.0015979385645034914 -0.02605754191667024 0 0.0016283942786415471 -0.026018655918423467 0 0.0016389667578428138 -0.025954914074501383 0 0.0017556443873151847 -0.02595480233254794 0 0.0016389667578428138 -0.025954914074501383 0 0.0017614121263442349 -0.025740157529637465 0 0.0018749089060846528 -0.025784096850074389 0 0.0017556443873151847 -0.02595480233254794 0 0.0017614121263442349 -0.025740157529637465 0 0.0016718024135965216 -0.025911540105604841 0 0.0016246082314083584 -0.02587401735292014 0 0.0016143636849273544 -0.025973869951039903 0 0.0016277341256282077 -0.02600074665609016 0 0.0016031251194515608 -0.02597022395809229 0 0.0016389667578428138 -0.025954914074501383 0 0.0016143636849273544 -0.025973869951039903 0 0.0016277341256282077 -0.02600074665609016 0 0.0028005818773891734 -0.024531811122225484 0 0.002818796397772843 -0.024493790872895382 0 0.0028255453756238082 -0.024525896485113129 0 0.0022405475106525565 -0.025336125045378952 0 0.0020738623478680613 -0.025259891018506123 0 0.0022710273047963333 -0.024770405522999597 0 0.0022405475106525565 -0.025336125045378952 0 0.0016283942786415471 -0.026018655918423467 0 0.0016389667578428138 -0.025954914074501383 0 0.0016277341256282077 -0.02600074665609016 0 0.0028003884702454095 -0.024544916262710267 0 0.0028005818773891734 -0.024531811122225484 0 0.0028096290387815605 -0.024508730935216088 0 0.0028005818773891734 -0.024531811122225484 0 0.0028096290387815605 -0.024508730935216088 0 0.002818796397772843 -0.024493790872895382 0 0.0028096290387815605 -0.024508730935216088 0 0.002818796397772843 -0.024493790872895382 0 0.0028209843036957707 -0.024464835913623063 0 0.002818796397772843 -0.024493790872895382 0 0.0028520669008332312 -0.024476353447057581 0 0.0028366841637925693 -0.024439392608448834 0 0.002818796397772843 -0.024493790872895382 0 0.0028255453756238082 -0.024525896485113129 0 0.0028520669008332312 -0.024476353447057581 0 0.0016246082314083584 -0.02587401735292014 0 0.0020738623478680613 -0.025259891018506123 0 0.0020738623478680613 -0.025259891018506123 0 0.002631356584761887 -0.024539413072473312 0 0.0015088530837447669 -0.025084174216392356 0 0.0020241660321179199 -0.025180622861628695 0 0.0022733590575874513 -0.024745733299858783 0 0.0028255453756238082 -0.024525896485113129 0 0.0028520669008332312 -0.024476353447057581 0 0.0029049047898019888 -0.024489443002639173 0 0.0020738623478680613 -0.025259891018506123 0 0.0020689424163514601 -0.025317594901340952 0 0.0028520669008332312 -0.024476353447057581 0 0.0029049047898019888 -0.024489443002639173 0 0.0029027066131064178 -0.02439388256594012 0 0.0028520669008332312 -0.024476353447057581 0 0.0029027066131064178 -0.02439388256594012 0 0.0028366841637925693 -0.024439392608448834 0 0.0029049047898019888 -0.024489443002639173 0 0.0030332297724504961 -0.024440750593099546 0 0.0029027066131064178 -0.02439388256594012 0 0.0022733590575874513 -0.024745733299858783 0 0.0027184231554482313 -0.024881397440213931 0 0.0030332297724504961 -0.024440750593099546 0 0.002631356584761887 -0.024539413072473312 0 0.0029930319075182335 -0.024473714297967124 0 0.0027184231554482313 -0.024881397440213931 0 0.0029787843022231189 -0.02505611737895885 0 0.002547671545556086 -0.025300657307775334 0 0.0027184231554482313 -0.024881397440213931 0 0.0030332297724504961 -0.024440750593099546 0 0.0029787843022231189 -0.02505611737895885 0 0.0022733590575874513 -0.024745733299858783 0 0.0027184231554482313 -0.024881397440213931 0 0.002547671545556086 -0.025300657307775334 0 0.0020241660321179199 -0.025180622861628695 0 0.0022733590575874513 -0.024745733299858783 0 0.002547671545556086 -0.025300657307775334 0 0.0034554049358691843 -0.024489550930422831 0 0.0032987022814687829 -0.024812291946191074 0 0.0032691738604858135 -0.024367822259950385 0 0.0034554049358691843 -0.024489550930422831 0 0.0035124785665269827 -0.024363484762877499 0 0.0032691738604858135 -0.024367822259950385 0 0.0030332297724504961 -0.024440750593099546 0 0.0032987022814687829 -0.024812291946191074 0 0.0032691738604858135 -0.024367822259950385 0 0.0030332297724504961 -0.024440750593099546 0 0.0029787843022231189 -0.02505611737895885 0 0.0032987022814687829 -0.024812291946191074 0 0.0032987022814687829 -0.024812291946191074 0 0.003444431045402362 -0.025164361749111672 0 0.0035105640366732203 -0.024782383771478411 0 0.0034554049358691843 -0.024489550930422831 0 0.0032987022814687829 -0.024812291946191074 0 0.0035105640366732203 -0.024782383771478411 0 0.003444431045402362 -0.025164361749111672 0 0.0032307541724308914 -0.025331106778460569 0 0.0034511923799961102 -0.025501168788290417 0 0.0032987022814687829 -0.024812291946191074 0 0.003444431045402362 -0.025164361749111672 0 0.0032307541724308914 -0.025331106778460569 0 0.0029787843022231189 -0.02505611737895885 0 0.0032987022814687829 -0.024812291946191074 0 0.0032307541724308914 -0.025331106778460569 0 0.0029787843022231189 -0.02505611737895885 0 0.0032307541724308914 -0.025331106778460569 0 0.0029880481826876329 -0.025528401398260667 0 0.0029880481826876329 -0.025528401398260667 0 0.0027599509694887546 -0.02605428871272953 0 0.0032941396966420984 -0.026144379874896224 0 0.0030263703305352932 -0.025583991418855354 0 0.0031821520848569988 -0.025822588252407887 0 0.0032307541724308914 -0.025331106778460569 0 0.0029880481826876329 -0.025528401398260667 0 0.0032141872925391065 -0.025690476256700154 0 0.0032307541724308914 -0.025331106778460569 0 0.0034511923799961102 -0.025501168788290417 0 0.0032141872925391065 -0.025690476256700154 0 0.0034511923799961102 -0.025501168788290417 0 0.0032141872925391065 -0.025690476256700154 0 0.0034286727545489301 -0.025713730670785952 0 0.0020689424163514601 -0.025317594901340952 0 0.0025397998200951564 -0.025332040147550191 0 0.0021929714867937743 -0.025476452483614558 0 0.002292114750487944 -0.025625296605188568 0 0.002547671545556086 -0.025300657307775334 0 0.002292114750487944 -0.025625296605188568 0 0.002547671545556086 -0.025300657307775334 0 0.0026110805533594824 -0.025676575182773533 0 0.0029787843022231189 -0.02505611737895885 0 0.0029880481826876329 -0.025528401398260667 0 0.002547671545556086 -0.025300657307775334 0 0.0029880481826876329 -0.025528401398260667 0 0.002547671545556086 -0.025300657307775334 0 0.0026110805533594824 -0.025676575182773533 0 0.0029880481826876329 -0.025528401398260667 0 0.0026110805533594824 -0.025676575182773533 0 0.0027599509694887546 -0.02605428871272953 0 0.002292114750487944 -0.025625296605188568 0 0.0026110805533594824 -0.025676575182773533 0 0.002347361341836007 -0.025948876107089115 0 0.0026110805533594824 -0.025676575182773533 0 0.002347361341836007 -0.025948876107089115 0 0.0027599509694887546 -0.02605428871272953 0 0.002347361341836007 -0.025948876107089115 0 0.0023638811855494863 -0.026390799303515639 0 0.0027599509694887546 -0.02605428871272953 0 0.0032730302191036251 -0.026929990676318856 0 0.0032701004518915213 -0.02683094482238298 0 0.0031522288456125613 -0.026702503339774759 0 0.0032730302191036251 -0.026929990676318856 0 0.0031522288456125613 -0.026702503339774759 0 0.003099315193323693 -0.026567201218924811 0 0.002851088600999667 -0.026638419726669298 0 0.0031032218734295385 -0.026590253864164991 0 0.0023638811855494863 -0.026390799303515639 0 0.0027599509694887546 -0.02605428871272953 0 0.003099315193323693 -0.026567201218924811 0 0.0027599509694887546 -0.02605428871272953 0 0.0032941396966420984 -0.026144379874896224 0 0.003099315193323693 -0.026567201218924811 0 0.0032941396966420984 -0.026144379874896224 0 0.0033412120182134157 -0.026526820436511927 0 0.003099315193323693 -0.026567201218924811 0 0.0032141872925391065 -0.025690476256700154 0 0.0034286727545489301 -0.025713730670785952 0 0.0034217761670951273 -0.025889309549638043 0 0.0031821520848569988 -0.025822588252407887 0 0.0035890245429502652 -0.026592458154995707 0 0.0034511923799961102 -0.025501168788290417 0 0.0034286727545489301 -0.025713730670785952 0 0.0036251377181081555 -0.025747613011048904 0 0.0034286727545489301 -0.025713730670785952 0 0.0034217761670951273 -0.025889309549638043 0 0.0036251377181081555 -0.025747613011048904 0 0.0033412120182134157 -0.026526820436511927 0 0.0032653963146178442 -0.026627882307366672 0 0.0033005373833520455 -0.026625312447762058 0 0.0033412120182134157 -0.026526820436511927 0 0.0031725747262437405 -0.026641131419431256 0 0.0032653963146178442 -0.026627882307366672 0 0.0035890245429502652 -0.026592458154995707 0 0.0026954387618658214 -0.024166528666337884 0 0.0031522288456125613 -0.026702503339774759 0 0.003099315193323693 -0.026567201218924811 0 0.0031725747262437405 -0.026641131419431256 0 0.0033412120182134157 -0.026526820436511927 0 0.003099315193323693 -0.026567201218924811 0 0.0031725747262437405 -0.026641131419431256 0 0.0031725747262437405 -0.026641131419431256 0 0.0031745709115371685 -0.026668111200344916 0 0.0031642815144141867 -0.026675144474245346 0 0.0031725747262437405 -0.026641131419431256 0 0.0031745709115371685 -0.026668111200344916 0 0.0032063620929490655 -0.026655132421313964 0 0.0031745709115371685 -0.026668111200344916 0 0.0032063620929490655 -0.026655132421313964 0 0.0031834641994136444 -0.02666464040580149 0 0.0031725747262437405 -0.026641131419431256 0 0.0032653963146178442 -0.026627882307366672 0 0.0032063620929490655 -0.026655132421313964 0 0.0032653963146178442 -0.026627882307366672 0 0.0032063620929490655 -0.026655132421313964 0 0.0032229441009753983 -0.02664906786058234 0 0.0032063620929490655 -0.026655132421313964 0 0.0032229441009753983 -0.02664906786058234 0 0.0031834641994136444 -0.02666464040580149 0 0.0032229441009753983 -0.02664906786058234 0 0.0032587626278333124 -0.026629978778490035 0 0.0032635104409511522 -0.026543994744077988 0 0.0032653963146178442 -0.026627882307366672 0 0.0032229441009753983 -0.02664906786058234 0 0.0033005373833520455 -0.026625312447762058 0 0.0028379233646764908 -0.026805126193208982 0 0.0026954387618658214 -0.024166528666337884 0 0.0032229441009753983 -0.02664906786058234 0 0.003167982292675117 -0.026675322934309968 0 0.0032444699572234522 -0.026650665077887169 0 0.00081429652704715825 -0.026533718973511467 0 -2.2114859085899836e-05 -0.022629235067117091 0 -0.0014992227545389462 -0.023195138402262411 0 -2.2114859085899836e-05 -0.022629235067117091 0 -0.0011415124247903905 -0.020817697377930044 0 -0.00062324867357831473 -0.019966922723006032 0 -0.00066531042354999836 -0.019335774764513199 0 -0.0016721497560553559 -0.025479499598510296 0 -0.0013510670219318691 -0.025772764562189899 0 -0.0018397950127079477 -0.026007050704122636 0 0.0032229441009753983 -0.02664906786058234 0 0.0032587626278333124 -0.026629978778490035 0 0.0032444699572234522 -0.026650665077887169 0 0.0032229441009753983 -0.02664906786058234 0 0.0031834641994136444 -0.02666464040580149 0 0.003167982292675117 -0.026675322934309968 0 0.0031745709115371685 -0.026668111200344916 0 0.0031666383243144458 -0.026667712540407326 0 0.0031688095467629906 -0.026684771278884654 0 0.0031745709115371685 -0.026668111200344916 0 0.0031834641994136444 -0.02666464040580149 0 0.0031666383243144458 -0.026667712540407326 0 0.0031834641994136444 -0.02666464040580149 0 0.003167982292675117 -0.026675322934309968 0 0.0031666383243144458 -0.026667712540407326 0 0.0031666383243144458 -0.026667712540407326 0 0.0031863326804427968 -0.026655460042000867 0 0.0031688095467629906 -0.026684771278884654 0 0.0031863326804427968 -0.026655460042000867 0 0.003220878157625855 -0.026684639984904657 0 0.0031688095467629906 -0.026684771278884654 0 0.0032356982227942604 -0.026634508067691784 0 0.0031863326804427968 -0.026655460042000867 0 0.003220878157625855 -0.026684639984904657 0 0.0032356982227942604 -0.026634508067691784 0 0.0033059322639181596 -0.026694393182111281 0 0.003220878157625855 -0.026684639984904657 0 0.003220878157625855 -0.026684639984904657 0 0.0032657509298754488 -0.026745030728370523 0 0.0032056836712036534 -0.026723816602568808 0 0.003220878157625855 -0.026684639984904657 0 0.0032056836712036534 -0.026723816602568808 0 0.0031688095467629906 -0.026684771278884654 0 0.0032701004518915213 -0.02683094482238298 0 0.0031522288456125613 -0.026702503339774759 0 0.0032056836712036534 -0.026723816602568808 0 0.0033059322639181596 -0.026694393182111281 0 0.003220878157625855 -0.026684639984904657 0 0.0032657509298754488 -0.026745030728370523 0 0.0032701004518915213 -0.02683094482238298 0 0.0032657509298754488 -0.026745030728370523 0 0.0032056836712036534 -0.026723816602568808 0 0.0031522288456125613 -0.026702503339774759 0 0.0032056836712036534 -0.026723816602568808 0 0.0031688095467629906 -0.026684771278884654 0 0.0031522288456125613 -0.026702503339774759 0 0.0031725747262437405 -0.026641131419431256 0 0.0031642815144141867 -0.026675144474245346 0 0.0031522288456125613 -0.026702503339774759 0 0.0031642815144141867 -0.026675144474245346 0 0.0031688095467629906 -0.026684771278884654 0 0.0031745709115371685 -0.026668111200344916 0 0.0031642815144141867 -0.026675144474245346 0 0.0031688095467629906 -0.026684771278884654 0 0.0014141909520226795 -0.016299136448906289 0 0.0014572765007037519 -0.016109905113806337 0 0.0010392419222229688 -0.016177887801644687 0 0.0014348696419276409 -0.016395953883787284 0 0.0016122547967372882 -0.018025214698890717 0 0.0014572765007037519 -0.016109905113806337 0 0.0016534346437299605 -0.016014621560387871 0 0.0016409742655330839 -0.015821409548050207 0 0.0014572765007037519 -0.016109905113806337 0 0.0016534346437299605 -0.016014621560387871 0 0.0014512495328399308 -0.016144674016552969 0 0.0016534346437299605 -0.016014621560387871 0 0.0017044427040247632 -0.016147541046664913 0 0.0014512495328399308 -0.016144674016552969 0 0.0013504059647069496 -0.016661712724071607 0 0.0017044427040247632 -0.016147541046664913 0 0.0014512495328399308 -0.016144674016552969 0 0.0013504059647069496 -0.016661712724071607 0 0.0014512495328399308 -0.016144674016552969 0 0.0010392419222229688 -0.016177887801644687 0 0.0014572765007037519 -0.016109905113806337 0 0.0014512495328399308 -0.016144674016552969 0 0.0010392419222229688 -0.016177887801644687 0 0.0014141909520226795 -0.016299136448906289 0 0.0022670666073882099 -0.019812138946902948 0 0.001205518762421728 -0.01875089105558234 0 0.0011458521197189151 -0.020085363203223693 0 0.0022670666073882099 -0.019812138946902948 0 0.001205518762421728 -0.01875089105558234 0 0.0011458521197189151 -0.020085363203223693 0 0.0004608782224163912 -0.019666280559552281 0 0.001205518762421728 -0.01875089105558234 0 0.00015486485552677938 -0.019245515892268993 0 -0.00011682694166513715 -0.019772412777325457 0 0.0004608782224163912 -0.019666280559552281 0 -0.00062733650658631959 -0.017921603939390452 0 0.00071017851305733273 -0.017803966399507931 0 0.0004608782224163912 -0.019666280559552281 0 0.001205518762421728 -0.01875089105558234 0 0.00071017851305733273 -0.017803966399507931 0 -0.0001115756635783004 -0.0201442569220186 0 -0.00062324867357831473 -0.019966922723006032 0 -0.00032894092912995408 -0.019761477554943167 0 -0.00036054369311750963 -0.019758597244977746 0 -2.2114859085899836e-05 -0.022629235067117091 0 -0.00062324867357831473 -0.019966922723006032 0 -0.00032894092912995408 -0.019761477554943167 0 -0.00060666367890639759 -0.019410018928891042 0 -0.0001115756635783004 -0.0201442569220186 0 -0.00032894092912995408 -0.019761477554943167 0 -3.5839142239168523e-05 -0.01960252940284507 0 -0.0001115756635783004 -0.0201442569220186 0 0.0004608782224163912 -0.019666280559552281 0 -3.5839142239168523e-05 -0.01960252940284507 0 0.0004608782224163912 -0.019666280559552281 0 -3.5839142239168523e-05 -0.01960252940284507 0 -5.4813987193533983e-05 -0.019112360235108952 0 -0.00032894092912995408 -0.019761477554943167 0 -3.5839142239168523e-05 -0.01960252940284507 0 -0.00060666367890639759 -0.019410018928891042 0 0.00014666075896235611 -0.021679892841615037 0 1.5622797942230676e-05 -0.022004475996691683 0 0.00085113845121386497 -0.021498681425768246 0 -3.5839142239168523e-05 -0.01960252940284507 0 -0.00060666367890639759 -0.019410018928891042 0 -5.4813987193533983e-05 -0.019112360235108952 0 -2.2114859085899836e-05 -0.022629235067117091 0 -0.00011682694166513715 -0.019772412777325457 0 0.00080716717253560258 -0.023478951563321668 0 -2.2114859085899836e-05 -0.022629235067117091 0 0.00014666075896235611 -0.021679892841615037 0 0.00085113845121386497 -0.021498681425768246 0 0.00045414020541379449 -0.020922789431921461 0 0.001228977261501557 -0.023504889903309789 0 0.0017137430409630355 -0.022331583287469384 0 0.0014029643623061896 -0.022026375402767799 0 0.00080716717253560258 -0.023478951563321668 0 0.0026954387618658214 -0.024166528666337884 0 0.00080716717253560258 -0.023478951563321668 0 0.0008494453956224842 -0.021091676890147369 0 -0.00059715259367008606 -0.017504623017108957 0 -0.00062733650658631959 -0.017921603939390452 0 -0.00022100585895173502 -0.017026097208512801 0 -0.00011682694166513715 -0.019772412777325457 0 0.0008494453956224842 -0.021091676890147369 0 -0.00059715259367008606 -0.017504623017108957 0 -0.00062733650658631959 -0.017921603939390452 0 -0.0010092181271908615 -0.017210280161647742 0 -0.00022100585895173502 -0.017026097208512801 0 -0.0010092181271908615 -0.017210280161647742 0 -0.00055117431115807053 -0.016384474546518271 0 -0.00059715259367008606 -0.017504623017108957 0 -0.00022100585895173502 -0.017026097208512801 0 -0.0010092181271908615 -0.017210280161647742 0 0.0008494453956224842 -0.021091676890147369 0 0.0013254661533328501 -0.01953512523938555 0 -0.00022100585895173502 -0.017026097208512801 0 7.9395666059998803e-05 -0.016593597034294201 0 -0.00055117431115807053 -0.016384474546518271 0 0.0011102650464991637 -0.023076705471527865 0 0.00035118005027445765 -0.022334926584312007 0 0.0021988771778941709 -0.020375963436299181 0 0.0008494453956224842 -0.021091676890147369 0 0.0026954387618658214 -0.024166528666337884 0 0.0026954387618658214 -0.024166528666337884 0 0.0013254661533328501 -0.01953512523938555 0 0.0014141909520226795 -0.016299136448906289 0 0.001205518762421728 -0.01875089105558234 0 0.00071017851305733273 -0.017803966399507931 0 -0.00062733650658631959 -0.017921603939390452 0 -0.00022100585895173502 -0.017026097208512801 0 0.00071017851305733273 -0.017803966399507931 0 -0.00022100585895173502 -0.017026097208512801 0 0.00071017851305733273 -0.017803966399507931 0 0.00055554142028893451 -0.016786390752315757 0 -0.00022100585895173502 -0.017026097208512801 0 0.00055554142028893451 -0.016786390752315757 0 7.9395666059998803e-05 -0.016593597034294201 0 0.0014141909520226795 -0.016299136448906289 0 0.00071017851305733273 -0.017803966399507931 0 0.00055554142028893451 -0.016786390752315757 0 0.0014141909520226795 -0.016299136448906289 0 0.00055554142028893451 -0.016786390752315757 0 0.00050501196745286292 -0.016200509136061542 0 -0.00052307809970762904 -0.017770550185221588 0 0.00024967076664997133 -0.016882990161046808 0 -4.8464065890966859e-05 -0.0164810225971741 0 0.0014141909520226795 -0.016299136448906289 0 0.00050501196745286292 -0.016200509136061542 0 0.0011347201184323296 -0.015920631466454178 0 0.00050501196745286292 -0.016200509136061542 0 -0.00055117431115807053 -0.016384474546518271 0 0.00084784008463266414 -0.015569020283881047 0 0.0013254661533328501 -0.01953512523938555 0 0.00042129946386053292 -0.016038230612548512 0 0.00055554142028893451 -0.016786390752315757 0 7.9395666059998803e-05 -0.016593597034294201 0 0.00050501196745286292 -0.016200509136061542 0 7.9395666059998803e-05 -0.016593597034294201 0 0.00050501196745286292 -0.016200509136061542 0 -0.00055117431115807053 -0.016384474546518271 0 0.00050501196745286292 -0.016200509136061542 0 0.00084784008463266414 -0.015569020283881047 0 0.0011347201184323296 -0.015920631466454178 0 0.0026954387618658214 -0.024166528666337884 0 0.0037752517269225108 -0.024066714834421556 0 0.0013254661533328501 -0.01953512523938555 0 0.0017918574410115235 -0.019293454719875088 0 0.0036485642924941959 -0.022023868277715068 0 0.0035723680010782974 -0.022111212421423842 0 0.0036467824394903698 -0.022466033006623101 0 0.0034217761670951273 -0.025889309549638043 0 0.0035427413507129416 -0.026066074222476979 0 0.0036251377181081555 -0.025747613011048904 0 0.0035723680010782974 -0.022111212421423842 0 0.0036467824394903698 -0.022466033006623101 0 0.0034501706212248808 -0.02244180548272735 0 0.0036467824394903698 -0.022466033006623101 0 0.0034501706212248808 -0.02244180548272735 0 0.0035757740343956151 -0.022671407954592628 0 0.00024967076664997133 -0.016882990161046808 0 0.00097277271697783236 -0.016014152854063091 0 0.0004672725396501596 -0.016049496824445758 0 0.00024967076664997133 -0.016882990161046808 0 -4.8464065890966859e-05 -0.0164810225971741 0 0.0004672725396501596 -0.016049496824445758 0 0.00084784008463266414 -0.015569020283881047 0 0.0014190078073639991 -0.015773411732429864 0 0.0013164851271489535 -0.015401730266449472 0 0.0014190078073639991 -0.015773411732429864 0 0.0015966261253586114 -0.015463997116697164 0 0.0013164851271489535 -0.015401730266449472 0 0.00042129946386053292 -0.016038230612548512 0 0.0011284788277622284 -0.015723724256243098 0 0.0014141909520226795 -0.016299136448906289 0 0.0014572765007037519 -0.016109905113806337 0 0.0014190078073639991 -0.015773411732429864 0 0.00084784008463266414 -0.015569020283881047 0 0.0014190078073639991 -0.015773411732429864 0 0.0011347201184323296 -0.015920631466454178 0 0.0014141909520226795 -0.016299136448906289 0 0.0014190078073639991 -0.015773411732429864 0 0.0011347201184323296 -0.015920631466454178 0 0.0014572765007037519 -0.016109905113806337 0 0.0014190078073639991 -0.015773411732429864 0 0.0016409742655330839 -0.015821409548050207 0 0.0014190078073639991 -0.015773411732429864 0 0.0016409742655330839 -0.015821409548050207 0 0.0015966261253586114 -0.015463997116697164 0 0.0015966261253586114 -0.015463997116697164 0 0.0016722044516261829 -0.015198537643984118 0 0.0015623643503270696 -0.015197019301770554 0 0.0015966261253586114 -0.015463997116697164 0 0.0013164851271489535 -0.015401730266449472 0 0.0015623643503270696 -0.015197019301770554 0 0.00097277271697783236 -0.016014152854063091 0 0.0010175837413466161 -0.015384212978538857 0 0.0015623643503270696 -0.015197019301770554 0 0.0011284788277622284 -0.015723724256243098 0 0.0015338598952456526 -0.015244198890550892 0 0.00097277271697783236 -0.016014152854063091 0 0.00073308494998464136 -0.015622329172615555 0 0.0004672725396501596 -0.016049496824445758 0 0.00097277271697783236 -0.016014152854063091 0 0.00073308494998464136 -0.015622329172615555 0 0.0010175837413466161 -0.015384212978538857 0 0.00073308494998464136 -0.015622329172615555 0 0.0010175837413466161 -0.015384212978538857 0 0.0007966236189013297 -0.015298663360994003 0 0.00073308494998464136 -0.015622329172615555 0 0.0007966236189013297 -0.015298663360994003 0 0.00043535712546343287 -0.015284774641774941 0 0.0010274469205651935 -0.014891558378201993 0 0.00043535712546343287 -0.015284774641774941 0 0.00090830417357921716 -0.014244583259904351 0 0.0010274469205651935 -0.014891558378201993 0 0.0016722044516261829 -0.015198537643984118 0 0.00090830417357921716 -0.014244583259904351 0 0.0010175837413466161 -0.015384212978538857 0 0.0007966236189013297 -0.015298663360994003 0 0.0010274469205651935 -0.014891558378201993 0 0.0010175837413466161 -0.015384212978538857 0 0.0010274469205651935 -0.014891558378201993 0 0.0015623643503270696 -0.015197019301770554 0 0.0016040316746362302 -0.02034644578864191 0 0.0028194570545888513 -0.01224335317269397 0 0.0007966236189013297 -0.015298663360994003 0 0.0010274469205651935 -0.014891558378201993 0 0.00043535712546343287 -0.015284774641774941 0 0.0010274469205651935 -0.014891558378201993 0 0.0016722044516261829 -0.015198537643984118 0 0.0015623643503270696 -0.015197019301770554 0 0.0031109336515359361 -0.0086183884058029618 0 0.0028194570545888513 -0.01224335317269397 0 0.0034511923799961102 -0.025501168788290417 0 0.0036251377181081555 -0.025747613011048904 0 0.0037665500356391145 -0.025223262369117556 0 0.0036467824394903698 -0.022466033006623101 0 0.0035757740343956151 -0.022671407954592628 0 0.0037291671415707649 -0.022968278832637391 0 0.0035757740343956151 -0.022671407954592628 0 0.003485502069154212 -0.022786790806587364 0 0.0037291671415707649 -0.022968278832637391 0 0.0037752517269225108 -0.024066714834421556 0 0.0037139689572277534 -0.024121610716757239 0 0.0017918574410115235 -0.019293454719875088 0 0.0016040316746362302 -0.02034644578864191 0 0.0034501706212248808 -0.02244180548272735 0 0.0035757740343956151 -0.022671407954592628 0 0.003485502069154212 -0.022786790806587364 0 -4.8464065890966859e-05 -0.0164810225971741 0 0.0004672725396501596 -0.016049496824445758 0 0.00043535712546343287 -0.015284774641774941 0 0.0034501706212248808 -0.02244180548272735 0 0.003485502069154212 -0.022786790806587364 0 0.0033240027488137262 -0.023017266443601758 0 0.003485502069154212 -0.022786790806587364 0 0.0033240027488137262 -0.023017266443601758 0 0.0034201090539822299 -0.022919881785952782 0 0.00073308494998464136 -0.015622329172615555 0 0.0004672725396501596 -0.016049496824445758 0 0.00043535712546343287 -0.015284774641774941 0 0.0033240027488137262 -0.023017266443601758 0 0.0032629233921350402 -0.022964150855293679 0 0.0037656365558057492 -0.022283993276260808 0 0.0033240027488137262 -0.023017266443601758 0 0.0032629233921350402 -0.022964150855293679 0 0.0034201090539822299 -0.022919881785952782 0 0.003485502069154212 -0.022786790806587364 0 0.0034201090539822299 -0.022919881785952782 0 0.0037291671415707649 -0.022968278832637391 0 0.0032629233921350402 -0.022964150855293679 0 0.0034201090539822299 -0.022919881785952782 0 0.0037291671415707649 -0.022968278832637391 0 0.003444431045402362 -0.025164361749111672 0 0.0037665500356391145 -0.025223262369117556 0 0.0035105640366732203 -0.024782383771478411 0 0.003444431045402362 -0.025164361749111672 0 0.0034511923799961102 -0.025501168788290417 0 0.0037665500356391145 -0.025223262369117556 0 0.0037665500356391145 -0.025223262369117556 0 0.0035105640366732203 -0.024782383771478411 0 0.0036880695459162471 -0.024333227312885265 0 0.0037139689572277534 -0.024121610716757239 0 0.0037021812287606017 -0.024328784888517082 0 0.0032629233921350402 -0.022964150855293679 0 0.0037291671415707649 -0.022968278832637391 0 0.0036880695459162471 -0.024333227312885265 0 0.0032629233921350402 -0.022964150855293679 0 0.0032084721959178076 -0.024292960956966474 0 0.0036880695459162471 -0.024333227312885265 0 0.0032629233921350402 -0.022964150855293679 0 0.0033492173184518242 -0.021763736850482187 0 0.0037656365558057492 -0.022283993276260808 0 0.0029416824654514271 -0.026067404362885179 0 0.0037524886305214432 -0.015694739652009817 0 0.0032084721959178076 -0.024292960956966474 0 0.0036880695459162471 -0.024333227312885265 0 0.0036438111717890229 -0.0243587121898899 0 0.0037524886305214432 -0.015694739652009817 0 0.0032940347591380436 -0.019100159316238288 0 0.0036880695459162471 -0.024333227312885265 0 0.0036438111717890229 -0.0243587121898899 0 0.0035124785665269827 -0.024363484762877499 0 0.0034554049358691843 -0.024489550930422831 0 0.0036880695459162471 -0.024333227312885265 0 0.0035124785665269827 -0.024363484762877499 0 0.0034554049358691843 -0.024489550930422831 0 0.0035105640366732203 -0.024782383771478411 0 0.0036880695459162471 -0.024333227312885265 0 0.0048432644346735592 -0.0034509484186526808 0 0.0049299325735129096 -0.0035709871083383156 0 0.0048547110200924974 -0.0035617056077540017 0 0.00479829108072627 -0.0032760094617181185 0 0.0048432644346735592 -0.0034509484186526808 0 0.0049552085543220926 -0.0035155831801904958 0 0.00479829108072627 -0.0032760094617181185 0 0.0048432644346735592 -0.0034509484186526808 0 0.0047183941759374043 -0.0033836155179261338 0 0.0048432644346735592 -0.0034509484186526808 0 0.0048547110200924974 -0.0035617056077540017 0 0.0047183941759374043 -0.0033836155179261338 0 0.0037524886305214432 -0.015694739652009817 0 0.0028194570545888513 -0.01224335317269397 0 0.0049722510040407343 -0.0036356194199783083 0 0.0049274973014757613 -0.0035956305481381168 0 0.0049299325735129096 -0.0035709871083383156 0 0.0028194570545888513 -0.01224335317269397 0 0.0050498848371837912 -0.0055835464560933037 0 0.0048432644346735592 -0.0034509484186526808 0 0.0049552085543220926 -0.0035155831801904958 0 0.0049299325735129096 -0.0035709871083383156 0 0.0049299325735129096 -0.0035709871083383156 0 0.0049283960928059763 -0.0036024085338074328 0 0.0048547110200924974 -0.0035617056077540017 0 0.0049722510040407343 -0.0036356194199783083 0 0.0049299325735129096 -0.0035709871083383156 0 0.0049283960928059763 -0.0036024085338074328 0 0.0049722510040407343 -0.0036356194199783083 0 0.0049283960928059763 -0.0036024085338074328 0 0.0049324485572476446 -0.0036426513029656354 0 0.0049283960928059763 -0.0036024085338074328 0 0.0048547110200924974 -0.0035617056077540017 0 0.0049324485572476446 -0.0036426513029656354 0 0.0048547110200924974 -0.0035617056077540017 0 0.0048113330143793789 -0.0036162730364215226 0 0.0049324485572476446 -0.0036426513029656354 0 0.0048547110200924974 -0.0035617056077540017 0 0.0048113330143793789 -0.0036162730364215226 0 0.0047104255318119346 -0.0035254872522635316 0 0.0048113330143793789 -0.0036162730364215226 0 0.0048973688074406664 -0.0036916892079426099 0 0.0048452931533358515 -0.0037788383113747104 0 0.0048113330143793789 -0.0036162730364215226 0 0.0049324485572476446 -0.0036426513029656354 0 0.0048973688074406664 -0.0036916892079426099 0 0.0048113330143793789 -0.0036162730364215226 0 0.0048452931533358515 -0.0037788383113747104 0 0.0046921739512071113 -0.0036687060093552656 0 0.0049722510040407343 -0.0036356194199783083 0 0.0049324485572476446 -0.0036426513029656354 0 0.005003315562416788 -0.0037352856872628001 0 0.0049324485572476446 -0.0036426513029656354 0 0.0048973688074406664 -0.0036916892079426099 0 0.005003315562416788 -0.0037352856872628001 0 0.0046529657368180183 -0.0064069506629462316 0 0.0045306659372221772 -0.0075898936521077223 0 0.005003315562416788 -0.0037352856872628001 0 0.0048452931533358515 -0.0037788383113747104 0 0.0050413045717840549 -0.0040045183445772611 0 0.0048973688074406664 -0.0036916892079426099 0 0.005003315562416788 -0.0037352856872628001 0 0.0048452931533358515 -0.0037788383113747104 0 0.0048452931533358515 -0.0037788383113747104 0 0.0048156962703440409 -0.0040318907180258773 0 0.0046625178105600667 -0.0038377368021656534 0 0.0048452931533358515 -0.0037788383113747104 0 0.0048156962703440409 -0.0040318907180258773 0 0.0050413045717840549 -0.0040045183445772611 0 0.0045306659372221772 -0.0075898936521077223 0 0.0046408939691832711 -0.0066319099954397168 0 0.0048156962703440409 -0.0040318907180258773 0 0.0050413045717840549 -0.0040045183445772611 0 0.0050299545783562011 -0.0044619974894380115 0 0.004122519722918775 -0.010464978534973949 0 0.0032024700502500981 -0.0096070091838381198 0 0.0042385980570470673 -0.0089324567765968477 0 0.0048156962703440409 -0.0040318907180258773 0 0.0050299545783562011 -0.0044619974894380115 0 0.0045765160425094474 -0.0041873210669303631 0 0.002361476138554116 -0.0096179786187010965 0 0.0025383398472448747 -0.0092910568311524565 0 0.0020751410094580832 -0.010176493777195596 0 0.0032024700502500981 -0.0096070091838381198 0 0.0024047648872973747 -0.0088123741357370756 0 0.004122519722918775 -0.010464978534973949 0 0.0032024700502500981 -0.0096070091838381198 0 0.0029850579485393458 -0.011114643875188707 0 0.0020751410094580832 -0.010176493777195596 0 0.0032024700502500981 -0.0096070091838381198 0 0.0029850579485393458 -0.011114643875188707 0 0.0020751410094580832 -0.010176493777195596 0 0.0029850579485393458 -0.011114643875188707 0 0.0017588140851979267 -0.011679545143855125 0 0.0029850579485393458 -0.011114643875188707 0 0.0027008318661284948 -0.012776375293509661 0 0.0017588140851979267 -0.011679545143855125 0 0.0039427588952097208 -0.012142070880119767 0 0.0029850579485393458 -0.011114643875188707 0 0.0027008318661284948 -0.012776375293509661 0 0.0039427588952097208 -0.012142070880119767 0 0.004122519722918775 -0.010464978534973949 0 0.0029850579485393458 -0.011114643875188707 0 0.0037524886305214432 -0.015694739652009817 0 0.0046529657368180183 -0.0064069506629462316 0 0.003686629632726405 -0.013917396607063502 0 0.0039427588952097208 -0.012142070880119767 0 0.0027008318661284948 -0.012776375293509661 0 0.0036438111717890229 -0.0243587121898899 0 0.0033699981439383841 -0.024228146309507339 0 0.0034135184504041449 -0.023948891586579552 0 0.0036438111717890229 -0.0243587121898899 0 0.0035124785665269827 -0.024363484762877499 0 0.0033699981439383841 -0.024228146309507339 0 0.0032940347591380436 -0.019100159316238288 0 0.0027921940746277155 -0.017430141992844088 0 0.0035124785665269827 -0.024363484762877499 0 0.0033699981439383841 -0.024228146309507339 0 0.0032691738604858135 -0.024367822259950385 0 0.0033699981439383841 -0.024228146309507339 0 0.0032691738604858135 -0.024367822259950385 0 0.0031742680001890754 -0.024183318614832625 0 0.0030332297724504961 -0.024440750593099546 0 0.0031742680001890754 -0.024183318614832625 0 0.003019383627039829 -0.024246712588171827 0 0.0030332297724504961 -0.024440750593099546 0 0.0032691738604858135 -0.024367822259950385 0 0.0031742680001890754 -0.024183318614832625 0 0.0031742680001890754 -0.024183318614832625 0 0.0031000494183832817 -0.024098760127102027 0 0.0032012450968226473 -0.02400699379045378 0 0.0031742680001890754 -0.024183318614832625 0 0.003019383627039829 -0.024246712588171827 0 0.0031000494183832817 -0.024098760127102027 0 0.0033699981439383841 -0.024228146309507339 0 0.0031742680001890754 -0.024183318614832625 0 0.0033580748552671596 -0.024108519199310539 0 0.0031742680001890754 -0.024183318614832625 0 0.0033580748552671596 -0.024108519199310539 0 0.0032012450968226473 -0.02400699379045378 0 0.0026756286659337819 -0.025405742953326545 0 0.0027921940746277155 -0.017430141992844088 0 0.0030332297724504961 -0.024440750593099546 0 0.0029027066131064178 -0.02439388256594012 0 0.003019383627039829 -0.024246712588171827 0 0.003019383627039829 -0.024246712588171827 0 0.0030085733394954331 -0.024101870723880276 0 0.0031000494183832817 -0.024098760127102027 0 0.003019383627039829 -0.024246712588171827 0 0.0029339335012002975 -0.024261045988229132 0 0.0030085733394954331 -0.024101870723880276 0 0.0029339335012002975 -0.024261045988229132 0 0.0029103981548889942 -0.024157159036186149 0 0.0028499827461426742 -0.024339842960370308 0 0.0029027066131064178 -0.02439388256594012 0 0.0029339335012002975 -0.024261045988229132 0 0.0028499827461426742 -0.024339842960370308 0 0.0029027066131064178 -0.02439388256594012 0 0.003019383627039829 -0.024246712588171827 0 0.0029339335012002975 -0.024261045988229132 0 0.0029339335012002975 -0.024261045988229132 0 0.0029103981548889942 -0.024157159036186149 0 0.0030085733394954331 -0.024101870723880276 0 0.0029103981548889942 -0.024157159036186149 0 0.0030085733394954331 -0.024101870723880276 0 0.002976064498532275 -0.02403850236104783 0 0.0030085733394954331 -0.024101870723880276 0 0.0030298661840397734 -0.02399323721875634 0 0.002976064498532275 -0.02403850236104783 0 0.0030085733394954331 -0.024101870723880276 0 0.0031000494183832817 -0.024098760127102027 0 0.0030824486298712253 -0.023959661271367304 0 0.0030085733394954331 -0.024101870723880276 0 0.0030298661840397734 -0.02399323721875634 0 0.0030824486298712253 -0.023959661271367304 0 0.0030298661840397734 -0.02399323721875634 0 0.0030693239340584761 -0.023935402680028424 0 0.0029975576217616843 -0.023949702411764966 0 0.0030298661840397734 -0.02399323721875634 0 0.0030693239340584761 -0.023935402680028424 0 0.0030824486298712253 -0.023959661271367304 0 0.0030693239340584761 -0.023935402680028424 0 0.0029975576217616843 -0.023949702411764966 0 0.0029890381283229493 -0.023844197421516247 0 0.0030298661840397734 -0.02399323721875634 0 0.0029975576217616843 -0.023949702411764966 0 0.002976064498532275 -0.02403850236104783 0 0.0029975576217616843 -0.023949702411764966 0 0.002976064498532275 -0.02403850236104783 0 0.0028913986894417666 -0.023983711824104033 0 0.0029103981548889942 -0.024157159036186149 0 0.002976064498532275 -0.02403850236104783 0 0.0028913986894417666 -0.023983711824104033 0 0.0029975576217616843 -0.023949702411764966 0 0.0028913986894417666 -0.023983711824104033 0 0.0029890381283229493 -0.023844197421516247 0 0.002361476138554116 -0.0096179786187010965 0 0.0027921940746277155 -0.017430141992844088 0 0.0027921940746277155 -0.017430141992844088 0 0.0021954089358323737 -0.017889932963130781 0 0.0025951481975844183 -0.011123964607084282 0 0.0022739202895951122 -0.013065716536834528 0 0.0011628374323409286 -0.011730036867361378 0 0.0031000494183832817 -0.024098760127102027 0 0.0032012450968226473 -0.02400699379045378 0 0.0030824486298712253 -0.023959661271367304 0 0.0030621269236784394 -0.023864675003176999 0 0.0032012450968226473 -0.02400699379045378 0 0.0030824486298712253 -0.023959661271367304 0 0.0001784607601256831 -0.010486637931818395 0 0.0011628374323409286 -0.011730036867361378 0 0.0015726043125911637 -0.010399661721835762 0 0.0016867529906985175 -0.018192935386352881 0 0.0021954089358323737 -0.017889932963130781 0 0.0001784607601256831 -0.010486637931818395 0 0.0015726043125911637 -0.010399661721835762 0 0.0011944456734565374 -0.0092667757425021289 0 0.0016867529906985175 -0.018192935386352881 0 0.0030111780748772951 -0.0238361485349824 0 0.0025951481975844183 -0.011123964607084282 0 0.0015726043125911637 -0.010399661721835762 0 0.0027548060095589702 -0.0093032674475347545 0 0.0025951481975844183 -0.011123964607084282 0 0.0011628374323409286 -0.011730036867361378 0 0.0015726043125911637 -0.010399661721835762 0 0.0015726043125911637 -0.010399661721835762 0 0.0011944456734565374 -0.0092667757425021289 0 0.0027548060095589702 -0.0093032674475347545 0 0.0011944456734565374 -0.0092667757425021289 0 0.0018452607871280774 -0.0082798803355679188 0 0.0027548060095589702 -0.0093032674475347545 0 0.0001784607601256831 -0.010486637931818395 0 0.0011944456734565374 -0.0092667757425021289 0 -9.5518784204791615e-05 -0.0089092829536356489 0 0.0011944456734565374 -0.0092667757425021289 0 0.00086918338867109915 -0.0081170926069138883 0 0.0018452607871280774 -0.0082798803355679188 0 0.0011944456734565374 -0.0092667757425021289 0 0.00086918338867109915 -0.0081170926069138883 0 -9.5518784204791615e-05 -0.0089092829536356489 0 0.0016152558375696735 -0.0076908720089011269 0 0.00085879545119617578 -0.014255109051009485 0 0.00086918338867109915 -0.0081170926069138883 0 0.0018452607871280774 -0.0082798803355679188 0 0.0017134880148977406 -0.007316705962760019 0 0.0028780333594767187 -0.024420127856275977 0 0.0028821269786644087 -0.02442879620509936 0 0.0028612256687598173 -0.024414958059661585 0 0.0028347586700592517 -0.024367510779708616 0 0.002301182681996773 -0.022245316840306107 0 0.0016867529906985175 -0.018192935386352881 0 0.00085879545119617578 -0.014255109051009485 0 0.001665632458702857 -0.018725759586956253 0 0.0011953577967769064 -0.018186625941548778 0 0.0014887287376604298 -0.017916043780531382 0 0.002301182681996773 -0.022245316840306107 0 0.00085879545119617578 -0.014255109051009485 0 0.0016867529906985175 -0.018192935386352881 0 0.002301182681996773 -0.022245316840306107 0 0.00086918338867109915 -0.0081170926069138883 0 0.00036382405505708563 -0.0086217902756525987 0 0.00023201581980895485 -0.0074265770615870013 0 0.00085879545119617578 -0.014255109051009485 0 0.0012568932026522782 -0.015864365365434504 0 0.0018561017015164484 -0.022696398333016767 0 0.0027593245605989337 -0.023251359327935213 0 0.0021234750376686656 -0.023678187190986803 0 0.002301182681996773 -0.022245316840306107 0 0.0029086839460022921 -0.024059015253266175 0 0.0028821269786644087 -0.02442879620509936 0 0.0028612256687598173 -0.024414958059661585 0 0.0028855713752677405 -0.024451130423009868 0 0.0021607309884697696 -0.022434149608032226 0 0.0018561017015164484 -0.022696398333016767 0 0.0027593245605989337 -0.023251359327935213 0 0.0027593245605989337 -0.023251359327935213 0 0.0021234750376686656 -0.023678187190986803 0 0.0027449355077060178 -0.024123782678663629 0 0.0012568932026522782 -0.015864365365434504 0 0.0014249026469948551 -0.015316364034549454 0 0.00023201581980895485 -0.0074265770615870013 0 0.00086005830980148354 -0.0068952815416079317 0 0.00035225496336040401 -0.0063566552708659314 0 0.0021234750376686656 -0.023678187190986803 0 0.0027449355077060178 -0.024123782678663629 0 0.0024999111026216352 -0.024406025614875333 0 0.0018452607871280774 -0.0082798803355679188 0 0.0017134880148977406 -0.007316705962760019 0 0.0026917632126449531 -0.0076685772024515497 0 0.00086918338867109915 -0.0081170926069138883 0 0.0017134880148977406 -0.007316705962760019 0 0.00086005830980148354 -0.0068952815416079317 0 0.00086918338867109915 -0.0081170926069138883 0 0.00023201581980895485 -0.0074265770615870013 0 0.00086005830980148354 -0.0068952815416079317 0 0.00086005830980148354 -0.0068952815416079317 0 0.001524741305264856 -0.0064850588460740313 0 0.00078120206567435478 -0.0060568423698040674 0 0.0017134880148977406 -0.007316705962760019 0 0.001524741305264856 -0.0064850588460740313 0 0.0023906240934576249 -0.0064194673859900133 0 0.0017134880148977406 -0.007316705962760019 0 0.00086005830980148354 -0.0068952815416079317 0 0.001524741305264856 -0.0064850588460740313 0 0.0026917632126449531 -0.0076685772024515497 0 0.0034354751700713731 -0.0062050241011330958 0 0.0043284349961752282 -0.0074965883495963651 0 0.0017134880148977406 -0.007316705962760019 0 0.0023906240934576249 -0.0064194673859900133 0 0.0026917632126449531 -0.0076685772024515497 0 0.0023906240934576249 -0.0064194673859900133 0 0.0026917632126449531 -0.0076685772024515497 0 0.0034354751700713731 -0.0062050241011330958 0 0.0034354751700713731 -0.0062050241011330958 0 0.0043731984213841325 -0.0056859420268629201 0 0.0043284349961752282 -0.0074965883495963651 0 0.0044293942766859915 -0.0057113329301626695 0 0.0045692374317098799 -0.0062824279240140729 0 0.0048598996987684363 -0.0050668654770516146 0 0.0045602472071117374 -0.0048558828108142627 0 0.0044195766020651553 -0.0053552029862107752 0 0.0043731984213841325 -0.0056859420268629201 0 0.0048598996987684363 -0.0050668654770516146 0 0.0044195766020651553 -0.0053552029862107752 0 0.0045692374317098799 -0.0062824279240140729 0 0.0046408939691832711 -0.0066319099954397168 0 0.0043284349961752282 -0.0074965883495963651 0 0.0042385980570470673 -0.0089324567765968477 0 0.0033611161816745195 -0.0084425907513054621 0 0.0048598996987684363 -0.0050668654770516146 0 0.0050299545783562011 -0.0044619974894380115 0 0.0045602472071117374 -0.0048558828108142627 0 0.0050299545783562011 -0.0044619974894380115 0 0.0045765160425094474 -0.0041873210669303631 0 0.0045602472071117374 -0.0048558828108142627 0 0.0032024700502500981 -0.0096070091838381198 0 0.0042385980570470673 -0.0089324567765968477 0 0.0033611161816745195 -0.0084425907513054621 0 0.0032024700502500981 -0.0096070091838381198 0 0.0033611161816745195 -0.0084425907513054621 0 0.0024047648872973747 -0.0088123741357370756 0 0.0026917632126449531 -0.0076685772024515497 0 0.0043284349961752282 -0.0074965883495963651 0 0.0033611161816745195 -0.0084425907513054621 0 0.0018452607871280774 -0.0082798803355679188 0 0.0026917632126449531 -0.0076685772024515497 0 0.0027548060095589702 -0.0093032674475347545 0 0.0027193493971635922 -0.0076925238156304509 0 0.0025383398472448747 -0.0092910568311524565 0 0.0026917632126449531 -0.0076685772024515497 0 0.0033611161816745195 -0.0084425907513054621 0 0.0024047648872973747 -0.0088123741357370756 0 0.0019921257191654906 -0.035602886358689564 0 0.0021202499141799473 -0.037375080053103832 0 0.00059908647367689033 -0.029203831221652425 0 0.0013045649762628547 -0.029204995511659702 0 0.00098348308101377929 -0.028400597559193507 0 0.0022466346962560671 -0.025722034430422085 0 0.0019739250034091636 -0.033098342565894764 0 0.00059908647367689033 -0.029203831221652425 0 0.0013045649762628547 -0.029204995511659702 0 0.00083537921401063964 -0.030007852704550822 0 0.003080545738624799 -0.044153962483044276 0 0.0033753837023994039 -0.043885978972357742 0 0.0032670663447235187 -0.044101745165614395 0 0.0021202499141799473 -0.037375080053103832 0 0.0019739250034091636 -0.033098342565894764 0 0.0030840775049244839 -0.04419426686671734 0 0.0032670663447235187 -0.044101745165614395 0 0.0031225287725439354 -0.044224872999211393 0 0.0030840775049244839 -0.04419426686671734 0 0.003080545738624799 -0.044153962483044276 0 0.0032670663447235187 -0.044101745165614395 0 0.0019739250034091636 -0.033098342565894764 0 0.0016877443285579156 -0.039689544805766322 0 0.00093764916370801549 -0.034248337962431388 0 0.00090129218659300021 -0.034154326352392933 0 0.00099829146606894938 -0.034145727722429679 0 0.00097697817037516958 -0.034039516548698627 0 0.00090129218659300021 -0.034154326352392933 0 0.00099829146606894938 -0.034145727722429679 0 0.0019739250034091636 -0.033098342565894764 0 0.0016881077770483468 -0.028688295436776638 0 0.0027528102534171146 -0.024633567447187782 0 0.0027646331653235641 -0.024600575942218889 0 0.0027826182240075687 -0.024586729776805399 0 0.0027612811417653694 -0.024640132709345949 0 0.0027528102534171146 -0.024633567447187782 0 0.0027826182240075687 -0.024586729776805399 0 0.0027759538888381874 -0.024528385739103792 0 0.0027293757851098491 -0.024630806562776969 0 0.0027646331653235641 -0.024600575942218889 0 0.0027293757851098491 -0.024630806562776969 0 0.0027528102534171146 -0.024633567447187782 0 0.0027646331653235641 -0.024600575942218889 0 0.0027646331653235641 -0.024600575942218889 0 0.0027938003696844588 -0.024559548856457006 0 0.0027826182240075687 -0.024586729776805399 0 0.0027759538888381874 -0.024528385739103792 0 0.0027646331653235641 -0.024600575942218889 0 0.0027938003696844588 -0.024559548856457006 0 0.0027938003696844588 -0.024559548856457006 0 0.0027826182240075687 -0.024586729776805399 0 0.0028185024396221022 -0.024521463086648852 0 0.0028003884702454095 -0.024544916262710267 0 0.0027826182240075687 -0.024586729776805399 0 0.0028185024396221022 -0.024521463086648852 0 0.0027938003696844588 -0.024559548856457006 0 0.0028185024396221022 -0.024521463086648852 0 0.0028291155408970265 -0.024509412970531396 0 0.0028185024396221022 -0.024521463086648852 0 0.0028291155408970265 -0.024509412970531396 0 0.0028472902763032326 -0.024489608404549713 0 0.0027759538888381874 -0.024528385739103792 0 0.0027938003696844588 -0.024559548856457006 0 0.0028291155408970265 -0.024509412970531396 0 0.0022466346962560671 -0.025722034430422085 0 0.002176849173869557 -0.026731439597505676 0 0.0027759538888381874 -0.024528385739103792 0 0.0028291155408970265 -0.024509412970531396 0 0.0028449990042959845 -0.024478212420384723 0 0.0028291155408970265 -0.024509412970531396 0 0.0028739174024347484 -0.024477777799835693 0 0.0028472902763032326 -0.024489608404549713 0 0.0028291155408970265 -0.024509412970531396 0 0.0028739174024347484 -0.024477777799835693 0 0.0028449990042959845 -0.024478212420384723 0 0.0028739174024347484 -0.024477777799835693 0 0.0028693677423747253 -0.02446004247380856 0 0.0028472902763032326 -0.024489608404549713 0 0.0028739174024347484 -0.024477777799835693 0 0.0028693677423747253 -0.02446004247380856 0 0.0029143812551451396 -0.024460722832720556 0 0.0028693677423747253 -0.02446004247380856 0 0.0028756981231126029 -0.024441001502172925 0 0.0029143812551451396 -0.024460722832720556 0 0.0028693677423747253 -0.02446004247380856 0 0.0028314592018684318 -0.024388058649870092 0 0.0028756981231126029 -0.024441001502172925 0 0.0028693677423747253 -0.02446004247380856 0 0.0028357589704021769 -0.02445584030950386 0 0.0028314592018684318 -0.024388058649870092 0 0.0028693677423747253 -0.02446004247380856 0 0.0028472902763032326 -0.024489608404549713 0 0.0028357589704021769 -0.02445584030950386 0 0.0028185024396221022 -0.024521463086648852 0 0.0028472902763032326 -0.024489608404549713 0 0.0028357589704021769 -0.02445584030950386 0 0.0028185024396221022 -0.024521463086648852 0 0.002816715094720566 -0.024500300272823874 0 0.0028357589704021769 -0.02445584030950386 0 0.0028003884702454095 -0.024544916262710267 0 0.0028096290387815605 -0.024508730935216088 0 0.002816715094720566 -0.024500300272823874 0 0.0028003884702454095 -0.024544916262710267 0 0.0028185024396221022 -0.024521463086648852 0 0.002816715094720566 -0.024500300272823874 0 0.002816715094720566 -0.024500300272823874 0 0.0028209843036957707 -0.024464835913623063 0 0.0028357589704021769 -0.02445584030950386 0 0.0028096290387815605 -0.024508730935216088 0 0.002816715094720566 -0.024500300272823874 0 0.0028209843036957707 -0.024464835913623063 0 0.0028209843036957707 -0.024464835913623063 0 0.0028357589704021769 -0.02445584030950386 0 0.0028304822201464077 -0.024408899987057833 0 0.0028357589704021769 -0.02445584030950386 0 0.0028304822201464077 -0.024408899987057833 0 0.0028314592018684318 -0.024388058649870092 0 0.0028304822201464077 -0.024408899987057833 0 0.0028314592018684318 -0.024388058649870092 0 0.0028499827461426742 -0.024339842960370308 0 0.002818796397772843 -0.024493790872895382 0 0.0028209843036957707 -0.024464835913623063 0 0.0028366841637925693 -0.024439392608448834 0 0.0028304822201464077 -0.024408899987057833 0 0.0028366841637925693 -0.024439392608448834 0 0.0028499827461426742 -0.024339842960370308 0 0.0028209843036957707 -0.024464835913623063 0 0.0028304822201464077 -0.024408899987057833 0 0.0028366841637925693 -0.024439392608448834 0 0.0029027066131064178 -0.02439388256594012 0 0.0028366841637925693 -0.024439392608448834 0 0.0028499827461426742 -0.024339842960370308 0 0.0029103981548889942 -0.024157159036186149 0 0.0028499827461426742 -0.024339842960370308 0 0.0028237154807307964 -0.024176006325112864 0 0.0028314592018684318 -0.024388058649870092 0 0.0028678729417832617 -0.024425134799563639 0 0.0028756981231126029 -0.024441001502172925 0 0.0028284806355221323 -0.024370876591767586 0 0.0028744388994391286 -0.024271978961643258 0 0.0028314592018684318 -0.024388058649870092 0 0.0028499827461426742 -0.024339842960370308 0 0.0028237154807307964 -0.024176006325112864 0 0.0028678729417832617 -0.024425134799563639 0 0.0028756981231126029 -0.024441001502172925 0 0.0029003653733215467 -0.024437151899118586 0 0.0028780333594767187 -0.024420127856275977 0 0.0028678729417832617 -0.024425134799563639 0 0.0029003653733215467 -0.024437151899118586 0 0.0029103981548889942 -0.024157159036186149 0 0.0028913986894417666 -0.023983711824104033 0 0.0028237154807307964 -0.024176006325112864 0 0.0028347586700592517 -0.024367510779708616 0 0.0028744388994391286 -0.024271978961643258 0 0.0028780333594767187 -0.024420127856275977 0 0.0028821269786644087 -0.02442879620509936 0 0.0029003653733215467 -0.024437151899118586 0 0.0028821269786644087 -0.02442879620509936 0 0.0029003653733215467 -0.024437151899118586 0 0.0029203512290926839 -0.024453847229644703 0 0.0028756981231126029 -0.024441001502172925 0 0.0029003653733215467 -0.024437151899118586 0 0.0029143812551451396 -0.024460722832720556 0 0.0029003653733215467 -0.024437151899118586 0 0.0029203512290926839 -0.024453847229644703 0 0.0029840316339861429 -0.024461916643341099 0 0.0028821269786644087 -0.02442879620509936 0 0.0028855713752677405 -0.024451130423009868 0 0.0029203512290926839 -0.024453847229644703 0 0.0027593245605989337 -0.023251359327935213 0 0.0027449355077060178 -0.024123782678663629 0 0.0031135259401873575 -0.02401742993501077 0 0.0029086839460022921 -0.024059015253266175 0 0.0029755537529920994 -0.024204522352781119 0 0.0028855713752677405 -0.024451130423009868 0 0.0029203512290926839 -0.024453847229644703 0 0.0029313395626484359 -0.024487738730158658 0 0.0027449355077060178 -0.024123782678663629 0 0.0031135259401873575 -0.02401742993501077 0 0.0029892983650555232 -0.024517236094901161 0 0.0029755537529920994 -0.024204522352781119 0 0.0031118017669749384 -0.024587115471562924 0 0.0031135259401873575 -0.02401742993501077 0 0.0030983852950590748 -0.024628188598868624 0 0.0029892983650555232 -0.024517236094901161 0 0.0029313395626484359 -0.024487738730158658 0 0.0030310245705077112 -0.024506926026921984 0 0.0030983852950590748 -0.024628188598868624 0 0.0029203512290926839 -0.024453847229644703 0 0.0029313395626484359 -0.024487738730158658 0 0.0029840316339861429 -0.024461916643341099 0 0.0029313395626484359 -0.024487738730158658 0 0.0030310245705077112 -0.024506926026921984 0 0.0029840316339861429 -0.024461916643341099 0 0.0030310245705077112 -0.024506926026921984 0 0.0029840316339861429 -0.024461916643341099 0 0.0031028602621163562 -0.024493401531309099 0 0.0030310245705077112 -0.024506926026921984 0 0.0031028602621163562 -0.024493401531309099 0 0.0030983852950590748 -0.024628188598868624 0 0.0028469011471206332 -0.026575129089599046 0 0.0022625683356044305 -0.026811070189835709 0 0.0021510381182090529 -0.027755694014818352 0 0.0022625683356044305 -0.026811070189835709 0 0.0020461650339887436 -0.026377585365720702 0 0.0024126443290772223 -0.025991124855271292 0 0.0028469011471206332 -0.026575129089599046 0 0.0022625683356044305 -0.026811070189835709 0 0.0024126443290772223 -0.025991124855271292 0 0.0029840316339861429 -0.024461916643341099 0 0.0031028602621163562 -0.024493401531309099 0 0.0029390206186638229 -0.024465325710151919 0 0.0029319939245114977 -0.025551680752003807 0 0.0025725577386178726 -0.026060470202736417 0 0.0028739174024347484 -0.024477777799835693 0 0.0029390206186638229 -0.024465325710151919 0 0.0029143812551451396 -0.024460722832720556 0 0.0029840316339861429 -0.024461916643341099 0 0.0029390206186638229 -0.024465325710151919 0 0.0029143812551451396 -0.024460722832720556 0 0.0029003653733215467 -0.024437151899118586 0 0.0029840316339861429 -0.024461916643341099 0 0.0029143812551451396 -0.024460722832720556 0 0.0028739174024347484 -0.024477777799835693 0 0.0029390206186638229 -0.024465325710151919 0 0.0028449990042959845 -0.024478212420384723 0 0.0013045649762628547 -0.029204995511659702 0 0.0016777910871519385 -0.02849283846925774 0 0.00098348308101377929 -0.028400597559193507 0 0.0016777910871519385 -0.02849283846925774 0 0.0013772911301796556 -0.027694791271464438 0 0.00098348308101377929 -0.028400597559193507 0 0.0025725577386178726 -0.026060470202736417 0 0.002176849173869557 -0.026731439597505676 0 0.0021510381182090529 -0.027755694014818352 0 0.0016777910871519385 -0.02849283846925774 0 0.0013772911301796556 -0.027694791271464438 0 0.0022625683356044305 -0.026811070189835709 0 0.0021510381182090529 -0.027755694014818352 0 0.0017980204450345184 -0.027106599681437124 0 0.0021510381182090529 -0.027755694014818352 0 0.0017980204450345184 -0.027106599681437124 0 0.0013772911301796556 -0.027694791271464438 0 0.0017980204450345184 -0.027106599681437124 0 0.0011728925392954581 -0.026975379520263319 0 0.0016614408340386768 -0.026268108759006724 0 0.0017980204450345184 -0.027106599681437124 0 0.0020461650339887436 -0.026377585365720702 0 0.0016614408340386768 -0.026268108759006724 0 0.0022625683356044305 -0.026811070189835709 0 0.0017980204450345184 -0.027106599681437124 0 0.0020461650339887436 -0.026377585365720702 0 0.0011728925392954581 -0.026975379520263319 0 0.0013772911301796556 -0.027694791271464438 0 0.00091369711040644624 -0.027448576321999783 0 0.0017980204450345184 -0.027106599681437124 0 0.0011728925392954581 -0.026975379520263319 0 0.0013772911301796556 -0.027694791271464438 0 0.0013772911301796556 -0.027694791271464438 0 0.00091383545782554125 -0.027880863174226438 0 0.00091369711040644624 -0.027448576321999783 0 0.0011728925392954581 -0.026975379520263319 0 0.00091369711040644624 -0.027448576321999783 0 0.00076317018043204428 -0.027161149574790246 0 0.00091369711040644624 -0.027448576321999783 0 0.0006626567526302465 -0.027819079671275383 0 0.00076317018043204428 -0.027161149574790246 0 0.00061497862385673273 -0.028136436206081947 0 0.0006626567526302465 -0.027819079671275383 0 0.00076317018043204428 -0.027161149574790246 0 0.0006297352952933156 -0.028105408850116288 0 0.00056346130138543724 -0.028063391066459002 0 0.00091383545782554125 -0.027880863174226438 0 0.00091369711040644624 -0.027448576321999783 0 0.0006626567526302465 -0.027819079671275383 0 0.00091383545782554125 -0.027880863174226438 0 0.0006626567526302465 -0.027819079671275383 0 0.00068323927168877313 -0.028048740920417696 0 0.00091383545782554125 -0.027880863174226438 0 0.00068323927168877313 -0.028048740920417696 0 0.00098348308101377929 -0.028400597559193507 0 0.00045593920963700945 -0.028453071123864415 0 0.00068323927168877313 -0.028048740920417696 0 0.00098348308101377929 -0.028400597559193507 0 0.0013772911301796556 -0.027694791271464438 0 0.00091383545782554125 -0.027880863174226438 0 0.00098348308101377929 -0.028400597559193507 0 0.00045593920963700945 -0.028453071123864415 0 0.00059908647367689033 -0.029203831221652425 0 0.00098348308101377929 -0.028400597559193507 0 0.00041943922454100593 -0.029416738413642247 0 0.00055571569616591184 -0.029117822468443036 0 0.00038471336706139356 -0.029574627222693294 0 0.00055571569616591184 -0.029117822468443036 0 0.00042451999009098076 -0.029452012913315274 0 0.00058146287776302008 -0.029285063043010866 0 0.00055571569616591184 -0.029117822468443036 0 0.00042451999009098076 -0.029452012913315274 0 0.00038471336706139356 -0.029574627222693294 0 0.0005705935942643544 -0.029294775895943211 0 0.00038471336706139356 -0.029574627222693294 0 0.00021782042828555497 -0.029067493286731711 0 0.00042451999009098076 -0.029452012913315274 0 0.00038471336706139356 -0.029574627222693294 0 0.00021782042828555497 -0.029067493286731711 0 0.00056346130138543724 -0.028063391066459002 0 0.00073786667984257644 -0.028307899287537474 0 0.0011728925392954581 -0.026975379520263319 0 0.00076317018043204428 -0.027161149574790246 0 0.0011188548338440807 -0.026769358270382251 0 0.00042451999009098076 -0.029452012913315274 0 0.00021782042828555497 -0.029067493286731711 0 0.00045305757708533187 -0.029436119376590849 0 0.0011188548338440807 -0.026769358270382251 0 0.0012270372130929437 -0.026794108860012978 0 0.0013057038580829262 -0.02663579133963093 0 0.00073786667984257644 -0.028307899287537474 0 0.0010738553135452163 -0.026702973953982079 0 0.0011178364884587733 -0.026969348779909703 0 0.0014525158204527079 -0.025984770394300909 0 0.0011728925392954581 -0.026975379520263319 0 0.0016614408340386768 -0.026268108759006724 0 0.0014106105358121254 -0.02558644407676483 0 0.0011728925392954581 -0.026975379520263319 0 0.0011188548338440807 -0.026769358270382251 0 0.0012270372130929437 -0.026794108860012978 0 0.0020461650339887436 -0.026377585365720702 0 0.0016614408340386768 -0.026268108759006724 0 0.0020407397926656442 -0.025552643207698938 0 0.0016614408340386768 -0.026268108759006724 0 0.0020407397926656442 -0.025552643207698938 0 0.0014106105358121254 -0.02558644407676483 0 0.0020407397926656442 -0.025552643207698938 0 0.0014106105358121254 -0.02558644407676483 0 0.0018751865523884861 -0.024691100838524247 0 0.0014525158204527079 -0.025984770394300909 0 0.0010738553135452163 -0.026702973953982079 0 0.00088097070845895721 -0.029338425548143487 0 0.00058146287776302008 -0.029285063043010866 0 0.00077755942760758935 -0.029123833257854136 0 0.00045305757708533187 -0.029436119376590849 0 0.00088097070845895721 -0.029338425548143487 0 0.00058146287776302008 -0.029285063043010866 0 0.00042451999009098076 -0.029452012913315274 0 0.00045305757708533187 -0.029436119376590849 0 0.00058146287776302008 -0.029285063043010866 0 0.00055571569616591184 -0.029117822468443036 0 0.00058146287776302008 -0.029285063043010866 0 0.00064003303512290321 -0.02907082229417415 0 0.00058146287776302008 -0.029285063043010866 0 0.00064003303512290321 -0.02907082229417415 0 0.00077755942760758935 -0.029123833257854136 0 0.00064003303512290321 -0.02907082229417415 0 0.00077755942760758935 -0.029123833257854136 0 0.00075568684800254784 -0.028944773921420402 0 0.00077755942760758935 -0.029123833257854136 0 0.0012034095355844012 -0.028945077530482956 0 0.00075568684800254784 -0.028944773921420402 0 0.00088097070845895721 -0.029338425548143487 0 0.00077755942760758935 -0.029123833257854136 0 0.0012034095355844012 -0.028945077530482956 0 0.00039979869090614163 -0.02629679679963386 0 0.0011466645975154958 -0.025697966730722492 0 0.00079816383579991773 -0.025447413080501587 0 0.0010738553135452163 -0.026702973953982079 0 0.00092046740109687783 -0.027831662164054267 0 0.0011466645975154958 -0.025697966730722492 0 0.00079816383579991773 -0.025447413080501587 0 0.0012746213440710786 -0.025148858192617165 0 0.0025494721356752238 -0.024307069172526754 0 0.0028980573551893483 -0.024436676742727724 0 0.0028477696056520745 -0.024130818350249741 0 0.0020416067066242371 -0.024932070947654036 0 0.0012793345578105573 -0.023538128009413132 0 0.0025494721356752238 -0.024307069172526754 0 0.002738264417181347 -0.024730490235008371 0 0.0028980573551893483 -0.024436676742727724 0 0.0025494721356752238 -0.024307069172526754 0 0.002738264417181347 -0.024730490235008371 0 0.0023435177475146277 -0.024880249597329901 0 0.0018751865523884861 -0.024691100838524247 0 0.0025494721356752238 -0.024307069172526754 0 0.0023435177475146277 -0.024880249597329901 0 0.0010738553135452163 -0.026702973953982079 0 0.0020416067066242371 -0.024932070947654036 0 0.0020407397926656442 -0.025552643207698938 0 0.0018751865523884861 -0.024691100838524247 0 0.0023435177475146277 -0.024880249597329901 0 0.002738264417181347 -0.024730490235008371 0 0.0023435177475146277 -0.024880249597329901 0 0.0024178118754043577 -0.025401937427875863 0 0.0020407397926656442 -0.025552643207698938 0 0.0023435177475146277 -0.024880249597329901 0 0.0024178118754043577 -0.025401937427875863 0 0.0020407397926656442 -0.025552643207698938 0 0.0024178118754043577 -0.025401937427875863 0 0.0024126443290772223 -0.025991124855271292 0 0.0020461650339887436 -0.026377585365720702 0 0.0020407397926656442 -0.025552643207698938 0 0.0024126443290772223 -0.025991124855271292 0 0.0024178118754043577 -0.025401937427875863 0 0.0024126443290772223 -0.025991124855271292 0 0.0027340517878213979 -0.025440752325362134 0 0.0031028602621163562 -0.024493401531309099 0 0.0030983852950590748 -0.024628188598868624 0 0.0031090450065267886 -0.024916196708009694 0 0.0029319939245114977 -0.025551680752003807 0 0.0031051995859731614 -0.024997294943618648 0 0.0028469011471206332 -0.026575129089599046 0 0.0024126443290772223 -0.025991124855271292 0 0.0027340517878213979 -0.025440752325362134 0 0.0028469011471206332 -0.026575129089599046 0 0.0027340517878213979 -0.025440752325362134 0 0.0031090450065267886 -0.024916196708009694 0 0.002738264417181347 -0.024730490235008371 0 0.0024178118754043577 -0.025401937427875863 0 0.0027340517878213979 -0.025440752325362134 0 0.002738264417181347 -0.024730490235008371 0 0.0027340517878213979 -0.025440752325362134 0 0.0031090450065267886 -0.024916196708009694 0 0.0031090450065267886 -0.024916196708009694 0 0.0029692465122568845 -0.024722990947143166 0 0.0029837235914561195 -0.024722841988389688 0 0.002738264417181347 -0.024730490235008371 0 0.0031090450065267886 -0.024916196708009694 0 0.0029692465122568845 -0.024722990947143166 0 0.0029692465122568845 -0.024722990947143166 0 0.0029837235914561195 -0.024722841988389688 0 0.002966741546277758 -0.02457626356005509 0 0.0030983852950590748 -0.024628188598868624 0 0.0031090450065267886 -0.024916196708009694 0 0.0029892983650555232 -0.024517236094901161 0 0.0031090450065267886 -0.024916196708009694 0 0.0029892983650555232 -0.024517236094901161 0 0.0029837235914561195 -0.024722841988389688 0 0.0028397723830663464 -0.024553080218302631 0 0.0029892983650555232 -0.024517236094901161 0 0.0029837235914561195 -0.024722841988389688 0 0.0027449355077060178 -0.024123782678663629 0 0.0028397723830663464 -0.024553080218302631 0 0.0029892983650555232 -0.024517236094901161 0 0.0028397723830663464 -0.024553080218302631 0 0.0029837235914561195 -0.024722841988389688 0 0.0029915493324103493 -0.024705527635889228 0 0.0029837235914561195 -0.024722841988389688 0 0.0029830422010436362 -0.024552927609395172 0 0.0029915493324103493 -0.024705527635889228 0 0.0029830422010436362 -0.024552927609395172 0 0.002984478418194424 -0.024370968994864319 0 0.0030856180814489518 -0.02417096626943906 0 0.0029830422010436362 -0.024552927609395172 0 0.002984478418194424 -0.024370968994864319 0 0.002966741546277758 -0.02457626356005509 0 0.0029837235914561195 -0.024722841988389688 0 0.0029830422010436362 -0.024552927609395172 0 0.002966741546277758 -0.02457626356005509 0 0.002738264417181347 -0.024730490235008371 0 0.0029692465122568845 -0.024722990947143166 0 0.0028980573551893483 -0.024436676742727724 0 0.0029692465122568845 -0.024722990947143166 0 0.002966741546277758 -0.02457626356005509 0 0.0028980573551893483 -0.024436676742727724 0 0.002984478418194424 -0.024370968994864319 0 0.002966741546277758 -0.02457626356005509 0 0.0028980573551893483 -0.024436676742727724 0 0.0028980573551893483 -0.024436676742727724 0 0.00299232767336054 -0.02428244312338702 0 0.0028477696056520745 -0.024130818350249741 0 0.002984478418194424 -0.024370968994864319 0 0.0028980573551893483 -0.024436676742727724 0 0.00299232767336054 -0.02428244312338702 0 0.0017066892732413039 -0.023400281061489225 0 0.0016918330178518615 -0.0221411265669894 0 0.0032040182160878198 -0.023832854817944883 0 0.0023528645669263324 -0.023800358310434214 0 0.0029885977484641678 -0.024168291296537383 0 0.0017066892732413039 -0.023400281061489225 0 0.0032040182160878198 -0.023832854817944883 0 0.0030856180814489518 -0.02417096626943906 0 0.002984478418194424 -0.024370968994864319 0 0.00299232767336054 -0.02428244312338702 0 0.0030856180814489518 -0.02417096626943906 0 0.0016918330178518615 -0.0221411265669894 0 0.002777014372870608 -0.020909790789618382 0 0.0032040182160878198 -0.023832854817944883 0 0.0022230403731817085 -0.014357556422687432 0 0.0021353709334091162 -0.01511305289840406 0 0.0016918330178518615 -0.0221411265669894 0 0.0013215891838304673 -0.020924886481641803 0 0.002777014372870608 -0.020909790789618382 0 0.0017066892732413039 -0.023400281061489225 0 6.6615957619301224e-05 -0.022200887712805928 0 0.00032393567422365496 -0.021999443586408089 0 0.0017066892732413039 -0.023400281061489225 0 0.0016918330178518615 -0.0221411265669894 0 0.00032393567422365496 -0.021999443586408089 0 0.0023528645669263324 -0.023800358310434214 0 0.0012793345578105573 -0.023538128009413132 0 0.0012793345578105573 -0.023538128009413132 0 0.0012086924779149762 -0.023412025008356239 0 6.7387460966538741e-05 -0.022199735924271879 0 0.00032393567422365496 -0.021999443586408089 0 0.00011592772404442857 -0.021223927316460781 0 0.00032393567422365496 -0.021999443586408089 0 0.00011592772404442857 -0.021223927316460781 0 0.00096695129010171974 -0.021607133541082141 0 0.0016918330178518615 -0.0221411265669894 0 0.00096695129010171974 -0.021607133541082141 0 0.0013215891838304673 -0.020924886481641803 0 0.0016918330178518615 -0.0221411265669894 0 0.00032393567422365496 -0.021999443586408089 0 0.00096695129010171974 -0.021607133541082141 0 0.00011592772404442857 -0.021223927316460781 0 0.00096695129010171974 -0.021607133541082141 0 0.0013215891838304673 -0.020924886481641803 0 0.00011592772404442857 -0.021223927316460781 0 0.0013215891838304673 -0.020924886481641803 0 2.7469401224354682e-05 -0.019952390796130169 0 0.0013215891838304673 -0.020924886481641803 0 2.7469401224354682e-05 -0.019952390796130169 0 0.0011984485405034972 -0.019585923271669397 0 0.0022230403731817085 -0.014357556422687432 0 0.0014596188963910733 -0.013559369621104151 0 0.0011984485405034972 -0.019585923271669397 0 0.002777014372870608 -0.020909790789618382 0 0.0021397238165897286 -0.01797009159980658 0 0.0013215891838304673 -0.020924886481641803 0 0.0011984485405034972 -0.019585923271669397 0 0.002777014372870608 -0.020909790789618382 0 0.0015406720872770574 -0.0075997987180290343 0 0.0019598974722457277 -0.0098073574124045403 0 0.00089265490517423233 -0.0095631587932657244 0 0.0019598974722457277 -0.0098073574124045403 0 0.0005239675838137742 -0.010443258785988868 0 0.00089265490517423233 -0.0095631587932657244 0 0.0014596188963910733 -0.013559369621104151 0 0.0010486051636548871 -0.011170477450990928 0 0.00067111860531790307 -0.015632701436768502 0 1.7879570027305866e-06 -0.013809290476838189 0 -0.00022297009132967637 -0.01534547312573642 0 0.0010279164683897686 -0.010705591150095206 0 3.547683992066733e-06 -0.013801849229838323 0 0.0005239675838137742 -0.010443258785988868 0 0.0014596188963910733 -0.013559369621104151 0 1.9950621233308974e-07 -0.013805245943733032 0 1.7879570027305866e-06 -0.013809290476838189 0 -0.00022297009132967637 -0.01534547312573642 0 -1.6333617748602392e-06 -0.015690254186073494 0 -0.00022297009132967637 -0.01534547312573642 0 -0.00027359145642594256 -0.015712447731573164 0 -0.00022770493469613179 -0.015958890919147456 0 -0.00022297009132967637 -0.01534547312573642 0 -0.00027359145642594256 -0.015712447731573164 0 -0.00013779044738721784 -0.015837666676419154 0 0.00067111860531790307 -0.015632701436768502 0 -0.00022297009132967637 -0.01534547312573642 0 -0.00013779044738721784 -0.015837666676419154 0 -0.00027359145642594256 -0.015712447731573164 0 -0.00013779044738721784 -0.015837666676419154 0 -0.00026870186940815695 -0.015805749272460451 0 0.0014596188963910733 -0.013559369621104151 0 -4.0734398108718626e-05 -0.017125878735867704 0 2.7469401224354682e-05 -0.019952390796130169 0 0.0011984485405034972 -0.019585923271669397 0 0.00045152621274169617 -0.018484232569699052 0 0.0011984485405034972 -0.019585923271669397 0 0.0021397238165897286 -0.01797009159980658 0 0.00045152621274169617 -0.018484232569699052 0 -4.0734398108718626e-05 -0.017125878735867704 0 4.5601646737371677e-06 -0.018221492252212382 0 2.7469401224354682e-05 -0.019952390796130169 0 0.00045152621274169617 -0.018484232569699052 0 -0.0012111950269179431 -0.018983069109549344 0 -0.00013779044738721784 -0.015837666676419154 0 -0.00028253904139942398 -0.015831614342069377 0 -0.00026870186940815695 -0.015805749272460451 0 -0.00025312909519403044 -0.015836564140214213 0 -0.00025036446768178538 -0.015779285591984962 0 -0.00037700366552650863 -0.015936171457220316 0 -0.00025312909519403044 -0.015836564140214213 0 -0.00026870186940815695 -0.015805749272460451 0 -0.00025036446768178538 -0.015779285591984962 0 4.5601646737371677e-06 -0.018221492252212382 0 0.00018338267454264749 -0.01756057492738065 0 -6.2639256900918989e-05 -0.015933956129524508 0 -0.00025036446768178538 -0.015779285591984962 0 -0.00022770493469613179 -0.015958890919147456 0 -6.2639256900918989e-05 -0.015933956129524508 0 -0.00025036446768178538 -0.015779285591984962 0 0.00030030018935117789 -0.015663969378754652 0 -0.00027359145642594256 -0.015712447731573164 0 -0.00026870186940815695 -0.015805749272460451 0 -0.00025036446768178538 -0.015779285591984962 0 -0.00027359145642594256 -0.015712447731573164 0 -0.00025036446768178538 -0.015779285591984962 0 -0.00022770493469613179 -0.015958890919147456 0 -0.00022770493469613179 -0.015958890919147456 0 -1.6333617748602392e-06 -0.015690254186073494 0 1.4933908673139358e-06 -0.01757171259185707 0 -0.00022297009132967637 -0.01534547312573642 0 -0.00022770493469613179 -0.015958890919147456 0 -1.6333617748602392e-06 -0.015690254186073494 0 -6.2639256900918989e-05 -0.015933956129524508 0 -0.00022770493469613179 -0.015958890919147456 0 8.2822918532927047e-05 -0.016160830649499525 0 -0.00022770493469613179 -0.015958890919147456 0 1.4933908673139358e-06 -0.01757171259185707 0 8.2822918532927047e-05 -0.016160830649499525 0 1.468882922161218e-06 -0.017578533089327209 0 0.00035191989829533662 -0.02024499718506316 0 1.7325859094683867e-06 -0.020329080971812737 0 1.5114151225717243e-07 -0.017575208087961158 0 0.00064456809844135423 -0.017751263125750212 0 1.4933908673139358e-06 -0.01757171259185707 0 8.2822918532927047e-05 -0.016160830649499525 0 0.00073011412297401511 -0.016106987152273919 0 0.00073011412297401511 -0.016106987152273919 0 0.00030030018935117789 -0.015663969378754652 0 0.00098547143410630312 -0.015326187725732415 0 4.5601646737371677e-06 -0.018221492252212382 0 0.00077529519553738648 -0.019498895860384599 0 0.00064456809844135423 -0.017751263125750212 0 0.0016471422686681633 -0.021496276943631456 0 -0.00025036446768178538 -0.015779285591984962 0 0.00030030018935117789 -0.015663969378754652 0 0.00058930014139127874 -0.015182646272950783 0 0.00014244030697610415 -0.015157500924470815 0 0.00077529519553738648 -0.019498895860384599 0 8.2822918532927047e-05 -0.016160830649499525 0 0.00073011412297401511 -0.016106987152273919 0 0.00030030018935117789 -0.015663969378754652 0 -6.2639256900918989e-05 -0.015933956129524508 0 8.2822918532927047e-05 -0.016160830649499525 0 0.00030030018935117789 -0.015663969378754652 0 0.00030030018935117789 -0.015663969378754652 0 0.00098547143410630312 -0.015326187725732415 0 0.00058930014139127874 -0.015182646272950783 0 0.0016471422686681633 -0.021496276943631456 0 0.0010593627422094869 -0.022360154739733899 0 0.0010593627422094869 -0.022360154739733899 0 0.0010273273609616527 -0.027208832971471426 0 0.0010593627422094869 -0.022360154739733899 0 0.0020963951752128287 -0.024594658533696162 0 0.001939554861750353 -0.023220278800473712 0 0.001734029940818285 -0.023069853450185487 0 0.0020330538687193772 -0.022990141797306702 0 0.00098547143410630312 -0.015326187725732415 0 0.00058930014139127874 -0.015182646272950783 0 0.00073506273457664721 -0.015146570619659978 0 0.00077529519553738648 -0.019498895860384599 0 0.0010593627422094869 -0.022360154739733899 0 0.0011990017409162432 -0.027908681456312749 0 0.0012145675302142195 -0.02838165482106705 0 0.0009159124231555172 -0.028178745808230588 0 0.0011990017409162432 -0.027908681456312749 0 0.0012145675302142195 -0.02838165482106705 0 0.0016019597207865988 -0.028218387162297794 0 0.0010593627422094869 -0.022360154739733899 0 0.00046659613420164654 -0.023961144293456239 0 3.6552389075851661e-05 -0.020916182117670212 0 -0.00013108866593413262 -0.020965052470558576 0 0.00066843332689827274 -0.021563666285530844 0 0.0011286787178574095 -0.020590537974846976 0 3.6552389075851661e-05 -0.020916182117670212 0 0.00066843332689827274 -0.021563666285530844 0 2.7469401224354682e-05 -0.019952390796130169 0 -0.0012111950269179431 -0.018983069109549344 0 -0.002007030117329593 -0.020659224531667159 0 0.00011592772404442857 -0.021223927316460781 0 2.7469401224354682e-05 -0.019952390796130169 0 -0.002007030117329593 -0.020659224531667159 0 4.5601646737371677e-06 -0.018221492252212382 0 0.00046659613420164654 -0.023961144293456239 0 6.7387460966538741e-05 -0.022199735924271879 0 0.00011592772404442857 -0.021223927316460781 0 -0.002007030117329593 -0.020659224531667159 0 0.0018958824989250811 -0.025095418248672768 0 0.0012001291599834213 -0.024589410081876869 0 0.0012746213440710786 -0.025148858192617165 0 0.0012793345578105573 -0.023538128009413132 0 0.00046659613420164654 -0.023961144293456239 0 0.0011466645975154958 -0.025697966730722492 0 0.0018958824989250811 -0.025095418248672768 0 0.0012746213440710786 -0.025148858192617165 0 0.0012034095355844012 -0.028945077530482956 0 0.0012145675302142195 -0.02838165482106705 0 0.0010319371843957998 -0.028616219604495407 0 0.0012034095355844012 -0.028945077530482956 0 0.0012145675302142195 -0.02838165482106705 0 0.0016019597207865988 -0.028218387162297794 0 0.00092046740109687783 -0.027831662164054267 0 0.00046659613420164654 -0.023961144293456239 0 0.00079816383579991773 -0.025447413080501587 0 0.0012001291599834213 -0.024589410081876869 0 0.0012746213440710786 -0.025148858192617165 0 3.8820514120826487e-07 -0.027409864044547365 0 1.0392728213001575e-06 -0.020331696935724917 0 9.8198941058913979e-05 -0.023756124748082863 0 0.0012034095355844012 -0.028945077530482956 0 0.0010319371843957998 -0.028616219604495407 0 0.00075568684800254784 -0.028944773921420402 0 0.0010319371843957998 -0.028616219604495407 0 0.00075568684800254784 -0.028944773921420402 0 0.0009159124231555172 -0.028178745808230588 0 0.00063333951040759229 -0.029382861213490825 0 0.0010273273609616527 -0.027208832971471426 0 0.00075568684800254784 -0.028944773921420402 0 0.00066337966912202978 -0.028877118843621697 0 0.00084649750754126497 -0.028720964560292331 0 0.00064003303512290321 -0.02907082229417415 0 0.00075568684800254784 -0.028944773921420402 0 0.00066337966912202978 -0.028877118843621697 0 0.00055571569616591184 -0.029117822468443036 0 0.00064003303512290321 -0.02907082229417415 0 0.00066337966912202978 -0.028877118843621697 0 0.0015035422045627908 -0.027796773989312771 0 0.0020963951752128287 -0.024594658533696162 0 0.001397824553216715 -0.028114591716575023 0 0.00084745450882348636 -0.0273600122914501 0 0.0026499216798056566 -0.027184960175447147 0 0.00084745450882348636 -0.0273600122914501 0 0.0019020820939901536 -0.025836996250253201 0 0.0043843234816258935 -0.026112487224852019 0 0.00084745450882348636 -0.0273600122914501 0 0.0019020820939901536 -0.025836996250253201 0 0.00068446279909495508 -0.025212843304315048 0 0.0011111901297802646 -0.028570341121148576 0 0.0010273273609616527 -0.027208832971471426 0 0.00084745450882348636 -0.0273600122914501 0 0.0026499216798056566 -0.027184960175447147 0 0.0027974805865566836 -0.026805919402157725 0 0.0019020820939901536 -0.025836996250253201 0 0.0043843234816258935 -0.026112487224852019 0 0.002661577646991009 -0.025057511543424119 0 0.0012145675302142195 -0.02838165482106705 0 0.0010319371843957998 -0.028616219604495407 0 0.0009159124231555172 -0.028178745808230588 0 0.002184324936988931 -0.023983875520480542 0 0.00057978116150188329 -0.025360691319627357 0 0.00097959882490079148 -0.024335489173876255 0 0.0010273273609616527 -0.027208832971471426 0 0.0020963951752128287 -0.024594658533696162 0 0.0016471422686681633 -0.021496276943631456 0 0.0020963951752128287 -0.024594658533696162 0 0.00035191989829533662 -0.02024499718506316 0 0.00043118564753653161 -0.020464187765028136 0 0.00068294689545352701 -0.022295322995978608 0 0.004964489155687553 -0.025309845660845549 0 0.0043843234816258935 -0.026112487224852019 0 0.002661577646991009 -0.025057511543424119 0 0.004964489155687553 -0.025309845660845549 0 0.002661577646991009 -0.025057511543424119 0 0.00068294689545352701 -0.022295322995978608 0 0.0016471422686681633 -0.021496276943631456 0 0.0012780693154149012 -0.022709537601125856 0 0.00035191989829533662 -0.02024499718506316 0 1.7325859094683867e-06 -0.020329080971812737 0 0.00068294689545352701 -0.022295322995978608 0 2.9245838310448736e-07 -0.020329570562431482 0 1.1717568463758006e-05 -0.023971548694798998 0 1.7325859094683867e-06 -0.020329080971812737 0 0.00068294689545352701 -0.022295322995978608 0 -8.5935585898219965e-05 -0.024123759159651065 0 0.00068294689545352701 -0.022295322995978608 0 0.00068446279909495508 -0.025212843304315048 0 -8.5935585898219965e-05 -0.024123759159651065 0 0.00068294689545352701 -0.022295322995978608 0 0.0015882319785821689 -0.024822049961549009 0 0.00068446279909495508 -0.025212843304315048 0 0.002661577646991009 -0.025057511543424119 0 0.00068294689545352701 -0.022295322995978608 0 0.0015882319785821689 -0.024822049961549009 0 0.0019020820939901536 -0.025836996250253201 0 0.0015882319785821689 -0.024822049961549009 0 0.00068446279909495508 -0.025212843304315048 0 0.0019020820939901536 -0.025836996250253201 0 0.002661577646991009 -0.025057511543424119 0 0.0015882319785821689 -0.024822049961549009 0 -8.5935585898219965e-05 -0.024123759159651065 0 7.4576354347627885e-05 -0.0271980324104126 0 0.00034370197520290641 -0.02653445612517339 0 0.00068446279909495508 -0.025212843304315048 0 -8.5935585898219965e-05 -0.024123759159651065 0 0.00034370197520290641 -0.02653445612517339 0 -0.00018486994267610788 -0.026687384932076917 0 1.1717568463758006e-05 -0.023971548694798998 0 -4.5000914086284275e-05 -0.027148340698630199 0 -8.5935585898219965e-05 -0.024123759159651065 0 7.4576354347627885e-05 -0.0271980324104126 0 0.00034226582779474916 -0.029141671824007842 0 7.4576354347627885e-05 -0.0271980324104126 0 0.00035308873488847618 -0.028202393888746003 0 7.4576354347627885e-05 -0.0271980324104126 0 0.00034370197520290641 -0.02653445612517339 0 0.00035308873488847618 -0.028202393888746003 0 0.00084745450882348636 -0.0273600122914501 0 0.00034370197520290641 -0.02653445612517339 0 0.00035308873488847618 -0.028202393888746003 0 0.00084745450882348636 -0.0273600122914501 0 0.00068446279909495508 -0.025212843304315048 0 0.00034370197520290641 -0.02653445612517339 0 0.00055571569616591184 -0.029117822468443036 0 0.001397824553216715 -0.028114591716575023 0 0.00035308873488847618 -0.028202393888746003 0 0.00053821366507467172 -0.029044541278327767 0 0.0011111901297802646 -0.028570341121148576 0 0.001397824553216715 -0.028114591716575023 0 0.00084745450882348636 -0.0273600122914501 0 0.00035308873488847618 -0.028202393888746003 0 0.00034226582779474916 -0.029141671824007842 0 0.00041943922454100593 -0.029416738413642247 0 0.00035308873488847618 -0.028202393888746003 0 0.00041943922454100593 -0.029416738413642247 0 0.00055571569616591184 -0.029117822468443036 0 0.00035308873488847618 -0.028202393888746003 0 0.00280000541961338 -0.0049472071334375149 0 0.0032268454679302895 -0.0043222999262877938 0 0.0035381742637379992 -0.004801682641577841 0 0.00078569752603725599 -0.0053051986904390823 0 0.0016226948695030063 -0.0050268617410449542 0 0.00280000541961338 -0.0049472071334375149 0 0.0020183387225765604 -0.0046649102086356326 0 0.0032268454679302895 -0.0043222999262877938 0 -0.00036288119892877526 -0.0058675720506854616 0 -0.00050828000853723207 -0.0058183125390781736 0 -0.00049504031155327252 -0.0058115651936314862 0 -0.00036288119892877526 -0.0058675720506854616 0 -0.00050828000853723207 -0.0058183125390781736 0 -0.00034581919342756517 -0.0064764634278414402 0 -0.00049091453985612786 -0.005872776242937877 0 -0.00041469336154719219 -0.0061251210257908615 0 -0.00050828000853723207 -0.0058183125390781736 0 -0.00050399588750948856 -0.005720435948506423 0 -0.00051372780335932715 -0.0056057064147279154 0 -0.00050828000853723207 -0.0058183125390781736 0 -0.00043374301328021509 -0.0056221219059119512 0 -0.00051372780335932715 -0.0056057064147279154 0 -0.00050828000853723207 -0.0058183125390781736 0 -0.00049504031155327252 -0.0058115651936314862 0 -0.00043374301328021509 -0.0056221219059119512 0 -0.00049504031155327252 -0.0058115651936314862 0 -0.00043374301328021509 -0.0056221219059119512 0 0.00046016658077249436 -0.0055487237556037083 0 0.0032268454679302895 -0.0043222999262877938 0 0.0040272515753693753 -0.0043131280655536175 0 0.0035381742637379992 -0.004801682641577841 0 -0.00043374301328021509 -0.0056221219059119512 0 -0.00018084921418877115 -0.0051880671330202383 0 -0.0002608242135103169 -0.0051252718915472785 0 -0.00080149251911573705 -0.0056578932864809394 0 0.0010376913555260679 -0.0050496545594840838 0 0.0016226948695030063 -0.0050268617410449542 0 0.0010376913555260679 -0.0050496545594840838 0 0.0010376913555260679 -0.0050496545594840838 0 0.0026517295986871756 -0.0048341907093778129 0 0.0040272515753693753 -0.0043131280655536175 0 0.0042734211805366224 -0.0045663736711895695 0 0.0042758849126391593 -0.00467493602242671 0 0.0010376913555260679 -0.0050496545594840838 0 -9.089075863700469e-05 -0.0049955786083716218 0 0.0040272515753693753 -0.0043131280655536175 0 0.0040310444434277851 -0.0047910560008137329 0 0.0042758849126391593 -0.00467493602242671 0 0.0040310444434277851 -0.0047910560008137329 0 0.0043371661823152071 -0.0049197161236715949 0 0.0042758849126391593 -0.00467493602242671 0 0.0040272515753693753 -0.0043131280655536175 0 0.0040310444434277851 -0.0047910560008137329 0 0.0035381742637379992 -0.004801682641577841 0 0.0040310444434277851 -0.0047910560008137329 0 0.0035381742637379992 -0.004801682641577841 0 0.0038799329790870658 -0.0052852110026492599 0 0.0035381742637379992 -0.004801682641577841 0 0.0038799329790870658 -0.0052852110026492599 0 0.0030883021191037189 -0.005487487827260021 0 0.0040310444434277851 -0.0047910560008137329 0 0.0043371661823152071 -0.0049197161236715949 0 0.0038799329790870658 -0.0052852110026492599 0 0.0043731984213841325 -0.0056859420268629201 0 0.0043371661823152071 -0.0049197161236715949 0 0.0045055594149903859 -0.0048283617012222875 0 0.0043731984213841325 -0.0056859420268629201 0 0.0043371661823152071 -0.0049197161236715949 0 0.0038799329790870658 -0.0052852110026492599 0 0.0034354751700713731 -0.0062050241011330958 0 0.0043731984213841325 -0.0056859420268629201 0 0.0038799329790870658 -0.0052852110026492599 0 0.0034354751700713731 -0.0062050241011330958 0 0.0038799329790870658 -0.0052852110026492599 0 0.0030883021191037189 -0.005487487827260021 0 0.0023906240934576249 -0.0064194673859900133 0 0.0034354751700713731 -0.0062050241011330958 0 0.0030883021191037189 -0.005487487827260021 0 0.00280000541961338 -0.0049472071334375149 0 0.0035381742637379992 -0.004801682641577841 0 0.0030883021191037189 -0.005487487827260021 0 0.00280000541961338 -0.0049472071334375149 0 0.0020183387225765604 -0.0046649102086356326 0 0.0019402836305624622 -0.005691300531255405 0 0.00280000541961338 -0.0049472071334375149 0 0.0030883021191037189 -0.005487487827260021 0 0.0019402836305624622 -0.005691300531255405 0 0.0023906240934576249 -0.0064194673859900133 0 0.0030883021191037189 -0.005487487827260021 0 0.0019402836305624622 -0.005691300531255405 0 0.001524741305264856 -0.0064850588460740313 0 0.0023906240934576249 -0.0064194673859900133 0 0.0019402836305624622 -0.005691300531255405 0 0.001524741305264856 -0.0064850588460740313 0 0.00078120206567435478 -0.0060568423698040674 0 0.0019402836305624622 -0.005691300531255405 0 0.00078120206567435478 -0.0060568423698040674 0 0.0019402836305624622 -0.005691300531255405 0 0.00063156161804752494 -0.0056135518528903907 0 0.0020183387225765604 -0.0046649102086356326 0 0.0019402836305624622 -0.005691300531255405 0 0.00063156161804752494 -0.0056135518528903907 0 0.0028397723830663464 -0.024553080218302631 0 0.0024999111026216352 -0.024406025614875333 0 0.0029915493324103493 -0.024705527635889228 0 0.0027449355077060178 -0.024123782678663629 0 0.0028397723830663464 -0.024553080218302631 0 0.0024999111026216352 -0.024406025614875333 0 0.00078120206567435478 -0.0060568423698040674 0 0.00035225496336040401 -0.0063566552708659314 0 0.00069239963835169703 -0.0058529524575228311 0 0.00086005830980148354 -0.0068952815416079317 0 0.00078120206567435478 -0.0060568423698040674 0 0.00035225496336040401 -0.0063566552708659314 0 0.00078120206567435478 -0.0060568423698040674 0 0.00069239963835169703 -0.0058529524575228311 0 0.00063156161804752494 -0.0056135518528903907 0 0.0014249026469948551 -0.015316364034549454 0 0.0018393515598927261 -0.015301950470725082 0 0.0029915493324103493 -0.024705527635889228 0 0.0032040182160878198 -0.023832854817944883 0 0.0030856180814489518 -0.02417096626943906 0 0.00069239963835169703 -0.0058529524575228311 0 0.0005285066667898076 -0.0063897843073339637 0 0.0011244266603222988 -0.0064978342706830715 0 0.0029830422010436362 -0.024552927609395172 0 0.0029915493324103493 -0.024705527635889228 0 0.0030856180814489518 -0.02417096626943906 0 0.0018393515598927261 -0.015301950470725082 0 0.0021353709334091162 -0.01511305289840406 0 0.00069239963835169703 -0.0058529524575228311 0 0.0005285066667898076 -0.0063897843073339637 0 0.00063156161804752494 -0.0056135518528903907 0 0.0005285066667898076 -0.0063897843073339637 0 0.0011244266603222988 -0.0064978342706830715 0 0.0006991217330971994 -0.0071694230616284075 0 -0.00036288119892877526 -0.0058675720506854616 0 0.00063156161804752494 -0.0056135518528903907 0 8.8072094411933329e-05 -0.0062352202366578484 0 0.00078569752603725599 -0.0053051986904390823 0 0.00067521550845484047 -0.0055423357336874153 0 0.0005285066667898076 -0.0063897843073339637 0 8.8072094411933329e-05 -0.0062352202366578484 0 -1.1786733180512034e-05 -0.0071414836674217139 0 0.0005285066667898076 -0.0063897843073339637 0 0.00063156161804752494 -0.0056135518528903907 0 8.8072094411933329e-05 -0.0062352202366578484 0 -0.00036288119892877526 -0.0058675720506854616 0 8.8072094411933329e-05 -0.0062352202366578484 0 -0.00034581919342756517 -0.0064764634278414402 0 -0.00041469336154719219 -0.0061251210257908615 0 -0.00016642005976900444 -0.0067862890105238336 0 8.8072094411933329e-05 -0.0062352202366578484 0 -0.00034581919342756517 -0.0064764634278414402 0 -1.1786733180512034e-05 -0.0071414836674217139 0 -0.00050399588750948856 -0.005720435948506423 0 -0.00026825110090599553 -0.0064012926693300248 0 -0.00051990705544596911 -0.0058884030038022627 0 -0.00026825110090599553 -0.0064012926693300248 0 0.00015177181401344157 -0.0077427854221073381 0 -0.00019380527397119799 -0.0080211352664117854 0 -0.00016642005976900444 -0.0067862890105238336 0 0.00023709838767045901 -0.0079500940885025243 0 -0.00026825110090599553 -0.0064012926693300248 0 -0.00044548274947937806 -0.0066133132264267445 0 -0.00051990705544596911 -0.0058884030038022627 0 0.0015406720872770574 -0.0075997987180290343 0 0.0011244266603222988 -0.0064978342706830715 0 0.0006991217330971994 -0.0071694230616284075 0 0.0005285066667898076 -0.0063897843073339637 0 -1.1786733180512034e-05 -0.0071414836674217139 0 0.0006991217330971994 -0.0071694230616284075 0 -1.1786733180512034e-05 -0.0071414836674217139 0 0.0006991217330971994 -0.0071694230616284075 0 0.00033899847090661505 -0.0080457942454865566 0 0.0006991217330971994 -0.0071694230616284075 0 0.00033899847090661505 -0.0080457942454865566 0 0.00085433994802460171 -0.008336113220163574 0 0.0015406720872770574 -0.0075997987180290343 0 0.00085433994802460171 -0.008336113220163574 0 0.00089265490517423233 -0.0095631587932657244 0 0.0015406720872770574 -0.0075997987180290343 0 0.0006991217330971994 -0.0071694230616284075 0 0.00085433994802460171 -0.008336113220163574 0 0.00033899847090661505 -0.0080457942454865566 0 0.00085433994802460171 -0.008336113220163574 0 0.00089265490517423233 -0.0095631587932657244 0 0.00015177181401344157 -0.0077427854221073381 0 0.00089265490517423233 -0.0095631587932657244 0 0.00019074873563611257 -0.0092794790627564235 0 0.00023709838767045901 -0.0079500940885025243 0 0.00092423687368110017 -0.0093139422204650789 0 0.0005239675838137742 -0.010443258785988868 0 0.00089265490517423233 -0.0095631587932657244 0 0.00019074873563611257 -0.0092794790627564235 0 0.00015177181401344157 -0.0077427854221073381 0 0.00019074873563611257 -0.0092794790627564235 0 -0.00019380527397119799 -0.0080211352664117854 0 0.00019074873563611257 -0.0092794790627564235 0 -5.6712821267608253e-07 -0.011030555982307439 0 -0.00019380527397119799 -0.0080211352664117854 0 -5.6712821267608253e-07 -0.011030555982307439 0 -0.00019380527397119799 -0.0080211352664117854 0 -3.665159424905527e-07 -0.0082553502961370887 0 3.547683992066733e-06 -0.013801849229838323 0 0.0005239675838137742 -0.010443258785988868 0 -5.6712821267608253e-07 -0.011030555982307439 0 0.0005239675838137742 -0.010443258785988868 0 0.00019074873563611257 -0.0092794790627564235 0 -5.6712821267608253e-07 -0.011030555982307439 0 -0.00026825110090599553 -0.0064012926693300248 0 -0.00044548274947937806 -0.0066133132264267445 0 -0.00019380527397119799 -0.0080211352664117854 0 -0.00044548274947937806 -0.0066133132264267445 0 -0.00019380527397119799 -0.0080211352664117854 0 -3.665159424905527e-07 -0.0082553502961370887 0 -0.00044548274947937806 -0.0066133132264267445 0 -3.665159424905527e-07 -0.0082553502961370887 0 -1.5404860584133639e-06 -0.0054796134422079408 0 -1.5404860584133639e-06 -0.0054796134422079408 0 -0.00025680346914673199 -0.0047043166538944239 0 -0.00036136767923914136 -0.005648306842168784 0 -1.5404860584133639e-06 -0.0054796134422079408 0 -0.00025680346914673199 -0.0047043166538944239 0 1.3430894602396142e-06 -0.0027108823432709672 0 -0.00025680346914673199 -0.0047043166538944239 0 -0.00036136767923914136 -0.005648306842168784 0 -0.00040208496464071825 -0.0053049433783671452 0 -0.00044548274947937806 -0.0066133132264267445 0 -1.5404860584133639e-06 -0.0054796134422079408 0 -0.00036136767923914136 -0.005648306842168784 0 -0.00044548274947937806 -0.0066133132264267445 0 -0.00036136767923914136 -0.005648306842168784 0 -0.00051990705544596911 -0.0058884030038022627 0 -0.00036136767923914136 -0.005648306842168784 0 -0.00051990705544596911 -0.0058884030038022627 0 -0.00040208496464071825 -0.0053049433783671452 0 -0.00040208496464071825 -0.0053049433783671452 0 -0.0004078553864399697 -0.0053954981079709268 0 -0.00051372780335932715 -0.0056057064147279154 0 -0.00040208496464071825 -0.0053049433783671452 0 -0.0004078553864399697 -0.0053954981079709268 0 -0.0002608242135103169 -0.0051252718915472785 0 -0.00043374301328021509 -0.0056221219059119512 0 -0.0004078553864399697 -0.0053954981079709268 0 -0.0002608242135103169 -0.0051252718915472785 0 -0.00043374301328021509 -0.0056221219059119512 0 -0.0004078553864399697 -0.0053954981079709268 0 -0.00051372780335932715 -0.0056057064147279154 0 -0.00051990705544596911 -0.0058884030038022627 0 -0.00040208496464071825 -0.0053049433783671452 0 -0.00051372780335932715 -0.0056057064147279154 0 -0.00050399588750948856 -0.005720435948506423 0 -0.00051990705544596911 -0.0058884030038022627 0 -0.00051372780335932715 -0.0056057064147279154 0 -0.00018084921418877115 -0.0051880671330202383 0 -6.3623303248929328e-05 -0.0045754286744298543 0 0.00052498641469364061 -0.0048287211102660448 0 -6.3623303248929328e-05 -0.0045754286744298543 0 -0.0002608242135103169 -0.0051252718915472785 0 1.24128137247036e-05 -0.0045853161312602031 0 -0.00018084921418877115 -0.0051880671330202383 0 -6.3623303248929328e-05 -0.0045754286744298543 0 -0.0002608242135103169 -0.0051252718915472785 0 -0.00040208496464071825 -0.0053049433783671452 0 -0.0002608242135103169 -0.0051252718915472785 0 1.24128137247036e-05 -0.0045853161312602031 0 -0.00025680346914673199 -0.0047043166538944239 0 -0.00040208496464071825 -0.0053049433783671452 0 1.24128137247036e-05 -0.0045853161312602031 0 -6.3623303248929328e-05 -0.0045754286744298543 0 1.24128137247036e-05 -0.0045853161312602031 0 -4.4421355743414273e-05 -0.0038044696467392871 0 -0.00017834616424696387 -0.0030090970096886649 0 2.989935154926216e-05 -0.0037940816024009298 0 1.24128137247036e-05 -0.0045853161312602031 0 0.0002561866661005206 -0.0046208316972832491 0 -4.4421355743414273e-05 -0.0038044696467392871 0 -0.00025680346914673199 -0.0047043166538944239 0 1.24128137247036e-05 -0.0045853161312602031 0 0.0002561866661005206 -0.0046208316972832491 0 -0.00025680346914673199 -0.0047043166538944239 0 0.0002561866661005206 -0.0046208316972832491 0 1.3430894602396142e-06 -0.0027108823432709672 0 -0.00017834616424696387 -0.0030090970096886649 0 -2.4160118044001311e-07 -0.00270502656756839 0 -0.00060550045192568755 -0.0013683350349567075 0 -3.0510412017497846e-06 -0.0004002377048503909 0 0.00038169218993792188 -0.0011961410223125203 0 -0.00060550045192568755 -0.0013683350349567075 0 1.0767202045233554e-06 -0.002702273154731333 0 -3.0510412017497846e-06 -0.0004002377048503909 0 -3.0510412017497846e-06 -0.0004002377048503909 0 5.548362960491847e-06 0.0018981353383979984 0 0.00038169218993792188 -0.0011961410223125203 0 5.548362960491847e-06 0.0018981353383979984 0 0.00038169218993792188 -0.0011961410223125203 0 0.0031495957098215334 -0.00090323701106456602 0 9.9005116419614844e-08 0.0019047308528980763 0 0.0017575436880545058 0.0027340359184939442 0 0.00038169218993792188 -0.0011961410223125203 0 0.0031495957098215334 -0.00090323701106456602 0 0.0015995572317297876 -0.0034002737632189048 0 -0.00060550045192568755 -0.0013683350349567075 0 0.00038169218993792188 -0.0011961410223125203 0 -4.4421355743414273e-05 -0.0038044696467392871 0 2.7532838485004333e-07 0.0047184078250674354 0 0.00070607426725064208 0.0064002035933447563 0 8.4719057206862328e-06 0.007557347554446917 0 2.7532838485004333e-07 0.0047184078250674354 0 8.4719057206862328e-06 0.007557347554446917 0 -4.6635866812661437e-07 0.0075318349594230265 0 2.0703075474424602e-06 0.0019068516966750549 0 2.7532838485004333e-07 0.0047184078250674354 0 0.00070607426725064208 0.0064002035933447563 0 0.00070607426725064208 0.0064002035933447563 0 0.00041038372924783638 0.0094106341526455101 0 8.4719057206862328e-06 0.007557347554446917 0 0.0017575436880545058 0.0027340359184939442 0 0.0026007129401306611 0.0037860046910116719 0 0.0031495957098215334 -0.00090323701106456602 0 0.0049114402171110292 -0.0028683805301096483 0 0.0033238385448517119 -0.0034712906518181239 0 0.0031495957098215334 -0.00090323701106456602 0 0.0033238385448517119 -0.0034712906518181239 0 0.0015995572317297876 -0.0034002737632189048 0 0.0033238385448517119 -0.0034712906518181239 0 0.0025428610180492171 -0.0050497461288695096 0 0.0046468371951032495 -0.0047375468447621548 0 0.0032664251061391056 -0.0048851384002574355 0 0.0047466796669896954 -0.0052944437802256317 0 0.0033238385448517119 -0.0034712906518181239 0 0.0025428610180492171 -0.0050497461288695096 0 0.0015995572317297876 -0.0034002737632189048 0 0.0049114402171110292 -0.0028683805301096483 0 0.0033238385448517119 -0.0034712906518181239 0 0.0046468371951032495 -0.0047375468447621548 0 -4.4421355743414273e-05 -0.0038044696467392871 0 0.0015995572317297876 -0.0034002737632189048 0 0.00075051004975741132 -0.0040973108337340339 0 0.00038169218993792188 -0.0011961410223125203 0 -4.4421355743414273e-05 -0.0038044696467392871 0 0.0015995572317297876 -0.0034002737632189048 0 0.0015995572317297876 -0.0034002737632189048 0 0.001180848732290736 -0.0045243780851862243 0 0.00075051004975741132 -0.0040973108337340339 0 0.0025428610180492171 -0.0050497461288695096 0 0.0015995572317297876 -0.0034002737632189048 0 0.001180848732290736 -0.0045243780851862243 0 0.0025428610180492171 -0.0050497461288695096 0 0.001180848732290736 -0.0045243780851862243 0 0.00065622121501271761 -0.0051422788826213598 0 -6.3623303248929328e-05 -0.0045754286744298543 0 0.00052498641469364061 -0.0048287211102660448 0 0.00075051004975741132 -0.0040973108337340339 0 0.001180848732290736 -0.0045243780851862243 0 0.00052498641469364061 -0.0048287211102660448 0 0.00065622121501271761 -0.0051422788826213598 0 0.001180848732290736 -0.0045243780851862243 0 0.00052498641469364061 -0.0048287211102660448 0 0.00075051004975741132 -0.0040973108337340339 0 -6.3623303248929328e-05 -0.0045754286744298543 0 -4.4421355743414273e-05 -0.0038044696467392871 0 0.00075051004975741132 -0.0040973108337340339 0 0.0040272515753693753 -0.0043131280655536175 0 0.0043384175275337326 -0.0045938395485681212 0 0.0042734211805366224 -0.0045663736711895695 0 -0.00061804017990417883 -0.0052055761886441653 0 0.00052498641469364061 -0.0048287211102660448 0 0.00065622121501271761 -0.0051422788826213598 0 0.0043384175275337326 -0.0045938395485681212 0 0.0043505089137262374 -0.0046370695087722706 0 0.0042734211805366224 -0.0045663736711895695 0 0.0043505089137262374 -0.0046370695087722706 0 0.0042734211805366224 -0.0045663736711895695 0 0.0042758849126391593 -0.00467493602242671 0 0.0043371661823152071 -0.0049197161236715949 0 0.0042758849126391593 -0.00467493602242671 0 0.0043809162154942955 -0.0046419561831414951 0 0.0043505089137262374 -0.0046370695087722706 0 0.0042758849126391593 -0.00467493602242671 0 0.0043809162154942955 -0.0046419561831414951 0 0.0042638585915533156 -0.0048111596642838933 0 0.0043505089137262374 -0.0046370695087722706 0 0.0043809162154942955 -0.0046419561831414951 0 0.0042638585915533156 -0.0048111596642838933 0 0.0043384175275337326 -0.0045938395485681212 0 0.0043505089137262374 -0.0046370695087722706 0 0.0032664251061391056 -0.0048851384002574355 0 0.0026517295986871756 -0.0048341907093778129 0 0.0042638585915533156 -0.0048111596642838933 0 0.0043809162154942955 -0.0046419561831414951 0 0.0040316366023926643 -0.0046622120960076088 0 0.0039113553596003773 -0.0049672504217920261 0 0.0040316366023926643 -0.0046622120960076088 0 0.0036819970586538437 -0.0047620143089157482 0 0.0042638585915533156 -0.0048111596642838933 0 0.0039113553596003773 -0.0049672504217920261 0 0.0040316366023926643 -0.0046622120960076088 0 0.0043809162154942955 -0.0046419561831414951 0 0.0040316366023926643 -0.0046622120960076088 0 0.0041670645272013978 -0.0044809151959796564 0 0.0041670645272013978 -0.0044809151959796564 0 0.0040990287876457648 -0.0042467214244385513 0 0.0043242783662086432 -0.0045195692982355805 0 0.0043809162154942955 -0.0046419561831414951 0 0.0041670645272013978 -0.0044809151959796564 0 0.0043242783662086432 -0.0045195692982355805 0 0.0040316366023926643 -0.0046622120960076088 0 0.0041670645272013978 -0.0044809151959796564 0 0.0038250323269460552 -0.0042851393611093294 0 0.0041670645272013978 -0.0044809151959796564 0 0.0040990287876457648 -0.0042467214244385513 0 0.0038250323269460552 -0.0042851393611093294 0 0.0040990287876457648 -0.0042467214244385513 0 0.0038250323269460552 -0.0042851393611093294 0 0.0039932555592694652 -0.0038962190861590667 0 0.0040990287876457648 -0.0042467214244385513 0 0.0042382819856405431 -0.0039965977649934759 0 0.0039932555592694652 -0.0038962190861590667 0 0.0040990287876457648 -0.0042467214244385513 0 0.0043242783662086432 -0.0045195692982355805 0 0.0042382819856405431 -0.0039965977649934759 0 0.0043242783662086432 -0.0045195692982355805 0 0.0045055594149903859 -0.0048283617012222875 0 0.0042382819856405431 -0.0039965977649934759 0 0.0043371661823152071 -0.0049197161236715949 0 0.0043809162154942955 -0.0046419561831414951 0 0.0045055594149903859 -0.0048283617012222875 0 0.0043809162154942955 -0.0046419561831414951 0 0.0043242783662086432 -0.0045195692982355805 0 0.0045055594149903859 -0.0048283617012222875 0 0.002815721707028593 -0.0042649111183586195 0 0.0025654563552945293 -0.003866996463158778 0 0.0030456408168489258 -0.0039708392729444226 0 0.002815721707028593 -0.0042649111183586195 0 0.0030456408168489258 -0.0039708392729444226 0 0.0032992902532043775 -0.0043234488556589696 0 0.002815721707028593 -0.0042649111183586195 0 0.0025654563552945293 -0.003866996463158778 0 0.0023823531021394174 -0.0042483530705148698 0 0.0025654563552945293 -0.003866996463158778 0 0.002153065575598126 -0.003570027050823437 0 0.0026423893416591027 -0.0033331328717401748 0 0.0025654563552945293 -0.003866996463158778 0 0.0030456408168489258 -0.0039708392729444226 0 0.0030771319690375346 -0.0036030912320517755 0 0.0025654563552945293 -0.003866996463158778 0 0.0030771319690375346 -0.0036030912320517755 0 0.0026423893416591027 -0.0033331328717401748 0 0.0030456408168489258 -0.0039708392729444226 0 0.0034982545257923078 -0.0039219842047922074 0 0.0030771319690375346 -0.0036030912320517755 0 0.0034982545257923078 -0.0039219842047922074 0 0.0038250323269460552 -0.0042851393611093294 0 0.0039932555592694652 -0.0038962190861590667 0 0.0034982545257923078 -0.0039219842047922074 0 0.0038250323269460552 -0.0042851393611093294 0 0.0032992902532043775 -0.0043234488556589696 0 0.0038250323269460552 -0.0042851393611093294 0 0.0032992902532043775 -0.0043234488556589696 0 0.0036237308583763552 -0.0045342564631351244 0 0.0030456408168489258 -0.0039708392729444226 0 0.0034982545257923078 -0.0039219842047922074 0 0.0032992902532043775 -0.0043234488556589696 0 0.0032992902532043775 -0.0043234488556589696 0 0.0033322773842999185 -0.0047445038553274302 0 0.0029991167576550156 -0.0046046351483674695 0 0.0032992902532043775 -0.0043234488556589696 0 0.0036237308583763552 -0.0045342564631351244 0 0.0033322773842999185 -0.0047445038553274302 0 0.0040316366023926643 -0.0046622120960076088 0 0.0038250323269460552 -0.0042851393611093294 0 0.0036237308583763552 -0.0045342564631351244 0 0.0040316366023926643 -0.0046622120960076088 0 0.0036237308583763552 -0.0045342564631351244 0 0.0036819970586538437 -0.0047620143089157482 0 0.0039113553596003773 -0.0049672504217920261 0 0.0036819970586538437 -0.0047620143089157482 0 0.0034982793778345345 -0.0049115983355562526 0 0.0036819970586538437 -0.0047620143089157482 0 0.0034982793778345345 -0.0049115983355562526 0 0.0033322773842999185 -0.0047445038553274302 0 0.0036237308583763552 -0.0045342564631351244 0 0.0036819970586538437 -0.0047620143089157482 0 0.0033322773842999185 -0.0047445038553274302 0 0.0033322773842999185 -0.0047445038553274302 0 0.0031166231257207925 -0.0049001669762685366 0 0.0029991167576550156 -0.0046046351483674695 0 0.0034982793778345345 -0.0049115983355562526 0 0.0033066178083542121 -0.0048946077756394923 0 0.0033787638886042166 -0.005055380157046035 0 0.0034982793778345345 -0.0049115983355562526 0 0.0033322773842999185 -0.0047445038553274302 0 0.0033066178083542121 -0.0048946077756394923 0 0.0033322773842999185 -0.0047445038553274302 0 0.0033066178083542121 -0.0048946077756394923 0 0.0031166231257207925 -0.0049001669762685366 0 0.0033066178083542121 -0.0048946077756394923 0 0.0031166231257207925 -0.0049001669762685366 0 0.0033787638886042166 -0.005055380157046035 0 0.0031166231257207925 -0.0049001669762685366 0 0.0028212900707572331 -0.0048078587812706098 0 0.0029273926778107602 -0.0050654922356519819 0 0.0028212900707572331 -0.0048078587812706098 0 0.0029991167576550156 -0.0046046351483674695 0 0.0026188781190036431 -0.0045601163171053822 0 0.0031166231257207925 -0.0049001669762685366 0 0.0028212900707572331 -0.0048078587812706098 0 0.0029991167576550156 -0.0046046351483674695 0 0.002815721707028593 -0.0042649111183586195 0 0.0032992902532043775 -0.0043234488556589696 0 0.0029991167576550156 -0.0046046351483674695 0 0.002815721707028593 -0.0042649111183586195 0 0.0029991167576550156 -0.0046046351483674695 0 0.0026188781190036431 -0.0045601163171053822 0 0.002815721707028593 -0.0042649111183586195 0 0.0023823531021394174 -0.0042483530705148698 0 0.0026188781190036431 -0.0045601163171053822 0 0.0023823531021394174 -0.0042483530705148698 0 0.0026188781190036431 -0.0045601163171053822 0 0.0022487527721015421 -0.0045524823524406332 0 0.0028212900707572331 -0.0048078587812706098 0 0.0026188781190036431 -0.0045601163171053822 0 0.0024373765693617246 -0.0049069058089749725 0 0.0026188781190036431 -0.0045601163171053822 0 0.0024373765693617246 -0.0049069058089749725 0 0.0022487527721015421 -0.0045524823524406332 0 -0.001799784859592085 0.011940629107864481 0 -0.001546688427538386 0.011975359444956719 0 -0.0015134473264302333 0.012166525739168769 0 -0.0009630705760122248 0.01228524671184575 0 -0.00080980867920672685 0.011851757150974522 0 -0.00056654097988222303 0.011350603065772685 0 -0.0015709151479631333 0.012742837538862559 0 -6.8319114120673599e-05 0.0077397455094620543 0 -0.001799784859592085 0.011940629107864481 0 -0.0015134473264302333 0.012166525739168769 0 -0.0015261990543192659 0.012287814580651219 0 -0.001799784859592085 0.011940629107864481 0 -0.0015261990543192659 0.012287814580651219 0 -0.0024943875575914932 0.012085113986530595 0 -0.0009630705760122248 0.01228524671184575 0 -0.00089395237401644796 0.012151697063263881 0 -0.00095858393077318882 0.012397957445976158 0 -0.0009630705760122248 0.01228524671184575 0 -0.00089395237401644796 0.012151697063263881 0 -0.00080980867920672685 0.011851757150974522 0 0.0028212900707572331 -0.0048078587812706098 0 0.0024373765693617246 -0.0049069058089749725 0 0.0029273926778107602 -0.0050654922356519819 0 0.00055441589966849676 0.0032094753171028937 0 -6.8319114120673599e-05 0.0077397455094620543 0 -0.00080980867920672685 0.011851757150974522 0 -0.00056654097988222303 0.011350603065772685 0 -0.00068648396411430802 0.011422200119303323 0 -0.00056654097988222303 0.011350603065772685 0 -0.00050465061347019255 0.010850989428784654 0 -0.00035299155582930173 0.010820778401647222 0 -0.00068648396411430802 0.011422200119303323 0 -0.00065619139745367303 0.011681460837655122 0 -0.00049455884364138774 0.010637618666503663 0 -0.00056654097988222303 0.011350603065772685 0 -0.00068648396411430802 0.011422200119303323 0 -0.00050465061347019255 0.010850989428784654 0 -0.00068648396411430802 0.011422200119303323 0 -0.00050465061347019255 0.010850989428784654 0 -0.00049455884364138774 0.010637618666503663 0 -0.00068648396411430802 0.011422200119303323 0 -0.00084276440402906701 0.012064987585348101 0 -0.00065619139745367303 0.011681460837655122 0 -0.00084276440402906701 0.012064987585348101 0 -0.00065619139745367303 0.011681460837655122 0 -0.00088284165586648307 0.012588197181093589 0 -0.00089395237401644796 0.012151697063263881 0 -0.00084276440402906701 0.012064987585348101 0 -0.00095858393077318882 0.012397957445976158 0 -0.00089395237401644796 0.012151697063263881 0 -0.00080980867920672685 0.011851757150974522 0 -0.00084276440402906701 0.012064987585348101 0 -0.00080980867920672685 0.011851757150974522 0 -0.00068648396411430802 0.011422200119303323 0 -0.00084276440402906701 0.012064987585348101 0 0.0047466796669896954 -0.0052944437802256317 0 0.002432852880960137 0.00024040499194174792 0 0.0039113553596003773 -0.0049672504217920261 0 0.0034982793778345345 -0.0049115983355562526 0 0.0033787638886042166 -0.005055380157046035 0 0.0049114402171110292 -0.0028683805301096483 0 0.0046468371951032495 -0.0047375468447621548 0 0.0065455084257192136 -0.0044676689085179112 0 0.0026007129401306611 0.0037860046910116719 0 0.002432852880960137 0.00024040499194174792 0 -0.0007224616756877142 0.010878916077268909 0 -0.00019380371417028008 0.010991414719843993 0 -0.00035299155582930173 0.010820778401647222 0 -6.8319114120673599e-05 0.0077397455094620543 0 0.002432852880960137 0.00024040499194174792 0 0.0031166231257207925 -0.0049001669762685366 0 0.0029273926778107602 -0.0050654922356519819 0 0.0033787638886042166 -0.005055380157046035 0 -0.00019380371417028008 0.010991414719843993 0 -0.00035299155582930173 0.010820778401647222 0 -0.0002566074322079102 0.0097945622759957052 0 -6.8319114120673599e-05 0.0077397455094620543 0 -0.00096693058715599989 0.010556615132618156 0 -0.00050465061347019255 0.010850989428784654 0 -0.0002566074322079102 0.0097945622759957052 0 -0.00049455884364138774 0.010637618666503663 0 -0.00050465061347019255 0.010850989428784654 0 -0.00035299155582930173 0.010820778401647222 0 -0.0002566074322079102 0.0097945622759957052 0 0.00041038372924783638 0.0094106341526455101 0 -0.00019380371417028008 0.010991414719843993 0 -0.0002566074322079102 0.0097945622759957052 0 -0.0002566074322079102 0.0097945622759957052 0 8.4719057206862328e-06 0.007557347554446917 0 -0.00026933955541222051 0.0092266690655583416 0 0.00041038372924783638 0.0094106341526455101 0 -0.0002566074322079102 0.0097945622759957052 0 8.4719057206862328e-06 0.007557347554446917 0 -0.0002566074322079102 0.0097945622759957052 0 -0.00026933955541222051 0.0092266690655583416 0 -0.00049455884364138774 0.010637618666503663 0 -0.00026933955541222051 0.0092266690655583416 0 -4.6635866812661437e-07 0.0075318349594230265 0 -7.8750948090540025e-07 0.010344698489055393 0 8.4719057206862328e-06 0.007557347554446917 0 -0.00026933955541222051 0.0092266690655583416 0 -4.6635866812661437e-07 0.0075318349594230265 0 -0.00065619139745367303 0.011681460837655122 0 -0.00049455884364138774 0.010637618666503663 0 -0.00038423282010244985 0.011692754960330138 0 -0.00065619139745367303 0.011681460837655122 0 -0.00038423282010244985 0.011692754960330138 0 -0.00045183958006192096 0.012914992837460337 0 -0.00049455884364138774 0.010637618666503663 0 -7.8750948090540025e-07 0.010344698489055393 0 -0.00038423282010244985 0.011692754960330138 0 -0.00026933955541222051 0.0092266690655583416 0 -0.00049455884364138774 0.010637618666503663 0 -7.8750948090540025e-07 0.010344698489055393 0 -7.8750948090540025e-07 0.010344698489055393 0 -0.00038423282010244985 0.011692754960330138 0 -1.1167576800965758e-06 0.013158024999387528 0 -0.00038423282010244985 0.011692754960330138 0 -1.1167576800965758e-06 0.013158024999387528 0 -0.00045183958006192096 0.012914992837460337 0 -0.00065619139745367303 0.011681460837655122 0 -0.00045183958006192096 0.012914992837460337 0 -0.00088284165586648307 0.012588197181093589 0 -0.00045183958006192096 0.012914992837460337 0 -0.00011580371135336691 0.013544737197337644 0 -0.00088284165586648307 0.012588197181093589 0 -0.00079250564060851089 0.014211808621512868 0 -0.00089359487369171993 0.012949369472951611 0 -0.00045183958006192096 0.012914992837460337 0 -0.00011580371135336691 0.013544737197337644 0 -6.1771007799555058e-09 0.015970782670884091 0 -1.1167576800965758e-06 0.013158024999387528 0 -0.00045183958006192096 0.012914992837460337 0 -6.1771007799555058e-09 0.015970782670884091 0 -0.00011580371135336691 0.013544737197337644 0 0.00023668580301056938 0.015815702282761298 0 -6.1771007799555058e-09 0.015970782670884091 0 0.00023668580301056938 0.015815702282761298 0 -6.1771007799555058e-09 0.015970782670884091 0 1.1333591883739636e-06 0.018783613054401287 0 -0.0011476808128899425 0.016984288186544041 0 -0.00023894940155343687 0.017423064532310142 0 1.7706531436525655e-07 0.018786742080804279 0 -0.0005288275231952515 0.016365348497574449 0 -1.7125183187432983e-07 0.018784376317928123 0 -0.0007588706759133287 0.016284058102187027 0 -0.00029079928974652745 0.015896144222297695 0 -0.0011001945518459286 0.015109889217484995 0 -0.0011476808128899425 0.016984288186544041 0 -0.00023894940155343687 0.017423064532310142 0 -0.0007588706759133287 0.016284058102187027 0 -0.00023894940155343687 0.017423064532310142 0 -0.00029079928974652745 0.015896144222297695 0 0.00044160508526596846 0.016785388873481168 0 -0.00023894940155343687 0.017423064532310142 0 -0.0007588706759133287 0.016284058102187027 0 -0.00029079928974652745 0.015896144222297695 0 -0.0015678249929119527 0.01475479956537752 0 -0.0011476808128899425 0.016984288186544041 0 -0.0011001945518459286 0.015109889217484995 0 -0.00079250564060851089 0.014211808621512868 0 -0.0005288275231952515 0.016365348497574449 0 -0.0015678249929119527 0.01475479956537752 0 -0.0011001945518459286 0.015109889217484995 0 -0.0011778937369044062 0.013800767640921125 0 -0.0011476808128899425 0.016984288186544041 0 -0.0007588706759133287 0.016284058102187027 0 -0.0011001945518459286 0.015109889217484995 0 -0.0011001945518459286 0.015109889217484995 0 -0.0010891934063404056 0.014212822469521959 0 -0.0011778937369044062 0.013800767640921125 0 -0.0011001945518459286 0.015109889217484995 0 -0.0010891934063404056 0.014212822469521959 0 -0.00056280317334791107 0.014760023343542468 0 -0.0010891934063404056 0.014212822469521959 0 -0.0012331603608197671 0.013934876709893814 0 -0.0011778937369044062 0.013800767640921125 0 -0.00029079928974652745 0.015896144222297695 0 -0.00056280317334791107 0.014760023343542468 0 0.00065687851707961378 0.015369481099441971 0 -0.00056280317334791107 0.014760023343542468 0 -0.00081171796327241116 0.013956150842060963 0 0.00042972862749612889 0.01401042328778297 0 -0.00029079928974652745 0.015896144222297695 0 -0.0011001945518459286 0.015109889217484995 0 -0.00056280317334791107 0.014760023343542468 0 -0.0010891934063404056 0.014212822469521959 0 -0.00056280317334791107 0.014760023343542468 0 -0.00081171796327241116 0.013956150842060963 0 -0.00015180133453342892 0.014583570589711645 0 0.0010311156418147372 0.014898725449423361 0 0.00077419250350904874 0.015105126937422003 0 0.0010311156418147372 0.014898725449423361 0 0.0005614267124013538 0.015201562548993401 0 0.00059468571074215086 0.0150012903705264 0 0.0011761219967752509 0.015249556645756709 0 0.00059468571074215086 0.0150012903705264 0 0.0013341630797732364 0.015374379690965634 0 0.00073160930022500418 0.014700616749129274 0 0.00059468571074215086 0.0150012903705264 0 0.0002720892336371721 0.014969623263732369 0 0.00073160930022500418 0.014700616749129274 0 -0.00015180133453342892 0.014583570589711645 0 -0.00058454953582482013 0.013678416608094874 0 0.0005614267124013538 0.015201562548993401 0 0.0002720892336371721 0.014969623263732369 0 -0.00014148250150016923 0.015129552329864772 0 0.0002720892336371721 0.014969623263732369 0 -9.1142396323699989e-05 0.01473299047546156 0 0.00073160930022500418 0.014700616749129274 0 -0.0010891934063404056 0.014212822469521959 0 -0.00081171796327241116 0.013956150842060963 0 -0.0012331603608197671 0.013934876709893814 0 0.0005614267124013538 0.015201562548993401 0 0.00059468571074215086 0.0150012903705264 0 0.0002720892336371721 0.014969623263732369 0 0.0002720892336371721 0.014969623263732369 0 -0.00014148250150016923 0.015129552329864772 0 -9.1142396323699989e-05 0.01473299047546156 0 -0.00040684123648813096 0.012459051051177185 0 -0.00080156986784868075 0.012234836423748362 0 -0.00035254979760975652 0.01205956343081092 0 -0.00058454953582482013 0.013678416608094874 0 -0.0015201087793039021 0.012179618155282375 0 -0.00058454953582482013 0.013678416608094874 0 0.0002249286749979039 0.012693675052222271 0 -0.0010991649014897517 0.013071599709446893 0 -0.00098092480058927759 0.013141560063410822 0 -0.0014420080665691038 0.01232952288477728 0 -0.00040684123648813096 0.012459051051177185 0 -0.00080156986784868075 0.012234836423748362 0 -0.0014420080665691038 0.01232952288477728 0 -0.00080156986784868075 0.012234836423748362 0 -0.0010016893863412687 0.012085966578073719 0 -0.00035254979760975652 0.01205956343081092 0 -0.0010991649014897517 0.013071599709446893 0 -0.00098092480058927759 0.013141560063410822 0 -0.0011778937369044062 0.013800767640921125 0 -0.00080156986784868075 0.012234836423748362 0 -0.0014420080665691038 0.01232952288477728 0 -0.0010016893863412687 0.012085966578073719 0 -0.0015261990543192659 0.012287814580651219 0 -0.0010991649014897517 0.013071599709446893 0 -0.0014420080665691038 0.01232952288477728 0 -0.0015709151479631333 0.012742837538862559 0 -0.0009748211043372042 0.012831922044839071 0 -0.0009630705760122248 0.01228524671184575 0 -0.0010991649014897517 0.013071599709446893 0 -0.001079366175648857 0.012784269632211855 0 -0.001546688427538386 0.011975359444956719 0 -0.0015134473264302333 0.012166525739168769 0 -0.0010016893863412687 0.012085966578073719 0 -0.0014779619156740146 0.011966750834683199 0 -0.0006117276880020342 0.011919815424391782 0 -0.0015134473264302333 0.012166525739168769 0 -0.0014420080665691038 0.01232952288477728 0 -0.0010016893863412687 0.012085966578073719 0 -0.0015134473264302333 0.012166525739168769 0 -0.0015261990543192659 0.012287814580651219 0 -0.0014420080665691038 0.01232952288477728 0 -0.0009630705760122248 0.01228524671184575 0 -0.001079366175648857 0.012784269632211855 0 -0.00095858393077318882 0.012397957445976158 0 -0.001079366175648857 0.012784269632211855 0 -0.00088284165586648307 0.012588197181093589 0 -0.0012337782432046743 0.013376450825715655 0 -0.001079366175648857 0.012784269632211855 0 -0.00095858393077318882 0.012397957445976158 0 -0.00088284165586648307 0.012588197181093589 0 -0.00084276440402906701 0.012064987585348101 0 -0.00095858393077318882 0.012397957445976158 0 -0.00088284165586648307 0.012588197181093589 0 -0.0015678249929119527 0.01475479956537752 0 -0.00088284165586648307 0.012588197181093589 0 -0.0012337782432046743 0.013376450825715655 0 -0.0015678249929119527 0.01475479956537752 0 -0.0012337782432046743 0.013376450825715655 0 -0.0011778937369044062 0.013800767640921125 0 -0.00058454953582482013 0.013678416608094874 0 -0.0010467936652190683 0.013735474547123558 0 -0.0010991649014897517 0.013071599709446893 0 -0.0012337782432046743 0.013376450825715655 0 -0.0011778937369044062 0.013800767640921125 0 -0.0010991649014897517 0.013071599709446893 0 -0.001079366175648857 0.012784269632211855 0 -0.0012337782432046743 0.013376450825715655 0 0.0013650352830651706 0.021434752231347495 0 0.0013094457305851811 0.023582340536187896 0 0.00035659466141088603 0.021051544153393907 0 0.0012521916138724663 0.022270641541571219 0 0.00036932107887706583 0.021905304557817109 0 0.00035659466141088603 0.021051544153393907 0 0.0012521916138724663 0.022270641541571219 0 0.0020755176413394627 0.021679697710213032 0 -0.00013240019021386614 0.025046333865273138 0 -2.248387319710644e-08 0.02348567386813858 0 4.0905141663578723e-08 0.0256749336858638 0 0.00050371633149048261 0.023602380470141442 0 -3.1190483744270303e-08 0.02348283640469305 0 0.0012521916138724663 0.022270641541571219 0 1.1772200755212361e-06 0.023478775328672288 0 0.00036932107887706583 0.021905304557817109 0 1.1772200755212361e-06 0.023478775328672288 0 -0.0001276560207099538 0.021426475082914408 0 -7.6649386596143984e-11 0.021133687675119871 0 1.1772200755212361e-06 0.023478775328672288 0 0.00036932107887706583 0.021905304557817109 0 -0.0001276560207099538 0.021426475082914408 0 0.00035659466141088603 0.021051544153393907 0 0.00036932107887706583 0.021905304557817109 0 -0.0001276560207099538 0.021426475082914408 0 0.00035659466141088603 0.021051544153393907 0 -0.0001276560207099538 0.021426475082914408 0 -7.4320298862756774e-05 0.021011295584293776 0 -0.0001276560207099538 0.021426475082914408 0 -9.9768969976361304e-06 0.021218013991922077 0 -3.0772733234047402e-05 0.02075013667862435 0 0.00095375052878898076 0.018777819127399533 0 0.00056839728518793631 0.019569228928300476 0 -0.0001276560207099538 0.021426475082914408 0 -9.9768969976361304e-06 0.021218013991922077 0 -7.4320298862756774e-05 0.021011295584293776 0 -9.9768969976361304e-06 0.021218013991922077 0 -3.0772733234047402e-05 0.02075013667862435 0 0.00044580961133123105 0.019640238445104007 0 -0.0001276560207099538 0.021426475082914408 0 -7.6649386596143984e-11 0.021133687675119871 0 -3.0772733234047402e-05 0.02075013667862435 0 -7.6649386596143984e-11 0.021133687675119871 0 -3.0772733234047402e-05 0.02075013667862435 0 0.00044580961133123105 0.019640238445104007 0 -7.6649386596143984e-11 0.021133687675119871 0 0.00044580961133123105 0.019640238445104007 0 1.7706531436525655e-07 0.018786742080804279 0 -0.00023894940155343687 0.017423064532310142 0 0.00044580961133123105 0.019640238445104007 0 0.00044160508526596846 0.016785388873481168 0 -0.00023894940155343687 0.017423064532310142 0 0.00044580961133123105 0.019640238445104007 0 1.7706531436525655e-07 0.018786742080804279 0 0.0019804392863998275 0.01658159950413475 0 0.00044580961133123105 0.019640238445104007 0 0.00044160508526596846 0.016785388873481168 0 0.0019804392863998275 0.01658159950413475 0 0.00044160508526596846 0.016785388873481168 0 0.00065687851707961378 0.015369481099441971 0 -0.00029079928974652745 0.015896144222297695 0 0.00044160508526596846 0.016785388873481168 0 0.00065687851707961378 0.015369481099441971 0 -0.00056280317334791107 0.014760023343542468 0 0.00065687851707961378 0.015369481099441971 0 0.00042972862749612889 0.01401042328778297 0 0.00065687851707961378 0.015369481099441971 0 0.00042972862749612889 0.01401042328778297 0 0.0024393280234372423 0.014762970715716984 0 0.0010311156418147372 0.014898725449423361 0 0.0013930829012486646 0.018551203163490126 0 0.0018323233525959456 0.015146090608234745 0 0.0013341630797732364 0.015374379690965634 0 0.0016435347510219901 0.014681077065488988 0 0.0018323233525959456 0.015146090608234745 0 0.0013341630797732364 0.015374379690965634 0 0.0022072788234847288 0.015506754488400814 0 0.0013341630797732364 0.015374379690965634 0 0.0016435347510219901 0.014681077065488988 0 0.00073160930022500418 0.014700616749129274 0 0.0010311156418147372 0.014898725449423361 0 0.0022506807310627504 0.015549041323074197 0 0.0013930829012486646 0.018551203163490126 0 0.0028176008664676957 0.017086293122006612 0 0.0022072788234847288 0.015506754488400814 0 0.0021925096179582211 0.015806520698661251 0 0.0025759063547737843 0.014649031167898995 0 0.0018323233525959456 0.015146090608234745 0 0.0022072788234847288 0.015506754488400814 0 0.0025759063547737843 0.014649031167898995 0 0.00095375052878898076 0.018777819127399533 0 0.0013930829012486646 0.018551203163490126 0 0.0012790730735881433 0.015419680575110275 0 0.0022072788234847288 0.015506754488400814 0 0.0021925096179582211 0.015806520698661251 0 0.0019804392863998275 0.01658159950413475 0 0.00065687851707961378 0.015369481099441971 0 0.0024393280234372423 0.014762970715716984 0 0.0021152862999183519 0.021556628324544025 0 0.0018570718809794535 0.021409106298976653 0 0.0021023819401364647 0.021333189263673225 0 0.0013650352830651706 0.021434752231347495 0 0.0013930829012486646 0.018551203163490126 0 0.0021023819401364647 0.021333189263673225 0 0.0021446448895543297 0.021159162696162397 0 0.0019555040151015093 0.02113931375331397 0 0.0018570718809794535 0.021409106298976653 0 0.0021023819401364647 0.021333189263673225 0 0.0019555040151015093 0.02113931375331397 0 0.0021023819401364647 0.021333189263673225 0 0.002261292191894269 0.021289599933969196 0 0.0021446448895543297 0.021159162696162397 0 0.0021023819401364647 0.021333189263673225 0 0.002261292191894269 0.021289599933969196 0 0.0022819673866271567 0.021425165228805582 0 0.0021152862999183519 0.021556628324544025 0 0.0023364530312310152 0.021551909997745443 0 0.0022819673866271567 0.021425165228805582 0 0.0021152862999183519 0.021556628324544025 0 0.0021023819401364647 0.021333189263673225 0 0.0022819673866271567 0.021425165228805582 0 0.0024196128734280124 0.021150135172968109 0 0.0024475275525192436 0.021152213818047258 0 0.0024538503431914475 0.021177856317544267 0 0.0024196128734280124 0.021150135172968109 0 0.0024538503431914475 0.021177856317544267 0 0.0024184669698878122 0.021160870906506857 0 0.0024196128734280124 0.021150135172968109 0 0.0024028290975400221 0.021161086322833551 0 0.0024184669698878122 0.021160870906506857 0 0.0024196128734280124 0.021150135172968109 0 0.0024428881726712873 0.021117449309750912 0 0.0024475275525192436 0.021152213818047258 0 0.0021419522265370044 0.021216395051486089 0 0.0024091660033956626 0.021162006061646161 0 0.0024196128734280124 0.021150135172968109 0 0.0024250699454921487 0.021106178704977975 0 0.002363030930839085 0.021184760811444811 0 0.0024196128734280124 0.021150135172968109 0 0.0024250699454921487 0.021106178704977975 0 0.0024428881726712873 0.021117449309750912 0 0.002261292191894269 0.021289599933969196 0 0.0021446448895543297 0.021159162696162397 0 0.002363030930839085 0.021184760811444811 0 0.0024250699454921487 0.021106178704977975 0 0.0024428881726712873 0.021117449309750912 0 0.0024915140199148929 0.021056744390396537 0 0.0021419522265370044 0.021216395051486089 0 0.0028176008664676957 0.017086293122006612 0 0.0028176008664676957 0.017086293122006612 0 0.0028886186459118465 0.015729755574311114 0 0.0035077905466548566 0.011154240775120155 0 0.0032740801076692502 0.011362131542207634 0 0.0035498473161323066 0.011164670737604746 0 0.0024428881726712873 0.021117449309750912 0 0.0024915140199148929 0.021056744390396537 0 0.0024475275525192436 0.021152213818047258 0 0.0032740801076692502 0.011362131542207634 0 0.0035398272796910309 0.011331512606567151 0 0.0035498473161323066 0.011164670737604746 0 0.0035398272796910309 0.011331512606567151 0 0.0035498473161323066 0.011164670737604746 0 0.0035954389247265998 0.011003581813886859 0 0.0028176008664676957 0.017086293122006612 0 0.0026381647534010053 0.012757289527799698 0 0.0018323233525959456 0.015146090608234745 0 0.0025759063547737843 0.014649031167898995 0 0.0016435347510219901 0.014681077065488988 0 0.0035077905466548566 0.011154240775120155 0 0.0035498473161323066 0.011164670737604746 0 0.00357707736221032 0.011348960045071771 0 0.0035498473161323066 0.011164670737604746 0 0.00357707736221032 0.011348960045071771 0 0.0035954389247265998 0.011003581813886859 0 0.0026381647534010053 0.012757289527799698 0 0.0015281488015799149 0.013238233005686321 0 0.00357707736221032 0.011348960045071771 0 0.0035954389247265998 0.011003581813886859 0 0.0029053763986471104 0.011062309869881782 0 0.0035954389247265998 0.011003581813886859 0 0.0029053763986471104 0.011062309869881782 0 0.0025946810439412284 0.010152724863111367 0 0.0035398272796910309 0.011331512606567151 0 0.0035954389247265998 0.011003581813886859 0 0.0038037285221418217 0.011564526308125862 0 0.0035954389247265998 0.011003581813886859 0 0.0036544764271147327 0.0087064188079640781 0 0.0025946810439412284 0.010152724863111367 0 0.0036389659267393529 0.011018424952298794 0 0.0036793508954842914 0.0099953124996615943 0 0.0036544764271147327 0.0087064188079640781 0 0.0025541431656211323 0.0075701086432737839 0 0.0035292326944137654 0.0064693143953250265 0 0.0038037285221418217 0.011564526308125862 0 0.0036739260067685966 0.011807855237675321 0 0.0038526160713377006 0.012071828713901112 0 0.0036793508954842914 0.0099953124996615943 0 0.0038907027158423787 0.0098881506893027608 0 0.0036739260067685966 0.011807855237675321 0 0.0034726044298030389 0.011647890823203284 0 0.0034717829775764816 0.011992640213254432 0 0.0038037285221418217 0.011564526308125862 0 0.0036739260067685966 0.011807855237675321 0 0.0034726044298030389 0.011647890823203284 0 0.0035398272796910309 0.011331512606567151 0 0.0038037285221418217 0.011564526308125862 0 0.0034726044298030389 0.011647890823203284 0 0.0032740801076692502 0.011362131542207634 0 0.0035398272796910309 0.011331512606567151 0 0.0034726044298030389 0.011647890823203284 0 0.0032740801076692502 0.011362131542207634 0 0.0034726044298030389 0.011647890823203284 0 0.0030906396063398274 0.011857831111607462 0 0.0028886186459118465 0.015729755574311114 0 0.0032862595400279578 0.018132032640946733 0 0.0034726044298030389 0.011647890823203284 0 0.0030906396063398274 0.011857831111607462 0 0.0034717829775764816 0.011992640213254432 0 0.0032862595400279578 0.018132032640946733 0 0.0038860217136522869 0.014128355887022418 0 0.0032862595400279578 0.018132032640946733 0 0.0027368819984211986 0.025646563928696808 0 0.0024287802401216779 0.021073960676005886 0 0.0024538503431914475 0.021177856317544267 0 0.002581718666593891 0.021119170168337208 0 0.0032548614985924321 0.025780209043194769 0 0.0033134568772800522 0.025763921955771579 0 0.0033814231231559318 0.025794354230340707 0 0.0034891502118500469 0.025969216337466756 0 0.0027368819984211986 0.025646563928696808 0 0.0024475275525192436 0.021152213818047258 0 0.0024287802401216779 0.021073960676005886 0 0.0024538503431914475 0.021177856317544267 0 0.0018618701860747631 -0.0043311460247890841 0 0.001478444487999346 -0.0045119076033168859 0 0.0013956227824024477 -0.0040056733582447641 0 0.0023823531021394174 -0.0042483530705148698 0 0.0018618701860747631 -0.0043311460247890841 0 0.0022487527721015421 -0.0045524823524406332 0 0.0023823531021394174 -0.0042483530705148698 0 0.0018618701860747631 -0.0043311460247890841 0 0.0018945170448706236 -0.0039624075944008448 0 0.00055441589966849676 0.0032094753171028937 0 0.0007494691912935975 0.0031152657577545495 0 0.0024373765693617246 -0.0049069058089749725 0 0.0019431951541676212 -0.004717861696143028 0 0.0022487527721015421 -0.0045524823524406332 0 -0.001799784859592085 0.011940629107864481 0 -0.001546688427538386 0.011975359444956719 0 -0.00038781163595474292 0.01119656155142573 0 0.0018618701860747631 -0.0043311460247890841 0 0.0019431951541676212 -0.004717861696143028 0 0.0022487527721015421 -0.0045524823524406332 0 -0.001546688427538386 0.011975359444956719 0 -0.00038781163595474292 0.01119656155142573 0 -0.00027101124928949799 0.011734982541909966 0 -0.00038781163595474292 0.01119656155142573 0 0.0012326083610039202 0.011630162135543857 0 0.0013773440991984222 0.010560631855516929 0 0.0007494691912935975 0.0031152657577545495 0 0.0020848580004355593 0.0058924766808276215 0 -0.0006117276880020342 0.011919815424391782 0 0.0002249286749979039 0.012693675052222271 0 -0.00038781163595474292 0.01119656155142573 0 -0.00027101124928949799 0.011734982541909966 0 0.0012326083610039202 0.011630162135543857 0 0.0018618701860747631 -0.0043311460247890841 0 0.0019431951541676212 -0.004717861696143028 0 0.001478444487999346 -0.0045119076033168859 0 0.0002249286749979039 0.012693675052222271 0 0.0020848580004355593 0.0058924766808276215 0 0.00079706444190360192 0.011802876968981713 0 0.0012444906350728465 0.010877122770312291 0 0.0023354870624072905 0.011703112431100239 0 0.0002249286749979039 0.012693675052222271 0 0.0015281488015799149 0.013238233005686321 0 0.00097346608467072365 0.0072797019052527213 0 0.0020848580004355593 0.0058924766808276215 0 0.00079706444190360192 0.011802876968981713 0 0.0012444906350728465 0.010877122770312291 0 0.00090499833696522196 0.010981002427434272 0 0.00357707736221032 0.011348960045071771 0 0.0023354870624072905 0.011703112431100239 0 0.0029053763986471104 0.011062309869881782 0 0.0012444906350728465 0.010877122770312291 0 0.0023354870624072905 0.011703112431100239 0 0.0021558209307717745 0.010837368989026141 0 0.0023354870624072905 0.011703112431100239 0 0.0021558209307717745 0.010837368989026141 0 0.0029053763986471104 0.011062309869881782 0 0.0025946810439412284 0.010152724863111367 0 0.0017734336172379856 0.01007359343779057 0 0.0021277260116047787 0.0088967396672256921 0 0.0021558209307717745 0.010837368989026141 0 0.0029053763986471104 0.011062309869881782 0 0.0025946810439412284 0.010152724863111367 0 0.0021558209307717745 0.010837368989026141 0 0.0025946810439412284 0.010152724863111367 0 0.0017734336172379856 0.01007359343779057 0 0.0020848580004355593 0.0058924766808276215 0 0.0011733353432071051 0.0021235880782687804 0 0.0012444906350728465 0.010877122770312291 0 0.0017734336172379856 0.01007359343779057 0 0.001025909551061291 0.0093020145584225625 0 0.0012444906350728465 0.010877122770312291 0 0.0008986396810881709 0.010976310770182228 0 0.001025909551061291 0.0093020145584225625 0 0.0012444906350728465 0.010877122770312291 0 0.0021558209307717745 0.010837368989026141 0 0.0017734336172379856 0.01007359343779057 0 0.001025909551061291 0.0093020145584225625 0 0.0021277260116047787 0.0088967396672256921 0 0.0011953315444016459 0.0074941016773058264 0 0.0011733353432071051 0.0021235880782687804 0 0.0012446351672098248 0.0020317451490262681 0 0.0017734336172379856 0.01007359343779057 0 0.001025909551061291 0.0093020145584225625 0 0.0021277260116047787 0.0088967396672256921 0 0.0036544764271147327 0.0087064188079640781 0 0.0025946810439412284 0.010152724863111367 0 0.0021277260116047787 0.0088967396672256921 0 0.0021277260116047787 0.0088967396672256921 0 0.0025541431656211323 0.0075701086432737839 0 0.0011953315444016459 0.0074941016773058264 0 0.0036544764271147327 0.0087064188079640781 0 0.0021277260116047787 0.0088967396672256921 0 0.0025541431656211323 0.0075701086432737839 0 0.0013956227824024477 -0.0040056733582447641 0 0.0012947122714014848 -0.0034614429540250381 0 0.0017270431527195574 -0.0035692450554737497 0 0.0012947122714014848 -0.0034614429540250381 0 0.0017270431527195574 -0.0035692450554737497 0 0.001610312276880854 -0.0032054215150896037 0 0.0013956227824024477 -0.0040056733582447641 0 0.0017270431527195574 -0.0035692450554737497 0 0.0018945170448706236 -0.0039624075944008448 0 0.0018618701860747631 -0.0043311460247890841 0 0.0013956227824024477 -0.0040056733582447641 0 0.0018945170448706236 -0.0039624075944008448 0 0.0025654563552945293 -0.003866996463158778 0 0.0023823531021394174 -0.0042483530705148698 0 0.0018945170448706236 -0.0039624075944008448 0 0.0017270431527195574 -0.0035692450554737497 0 0.0018945170448706236 -0.0039624075944008448 0 0.002153065575598126 -0.003570027050823437 0 0.0017270431527195574 -0.0035692450554737497 0 0.002153065575598126 -0.003570027050823437 0 0.0020274666476647507 -0.0031791137436466854 0 0.0025654563552945293 -0.003866996463158778 0 0.0018945170448706236 -0.0039624075944008448 0 0.002153065575598126 -0.003570027050823437 0 0.0020274666476647507 -0.0031791137436466854 0 0.0020436604242419975 -0.0028476891404306125 0 0.0023583737743111031 -0.0028900220923712872 0 0.0020436604242419975 -0.0028476891404306125 0 0.0017616720803041133 -0.0027319601529080021 0 0.0023284047035732297 -0.0023825740202726951 0 0.0020436604242419975 -0.0028476891404306125 0 0.0017616720803041133 -0.0027319601529080021 0 0.0017850013925280839 -0.0029884236948968645 0 0.0020274666476647507 -0.0031791137436466854 0 0.0020436604242419975 -0.0028476891404306125 0 0.0017850013925280839 -0.0029884236948968645 0 0.0014434983511862872 -0.0031206488713432573 0 0.0013953009914094039 0.0018121786554609366 0 0.0015164186283598948 -0.0023861762119863545 0 0.0010630932944230155 -0.0023766485221703481 0 0.0013446109179636523 -0.0022394266881248723 0 0.0017616720803041133 -0.0027319601529080021 0 0.0017850013925280839 -0.0029884236948968645 0 0.0012141370508582305 -0.0029032418217088832 0 0.0020274666476647507 -0.0031791137436466854 0 0.0017850013925280839 -0.0029884236948968645 0 0.001610312276880854 -0.0032054215150896037 0 0.0017270431527195574 -0.0035692450554737497 0 0.0020274666476647507 -0.0031791137436466854 0 0.001610312276880854 -0.0032054215150896037 0 0.0017850013925280839 -0.0029884236948968645 0 0.001610312276880854 -0.0032054215150896037 0 0.0012141370508582305 -0.0029032418217088832 0 0.0012947122714014848 -0.0034614429540250381 0 0.001610312276880854 -0.0032054215150896037 0 0.0012141370508582305 -0.0029032418217088832 0 0.0012446351672098248 0.0020317451490262681 0 0.0013953009914094039 0.0018121786554609366 0 0.0025541431656211323 0.0075701086432737839 0 0.0011953315444016459 0.0074941016773058264 0 0.0014225024116764661 0.0056450158025417238 0 0.0025541431656211323 0.0075701086432737839 0 0.0014225024116764661 0.0056450158025417238 0 0.0035292326944137654 0.0064693143953250265 0 0.00031571799100364387 0.0069713549186449595 0 0.0054211765390246511 0.0089025294229802977 0 0.0053577257600429858 0.0080616651083366391 0 0.0013953009914094039 0.0018121786554609366 0 0.0038907027158423787 0.0098881506893027608 0 0.0019176986769413001 0.0050138576271751686 0 0.0038764855238681561 0.013750438365268887 0 0.00031571799100364387 0.0069713549186449595 0 0.00047030385800034068 0.0057987273954243383 0 0.0053577257600429858 0.0080616651083366391 0 0.0029460546365375284 0.014862609294524017 0 0.0033545273153212092 0.015030453947591903 0 0.0033867563419579189 0.014678228452739523 0 0.0019176986769413001 0.0050138576271751686 0 0.00016868039086528807 -0.0031384332259617809 0 0.0010630932944230155 -0.0023766485221703481 0 0.0010574997840637308 -0.002285714011432881 0 0.0013446109179636523 -0.0022394266881248723 0 0.0013953009914094039 0.0018121786554609366 0 0.0019176986769413001 0.0050138576271751686 0 0.00080716040557097905 -0.0024016795511266668 0 0.0012211678454105272 -0.0017369554629376681 0 0.0013446109179636523 -0.0022394266881248723 0 0.00080716040557097905 -0.0024016795511266668 0 0.00064062359343496566 -0.0015318209408114955 0 0.0012211678454105272 -0.0017369554629376681 0 0.0019176986769413001 0.0050138576271751686 0 0.0017499200941361657 0.0069175993482087127 0 0.0029460546365375284 0.014862609294524017 0 0.0029143461719281535 0.014288561939818588 0 0.0033867563419579189 0.014678228452739523 0 0.0029143461719281535 0.014288561939818588 0 0.0033867563419579189 0.014678228452739523 0 0.0034767162236185299 0.013912676340596005 0 0.00064062359343496566 -0.0015318209408114955 0 0.0012211678454105272 -0.0017369554629376681 0 0.0012125521946328749 -0.0011685934525823729 0 0.0012211678454105272 -0.0017369554629376681 0 0.0017420523309854125 -0.0016572968650143648 0 0.0012125521946328749 -0.0011685934525823729 0 0.0012211678454105272 -0.0017369554629376681 0 0.0017420523309854125 -0.0016572968650143648 0 0.0016145309213765303 -0.0020858580113467854 0 0.0017420523309854125 -0.0016572968650143648 0 0.0018496897546504839 -0.00103219140495008 0 0.0022755899738824063 -0.001471004757498873 0 0.0017420523309854125 -0.0016572968650143648 0 0.0023284047035732297 -0.0023825740202726951 0 0.0022755899738824063 -0.001471004757498873 0 0.0014434983511862872 -0.0031206488713432573 0 0.0024276503397639344 -0.0022244673308507452 0 0.0015164186283598948 -0.0023861762119863545 0 0.0016145309213765303 -0.0020858580113467854 0 0.0023284047035732297 -0.0023825740202726951 0 0.0017420523309854125 -0.0016572968650143648 0 0.0016145309213765303 -0.0020858580113467854 0 0.0023284047035732297 -0.0023825740202726951 0 0.0012211678454105272 -0.0017369554629376681 0 0.0016145309213765303 -0.0020858580113467854 0 0.0013446109179636523 -0.0022394266881248723 0 0.0015164186283598948 -0.0023861762119863545 0 0.0016145309213765303 -0.0020858580113467854 0 0.0013446109179636523 -0.0022394266881248723 0 0.0041447718337589172 0.038163432169504519 0 0.0047471874400284225 0.036407278368442618 0 0.0032568574233554646 0.036738274747711512 0 0.0033924154846818981 0.035510197958564554 0 0.00389119956852012 0.027182664362298443 0 0.0031674229413419545 0.030912522682227103 0 0.0039253780812786802 0.02855773045630455 0 0.0059377105627892958 0.031904820496949787 0 0.00389119956852012 0.027182664362298443 0 0.0037070285417893198 0.022374025277235872 0 0.0033134568772800522 0.025763921955771579 0 0.0033014421112072946 0.025550072910705122 0 0.0034895337955926854 0.025767584790488039 0 0.0039725106286893092 0.016810724297385865 0 0.0035726090139990437 0.017576435427704731 0 0.0041455161169450874 0.017325252416945873 0 0.0032548614985924321 0.025780209043194769 0 0.0033134568772800522 0.025763921955771579 0 0.0033014421112072946 0.025550072910705122 0 0.0032862595400279578 0.018132032640946733 0 0.00389119956852012 0.027182664362298443 0 0.00389119956852012 0.027182664362298443 0 0.0039858477351254308 0.030873142198661763 0 0.0039725106286893092 0.016810724297385865 0 0.0041455161169450874 0.017325252416945873 0 0.0045613592442614904 0.01702291798605169 0 0.0039725106286893092 0.016810724297385865 0 0.0045613592442614904 0.01702291798605169 0 0.0046262707554252241 0.017032188415768496 0 0.0035726090139990437 0.017576435427704731 0 0.0041455161169450874 0.017325252416945873 0 0.0044961285527428171 0.017941602585780661 0 0.0049537842586867076 0.016047550834981904 0 0.0045287190911721805 0.017361287152078728 0 0.0041455161169450874 0.017325252416945873 0 0.0044961285527428171 0.017941602585780661 0 0.0045613592442614904 0.01702291798605169 0 0.0049793256583354128 0.016086852190328835 0 0.0042159135409310768 0.015292242784611642 0 0.0051628292590124225 0.015158709356832199 0 0.0035726090139990437 0.017576435427704731 0 0.0044961285527428171 0.017941602585780661 0 0.0042660247659926332 0.018852997995660554 0 0.0049537842586867076 0.016047550834981904 0 0.0037070285417893198 0.022374025277235872 0 0.0049793256583354128 0.016086852190328835 0 0.004306921802827132 0.016200078467938469 0 0.0042159135409310768 0.015292242784611642 0 0.004306921802827132 0.016200078467938469 0 0.0033731070903563819 0.016406925227625463 0 0.0042159135409310768 0.015292242784611642 0 0.0036739260067685966 0.011807855237675321 0 0.0034717829775764816 0.011992640213254432 0 0.0037877570029141226 0.012051766107190614 0 0.0038860217136522869 0.014128355887022418 0 0.0038764855238681561 0.013750438365268887 0 0.0049793256583354128 0.016086852190328835 0 0.0045613592442614904 0.01702291798605169 0 0.0046262707554252241 0.017032188415768496 0 0.0049793256583354128 0.016086852190328835 0 0.004306921802827132 0.016200078467938469 0 0.0046262707554252241 0.017032188415768496 0 0.004306921802827132 0.016200078467938469 0 0.0046262707554252241 0.017032188415768496 0 0.0033731070903563819 0.016406925227625463 0 0.0034717829775764816 0.011992640213254432 0 0.0037877570029141226 0.012051766107190614 0 0.0038548847280136934 0.012149538951143698 0 0.0036739260067685966 0.011807855237675321 0 0.0037877570029141226 0.012051766107190614 0 0.0038526160713377006 0.012071828713901112 0 0.0037877570029141226 0.012051766107190614 0 0.003847549898131008 0.012073583519527212 0 0.0038548847280136934 0.012149538951143698 0 0.0038907027158423787 0.0098881506893027608 0 0.0038764855238681561 0.013750438365268887 0 0.0040570137119181442 0.010235402955638588 0 0.0038907027158423787 0.0098881506893027608 0 0.0038764855238681561 0.013750438365268887 0 0.0032520941110572112 0.015583954714584276 0 0.0033731070903563819 0.016406925227625463 0 0.0033867563419579189 0.014678228452739523 0 0.0042159135409310768 0.015292242784611642 0 0.0033867563419579189 0.014678228452739523 0 0.0043670018402519233 0.014036592645932683 0 0.0034767162236185299 0.013912676340596005 0 0.0033867563419579189 0.014678228452739523 0 0.0043670018402519233 0.014036592645932683 0 0.0042159135409310768 0.015292242784611642 0 0.0043670018402519233 0.014036592645932683 0 0.0042159135409310768 0.015292242784611642 0 0.0051628292590124225 0.015158709356832199 0 0.0022336581718907004 0.02364285306316068 0 0.0013521927725193333 0.02217513801077323 0 0.00084003212389113715 0.023980175966924797 0 0.0030961065199422906 0.018136267135536541 0 0.0037070285417893198 0.022374025277235872 0 0.0037070285417893198 0.022374025277235872 0 0.0027615855920757834 0.030775506049132657 0 0.0040114303457541431 0.03379280355220398 0 0.0049016820162803591 0.035544363234753934 0 0.001878762450833695 0.035817483178589772 0 0.0059377105627892958 0.031904820496949787 0 0.0040114303457541431 0.03379280355220398 0 0.0049016820162803591 0.035544363234753934 0 0.0040114303457541431 0.03379280355220398 0 0.0038972883101806477 0.032001574618812638 0 0.002565428525138966 0.033253229954053991 0 0.0031674229413419545 0.030912522682227103 0 0.0059377105627892958 0.031904820496949787 0 0.0038972883101806477 0.032001574618812638 0 0.0059377105627892958 0.031904820496949787 0 0.0040114303457541431 0.03379280355220398 0 0.0038972883101806477 0.032001574618812638 0 0.0031674229413419545 0.030912522682227103 0 0.0038972883101806477 0.032001574618812638 0 0.0023654278177277499 0.033315443108983177 0 0.0041278415479035118 0.032110005970907067 0 0.0025550765152246584 0.035535624552750188 0 0.0049016820162803591 0.035544363234753934 0 0.0038174306713345961 0.038639976230007964 0 0.0029469683111258247 0.03718831643287529 0 0.0027615855920757834 0.030775506049132657 0 0.0020736738346424023 0.032105294314492168 0 0.0049016820162803591 0.035544363234753934 0 0.001878762450833695 0.035817483178589772 0 0.0029469683111258247 0.03718831643287529 0 0.0022336581718907004 0.02364285306316068 0 0.00084003212389113715 0.023980175966924797 0 0.0017333700147200012 0.024828632941431745 0 0.0017333700147200012 0.024828632941431745 0 0.0021001594384706234 0.026002414637156943 0 0.00029468195683572494 0.025832675931536573 0 0.00084003212389113715 0.023980175966924797 0 0.0017333700147200012 0.024828632941431745 0 0.00029468195683572494 0.025832675931536573 0 0.0017333700147200012 0.024828632941431745 0 0.0031696474021715004 0.025126573153311026 0 0.0021001594384706234 0.026002414637156943 0 0.0030961065199422906 0.018136267135536541 0 0.0034896463846040395 0.019115347175939771 0 0.0022336581718907004 0.02364285306316068 0 0.0017333700147200012 0.024828632941431745 0 0.0031696474021715004 0.025126573153311026 0 0.0043670018402519233 0.014036592645932683 0 0.0034767162236185299 0.013912676340596005 0 0.0037671960814210635 0.013271948814802014 0 0.0034767162236185299 0.013912676340596005 0 0.0037671960814210635 0.013271948814802014 0 0.0030390360247699189 0.013328902073182467 0 0.0034896463846040395 0.019115347175939771 0 0.0036865296838544765 0.02080836751975056 0 0.0031696474021715004 0.025126573153311026 0 0.0032923793811111155 0.026336869594684342 0 0.0040865494633856147 0.026577386770548148 0 0.0042859701545395895 0.025716162813051838 0 0.0036865296838544765 0.02080836751975056 0 0.0035148330288741684 0.027286077154033906 0 0.0041997596520672474 0.026567991220908506 0 0.0040744321984781673 0.027326958317880155 0 0.0032923793811111155 0.026336869594684342 0 0.0035148330288741684 0.027286077154033906 0 0.0041997596520672474 0.026567991220908506 0 0.0035148330288741684 0.027286077154033906 0 0.0040744321984781673 0.027326958317880155 0 0.003834554096299275 0.028173665601184249 0 0.0035148330288741684 0.027286077154033906 0 0.0025772758861711664 0.027155155016014669 0 0.0031226209233192227 0.028130944237020433 0 0.0032923793811111155 0.026336869594684342 0 0.0035148330288741684 0.027286077154033906 0 0.0025772758861711664 0.027155155016014669 0 0.0025772758861711664 0.027155155016014669 0 0.0013786607860176829 0.027226629739278863 0 0.0023060520603097557 0.028070702987647623 0 0.0025772758861711664 0.027155155016014669 0 0.0021001594384706234 0.026002414637156943 0 0.0013786607860176829 0.027226629739278863 0 0.0031696474021715004 0.025126573153311026 0 0.0032923793811111155 0.026336869594684342 0 0.0021001594384706234 0.026002414637156943 0 0.0032923793811111155 0.026336869594684342 0 0.0025772758861711664 0.027155155016014669 0 0.0021001594384706234 0.026002414637156943 0 0.0021001594384706234 0.026002414637156943 0 0.0013786607860176829 0.027226629739278863 0 0.00029468195683572494 0.025832675931536573 0 0.0013786607860176829 0.027226629739278863 0 -0.00026524764922197753 0.027784842985200831 0 0.00029468195683572494 0.025832675931536573 0 0.0014479202500000622 0.033878847519472205 0 0.0020736738346424023 0.032105294314492168 0 0.0019107762153563329 -0.00030127440604662181 0 0.0018496897546504839 -0.00103219140495008 0 0.0024235886711060058 -0.00084425866595242967 0 0.0013257905779187843 -0.00045153633919352759 0 0.0019107762153563329 -0.00030127440604662181 0 0.0018496897546504839 -0.00103219140495008 0 0.0013257905779187843 -0.00045153633919352759 0 0.0018496897546504839 -0.00103219140495008 0 0.0012125521946328749 -0.0011685934525823729 0 0.0017420523309854125 -0.0016572968650143648 0 0.0018496897546504839 -0.00103219140495008 0 0.0012125521946328749 -0.0011685934525823729 0 0.00064062359343496566 -0.0015318209408114955 0 0.0012125521946328749 -0.0011685934525823729 0 0.00046530679570168355 -0.00055072913878210594 0 0.0017499200941361657 0.0069175993482087127 0 0.0017541848476977969 0.0051054410007529893 0 0.0029143461719281535 0.014288561939818588 0 0.0034767162236185299 0.013912676340596005 0 0.0030390360247699189 0.013328902073182467 0 0.0037671960814210635 0.013271948814802014 0 0.0030390360247699189 0.013328902073182467 0 0.0033237179506801526 0.012613275370807109 0 0.0013257905779187843 -0.00045153633919352759 0 0.0012125521946328749 -0.0011685934525823729 0 0.00046530679570168355 -0.00055072913878210594 0 0.0013257905779187843 -0.00045153633919352759 0 0.00046530679570168355 -0.00055072913878210594 0 0.00090342177244156629 8.1609769342401699e-05 0 0.00090342177244156629 8.1609769342401699e-05 0 0.0010122836923226017 0.00074128751506445005 0 0.0014476204214695239 0.00029439956152692135 0 0.00046530679570168355 -0.00055072913878210594 0 0.00090342177244156629 8.1609769342401699e-05 0 0.00031426990547520734 0.00054478576064557278 0 0.0017541848476977969 0.0051054410007529893 0 0.0022310194741976329 0.011990323180905307 0 0.0030390360247699189 0.013328902073182467 0 0.0033237179506801526 0.012613275370807109 0 0.0031801060767299026 0.012558496387522352 0 0.004403030629080055 0.026859969499589444 0 0.0045650221649331654 0.026619741389022931 0 0.0044384652878869746 0.027767433868019151 0 0.0041997596520672474 0.026567991220908506 0 0.004403030629080055 0.026859969499589444 0 0.0040744321984781673 0.027326958317880155 0 0.0036865296838544765 0.02080836751975056 0 0.0022310194741976329 0.011990323180905307 0 0.00414694965734196 0.026433817954543908 0 0.004403030629080055 0.026859969499589444 0 0.0045650221649331654 0.026619741389022931 0 0.0036865296838544765 0.02080836751975056 0 0.0050339326516087432 0.024267662475047684 0 0.0022810716258715074 0.0098217460196118964 0 0.0037194683503285427 0.011592924190765639 0 0.00192134717577805 0.011991631748340777 0 0.0022310194741976329 0.011990323180905307 0 0.0029351496443206951 0.021106721346844978 0 0.004403030629080055 0.026859969499589444 0 0.0040744321984781673 0.027326958317880155 0 0.0044384652878869746 0.027767433868019151 0 0.0022310194741976329 0.011990323180905307 0 0.0027582743427094795 0.0054089886208956049 0 0.0022810716258715074 0.0098217460196118964 0 0.0037194683503285427 0.011592924190765639 0 0.0049373052815992286 0.01076722428951362 0 0.00090342177244156629 8.1609769342401699e-05 0 0.00031426990547520734 0.00054478576064557278 0 0.0010122836923226017 0.00074128751506445005 0 0.0037194683503285427 0.011592924190765639 0 0.0049373052815992286 0.01076722428951362 0 0.0049116686094396985 0.011971844674792238 0 0.00087474234143543415 -0.0008104967095643043 0 0.0037786396592574723 0.0041419115272898696 0 0.0027582743427094795 0.0054089886208956049 0 0.0037786396592574723 0.0041419115272898696 0 0.0014476204214695239 0.00029439956152692135 0 0.0018444713274832173 0.00012998910293328961 0 0.0016630534651608131 0.00086814020323510582 0 0.0010122836923226017 0.00074128751506445005 0 0.0014476204214695239 0.00029439956152692135 0 0.0018537843460206635 0.0010703472851042008 0 0.0013257905779187843 -0.00045153633919352759 0 0.00090342177244156629 8.1609769342401699e-05 0 0.0014476204214695239 0.00029439956152692135 0 0.0013257905779187843 -0.00045153633919352759 0 0.0019107762153563329 -0.00030127440604662181 0 0.0014476204214695239 0.00029439956152692135 0 0.0019107762153563329 -0.00030127440604662181 0 0.0018444713274832173 0.00012998910293328961 0 0.0022186274993355468 0.00031102628704555687 0 0.0019107762153563329 -0.00030127440604662181 0 0.0014476204214695239 0.00029439956152692135 0 0.0018444713274832173 0.00012998910293328961 0 0.0018444713274832173 0.00012998910293328961 0 0.0016630534651608131 0.00086814020323510582 0 0.0022186274993355468 0.00031102628704555687 0 0.0016630534651608131 0.00086814020323510582 0 0.0022186274993355468 0.00031102628704555687 0 0.0024431996739919413 0.001239460008268994 0 0.0022186274993355468 0.00031102628704555687 0 0.0032505940831293366 0.00056920280127308509 0 0.0024431996739919413 0.001239460008268994 0 0.0032505940831293366 0.00056920280127308509 0 0.0039339029189707948 0.00019414662158921114 0 0.0041785390753988974 0.0012049138384348295 0 0.0032505940831293366 0.00056920280127308509 0 0.0033632008133280358 -0.00073462928666257854 0 0.0039339029189707948 0.00019414662158921114 0 0.0022186274993355468 0.00031102628704555687 0 0.0032505940831293366 0.00056920280127308509 0 0.0033632008133280358 -0.00073462928666257854 0 0.0019107762153563329 -0.00030127440604662181 0 0.0022186274993355468 0.00031102628704555687 0 0.0028488381132619586 -0.00026152415016340847 0 0.0022547713081501218 0.00026334975138734971 0 0.0031139283533446241 -0.000513965683902436 0 0.0019107762153563329 -0.00030127440604662181 0 0.0028488381132619586 -0.00026152415016340847 0 0.0024235886711060058 -0.00084425866595242967 0 0.0028488381132619586 -0.00026152415016340847 0 0.0024235886711060058 -0.00084425866595242967 0 0.0029303097727973858 -0.00090377596477962132 0 0.0028488381132619586 -0.00026152415016340847 0 0.0029303097727973858 -0.00090377596477962132 0 0.0035321776740369643 -0.00087787224237462767 0 0.0026901150719186337 -0.0012327322366807347 0 0.0031721264989197869 -0.0013078443072472997 0 0.0027849981915704894 -0.0018330553033624566 0 0.0024235886711060058 -0.00084425866595242967 0 0.0029303097727973858 -0.00090377596477962132 0 0.0026901150719186337 -0.0012327322366807347 0 0.0029303097727973858 -0.00090377596477962132 0 0.0026901150719186337 -0.0012327322366807347 0 0.0031721264989197869 -0.0013078443072472997 0 0.0018496897546504839 -0.00103219140495008 0 0.0024235886711060058 -0.00084425866595242967 0 0.0022755899738824063 -0.001471004757498873 0 0.0024235886711060058 -0.00084425866595242967 0 0.0026901150719186337 -0.0012327322366807347 0 0.0022755899738824063 -0.001471004757498873 0 0.0039059424587300187 -0.0010363916649394295 0 0.0043283068440527371 -0.0022432885065107578 0 0.0038340896590324707 -0.0014749364118397661 0 0.0035321776740369643 -0.00087787224237462767 0 0.0042722212221801663 -0.0015122602953623221 0 0.0043610312410947488 -0.0015484347192217527 0 0.0045522175772173103 -0.0015635572563684795 0 0.0045706384534502272 -0.0011498122920348031 0 0.0031721264989197869 -0.0013078443072472997 0 0.0035321776740369643 -0.00087787224237462767 0 0.0035893349690598831 -0.001544081409199025 0 0.0038340896590324707 -0.0014749364118397661 0 0.0035321776740369643 -0.00087787224237462767 0 0.0035893349690598831 -0.001544081409199025 0 0.0029303097727973858 -0.00090377596477962132 0 0.0031721264989197869 -0.0013078443072472997 0 0.0035321776740369643 -0.00087787224237462767 0 0.0031139283533446241 -0.000513965683902436 0 0.0039059424587300187 -0.0010363916649394295 0 0.0045522175772173103 -0.0015635572563684795 0 0.004393511042464467 -0.0019382088584234752 0 0.0045706384534502272 -0.0011498122920348031 0 0.0043610312410947488 -0.0015484347192217527 0 0.0045522175772173103 -0.0015635572563684795 0 0.0046202508197007485 -0.00034842812202502384 0 0.0043542764324894564 -0.0029171502224884416 0 0.0043283068440527371 -0.0022432885065107578 0 0.004393511042464467 -0.0019382088584234752 0 0.0047064255803734561 -0.0025229042525147906 0 0.0043320786151635369 -0.003232105840985355 0 0.0043542764324894564 -0.0029171502224884416 0 0.0043256621816922785 -0.0032020723164094839 0 0.0045550743868230303 -0.0014872931663350811 0 0.004636177883418701 -0.0014637262542395706 0 0.0042443484546401226 -0.003738722789677467 0 0.0043320786151635369 -0.003232105840985355 0 0.004374620316929298 -0.0035632399389836844 0 0.0045522175772173103 -0.0015635572563684795 0 0.004393511042464467 -0.0019382088584234752 0 0.0047064255803734561 -0.0025229042525147906 0 0.0033632008133280358 -0.00073462928666257854 0 0.0043610312410947488 -0.0015484347192217527 0 0.0046202508197007485 -0.00034842812202502384 0 0.0033632008133280358 -0.00073462928666257854 0 0.0046202508197007485 -0.00034842812202502384 0 0.0039339029189707948 0.00019414662158921114 0 0.0047064255803734561 -0.0025229042525147906 0 0.0043320786151635369 -0.003232105840985355 0 0.0045926043234046591 -0.0032804386501742826 0 0.004636177883418701 -0.0014637262542395706 0 0.0043491386803306952 -0.00072848882449987051 0 0.0046202508197007485 -0.00034842812202502384 0 0.0039339029189707948 0.00019414662158921114 0 0.0041785390753988974 0.0012049138384348295 0 0.0043320786151635369 -0.003232105840985355 0 0.0044328853587809287 -0.0034560407372123329 0 0.004374620316929298 -0.0035632399389836844 0 0.0043320786151635369 -0.003232105840985355 0 0.0044328853587809287 -0.0034560407372123329 0 0.0044740962553734779 -0.0033482277531785569 0 0.0044328853587809287 -0.0034560407372123329 0 0.0045134185648420871 -0.0035070487441978423 0 0.0044740962553734779 -0.0033482277531785569 0 0.0044328853587809287 -0.0034560407372123329 0 0.0045134185648420871 -0.0035070487441978423 0 0.0044363487239132303 -0.0036221356678361061 0 0.0045134185648420871 -0.0035070487441978423 0 0.0044363487239132303 -0.0036221356678361061 0 0.0045304202063502262 -0.0036902270617243933 0 0.0044363487239132303 -0.0036221356678361061 0 0.0045304202063502262 -0.0036902270617243933 0 0.0044069307336203276 -0.0037882264235661526 0 0.0044363487239132303 -0.0036221356678361061 0 0.0043584978297206605 -0.0037374858799896996 0 0.0044069307336203276 -0.0037882264235661526 0 0.0044363487239132303 -0.0036221356678361061 0 0.004374620316929298 -0.0035632399389836844 0 0.0043584978297206605 -0.0037374858799896996 0 0.0042443484546401226 -0.003738722789677467 0 0.004374620316929298 -0.0035632399389836844 0 0.0043584978297206605 -0.0037374858799896996 0 0.0044328853587809287 -0.0034560407372123329 0 0.0044363487239132303 -0.0036221356678361061 0 0.004374620316929298 -0.0035632399389836844 0 0.0048113330143793789 -0.0036162730364215226 0 0.0046921739512071113 -0.0036687060093552656 0 0.0047104255318119346 -0.0035254872522635316 0 0.0046921739512071113 -0.0036687060093552656 0 0.004606607001868962 -0.0035545341134392552 0 0.0047104255318119346 -0.0035254872522635316 0 0.0045134185648420871 -0.0035070487441978423 0 0.004606607001868962 -0.0035545341134392552 0 0.0045880534968579644 -0.0033956059552269291 0 0.0046921739512071113 -0.0036687060093552656 0 0.004606607001868962 -0.0035545341134392552 0 0.0045304202063502262 -0.0036902270617243933 0 0.0045134185648420871 -0.0035070487441978423 0 0.004606607001868962 -0.0035545341134392552 0 0.0045304202063502262 -0.0036902270617243933 0 0.0046921739512071113 -0.0036687060093552656 0 0.0045304202063502262 -0.0036902270617243933 0 0.0046625178105600667 -0.0038377368021656534 0 0.0048452931533358515 -0.0037788383113747104 0 0.0046921739512071113 -0.0036687060093552656 0 0.0046625178105600667 -0.0038377368021656534 0 0.0048156962703440409 -0.0040318907180258773 0 0.0046625178105600667 -0.0038377368021656534 0 0.0045765160425094474 -0.0041873210669303631 0 0.0046625178105600667 -0.0038377368021656534 0 0.004469756805511876 -0.0038759488168810573 0 0.0045765160425094474 -0.0041873210669303631 0 0.004469756805511876 -0.0038759488168810573 0 0.0042955413608204516 -0.0039756907420299076 0 0.0044069307336203276 -0.0037882264235661526 0 0.0045304202063502262 -0.0036902270617243933 0 0.0046625178105600667 -0.0038377368021656534 0 0.004469756805511876 -0.0038759488168810573 0 0.0045304202063502262 -0.0036902270617243933 0 0.004469756805511876 -0.0038759488168810573 0 0.0044069307336203276 -0.0037882264235661526 0 0.004469756805511876 -0.0038759488168810573 0 0.0042955413608204516 -0.0039756907420299076 0 0.0045765160425094474 -0.0041873210669303631 0 0.0042443484546401226 -0.003738722789677467 0 0.0043061391755474078 -0.0037956842804298531 0 0.0043546487740163337 -0.0038403875684989131 0 0.0043061391755474078 -0.0037956842804298531 0 0.0043584978297206605 -0.0037374858799896996 0 0.0043491177540738871 -0.0038410979589170772 0 0.0042443484546401226 -0.003738722789677467 0 0.0043061391755474078 -0.0037956842804298531 0 0.0043584978297206605 -0.0037374858799896996 0 0.0043584978297206605 -0.0037374858799896996 0 0.0044069307336203276 -0.0037882264235661526 0 0.0043491177540738871 -0.0038410979589170772 0 0.0042955413608204516 -0.0039756907420299076 0 0.0044069307336203276 -0.0037882264235661526 0 0.0043491177540738871 -0.0038410979589170772 0 0.0042955413608204516 -0.0039756907420299076 0 0.0043491177540738871 -0.0038410979589170772 0 0.0043359609010701411 -0.0038719488577713883 0 0.0042955413608204516 -0.0039756907420299076 0 0.0043359609010701411 -0.0038719488577713883 0 0.0043166811260695812 -0.0037712986146737452 0 0.0043061391755474078 -0.0037956842804298531 0 0.0043414250595375991 -0.0038341706749351677 0 0.0043546487740163337 -0.0038403875684989131 0 0.0043359609010701411 -0.0038719488577713883 0 0.0043397996015328653 -0.0038448736522744939 0 0.0043361178415554959 -0.0038182444199187818 0 0.0043415086351815011 -0.0038259207871701125 0 0.0043397996015328653 -0.0038448736522744939 0 0.0043361178415554959 -0.0038182444199187818 0 0.0043061391755474078 -0.0037956842804298531 0 0.0043491177540738871 -0.0038410979589170772 0 0.0043397996015328653 -0.0038448736522744939 0 0.0043491177540738871 -0.0038410979589170772 0 0.0043359609010701411 -0.0038719488577713883 0 0.0043397996015328653 -0.0038448736522744939 0 0.0043061391755474078 -0.0037956842804298531 0 0.0043397996015328653 -0.0038448736522744939 0 0.0043414250595375991 -0.0038341706749351677 0 0.0043415086351815011 -0.0038259207871701125 0 0.0043397996015328653 -0.0038448736522744939 0 0.0043414250595375991 -0.0038341706749351677 0 0.0043415086351815011 -0.0038259207871701125 0 0.0043414250595375991 -0.0038341706749351677 0 0.0043478033325649477 -0.0038347345022635938 0 0.0043415086351815011 -0.0038259207871701125 0 0.0043478033325649477 -0.0038347345022635938 0 0.0043546487740163337 -0.0038403875684989131 0 0.0043414250595375991 -0.0038341706749351677 0 0.0043478033325649477 -0.0038347345022635938 0 0.0043546487740163337 -0.0038403875684989131 0 0.0043283068440527371 -0.0022432885065107578 0 0.0043117750902682706 -0.0031440496208981852 0 0.0043546487740163337 -0.0038403875684989131 0 0.0043277244574207955 -0.0037654013374214517 0 0.00434534237804198 -0.0036877109039852017 0 0.0043415086351815011 -0.0038259207871701125 0 0.0043546487740163337 -0.0038403875684989131 0 0.0043277244574207955 -0.0037654013374214517 0 0.0043415086351815011 -0.0038259207871701125 0 0.0043277244574207955 -0.0037654013374214517 0 0.0043361178415554959 -0.0038182444199187818 0 0.0043277244574207955 -0.0037654013374214517 0 0.0043166811260695812 -0.0037712986146737452 0 0.0042520751869743259 -0.0036359918777676531 0 0.0043359609010701411 -0.0038719488577713883 0 0.0043361178415554959 -0.0038182444199187818 0 0.0043166811260695812 -0.0037712986146737452 0 0.0043277244574207955 -0.0037654013374214517 0 0.0043361178415554959 -0.0038182444199187818 0 0.0043166811260695812 -0.0037712986146737452 0 0.0043166811260695812 -0.0037712986146737452 0 0.0042520751869743259 -0.0036359918777676531 0 0.0042817129157119377 -0.0036694153589397036 0 0.0042520751869743259 -0.0036359918777676531 0 0.00434534237804198 -0.0036877109039852017 0 0.0041847411126978993 -0.0035127198354283 0 0.0043277244574207955 -0.0037654013374214517 0 0.0042520751869743259 -0.0036359918777676531 0 0.00434534237804198 -0.0036877109039852017 0 0.0045765160425094474 -0.0041873210669303631 0 0.004218482911777937 -0.0046980268771960659 0 0.0045602472071117374 -0.0048558828108142627 0 0.0042955413608204516 -0.0039756907420299076 0 0.0043166811260695812 -0.0037712986146737452 0 0.0042817129157119377 -0.0036694153589397036 0 0.0042807162661279577 -0.0039981435647262198 0 0.004272380754209216 -0.0041941682115787249 0 0.0042955413608204516 -0.0039756907420299076 0 0.0045765160425094474 -0.0041873210669303631 0 0.004218482911777937 -0.0046980268771960659 0 0.0042520751869743259 -0.0036359918777676531 0 0.0042817129157119377 -0.0036694153589397036 0 0.0044940916683279064 -0.0038468229459769875 0 0.004218482911777937 -0.0046980268771960659 0 0.0045602472071117374 -0.0048558828108142627 0 0.0043817508978851553 -0.0052760477764029904 0 0.0045602472071117374 -0.0048558828108142627 0 0.0044195766020651553 -0.0053552029862107752 0 0.0043817508978851553 -0.0052760477764029904 0 0.004272380754209216 -0.0041941682115787249 0 0.0044262747600163754 -0.0045565082874814145 0 0.0045055594149903859 -0.0048283617012222875 0 0.0044940916683279064 -0.0038468229459769875 0 0.0042382819856405431 -0.0039965977649934759 0 0.0044991118749346335 -0.0047948688389214435 0 0.0044262747600163754 -0.0045565082874814145 0 0.0045055594149903859 -0.0048283617012222875 0 0.0044195766020651553 -0.0053552029862107752 0 0.0043817508978851553 -0.0052760477764029904 0 0.0043731984213841325 -0.0056859420268629201 0 0.0045055594149903859 -0.0048283617012222875 0 0.0044195766020651553 -0.0053552029862107752 0 0.0043117750902682706 -0.0031440496208981852 0 0.0042262851332056069 -0.00342893759437333 0 0.0042520751869743259 -0.0036359918777676531 0 0.0041847411126978993 -0.0035127198354283 0 0.0042382819856405431 -0.0039965977649934759 0 0.0042520751869743259 -0.0036359918777676531 0 0.0044940916683279064 -0.0038468229459769875 0 0.0042382819856405431 -0.0039965977649934759 0 0.0041847411126978993 -0.0035127198354283 0 0.0042382819856405431 -0.0039965977649934759 0 0.0039932555592694652 -0.0038962190861590667 0 0.0034982545257923078 -0.0039219842047922074 0 0.0039932555592694652 -0.0038962190861590667 0 0.0036446486997450257 -0.0034962391026217188 0 0.0041847411126978993 -0.0035127198354283 0 0.0039932555592694652 -0.0038962190861590667 0 0.0036446486997450257 -0.0034962391026217188 0 0.0041847411126978993 -0.0035127198354283 0 0.0036446486997450257 -0.0034962391026217188 0 0.0036290895178718407 -0.0027533888548078689 0 0.0036446486997450257 -0.0034962391026217188 0 0.0031859729955165212 -0.003160502291592919 0 0.0036290895178718407 -0.0027533888548078689 0 0.0031859729955165212 -0.003160502291592919 0 0.0028877724702189417 -0.00265445682071167 0 0.0036290895178718407 -0.0027533888548078689 0 0.0034982545257923078 -0.0039219842047922074 0 0.0036446486997450257 -0.0034962391026217188 0 0.0030771319690375346 -0.0036030912320517755 0 0.0036446486997450257 -0.0034962391026217188 0 0.0031859729955165212 -0.003160502291592919 0 0.0030771319690375346 -0.0036030912320517755 0 0.0031859729955165212 -0.003160502291592919 0 0.0030771319690375346 -0.0036030912320517755 0 0.0026423893416591027 -0.0033331328717401748 0 0.0020274666476647507 -0.0031791137436466854 0 0.0026423893416591027 -0.0033331328717401748 0 0.0023583737743111031 -0.0028900220923712872 0 0.002153065575598126 -0.003570027050823437 0 0.0020274666476647507 -0.0031791137436466854 0 0.0026423893416591027 -0.0033331328717401748 0 0.0023583737743111031 -0.0028900220923712872 0 0.0028877724702189417 -0.00265445682071167 0 0.0023284047035732297 -0.0023825740202726951 0 0.0026423893416591027 -0.0033331328717401748 0 0.0023583737743111031 -0.0028900220923712872 0 0.0028877724702189417 -0.00265445682071167 0 0.0020436604242419975 -0.0028476891404306125 0 0.0023583737743111031 -0.0028900220923712872 0 0.0023284047035732297 -0.0023825740202726951 0 0.0031859729955165212 -0.003160502291592919 0 0.0026423893416591027 -0.0033331328717401748 0 0.0028877724702189417 -0.00265445682071167 0 0.0028877724702189417 -0.00265445682071167 0 0.0023284047035732297 -0.0023825740202726951 0 0.0027849981915704894 -0.0018330553033624566 0 0.0028877724702189417 -0.00265445682071167 0 0.0027849981915704894 -0.0018330553033624566 0 0.0033304719733833906 -0.0019936861124588566 0 0.0023284047035732297 -0.0023825740202726951 0 0.0022755899738824063 -0.001471004757498873 0 0.0027849981915704894 -0.0018330553033624566 0 0.0026901150719186337 -0.0012327322366807347 0 0.0022755899738824063 -0.001471004757498873 0 0.0027849981915704894 -0.0018330553033624566 0 0.0031721264989197869 -0.0013078443072472997 0 0.0027849981915704894 -0.0018330553033624566 0 0.0033304719733833906 -0.0019936861124588566 0 0.0031721264989197869 -0.0013078443072472997 0 0.0033304719733833906 -0.0019936861124588566 0 0.0035893349690598831 -0.001544081409199025 0 0.0033304719733833906 -0.0019936861124588566 0 0.0035893349690598831 -0.001544081409199025 0 0.0039399908535793201 -0.0019832562243124081 0 0.0042722212221801663 -0.0015122602953623221 0 0.0043130806158400599 -0.002405748718802355 0 0.0039399908535793201 -0.0019832562243124081 0 0.0038340896590324707 -0.0014749364118397661 0 0.0035893349690598831 -0.001544081409199025 0 0.0039399908535793201 -0.0019832562243124081 0 0.0038340896590324707 -0.0014749364118397661 0 0.0042722212221801663 -0.0015122602953623221 0 0.0039399908535793201 -0.0019832562243124081 0 0.0043130806158400599 -0.002405748718802355 0 0.0041847411126978993 -0.0035127198354283 0 0.0036290895178718407 -0.0027533888548078689 0 0.0043130806158400599 -0.002405748718802355 0 0.0039399908535793201 -0.0019832562243124081 0 0.0036290895178718407 -0.0027533888548078689 0 0.0033304719733833906 -0.0019936861124588566 0 0.0039399908535793201 -0.0019832562243124081 0 0.0036290895178718407 -0.0027533888548078689 0 0.0028877724702189417 -0.00265445682071167 0 0.0033304719733833906 -0.0019936861124588566 0 0.0036290895178718407 -0.0027533888548078689 0 -2.4801103509890596e-09 0.049999991530491263 0 -2.1553635623391599e-06 0.049997034067066792 0 -1.9740479042430858e-09 0.049999994847688196 0 -2.4801103509890596e-09 0.049999991530491263 0 -2.1553635623391599e-06 0.049997034067066792 0 -3.2483511915226771e-06 0.049996653716798123 0 -5.2798249767741828e-06 0.049993422954734905 0 -2.1553635623391599e-06 0.049997034067066792 0 -3.2483511915226771e-06 0.049996653716798123 0 -2.1553635623391599e-06 0.049997034067066792 0 -1.9740479042430858e-09 0.049999994847688196 0 -2.9974550600491488e-06 0.049995380413982195 0 -0.00055139751935980681 0.049334350549011238 0 -0.00052260150043012413 0.04920954970399613 0 -5.2798249767741828e-06 0.049993422954734905 0 -2.1553635623391599e-06 0.049997034067066792 0 -2.9974550600491488e-06 0.049995380413982195 0 -0.0010967794326181292 0.048582887496924673 0 -0.001036043801116519 0.048554522398550876 0 -0.0011246300169944668 0.048526621443450685 0 -0.0010635771685434513 0.048645469841821116 0 -0.0010967794326181292 0.048582887496924673 0 -0.001036043801116519 0.048554522398550876 0 -0.0010967794326181292 0.048582887496924673 0 -0.0011603636208022247 0.048602897195943649 0 -0.0011246300169944668 0.048526621443450685 0 -0.0012240970203599335 0.048535176376212082 0 -0.0011603636208022247 0.048602897195943649 0 -0.0011246300169944668 0.048526621443450685 0 -0.0012240970203599335 0.048535176376212082 0 -0.0012309593821271433 0.048617557178923194 0 -0.0011603636208022247 0.048602897195943649 0 -0.0012309593821271433 0.048617557178923194 0 -0.0011529695412217831 0.048666165869568949 0 -0.0012181551912968521 0.048690911232768704 0 -0.0012309593821271433 0.048617557178923194 0 -0.0011603636208022247 0.048602897195943649 0 -0.0011529695412217831 0.048666165869568949 0 -0.0010635771685434513 0.048645469841821116 0 -0.0010967794326181292 0.048582887496924673 0 -0.0011603636208022247 0.048602897195943649 0 -0.0010635771685434513 0.048645469841821116 0 -0.0011603636208022247 0.048602897195943649 0 -0.0011529695412217831 0.048666165869568949 0 -0.0010635771685434513 0.048645469841821116 0 -0.0011105480074898567 0.048699419941548937 0 -0.0011529695412217831 0.048666165869568949 0 -0.0011105480074898567 0.048699419941548937 0 -0.0011529695412217831 0.048666165869568949 0 -0.001137677077020972 0.048741158227141507 0 -0.0011105480074898567 0.048699419941548937 0 -0.001137677077020972 0.048741158227141507 0 -0.0010894510752099819 0.048746363138732561 0 -0.0011843666327006209 0.048440019930797371 0 -0.0011291172197359857 0.047950274084762497 0 -0.0011529695412217831 0.048666165869568949 0 -0.0012181551912968521 0.048690911232768704 0 -0.001137677077020972 0.048741158227141507 0 -0.0012333019907204089 0.048677063378857653 0 -0.0011843666327006209 0.048440019930797371 0 -0.0012774085480880008 0.048627939151220143 0 -0.0012599942129210943 0.048632036371464148 0 -0.0012850552930285827 0.048635218394019145 0 -0.0010417055957037229 0.047131631242486573 0 -0.0010875150750065388 0.047149116315598961 0 -0.0009771061120730951 0.047184471115826257 0 -0.0010875150750065388 0.047149116315598961 0 -0.0011259687909360076 0.047181847069428677 0 -0.0009771061120730951 0.047184471115826257 0 -0.0010417055957037229 0.047131631242486573 0 -0.0010155402396837549 0.047090311270243483 0 -0.0009771061120730951 0.047184471115826257 0 -0.0010820815200062374 0.047109785507818198 0 -0.0010155402396837549 0.047090311270243483 0 -0.0010838271416337129 0.047093021120952948 0 -0.0010417055957037229 0.047131631242486573 0 -0.0010820815200062374 0.047109785507818198 0 -0.0010155402396837549 0.047090311270243483 0 -0.0010662030001948851 0.04713958519220264 0 -0.0010732588465794458 0.047334539894333914 0 -0.0010417055957037229 0.047131631242486573 0 -0.0010875150750065388 0.047149116315598961 0 -0.0010820815200062374 0.047109785507818198 0 -0.0010820815200062374 0.047109785507818198 0 -0.001100409494186959 0.047112465794469344 0 -0.0010837127168755976 0.047099911302867843 0 -0.0010790906124196384 0.047261779884926296 0 -0.0010732588465794458 0.047334539894333914 0 -0.0010980670195302035 0.04876414108490508 0 -0.00048530194508536641 0.049102228272396367 0 -0.00040211677836738308 0.048818982236319988 0 -0.0011259687909360076 0.047181847069428677 0 -0.0011421970452916669 0.047146346999672989 0 -0.0011642444873922351 0.04716125806586581 0 -0.0011843666327006209 0.048440019930797371 0 -0.00039982159751883353 0.049383998471246061 0 -0.0011259687909360076 0.047181847069428677 0 -0.0011191251857608391 0.047130898646102759 0 -0.0011421970452916669 0.047146346999672989 0 -0.0011843666327006209 0.048440019930797371 0 -0.00055642248505456064 0.048820145673775087 0 -0.0010875150750065388 0.047149116315598961 0 -0.0011259687909360076 0.047181847069428677 0 -0.0011191251857608391 0.047130898646102759 0 -0.0011191251857608391 0.047130898646102759 0 -0.001100409494186959 0.047112465794469344 0 -0.0011218707002437047 0.047093400639057259 0 -0.0010875150750065388 0.047149116315598961 0 -0.0011191251857608391 0.047130898646102759 0 -0.001097350331848028 0.047126432999306758 0 -0.0011191251857608391 0.047130898646102759 0 -0.001097350331848028 0.047126432999306758 0 -0.001100409494186959 0.047112465794469344 0 -0.0010875150750065388 0.047149116315598961 0 -0.0010820815200062374 0.047109785507818198 0 -0.001097350331848028 0.047126432999306758 0 -0.0010820815200062374 0.047109785507818198 0 -0.001097350331848028 0.047126432999306758 0 -0.001100409494186959 0.047112465794469344 0 -0.0011191251857608391 0.047130898646102759 0 -0.0011548617875325796 0.047125179588010463 0 -0.0011218707002437047 0.047093400639057259 0 -0.00042707735991062419 0.04873873620142502 0 -0.00068002453381266659 0.048233859268227534 0 -0.0011191251857608391 0.047130898646102759 0 -0.0011421970452916669 0.047146346999672989 0 -0.0011548617875325796 0.047125179588010463 0 -0.00042707735991062419 0.04873873620142502 0 -0.00055642248505456064 0.048820145673775087 0 -0.0011421970452916669 0.047146346999672989 0 -0.0011548617875325796 0.047125179588010463 0 -0.0011642444873922351 0.04716125806586581 0 -3.6152027044702925e-05 0.049977060007765979 0 -4.6048983539224975e-05 0.049966347842461213 0 3.4115233426580769e-09 0.04999994538858657 0 -0.00014189224632634809 0.049921120121493141 0 -0.00011017794974182278 0.049894719733394863 0 -9.5314343007667804e-05 0.049946804457000109 0 -0.00042707735991062419 0.04873873620142502 0 -0.00021718774917380676 0.049389201546619896 0 -0.00031680634997535527 0.048910722966198271 0 -0.00039714445219083576 0.049184931155702639 0 -0.00053791986851353668 0.049107695509153081 0 -4.4037463031779862e-05 0.0499827539203751 0 -3.6152027044702925e-05 0.049977060007765979 0 -1.5873313071113767e-05 0.050000675741701382 0 -0.00021718774917380676 0.049389201546619896 0 2.7115189159106653e-05 0.049989109229990177 0 -0.00011017794974182278 0.049894719733394863 0 -3.8538378312867086e-05 0.049947898994302596 0 -9.5314343007667804e-05 0.049946804457000109 0 -4.9200147431543892e-05 0.049972708834994696 0 -4.2526080410267507e-05 0.04997773442472201 0 -4.6048983539224975e-05 0.049966347842461213 0 -0.00055642248505456064 0.048820145673775087 0 -0.00021718774917380676 0.049389201546619896 0 -0.00021718774917380676 0.049389201546619896 0 -0.00025270096975306693 0.049581036193316441 0 -4.2526080410267507e-05 0.04997773442472201 0 -3.6152027044702925e-05 0.049977060007765979 0 -4.6048983539224975e-05 0.049966347842461213 0 -0.00055642248505456064 0.048820145673775087 0 -0.00039982159751883353 0.049383998471246061 0 -0.0010635771685434513 0.048645469841821116 0 -0.0011105480074898567 0.048699419941548937 0 -0.0010894510752099819 0.048746363138732561 0 -0.00055139751935980681 0.049334350549011238 0 -0.00039982159751883353 0.049383998471246061 0 -5.2798249767741828e-06 0.049993422954734905 0 -9.3739680403139956e-06 0.049993747956504755 0 -3.2483511915226771e-06 0.049996653716798123 0 -9.3739680403139956e-06 0.049993747956504755 0 -3.2483511915226771e-06 0.049996653716798123 0 -3.8070959557417317e-09 0.050000000364385393 0 -2.4801103509890596e-09 0.049999991530491263 0 -3.2483511915226771e-06 0.049996653716798123 0 -3.8070959557417317e-09 0.050000000364385393 0 -3.6152027044702925e-05 0.049977060007765979 0 3.4115233426580769e-09 0.04999994538858657 0 -1.5873313071113767e-05 0.050000675741701382 0 -0.00039982159751883353 0.049383998471246061 0 7.1986599773506185e-07 0.050000427421085195 0 3.4115233426580769e-09 0.04999994538858657 0 -1.5873313071113767e-05 0.050000675741701382 0 -1.1454926584905301e-08 0.050000040026200461 0 -2.1707973410068459e-05 0.049988308083573803 0 1.325570146644466e-08 0.050000064904545151 0 -5.4744654005139842e-05 0.049993534998915748 0 5.1014031218729235e-09 0.049999974486288158 0 -4.5248809621898868e-06 0.049979456812222101 0 -5.1072886837768181e-06 0.049985213498613429 0 -7.6272315883466045e-08 0.049999974208445271 0 3.1883915128835184e-05 0.050019261800830404 0 2.7115189159106653e-05 0.049989109229990177 0 -4.9205542365800704e-08 0.049999964403780649 0 -3.8538378312867086e-05 0.049947898994302596 0 -1.3450599364371609e-08 0.049999921071382028 0 -2.1707973410068459e-05 0.049988308083573803 0 -3.8538378312867086e-05 0.049947898994302596 0 -2.1707973410068459e-05 0.049988308083573803 0 -5.4744654005139842e-05 0.049993534998915748 0 -1.3450599364371609e-08 0.049999921071382028 0 -2.1707973410068459e-05 0.049988308083573803 0 1.325570146644466e-08 0.050000064904545151 0 3.1883915128835184e-05 0.050019261800830404 0 -0.0002634117058557371 0.049113401611112009 0 -4.5248809621898868e-06 0.049979456812222101 0 -1.2295196570171671e-05 0.049975439571304445 0 -1.8886052998437509e-05 0.049963565136161445 0 -9.5314343007667804e-05 0.049946804457000109 0 -5.4744654005139842e-05 0.049993534998915748 0 -0.00015327575692892961 0.049959931791310516 0 -0.00014189224632634809 0.049921120121493141 0 -9.5314343007667804e-05 0.049946804457000109 0 -0.00015327575692892961 0.049959931791310516 0 -3.8538378312867086e-05 0.049947898994302596 0 -9.5314343007667804e-05 0.049946804457000109 0 -5.4744654005139842e-05 0.049993534998915748 0 -4.5248809621898868e-06 0.049979456812222101 0 -1.2295196570171671e-05 0.049975439571304445 0 -5.1072886837768181e-06 0.049985213498613429 0 0.00015270237802055109 0.050083963206746539 0 0.00015702870860665209 0.049119742457333679 0 -1.2295196570171671e-05 0.049975439571304445 0 -5.1072886837768181e-06 0.049985213498613429 0 -2.103171635510468e-05 0.049974776394951403 0 0.00013583448003979179 0.050080260396647688 0 0.00040738674218556797 0.049619859151518203 0 0.00092099119683296477 0.050274259248406762 0 0.00013583448003979179 0.050080260396647688 0 -4.820295019061692e-05 0.049677700729963636 0 0.00040738674218556797 0.049619859151518203 0 5.1014031218729235e-09 0.049999974486288158 0 -5.1072886837768181e-06 0.049985213498613429 0 -2.7779296192551633e-09 0.050000011707594542 0 0.00013583448003979179 0.050080260396647688 0 1.6669744844383524e-07 0.050000579817998679 0 -4.820295019061692e-05 0.049677700729963636 0 0.00015270237802055109 0.050083963206746539 0 -5.721334101409092e-08 0.050000004211619806 0 1.6669744844383524e-07 0.050000579817998679 0 -4.820295019061692e-05 0.049677700729963636 0 -1.104511893763161e-06 0.049996657746889529 0 -4.820295019061692e-05 0.049677700729963636 0 0.00040738674218556797 0.049619859151518203 0 -2.9179272216127213e-05 0.049139139820999198 0 0.00040738674218556797 0.049619859151518203 0 -2.9179272216127213e-05 0.049139139820999198 0 0.00065627092589869585 0.048898582413145097 0 -2.9179272216127213e-05 0.049139139820999198 0 2.0108624214044316e-06 0.047116235517048646 0 -1.104511893763161e-06 0.049996657746889529 0 -2.9179272216127213e-05 0.049139139820999198 0 2.0108624214044316e-06 0.047116235517048646 0 0.00065627092589869585 0.048898582413145097 0 -4.820295019061692e-05 0.049677700729963636 0 -2.9179272216127213e-05 0.049139139820999198 0 -1.104511893763161e-06 0.049996657746889529 0 -0.00024844429940647347 0.044513772915134794 0 -1.7359930951093411e-07 0.043811974503513845 0 0.00027685846685591672 0.044463867039258587 0 -0.00024844429940647347 0.044513772915134794 0 -1.7359930951093411e-07 0.043811974503513845 0 1.6462805659232757e-07 0.044750958441520286 0 1.9163106290598451e-08 0.044758273688477429 0 -1.7061542298544416e-08 0.045799490453777882 0 -8.895954919361875e-05 0.045278460294436162 0 3.6178771189112893e-05 0.045559435714612337 0 1.9163106290598451e-08 0.044758273688477429 0 -8.895954919361875e-05 0.045278460294436162 0 -3.5981113992985082e-06 0.045736652505048131 0 9.0898116589455808e-08 0.044755658916099866 0 -1.7061542298544416e-08 0.045799490453777882 0 -8.895954919361875e-05 0.045278460294436162 0 -5.0063363374305328e-05 0.045276232595511209 0 2.0108624214044316e-06 0.047116235517048646 0 0.0014550625732139683 0.048234439346919004 0 0.00065627092589869585 0.048898582413145097 0 2.3539562510064783e-07 0.045801753859074597 0 0.00042541167381481736 0.04674104882378062 0 2.9243128879698017e-07 0.047110015499227262 0 0.00042541167381481736 0.04674104882378062 0 -1.1758797412293766e-08 0.047107446827725892 0 1.4918136500273374e-08 0.045804778820405831 0 1.6969030641561326e-06 0.045724696546976723 0 3.6178771189112893e-05 0.045559435714612337 0 -8.895954919361875e-05 0.045278460294436162 0 -5.0063363374305328e-05 0.045276232595511209 0 -3.5981113992985082e-06 0.045736652505048131 0 0.00042541167381481736 0.04674104882378062 0 -3.5981113992985082e-06 0.045736652505048131 0 0.00031074600798875 0.047712705423807976 0 0.00047137137739469069 0.046502625305115466 0 9.18530879407058e-05 0.046253558876608057 0 0.00020194777377703004 0.047420855720733894 0 0.00042541167381481736 0.04674104882378062 0 0.00031074600798875 0.047712705423807976 0 0.00040738674218556797 0.049619859151518203 0 0.00065627092589869585 0.048898582413145097 0 0.0013062508575202966 0.049514250090841358 0 0.0014550625732139683 0.048234439346919004 0 0.00065627092589869585 0.048898582413145097 0 0.0013062508575202966 0.049514250090841358 0 -0.00030061851247180604 0.045717705230780857 0 -0.00035821013241224228 0.045913075670563776 0 4.7060714702564891e-05 0.045930456140519146 0 -3.5981113992985082e-06 0.045736652505048131 0 -5.1906692500849579e-05 0.043705472338978306 0 -0.00035821013241224228 0.045913075670563776 0 -0.00020655668568559838 0.046083923411453967 0 4.7060714702564891e-05 0.045930456140519146 0 -0.00018762492815906315 0.046154755996133993 0 -0.00020655668568559838 0.046083923411453967 0 4.7060714702564891e-05 0.045930456140519146 0 -0.00035821013241224228 0.045913075670563776 0 -0.00020655668568559838 0.046083923411453967 0 -0.00033701809567531025 0.046173660395607566 0 -0.00021210152020703876 0.046177369390191271 0 -0.00020655668568559838 0.046083923411453967 0 -0.00033701809567531025 0.046173660395607566 0 -0.00079837946824761494 0.046425811566037131 0 -0.00042388632458602326 0.047414785923794139 0 -0.00021210152020703876 0.046177369390191271 0 -0.00018762492815906315 0.046154755996133993 0 -0.00020655668568559838 0.046083923411453967 0 -0.00079837946824761494 0.046425811566037131 0 -0.00067483675387390119 0.04591587006029129 0 0.00040738674218556797 0.049619859151518203 0 0.0013062508575202966 0.049514250090841358 0 0.00092099119683296477 0.050274259248406762 0 0.00017098348272019461 0.047778242195952822 0 0.00021736413097491765 0.048299622551870723 0 1.9006663595462764e-05 0.048288150435508784 0 0.00031074600798875 0.047712705423807976 0 0.00015702870860665209 0.049119742457333679 0 0.00031074600798875 0.047712705423807976 0 -0.00042388632458602326 0.047414785923794139 0 -0.00042388632458602326 0.047414785923794139 0 0.00015702870860665209 0.049119742457333679 0 -0.00044879434067165964 0.048231846046133224 0 -0.00041050123546706936 0.048358717948126996 0 -0.0005179353986278811 0.048465714410452811 0 0.00015702870860665209 0.049119742457333679 0 -0.0002634117058557371 0.049113401611112009 0 -1.2295196570171671e-05 0.049975439571304445 0 -2.103171635510468e-05 0.049974776394951403 0 -1.8886052998437509e-05 0.049963565136161445 0 -0.00032830492552452987 0.048237434789217916 0 -0.00041050123546706936 0.048358717948126996 0 -0.00031585568960927445 0.048372109767375951 0 -0.00042388632458602326 0.047414785923794139 0 -0.0007897374028448227 0.047550259544060308 0 -0.00032830492552452987 0.048237434789217916 0 -0.00044879434067165964 0.048231846046133224 0 -0.00041050123546706936 0.048358717948126996 0 -0.00068002453381266659 0.048233859268227534 0 -0.0010732588465794458 0.047334539894333914 0 -0.001100409494186959 0.047112465794469344 0 -0.0011218707002437047 0.047093400639057259 0 -0.0010837127168755976 0.047099911302867843 0 -0.00082359475813068093 0.047764887629270329 0 -0.00081570006169686489 0.047756382031917177 0 -0.00081546055400685618 0.047765848466272923 0 -0.00068002453381266659 0.048233859268227534 0 -0.0007897374028448227 0.047550259544060308 0 -0.00041050123546706936 0.048358717948126996 0 -0.00044172812068709189 0.048486729471109817 0 -0.00031585568960927445 0.048372109767375951 0 -0.00041050123546706936 0.048358717948126996 0 -0.00044172812068709189 0.048486729471109817 0 -0.0005179353986278811 0.048465714410452811 0 -0.00068002453381266659 0.048233859268227534 0 -0.0002634117058557371 0.049113401611112009 0 -0.00058052195274424577 0.048664809625436588 0 -0.00042875410078811732 0.048529304890410317 0 -0.00053220725993394853 0.048499930937980433 0 -0.00042707735991062419 0.04873873620142502 0 -0.0002634117058557371 0.049113401611112009 0 -0.0010556653718654064 0.046921024113846639 0 -0.0010508840712847905 0.047012515295450447 0 -0.00095887223831279489 0.047005660701293091 0 -0.00060225754013411813 0.047003568020129026 0 -0.00078705008276153902 0.046993336674067326 0 -0.00077183244360576829 0.047156796164516422 0 -0.00079837946824761494 0.046425811566037131 0 -0.0007897374028448227 0.047550259544060308 0 -0.0010556653718654064 0.046921024113846639 0 -0.0011254240555737176 0.046983469950307048 0 -0.0010508840712847905 0.047012515295450447 0 -0.0007897374028448227 0.047550259544060308 0 -0.0010732588465794458 0.047334539894333914 0 -0.0010155402396837549 0.047090311270243483 0 -0.0011196692980494712 0.047059511957820335 0 -0.0010508840712847905 0.047012515295450447 0 -0.0011254240555737176 0.046983469950307048 0 -0.0011196692980494712 0.047059511957820335 0 -0.0010508840712847905 0.047012515295450447 0 -0.0010155402396837549 0.047090311270243483 0 -0.0010508840712847905 0.047012515295450447 0 -0.00095887223831279489 0.047005660701293091 0 -0.00095887223831279489 0.047005660701293091 0 -0.00085204886146278804 0.046927346223439789 0 -0.00090315523139956335 0.047087718927718784 0 -0.0010556653718654064 0.046921024113846639 0 -0.00095887223831279489 0.047005660701293091 0 -0.00085204886146278804 0.046927346223439789 0 -0.00079837946824761494 0.046425811566037131 0 -0.00068929074230891882 0.045302583051031534 0 -0.00068929074230891882 0.045302583051031534 0 -0.0010058269431797633 0.045598808038080869 0 -0.00098260186240278465 0.043774525128866294 0 -0.0010058269431797633 0.045598808038080869 0 -0.0013481882601699099 0.043081795169485529 0 -0.00076239277356272644 0.043528239800963042 0 -0.001239773209578083 0.044014651573891388 0 -0.0011859724341075682 0.044675435798466383 0 -0.00096344141571132777 0.04468945863456817 0 -0.00087910012907567751 0.045446316360152852 0 -0.00085204886146278804 0.046927346223439789 0 -0.00079461800041276062 0.0470891062860892 0 -0.00090315523139956335 0.047087718927718784 0 -0.00068929074230891882 0.045302583051031534 0 -0.00098260186240278465 0.043774525128866294 0 -0.0012699954763911784 0.04306458103544801 0 -0.0013056268850651397 0.042746100926383264 0 -0.00052824872080952095 0.042637824934360448 0 -0.00098260186240278465 0.043774525128866294 0 -0.00054013307704358238 0.04320835471019125 0 -0.00054013307704358238 0.04320835471019125 0 -0.00059235062285389005 0.044071599350747233 0 -0.00059045543084961709 0.04404218448362484 0 -0.00059973413286958273 0.044040353274852478 0 -0.00059779642702339618 0.044049352574850799 0 -0.00059045543084961709 0.04404218448362484 0 -0.00059779642702339618 0.044049352574850799 0 -0.00058666302130115893 0.04404954035939572 0 -0.00068929074230891882 0.045302583051031534 0 -0.00059235062285389005 0.044071599350747233 0 -0.00012699185931471768 0.04208648493559821 0 -0.00020939954665188514 0.042104257678704869 0 -8.4600564733205196e-05 0.041962708900676361 0 -0.00020939954665188514 0.042104257678704869 0 -0.00019510284722545418 0.042016192600664332 0 -8.4600564733205196e-05 0.041962708900676361 0 -0.00092265417260820959 0.044860324075051243 0 -8.6337122335178727e-05 0.044743307129084357 0 -0.00027490515453155626 0.044275908013310813 0 -0.00067483675387390119 0.04591587006029129 0 -5.1906692500849579e-05 0.043705472338978306 0 -0.0007218406578611505 0.045438568821188789 0 -0.0007366739752764505 0.045423447280572307 0 -0.00073504559183359963 0.04542702035673446 0 -0.00072082571695900835 0.045438890256140237 0 -0.0007218406578611505 0.045438568821188789 0 -0.0007366739752764505 0.045423447280572307 0 -0.00067483675387390119 0.04591587006029129 0 -0.00059235062285389005 0.044071599350747233 0 -0.00059235062285389005 0.044071599350747233 0 -5.1906692500849579e-05 0.043705472338978306 0 -0.00020939954665188514 0.042104257678704869 0 -0.00019510284722545418 0.042016192600664332 0 -0.00025475860059792312 0.041981759353006645 0 -0.00055551467249719466 0.042741052133498394 0 -5.1906692500849579e-05 0.043705472338978306 0 -0.00024844429940647347 0.044513772915134794 0 0.00043656970183617819 0.044808128884912583 0 0.00027685846685591672 0.044463867039258587 0 -5.1906692500849579e-05 0.043705472338978306 0 7.4481042810787163e-05 0.043168105284693288 0 -9.0457125529954153e-05 0.041803688177846972 0 -6.8242715071448602e-05 0.041703976538404262 0 7.2352138690258159e-05 0.041893932754604943 0 -0.00026957525850336295 0.041971533622920484 0 -0.00014944315886903861 0.041933607430607388 0 -0.00010474923968844036 0.041819231014347091 0 -0.00010474923968844036 0.041819231014347091 0 -0.00017495396449836628 0.041725239199089201 0 5.888736143671522e-05 0.041869663082265286 0 -5.1906692500849579e-05 0.043705472338978306 0 0.00015461551423780865 0.041506253560179888 0 -0.00019510284722545418 0.042016192600664332 0 -0.00014944315886903861 0.041933607430607388 0 -8.4600564733205196e-05 0.041962708900676361 0 -0.00019510284722545418 0.042016192600664332 0 -0.00026957525850336295 0.041971533622920484 0 -0.00014944315886903861 0.041933607430607388 0 -0.00014944315886903861 0.041933607430607388 0 -8.4600564733205196e-05 0.041962708900676361 0 -0.00010474923968844036 0.041819231014347091 0 -9.0457125529954153e-05 0.041803688177846972 0 -6.8242715071448602e-05 0.041703976538404262 0 -0.00010474923968844036 0.041819231014347091 0 -8.1233263910538862e-05 0.041127818966496275 0 -1.3847132526982421e-06 0.041615714867999788 0 1.3156747536438094e-06 0.039428981776808224 0 -0.00017495396449836628 0.041725239199089201 0 -4.9779347711655508e-05 0.040848558083137622 0 7.492084533468579e-05 0.040722524258771944 0 -9.0457125529954153e-05 0.041803688177846972 0 -0.00010474923968844036 0.041819231014347091 0 -0.00017495396449836628 0.041725239199089201 0 -0.00026770834096629921 0.041551757901995959 0 0.00020993598249786398 0.041517745063196672 0 -0.00017495396449836628 0.041725239199089201 0 -8.1233263910538862e-05 0.041127818966496275 0 -4.9779347711655508e-05 0.040848558083137622 0 -0.00017495396449836628 0.041725239199089201 0 -8.1233263910538862e-05 0.041127818966496275 0 -1.3847132526982421e-06 0.041615714867999788 0 1.410858640178869e-06 0.043804699363819678 0 -0.00017495396449836628 0.041725239199089201 0 7.2352138690258159e-05 0.041893932754604943 0 1.410858640178869e-06 0.043804699363819678 0 -0.00017495396449836628 0.041725239199089201 0 -1.3847132526982421e-06 0.041615714867999788 0 1.0337086173287831e-07 0.04380683637000541 0 7.4481042810787163e-05 0.043168105284693288 0 -9.0457125529954153e-05 0.041803688177846972 0 -0.00017495396449836628 0.041725239199089201 0 7.2352138690258159e-05 0.041893932754604943 0 8.3473413826795794e-05 0.036807850100113414 0 1.9064738138957357e-06 0.039422375725130646 0 -1.6744597367538778e-06 0.036417754536878802 0 0.0008321993114489795 0.040322590756751778 0 1.3156747536438094e-06 0.039428981776808224 0 7.492084533468579e-05 0.040722524258771944 0 0.00039320393080780319 0.038636744807109484 0 -2.461097407132113e-08 0.039424606737892644 0 -8.1233263910538862e-05 0.041127818966496275 0 1.3156747536438094e-06 0.039428981776808224 0 -4.9779347711655508e-05 0.040848558083137622 0 1.3156747536438094e-06 0.039428981776808224 0 -4.9779347711655508e-05 0.040848558083137622 0 7.492084533468579e-05 0.040722524258771944 0 -8.4600564733205196e-05 0.041962708900676361 0 5.888736143671522e-05 0.041869663082265286 0 5.7247529719496744e-05 0.04204141159064459 0 -8.4600564733205196e-05 0.041962708900676361 0 -0.00010474923968844036 0.041819231014347091 0 5.888736143671522e-05 0.041869663082265286 0 0.0008321993114489795 0.040322590756751778 0 7.492084533468579e-05 0.040722524258771944 0 0.0013739163434949324 0.041315076917875525 0 0.00020993598249786398 0.041517745063196672 0 0.00026632166944279853 0.040686302685288132 0 -0.00022010176147634896 0.042522385509754915 0 0.00026632166944279853 0.040686302685288132 0 5.888736143671522e-05 0.041869663082265286 0 5.7247529719496744e-05 0.04204141159064459 0 0.00031448402096954025 0.041989332742225063 0 -0.00052824872080952095 0.042637824934360448 0 -0.00015917212087125386 0.043143302757508946 0 0.00063204701165592791 0.042458758729975905 0 -0.0012699954763911784 0.04306458103544801 0 -0.00052824872080952095 0.042637824934360448 0 -0.00015917212087125386 0.043143302757508946 0 -0.00012699185931471768 0.04208648493559821 0 -8.4600564733205196e-05 0.041962708900676361 0 5.7247529719496744e-05 0.04204141159064459 0 -0.00054013307704358238 0.04320835471019125 0 -0.00022010176147634896 0.042522385509754915 0 -0.00098260186240278465 0.043774525128866294 0 -0.00036502654563510785 0.042978433044922611 0 -0.0013481882601699099 0.043081795169485529 0 -0.00076239277356272644 0.043528239800963042 0 -0.00015917212087125386 0.043143302757508946 0 -0.00076239277356272644 0.043528239800963042 0 -0.000313579251350167 0.043539489860064361 0 -0.00042751820127560046 0.043901483776562701 0 -0.00076239277356272644 0.043528239800963042 0 -0.00015917212087125386 0.043143302757508946 0 -0.000313579251350167 0.043539489860064361 0 -0.00015917212087125386 0.043143302757508946 0 0.00014188975521854322 0.043561569316534529 0 0.00063204701165592791 0.042458758729975905 0 -0.000313579251350167 0.043539489860064361 0 0.00014188975521854322 0.043561569316534529 0 -0.00042751820127560046 0.043901483776562701 0 -0.00015917212087125386 0.043143302757508946 0 -0.000313579251350167 0.043539489860064361 0 0.00014188975521854322 0.043561569316534529 0 -0.0013720889468589092 0.041557117347823996 0 -0.0019392271707843723 0.042806033470780311 0 -0.0010954099273058052 0.042861990433898677 0 -0.00063532542099484495 0.042630630633563406 0 -0.0014530088548189697 0.044084135932606058 0 0.00014188975521854322 0.043561569316534529 0 -0.00036677039887050475 0.04467338339091044 0 -0.00042751820127560046 0.043901483776562701 0 -0.0014530088548189697 0.044084135932606058 0 -0.0011428856224559561 0.043613657293274155 0 -0.0020790470669033939 0.044290533135480217 0 -0.0016831807797094368 0.044969638687127333 0 -0.0011110404447047645 0.044360732639710326 0 -0.0016831807797094368 0.044969638687127333 0 -0.0010084342700694229 0.045441050060686973 0 -0.0011110404447047645 0.044360732639710326 0 -0.0015922854241329366 0.046515668353470215 0 -0.0016502155046435256 0.046924755263514535 0 -0.001421773561160061 0.046945499899647948 0 -0.0014628015868877254 0.045195671000745813 0 -0.0017438175987361843 0.045178545646144097 0 -0.0016101233500622465 0.045515899828073567 0 -0.0012791899369693808 0.045891219912601283 0 -0.001970464934136597 0.045873483606314651 0 -0.0020790470669033939 0.044290533135480217 0 -0.0016831807797094368 0.044969638687127333 0 -0.002500776361398505 0.04520814709440156 0 -0.0014530088548189697 0.044084135932606058 0 -0.001970464934136597 0.045873483606314651 0 -0.0014530088548189697 0.044084135932606058 0 -0.0012791899369693808 0.045891219912601283 0 -0.00036677039887050475 0.04467338339091044 0 -0.00099366874078839445 0.044629849163358007 0 -0.00080612437532571459 0.044191591791526319 0 -0.00099366874078839445 0.044629849163358007 0 -0.00080612437532571459 0.044191591791526319 0 -0.001239773209578083 0.044014651573891388 0 -0.00036677039887050475 0.04467338339091044 0 -0.00080612437532571459 0.044191591791526319 0 -0.00042751820127560046 0.043901483776562701 0 -0.00076239277356272644 0.043528239800963042 0 -0.00080612437532571459 0.044191591791526319 0 -0.00042751820127560046 0.043901483776562701 0 -0.00076239277356272644 0.043528239800963042 0 -0.00080612437532571459 0.044191591791526319 0 -0.001239773209578083 0.044014651573891388 0 -0.00079461800041276062 0.0470891062860892 0 -0.00090315523139956335 0.047087718927718784 0 -0.00078544241346847291 0.047189047206470762 0 -0.0012791899369693808 0.045891219912601283 0 -0.0010058269431797633 0.045598808038080869 0 -0.00082828980980153525 0.046339265025806972 0 -0.001073077465011101 0.045727068492776059 0 -0.0010054391564546736 0.046326143700096939 0 -0.0010058269431797633 0.045598808038080869 0 -0.0010621790527702703 0.047012268487278817 0 -0.00090315523139956335 0.047087718927718784 0 -0.0009771061120730951 0.047184471115826257 0 -0.00078544241346847291 0.047189047206470762 0 -0.0010155402396837549 0.047090311270243483 0 -0.00095887223831279489 0.047005660701293091 0 -0.00090315523139956335 0.047087718927718784 0 -0.0010155402396837549 0.047090311270243483 0 -0.00090315523139956335 0.047087718927718784 0 -0.0009771061120730951 0.047184471115826257 0 -0.0012850552930285827 0.048635218394019145 0 -0.0013246519024208644 0.048633270370119927 0 -0.0012951152727918944 0.048624260080306653 0 -0.0012333019907204089 0.048677063378857653 0 -0.0012962240678170759 0.048625327320468717 0 -0.0012774085480880008 0.048627939151220143 0 -0.0012850552930285827 0.048635218394019145 0 -0.0012951152727918944 0.048624260080306653 0 -0.0011291172197359857 0.047950274084762497 0 -0.0010621790527702703 0.047012268487278817 0 -0.0010621790527702703 0.047012268487278817 0 -0.0014686789518714664 0.047892277445603114 0 -0.0013246519024208644 0.048633270370119927 0 -0.0013390750579469651 0.048611058161573621 0 -0.0012951152727918944 0.048624260080306653 0 -0.0015922854241329366 0.046515668353470215 0 -0.0016938981402001094 0.046508937457571453 0 -0.0016502155046435256 0.046924755263514535 0 -0.0012791899369693808 0.045891219912601283 0 -0.0010621790527702703 0.047012268487278817 0 -0.0013390750579469651 0.048611058161573621 0 -0.0012951152727918944 0.048624260080306653 0 -0.0013246978493418702 0.048573877884403587 0 -0.0013390750579469651 0.048611058161573621 0 -0.0013246978493418702 0.048573877884403587 0 -0.0013590142276094447 0.048564759784290146 0 -0.0012309593821271433 0.048617557178923194 0 -0.0012181551912968521 0.048690911232768704 0 -0.0012951152727918944 0.048624260080306653 0 -0.0012309593821271433 0.048617557178923194 0 -0.0012951152727918944 0.048624260080306653 0 -0.0012831944629590748 0.048567453116616414 0 -0.0012951152727918944 0.048624260080306653 0 -0.0012831944629590748 0.048567453116616414 0 -0.0013246978493418702 0.048573877884403587 0 -0.0012831944629590748 0.048567453116616414 0 -0.001320866907837196 0.048539862536656354 0 -0.0012965600239205157 0.048506159082430021 0 -0.0012240970203599335 0.048535176376212082 0 -0.0012831944629590748 0.048567453116616414 0 -0.0012965600239205157 0.048506159082430021 0 -0.0012240970203599335 0.048535176376212082 0 -0.0012309593821271433 0.048617557178923194 0 -0.0012831944629590748 0.048567453116616414 0 -0.0013246978493418702 0.048573877884403587 0 -0.001355873339003832 0.048545231827793932 0 -0.0013590142276094447 0.048564759784290146 0 -0.0013246978493418702 0.048573877884403587 0 -0.001320866907837196 0.048539862536656354 0 -0.001355873339003832 0.048545231827793932 0 -0.0017082166550438454 0.048195227228131084 0 -0.0016701693798562935 0.047635018007046503 0 -0.0012831944629590748 0.048567453116616414 0 -0.0013246978493418702 0.048573877884403587 0 -0.001320866907837196 0.048539862536656354 0 -0.001320866907837196 0.048539862536656354 0 -0.001355873339003832 0.048545231827793932 0 -0.0013438614427108324 0.048505064421320541 0 -0.0016701693798562935 0.047635018007046503 0 -0.0029827762382299556 0.047252787296140769 0 -0.0019922084395793561 0.046432287141763187 0 -0.0018896647229929356 0.046451670803698275 0 -0.0025205688466606317 0.047162887128680747 0 -0.0026132137092948473 0.046211952614710367 0 -0.0019922084395793561 0.046432287141763187 0 -0.0023322256425166153 0.045613191219942541 0 -0.001355873339003832 0.048545231827793932 0 -0.001364204682859088 0.04856378812277698 0 -0.001385491647245541 0.048480582315346882 0 -0.0026132137092948473 0.046211952614710367 0 -0.0019922084395793561 0.046432287141763187 0 -0.0025205688466606317 0.047162887128680747 0 -0.0024599943680950645 0.045794586444963099 0 -0.0015660720157909839 0.044810303992013092 0 -0.0030453000395809036 0.045270414171367138 0 -0.0020653257191743869 0.044071908010207557 0 -0.0014611898655770995 0.044887767601279452 0 -0.0019922084395793561 0.046432287141763187 0 -0.0018896647229929356 0.046451670803698275 0 -0.0018065757964705661 0.045689261155121487 0 -0.0018896647229929356 0.046451670803698275 0 -0.0018065757964705661 0.045689261155121487 0 -0.0010084342700694229 0.045441050060686973 0 -0.0018065757964705661 0.045689261155121487 0 -0.0016831807797094368 0.044969638687127333 0 -0.0010084342700694229 0.045441050060686973 0 -0.0018065757964705661 0.045689261155121487 0 -0.0016831807797094368 0.044969638687127333 0 -0.002500776361398505 0.04520814709440156 0 -0.0014686789518714664 0.047892277445603114 0 -0.0016701693798562935 0.047635018007046503 0 -0.0021444001138616682 0.046155403651656428 0 -0.001970464934136597 0.045873483606314651 0 -0.0019922084395793561 0.046432287141763187 0 -0.0018065757964705661 0.045689261155121487 0 -0.002500776361398505 0.04520814709440156 0 -0.0016502155046435256 0.046924755263514535 0 -0.0016051727220184242 0.047344695973982089 0 -0.001421773561160061 0.046945499899647948 0 -0.0016701693798562935 0.047635018007046503 0 -0.001970464934136597 0.045873483606314651 0 -0.00094581445043369079 0.044166098172968932 0 -0.00017480849876774367 0.043809484187463048 0 -0.00044488970693587785 0.044741649647224692 0 -0.00094581445043369079 0.044166098172968932 0 -0.00017480849876774367 0.043809484187463048 0 -0.00093133156789780753 0.043590906691842554 0 -0.00094581445043369079 0.044166098172968932 0 -0.00093133156789780753 0.043590906691842554 0 -0.0020653257191743869 0.044071908010207557 0 -0.00094581445043369079 0.044166098172968932 0 -0.0020653257191743869 0.044071908010207557 0 -0.0014611898655770995 0.044887767601279452 0 -0.00093133156789780753 0.043590906691842554 0 -0.0020653257191743869 0.044071908010207557 0 -0.0010684206244521617 0.042927831739579585 0 -0.0030453000395809036 0.045270414171367138 0 -0.0014611898655770995 0.044887767601279452 0 -0.0016743446113693492 0.045921391707993038 0 -0.0014611898655770995 0.044887767601279452 0 -0.00074943102425742772 0.045470719139676305 0 -0.0016743446113693492 0.045921391707993038 0 -0.00094581445043369079 0.044166098172968932 0 -0.0014611898655770995 0.044887767601279452 0 -0.00044488970693587785 0.044741649647224692 0 -0.0014611898655770995 0.044887767601279452 0 -0.00074943102425742772 0.045470719139676305 0 -0.00044488970693587785 0.044741649647224692 0 -0.00074943102425742772 0.045470719139676305 0 -0.00044488970693587785 0.044741649647224692 0 -0.00013944792108631804 0.04563986406213786 0 0.00052577090929063839 0.044743219624309945 0 0.000641663969963112 0.045736944353290239 0 0.00050484483993231322 0.044628838885500233 0 0.00064112857746246124 0.045996842290117995 0 -0.00013944792108631804 0.04563986406213786 0 0.00050484483993231322 0.044628838885500233 0 0.0010890057282072088 0.044937406146067616 0 0.00062040515059636836 0.045493319946329713 0 -0.00044488970693587785 0.044741649647224692 0 0.00050484483993231322 0.044628838885500233 0 -0.00013944792108631804 0.04563986406213786 0 -0.00093449382600207436 0.037192142467570868 0 -0.00091703788152178471 0.036843353001457406 0 -0.0013852364406618913 0.037764435469506606 0 0.0010890057282072088 0.044937406146067616 0 0.0017425704588487541 0.044763922883953165 0 0.0013620874401686076 0.04397178239788805 0 0.00050484483993231322 0.044628838885500233 0 0.0010890057282072088 0.044937406146067616 0 0.0013620874401686076 0.04397178239788805 0 0.0010890057282072088 0.044937406146067616 0 0.0017425704588487541 0.044763922883953165 0 0.0012114898840607272 0.045713044878828268 0 -0.00017480849876774367 0.043809484187463048 0 0.00050484483993231322 0.044628838885500233 0 0.00060668953511540695 0.043490948728738849 0 0.00050484483993231322 0.044628838885500233 0 0.0013620874401686076 0.04397178239788805 0 0.00060668953511540695 0.043490948728738849 0 -0.00017480849876774367 0.043809484187463048 0 -0.00044488970693587785 0.044741649647224692 0 0.00050484483993231322 0.044628838885500233 0 -0.00017480849876774367 0.043809484187463048 0 0.00060668953511540695 0.043490948728738849 0 -0.00042976806038824613 0.042987663940787797 0 0.00060668953511540695 0.043490948728738849 0 0.001341153701722909 0.042585566986828166 0 0.00049119462017912651 0.042353822596092904 0 0.00060668953511540695 0.043490948728738849 0 0.00049119462017912651 0.042353822596092904 0 -0.00042976806038824613 0.042987663940787797 0 0.0013620874401686076 0.04397178239788805 0 0.001341153701722909 0.042585566986828166 0 0.0023052714586257192 0.043661815829658654 0 0.0013620874401686076 0.04397178239788805 0 0.00060668953511540695 0.043490948728738849 0 0.001341153701722909 0.042585566986828166 0 0.00083037049173498832 0.038066345590766174 0 0.00087435704653122687 0.03794402814737912 0 0.00067839087436971049 0.03794668912635718 0 0.00083037049173498832 0.038066345590766174 0 0.00087435704653122687 0.03794402814737912 0 0.0009424516530555754 0.038045518064668958 0 0.001341153701722909 0.042585566986828166 0 0.00049119462017912651 0.042353822596092904 0 0.00023761397836261392 0.041492007189598473 0 0.0012928217588865653 0.040552881830379604 0 0.00035996162861449775 0.040442640953432737 0 0.00049119462017912651 0.042353822596092904 0 0.0001651333917566929 0.041882175570752189 0 -0.00039240527086609829 0.042221400374121094 0 0.00049119462017912651 0.042353822596092904 0 0.0001651333917566929 0.041882175570752189 0 0.00023761397836261392 0.041492007189598473 0 -0.00012038720594915265 0.042304431991456476 0 0.00035996162861449775 0.040442640953432737 0 0.0001651333917566929 0.041882175570752189 0 -0.00039240527086609829 0.042221400374121094 0 0.00023761397836261392 0.041492007189598473 0 0.00027217793073653837 0.042306636568678821 0 -0.00025262428087505722 0.042920809759771909 0 -0.00039471025943458134 0.042026189412202965 0 0.00035791218622593577 0.041845460948725419 0 0.00027217793073653837 0.042306636568678821 0 0.00079496573141039039 0.041689423383267026 0 0.00035791218622593577 0.041845460948725419 0 0.00027217793073653837 0.042306636568678821 0 -0.00039471025943458134 0.042026189412202965 0 0.00035791218622593577 0.041845460948725419 0 -0.00039471025943458134 0.042026189412202965 0 8.5952872223563621e-06 0.041542499190904643 0 0.00049119462017912651 0.042353822596092904 0 -0.00039240527086609829 0.042221400374121094 0 -0.00042976806038824613 0.042987663940787797 0 -0.00052495164618282205 0.043414258339821314 0 -0.00065867358303494945 0.043156997029104902 0 -0.00012038720594915265 0.042304431991456476 0 -0.00052495164618282205 0.043414258339821314 0 -0.00039240527086609829 0.042221400374121094 0 -0.001014556084038251 0.042944948067884868 0 -0.00042976806038824613 0.042987663940787797 0 -0.00093133156789780753 0.043590906691842554 0 -0.0010684206244521617 0.042927831739579585 0 -0.00042976806038824613 0.042987663940787797 0 -0.00017480849876774367 0.043809484187463048 0 -0.00093133156789780753 0.043590906691842554 0 -0.00042976806038824613 0.042987663940787797 0 -0.0015660720157909839 0.044810303992013092 0 -0.00052495164618282205 0.043414258339821314 0 -0.00052495164618282205 0.043414258339821314 0 -0.0011428856224559561 0.043613657293274155 0 -0.00025262428087505722 0.042920809759771909 0 -0.0010954099273058052 0.042861990433898677 0 -0.00039471025943458134 0.042026189412202965 0 -0.0010084342700694229 0.045441050060686973 0 -0.0001430973008938574 0.044427300290254573 0 -0.0011110404447047645 0.044360732639710326 0 -0.0013720889468589092 0.041557117347823996 0 -0.0010954099273058052 0.042861990433898677 0 -0.00039471025943458134 0.042026189412202965 0 -0.00063532542099484495 0.042630630633563406 0 0.00026632166944279853 0.040686302685288132 0 -0.0013720889468589092 0.041557117347823996 0 -0.00051087563698945754 0.041233409823453131 0 -0.00079583360463827925 0.040302947094838865 0 -0.0013720889468589092 0.041557117347823996 0 -0.00039471025943458134 0.042026189412202965 0 -0.00051087563698945754 0.041233409823453131 0 -0.00039471025943458134 0.042026189412202965 0 -0.00051087563698945754 0.041233409823453131 0 8.5952872223563621e-06 0.041542499190904643 0 3.8841948112850341e-06 0.038203102605999406 0 0.00022838858395581382 0.036460160352329615 0 8.5952872223563621e-06 0.041542499190904643 0 3.3173766799899943e-06 0.040733302075483438 0 0.00079496573141039039 0.041689423383267026 0 3.8841948112850341e-06 0.038203102605999406 0 0.00035996162861449775 0.040442640953432737 0 0.00035791218622593577 0.041845460948725419 0 8.5952872223563621e-06 0.041542499190904643 0 0.00079496573141039039 0.041689423383267026 0 -0.00051087563698945754 0.041233409823453131 0 8.5952872223563621e-06 0.041542499190904643 0 3.3173766799899943e-06 0.040733302075483438 0 -0.00015039361638386376 0.035384135704331993 0 -0.00012673444335386031 0.035474620455096091 0 -0.0001817890303044047 0.035344012110189955 0 -0.00015039361638386376 0.035384135704331993 0 -0.00011074826043448908 0.035532572035391695 0 7.0884960590735955e-06 0.035527481422131871 0 3.8841948112850341e-06 0.038203102605999406 0 7.2440709873413379e-05 0.037766912299025443 0 8.1001239877712101e-05 0.036780868815202671 0 7.2440709873413379e-05 0.037766912299025443 0 -0.00011074826043448908 0.035532572035391695 0 -1.1439563611258741e-05 0.035496023734030643 0 -9.2216394183266566e-05 0.03561136085721462 0 -0.00015039361638386376 0.035384135704331993 0 -0.00011074826043448908 0.035532572035391695 0 -0.00012673444335386031 0.035474620455096091 0 -0.00011074826043448908 0.035532572035391695 0 -0.00012673444335386031 0.035474620455096091 0 -0.00010348509966127793 0.035564871552684396 0 -0.00051087563698945754 0.041233409823453131 0 3.3173766799899943e-06 0.040733302075483438 0 -0.00079583360463827925 0.040302947094838865 0 3.8841948112850341e-06 0.038203102605999406 0 0.00026632166944279853 0.040686302685288132 0 -0.00040781005018405769 0.038767869837877923 0 4.6864339497748508e-05 0.039263688294207365 0 0.0004105622893879716 0.039221634672720301 0 7.2440709873413379e-05 0.037766912299025443 0 0.00026632166944279853 0.040686302685288132 0 0.00049285268480780346 0.038910106850168644 0 0.00055312845380092312 0.038907319096444945 0 0.00053177675413468067 0.038951472456974605 0 7.2440709873413379e-05 0.037766912299025443 0 0.0004741311877363913 0.038094274428277432 0 0.00026632166944279853 0.040686302685288132 0 0.0004741311877363913 0.038094274428277432 0 8.3473413826795794e-05 0.036807850100113414 0 -0.00011120867990211544 0.035919152392942889 0 -4.5181949840931921e-05 0.035963220241897034 0 0.0008321993114489795 0.040322590756751778 0 0.0013739163434949324 0.041315076917875525 0 0.0014960278891148389 0.04103962455380835 0 0.00039320393080780319 0.038636744807109484 0 0.0004741311877363913 0.038094274428277432 0 0.00031374959112586304 0.035526627962317779 0 0.0004741311877363913 0.038094274428277432 0 -0.00011120867990211544 0.035919152392942889 0 9.3593359818751153e-05 0.035569454017354278 0 -9.2216394183266566e-05 0.03561136085721462 0 -1.1439563611258741e-05 0.035496023734030643 0 9.3593359818751153e-05 0.035569454017354278 0 -9.2216394183266566e-05 0.03561136085721462 0 -0.00011074826043448908 0.035532572035391695 0 -9.2216394183266566e-05 0.03561136085721462 0 -0.00018090911224366921 0.035583815308170091 0 -0.00010348509966127793 0.035564871552684396 0 -0.00018090911224366921 0.035583815308170091 0 9.2413058401024072e-05 0.035624373655009776 0 -0.00011074826043448908 0.035532572035391695 0 -0.00010348509966127793 0.035564871552684396 0 -0.00018090911224366921 0.035583815308170091 0 -0.00018090911224366921 0.035583815308170091 0 -0.00023515827552190129 0.035284939200690972 0 9.2413058401024072e-05 0.035624373655009776 0 -0.00011120867990211544 0.035919152392942889 0 -9.2216394183266566e-05 0.03561136085721462 0 -0.00018090911224366921 0.035583815308170091 0 -0.00011120867990211544 0.035919152392942889 0 -0.00018090911224366921 0.035583815308170091 0 -0.00023515827552190129 0.035284939200690972 0 -0.00011120867990211544 0.035919152392942889 0 -0.00023515827552190129 0.035284939200690972 0 -1.6744597367538778e-06 0.036417754536878802 0 -0.00023515827552190129 0.035284939200690972 0 -1.6744597367538778e-06 0.036417754536878802 0 1.344022221525247e-06 0.033415191933972695 0 8.3473413826795794e-05 0.036807850100113414 0 -0.00011120867990211544 0.035919152392942889 0 -1.6744597367538778e-06 0.036417754536878802 0 2.5831578421637189e-08 0.03265915495755535 0 -0.0001130807422906208 0.031024959440796519 0 -6.5321394286044325e-09 0.029981950470851466 0 -2.2320309629380118e-07 0.032665768555022241 0 0.00045608638715460549 0.033029142930742286 0 -0.00023515827552190129 0.035284939200690972 0 1.344022221525247e-06 0.033415191933972695 0 9.2413058401024072e-05 0.035624373655009776 0 1.1619540931409517e-06 0.032673551588865139 0 -1.0550159331857445e-06 0.033404573984995883 0 -0.00033409669400700473 0.034047886122764409 0 -3.189154839532193e-08 0.033411789559353207 0 -0.00012561077647593686 0.03482009862114422 0 -0.00012673444335386031 0.035474620455096091 0 -0.00010348509966127793 0.035564871552684396 0 9.2413058401024072e-05 0.035624373655009776 0 -0.00033409669400700473 0.034047886122764409 0 0.00024472018937165727 0.034968125629631919 0 0.00094492941604787752 0.034154323493644986 0 1.1619540931409517e-06 0.032673551588865139 0 -0.00033409669400700473 0.034047886122764409 0 0.00094492941604787752 0.034154323493644986 0 0.00024472018937165727 0.034968125629631919 0 0.00078056268338791738 0.035068897637634447 0 0.00094492941604787752 0.034154323493644986 0 0.00024472018937165727 0.034968125629631919 0 0.00078056268338791738 0.035068897637634447 0 0.00051091880463343081 0.035352202641698499 0 -0.00012673444335386031 0.035474620455096091 0 9.2413058401024072e-05 0.035624373655009776 0 -0.0001817890303044047 0.035344012110189955 0 -0.00033409669400700473 0.034047886122764409 0 0.00024472018937165727 0.034968125629631919 0 -0.0001817890303044047 0.035344012110189955 0 -0.00012561077647593686 0.03482009862114422 0 -0.00017222041807709803 0.035269752342773991 0 0.00087435704653122687 0.03794402814737912 0 0.00071312917308729391 0.037874864776408196 0 0.00067839087436971049 0.03794668912635718 0 0.00053191935906456514 0.037791754107976715 0 0.00071312917308729391 0.037874864776408196 0 0.00067839087436971049 0.03794668912635718 0 -0.00015039361638386376 0.035384135704331993 0 -0.0001817890303044047 0.035344012110189955 0 -9.5622480616735646e-05 0.0354320677042241 0 0.00024472018937165727 0.034968125629631919 0 -0.0001817890303044047 0.035344012110189955 0 -9.5622480616735646e-05 0.0354320677042241 0 0.00099881384272450312 0.037220458571273818 0 0.00022838858395581382 0.036460160352329615 0 0.00077097350420001723 0.035848117235965281 0 -9.5622480616735646e-05 0.0354320677042241 0 0.00051091880463343081 0.035352202641698499 0 0.00078056268338791738 0.035068897637634447 0 0.00051091880463343081 0.035352202641698499 0 0.0009408487624927549 0.035451217011529028 0 0.00024472018937165727 0.034968125629631919 0 -9.5622480616735646e-05 0.0354320677042241 0 0.00051091880463343081 0.035352202641698499 0 0.00077097350420001723 0.035848117235965281 0 0.00051091880463343081 0.035352202641698499 0 0.0009408487624927549 0.035451217011529028 0 0.00077097350420001723 0.035848117235965281 0 0.0011312262125801362 0.035733896420972765 0 0.0009408487624927549 0.035451217011529028 0 0.00078056268338791738 0.035068897637634447 0 0.0009408487624927549 0.035451217011529028 0 0.0014936042694888316 0.035250091030234215 0 0.0011312262125801362 0.035733896420972765 0 0.0014936042694888316 0.035250091030234215 0 0.0015171935762383999 0.036090555698341652 0 0.0011312262125801362 0.035733896420972765 0 0.0009408487624927549 0.035451217011529028 0 0.0014936042694888316 0.035250091030234215 0 0.00097661804505479698 0.031310542744416685 0 0.0014058483477000405 0.033906023284079691 0 0.0011325203930763234 0.030136269304081136 0 0.0013930215203252785 0.030569952234722478 0 0.0011668818471315956 0.030823051281246797 0 0.00032275202233026442 0.027078692134244652 0 -0.0002114089511507153 0.027225474085738326 0 7.6078727637508392e-05 0.026650815625894591 0 0.0012681549810200062 0.02396343910786608 0 0.0013507446391021977 0.025872930210490672 0 0.00097661804505479698 0.031310542744416685 0 0.0013507446391021977 0.025872930210490672 0 0.00032275202233026442 0.027078692134244652 0 6.183618959580273e-05 0.02750264366038813 0 -0.0002114089511507153 0.027225474085738326 0 0.00032275202233026442 0.027078692134244652 0 6.183618959580273e-05 0.02750264366038813 0 0.00044180922049248466 0.027755006500497156 0 6.183618959580273e-05 0.02750264366038813 0 -0.00017552934550746642 0.02765351101861455 0 -0.0002114089511507153 0.027225474085738326 0 0.00078056268338791738 0.035068897637634447 0 0.0014936042694888316 0.035250091030234215 0 0.00094492941604787752 0.034154323493644986 0 0.00097661804505479698 0.031310542744416685 0 0.00025197237427359269 0.02899316540433285 0 0.00036395431913056599 0.031756874874999508 0 -0.0001130807422906208 0.031024959440796519 0 0.00030559016515278365 0.031000294986477588 0 0.00097661804505479698 0.031310542744416685 0 0.00045608638715460549 0.033029142930742286 0 -0.0001130807422906208 0.031024959440796519 0 0.00030559016515278365 0.031000294986477588 0 -6.5321394286044325e-09 0.029981950470851466 0 6.183618959580273e-05 0.02750264366038813 0 0.00044180922049248466 0.027755006500497156 0 -8.4920422328575777e-05 0.027885976789098165 0 6.183618959580273e-05 0.02750264366038813 0 -8.4920422328575777e-05 0.027885976789098165 0 -0.00017552934550746642 0.02765351101861455 0 -0.00020443833408575587 0.028178440203844097 0 -8.4920422328575777e-05 0.027885976789098165 0 -0.00014314221946558554 0.028618538725481073 0 -0.00020443833408575587 0.028178440203844097 0 -8.4920422328575777e-05 0.027885976789098165 0 -0.00028494572858732832 0.027893349117795185 0 0.00044180922049248466 0.027755006500497156 0 -8.4920422328575777e-05 0.027885976789098165 0 -0.00014314221946558554 0.028618538725481073 0 -0.00020443833408575587 0.028178440203844097 0 -0.00014314221946558554 0.028618538725481073 0 -1.5181753362450854e-06 0.027826518620812282 0 -0.00014314221946558554 0.028618538725481073 0 1.5844945885271256e-06 0.029971249554577278 0 -1.5181753362450854e-06 0.027826518620812282 0 0.00044180922049248466 0.027755006500497156 0 -0.00014314221946558554 0.028618538725481073 0 1.5844945885271256e-06 0.029971249554577278 0 0.00025197237427359269 0.02899316540433285 0 2.3194073976636667e-07 0.029974836178365619 0 -0.00013240019021386614 0.025046333865273138 0 4.0905141663578723e-08 0.0256749336858638 0 0.0003825339644482848 0.024652751004632552 0 4.0905141663578723e-08 0.0256749336858638 0 0.0003825339644482848 0.024652751004632552 0 0.00058369125383652039 0.024741782901769718 0 -1.1446836941198125e-07 0.025679143058981755 0 0.00051591693295454343 0.02570196749555563 0 0.00050371633149048261 0.023602380470141442 0 0.0013094457305851811 0.023582340536187896 0 -0.00020443833408575587 0.028178440203844097 0 -1.5181753362450854e-06 0.027826518620812282 0 -0.00021353372663965171 0.027872865666887164 0 1.5307471069028312e-06 0.025680925893379655 0 -1.5181753362450854e-06 0.027826518620812282 0 -0.00021353372663965171 0.027872865666887164 0 1.5307471069028312e-06 0.025680925893379655 0 -0.00021353372663965171 0.027872865666887164 0 0.00018603776874694946 0.027808451837776735 0 0.00012207349779389936 0.027178535962460049 0 0.00051591693295454343 0.02570196749555563 0 -0.00028494572858732832 0.027893349117795185 0 -0.00037602640052523115 0.027813513824708935 0 -0.00035683910420229107 0.027882144164523632 0 -0.00021353372663965171 0.027872865666887164 0 -0.00028494572858732832 0.027893349117795185 0 -0.00035683910420229107 0.027882144164523632 0 0.00078748447873367832 0.02496316441103481 0 0.00051591693295454343 0.02570196749555563 0 -0.00020443833408575587 0.028178440203844097 0 -0.00021353372663965171 0.027872865666887164 0 -0.00028494572858732832 0.027893349117795185 0 -8.4920422328575777e-05 0.027885976789098165 0 -0.00028494572858732832 0.027893349117795185 0 -0.00017552934550746642 0.02765351101861455 0 -0.00028494572858732832 0.027893349117795185 0 -0.00017552934550746642 0.02765351101861455 0 -0.00037159683031966868 0.027782757391184371 0 0.00078748447873367832 0.02496316441103481 0 0.00039950180003488846 0.025361284515714344 0 -0.00028494572858732832 0.027893349117795185 0 -0.00037602640052523115 0.027813513824708935 0 -0.00037159683031966868 0.027782757391184371 0 0.0024157693426111629 0.021644297843015543 0 0.0023498762144907909 0.02169215238726593 0 0.0023364530312310152 0.021551909997745443 0 0.0021152862999183519 0.021556628324544025 0 0.0023498762144907909 0.02169215238726593 0 0.0023364530312310152 0.021551909997745443 0 0.00047412089287623608 0.024695866329538629 0 0.00084272655482953065 0.024428722532135939 0 0.00064458060067072601 0.024344604717174655 0 0.00078748447873367832 0.02496316441103481 0 0.0013094457305851811 0.023582340536187896 0 0.0013094457305851811 0.023582340536187896 0 0.00051591693295454343 0.02570196749555563 0 0.0023364530312310152 0.021551909997745443 0 0.0022819673866271567 0.021425165228805582 0 0.002500606913832745 0.021448219206104457 0 0.0024157693426111629 0.021644297843015543 0 0.0023364530312310152 0.021551909997745443 0 0.002500606913832745 0.021448219206104457 0 -0.00017552934550746642 0.02765351101861455 0 -0.00037159683031966868 0.027782757391184371 0 -0.0002114089511507153 0.027225474085738326 0 -0.00042247458282254478 0.027825926655903357 0 -0.00037159683031966868 0.027782757391184371 0 -0.0002114089511507153 0.027225474085738326 0 0.00078748447873367832 0.02496316441103481 0 0.0012681549810200062 0.02396343910786608 0 0.002500606913832745 0.021448219206104457 0 0.0023909530271376271 0.021327840362867556 0 0.0024512120755508537 0.02124628713644261 0 0.002500606913832745 0.021448219206104457 0 0.0024512120755508537 0.02124628713644261 0 0.0025519919063213331 0.021301015073417476 0 0.0022819673866271567 0.021425165228805582 0 0.002500606913832745 0.021448219206104457 0 0.0023909530271376271 0.021327840362867556 0 0.002261292191894269 0.021289599933969196 0 0.0022819673866271567 0.021425165228805582 0 0.0023909530271376271 0.021327840362867556 0 0.002261292191894269 0.021289599933969196 0 0.0023909530271376271 0.021327840362867556 0 0.002363030930839085 0.021184760811444811 0 0.002363030930839085 0.021184760811444811 0 0.0024070561780648427 0.021173975689348271 0 0.0024512120755508537 0.02124628713644261 0 0.0023909530271376271 0.021327840362867556 0 0.002363030930839085 0.021184760811444811 0 0.0024512120755508537 0.02124628713644261 0 0.002363030930839085 0.021184760811444811 0 0.0024028290975400221 0.021161086322833551 0 0.0024070561780648427 0.021173975689348271 0 0.0024196128734280124 0.021150135172968109 0 0.002363030930839085 0.021184760811444811 0 0.0024028290975400221 0.021161086322833551 0 0.0024028290975400221 0.021161086322833551 0 0.0024070561780648427 0.021173975689348271 0 0.0024007265724048303 0.021159618141341263 0 0.0024028290975400221 0.021161086322833551 0 0.0024007265724048303 0.021159618141341263 0 0.0024184669698878122 0.021160870906506857 0 0.0024971005732955863 0.021263614570150607 0 0.0018639244113975056 0.023742261553493019 0 0.0026676727705719828 0.021426269075236318 0 0.0030100539743101746 0.021652758703569645 0 0.0028040528742777787 0.021290663560055323 0 0.0024070561780648427 0.021173975689348271 0 0.0024007265724048303 0.021159618141341263 0 0.0024525721946070311 0.021164741387121756 0 0.0016419500851117151 0.027307917630757742 0 0.0016235932809412839 0.027331690140609193 0 0.0015666363080342085 0.027229073748470684 0 0.0018639244113975056 0.023742261553493019 0 0.0023290463198532337 0.026908663102850127 0 0.0016419500851117151 0.027307917630757742 0 0.0016235932809412839 0.027331690140609193 0 0.0017253417188525736 0.027404538274831254 0 0.0018639244113975056 0.023742261553493019 0 0.0013507446391021977 0.025872930210490672 0 0.0024070561780648427 0.021173975689348271 0 0.0024525721946070311 0.021164741387121756 0 0.0024512120755508537 0.02124628713644261 0 0.0024525721946070311 0.021164741387121756 0 0.0024512120755508537 0.02124628713644261 0 0.0025519919063213331 0.021301015073417476 0 0.00063817935024968505 0.026052216649942291 0 0.0017669159130274594 0.027929844615537297 0 0.0018558480522745265 0.026716761017417195 0 0.0013507446391021977 0.025872930210490672 0 0.0011246550094441742 0.032298170469655517 0 0.0013930215203252785 0.030569952234722478 0 0.0012390747389000117 0.030893706579358419 0 0.0011668818471315956 0.030823051281246797 0 0.0017669159130274594 0.027929844615537297 0 0.0021948941011386211 0.02705079962905204 0 0.0018558480522745265 0.026716761017417195 0 0.0011246550094441742 0.032298170469655517 0 0.0014058483477000405 0.033906023284079691 0 0.0014058483477000405 0.033906023284079691 0 0.0012315927289146104 0.034138476538777697 0 0.0015317273915348437 0.032899658442316494 0 0.0017969631392337076 0.033156319872020515 0 0.0017749677134860265 0.032839469499237266 0 0.00060161351738199464 0.033190687486354759 0 0.00035461593292033952 0.033253987212115615 0 0.00037972075663107708 0.033649174427678723 0 0.0011246550094441742 0.032298170469655517 0 0.00072273567425746015 0.034166699459465294 0 0.0011246550094441742 0.032298170469655517 0 0.0012315927289146104 0.034138476538777697 0 0.0012315927289146104 0.034138476538777697 0 0.00072273567425746015 0.034166699459465294 0 -4.2003885096160244e-06 0.030446942088697113 0 0.00033531768466153901 0.030769095037724216 0 -0.00017996089409330496 0.030799775294535283 0 0.0011246550094441742 0.032298170469655517 0 0.00098847350436559824 0.029041552016108141 0 0.00077097350420001723 0.035848117235965281 0 0.0015221462668973875 0.036084427222778916 0 0.0015300936241200518 0.036186730951464213 0 0.00077097350420001723 0.035848117235965281 0 0.0011312262125801362 0.035733896420972765 0 0.0015221462668973875 0.036084427222778916 0 0.00099881384272450312 0.037220458571273818 0 0.0012315927289146104 0.034138476538777697 0 0.00087435704653122687 0.03794402814737912 0 0.0010256698861305479 0.03799943625017807 0 0.0009424516530555754 0.038045518064668958 0 0.0016418178552573754 0.03593869778833543 0 0.0014058483477000405 0.033906023284079691 0 0.0010256698861305479 0.03799943625017807 0 0.0009424516530555754 0.038045518064668958 0 0.001028257162357316 0.038027709755279894 0 0.0012928217588865653 0.040552881830379604 0 0.00082030317123999612 0.039065698953432877 0 0.00072273567425746015 0.034166699459465294 0 0.00082030317123999612 0.039065698953432877 0 0.00083037049173498832 0.038066345590766174 0 0.0009424516530555754 0.038045518064668958 0 0.00095596382558937323 0.038193651986310424 0 0.00052959566509668454 0.035068632231684049 0 0.00056070172666562994 0.035625286433543839 0 0.00020323699025415865 0.035755829237785704 0 0.0009424516530555754 0.038045518064668958 0 0.001028257162357316 0.038027709755279894 0 0.00095596382558937323 0.038193651986310424 0 0.00072273567425746015 0.034166699459465294 0 0.00021469413581706493 0.033714839020353243 0 -0.00017996089409330496 0.030799775294535283 0 0.00044222207441339676 0.031565726806928388 0 -0.00011122942200706337 0.032200131386263958 0 0.0018639244113975056 0.023742261553493019 0 0.00098847350436559824 0.029041552016108141 0 0.0013829853761711159 0.031754332970036228 0 0.00033531768466153901 0.030769095037724216 0 0.00044222207441339676 0.031565726806928388 0 0.0017725078072420946 0.029691862135864541 0 0.00098847350436559824 0.029041552016108141 0 0.00033531768466153901 0.030769095037724216 0 -0.00017996089409330496 0.030799775294535283 0 0.00044222207441339676 0.031565726806928388 0 0.0013829853761711159 0.031754332970036228 0 0.00044222207441339676 0.031565726806928388 0 0.0007968006650160552 0.032316659295674018 0 0.00044222207441339676 0.031565726806928388 0 0.0007968006650160552 0.032316659295674018 0 -0.00011122942200706337 0.032200131386263958 0 0.0007968006650160552 0.032316659295674018 0 -0.00011122942200706337 0.032200131386263958 0 0.00060126677501352106 0.033186307311275386 0 -0.00011122942200706337 0.032200131386263958 0 0.00060126677501352106 0.033186307311275386 0 -5.8154504600190292e-05 0.033675720431930324 0 0.00021469413581706493 0.033714839020353243 0 -3.309599673818846e-05 0.035016450868055937 0 0.0007968006650160552 0.032316659295674018 0 0.00060126677501352106 0.033186307311275386 0 0.0015832965586697711 0.032864839957813689 0 0.00056070172666562994 0.035625286433543839 0 0.00020323699025415865 0.035755829237785704 0 0.00058671950662881635 0.036161387999692152 0 0.00060126677501352106 0.033186307311275386 0 -5.8154504600190292e-05 0.033675720431930324 0 0.0002505750072961833 0.034030894425476965 0 0.0017425704588487541 0.044763922883953165 0 0.0013620874401686076 0.04397178239788805 0 0.0023052714586257192 0.043661815829658654 0 -0.00047198053436089206 0.036010911607906211 0 -0.00050770714522831227 0.036853150582632006 0 3.6043714277802243e-05 0.03653536525264757 0 0.00032790872858540036 0.041134060897164058 0 0.00082030317123999612 0.039065698953432877 0 0.00082030317123999612 0.039065698953432877 0 -3.309599673818846e-05 0.035016450868055937 0 -0.00091703788152178471 0.036843353001457406 0 -0.00047198053436089206 0.036010911607906211 0 -0.00050770714522831227 0.036853150582632006 0 -0.00050770714522831227 0.036853150582632006 0 -0.00024082875336548697 0.037178769335090268 0 3.6043714277802243e-05 0.03653536525264757 0 -0.00050770714522831227 0.036853150582632006 0 -0.00024082875336548697 0.037178769335090268 0 -0.00053307380821318215 0.037420298336236078 0 -0.00093449382600207436 0.037192142467570868 0 -0.00050770714522831227 0.036853150582632006 0 -0.00053307380821318215 0.037420298336236078 0 -0.00093449382600207436 0.037192142467570868 0 -0.00091703788152178471 0.036843353001457406 0 -0.00050770714522831227 0.036853150582632006 0 -3.309599673818846e-05 0.035016450868055937 0 0.00015189063960920743 0.037075049888705275 0 -8.510500174411785e-05 0.033670912020805105 0 0.0002505750072961833 0.034030894425476965 0 9.0016583740630784e-05 0.036299539660603987 0 -0.00024082875336548697 0.037178769335090268 0 3.6043714277802243e-05 0.03653536525264757 0 0.00017788067693360474 0.037754718207189328 0 0.0002505750072961833 0.034030894425476965 0 0.0010967264521874634 0.035200571860250461 0 9.0016583740630784e-05 0.036299539660603987 0 0.0002505750072961833 0.034030894425476965 0 0.0010967264521874634 0.035200571860250461 0 0.0011220587465758788 0.03394576579817684 0 0.00060126677501352106 0.033186307311275386 0 0.0002505750072961833 0.034030894425476965 0 0.0011220587465758788 0.03394576579817684 0 -3.309599673818846e-05 0.035016450868055937 0 -0.00017267242296217157 0.034597936388318908 0 0.0017793498879520007 0.034532001556254042 0 0.0010967264521874634 0.035200571860250461 0 0.0024616034014973086 0.035511864691014444 0 0.0017793498879520007 0.034532001556254042 0 0.0010967264521874634 0.035200571860250461 0 0.0011220587465758788 0.03394576579817684 0 0.0017793498879520007 0.034532001556254042 0 0.0011220587465758788 0.03394576579817684 0 0.0020264816913021589 0.033837833914191755 0 0.0017793498879520007 0.034532001556254042 0 0.0020264816913021589 0.033837833914191755 0 0.0026008253452550491 0.034462862065255964 0 0.0020264816913021589 0.033837833914191755 0 0.0026008253452550491 0.034462862065255964 0 0.0030028986769365528 0.033489893866986489 0 0.0017793498879520007 0.034532001556254042 0 0.0026008253452550491 0.034462862065255964 0 0.0024616034014973086 0.035511864691014444 0 0.0026008253452550491 0.034462862065255964 0 0.0038816250754998846 0.03496051901178672 0 0.0024616034014973086 0.035511864691014444 0 0.0033134568772800522 0.025763921955771579 0 0.0034895337955926854 0.025767584790488039 0 0.0035682535884452495 0.02610801798241117 0 0.0034895337955926854 0.025767584790488039 0 0.0035682535884452495 0.02610801798241117 0 0.0037411846946851118 0.026195211314158123 0 0.0039858477351254308 0.030873142198661763 0 0.0033220958342606074 0.029660360170983301 0 0.0026008253452550491 0.034462862065255964 0 0.0038816250754998846 0.03496051901178672 0 0.0030028986769365528 0.033489893866986489 0 0.002879102748510283 0.02708682576898511 0 0.0029425372893256102 0.027113070633842419 0 0.0029918119147980264 0.027184280366323432 0 0.002581718666593891 0.021119170168337208 0 0.0026322323975356103 0.021247116826926874 0 0.0028040528742777787 0.021290663560055323 0 0.0027368819984211986 0.025646563928696808 0 0.0023290463198532337 0.026908663102850127 0 0.0027368819984211986 0.025646563928696808 0 0.0033220958342606074 0.029660360170983301 0 0.0033220958342606074 0.029660360170983301 0 0.0023290463198532337 0.026908663102850127 0 0.0024538503431914475 0.021177856317544267 0 0.002581718666593891 0.021119170168337208 0 0.0026322323975356103 0.021247116826926874 0 0.0024538503431914475 0.021177856317544267 0 0.0024007265724048303 0.021159618141341263 0 0.0024184669698878122 0.021160870906506857 0 0.0024538503431914475 0.021177856317544267 0 0.0026676727705719828 0.021426269075236318 0 0.0026322323975356103 0.021247116826926874 0 0.0024792706910115019 0.021215510834926399 0 0.0024971005732955863 0.021263614570150607 0 0.0026676727705719828 0.021426269075236318 0 0.0026322323975356103 0.021247116826926874 0 0.0028040528742777787 0.021290663560055323 0 0.0017725078072420946 0.029691862135864541 0 0.0023290463198532337 0.026908663102850127 0 0.0013829853761711159 0.031754332970036228 0 0.0023919384924671922 0.032725289789029416 0 0.0015832965586697711 0.032864839957813689 0 0.0013829853761711159 0.031754332970036228 0 0.0007968006650160552 0.032316659295674018 0 0.0015832965586697711 0.032864839957813689 0 0.0011220587465758788 0.03394576579817684 0 0.0020264816913021589 0.033837833914191755 0 0.0015832965586697711 0.032864839957813689 0 0.00060126677501352106 0.033186307311275386 0 0.0011220587465758788 0.03394576579817684 0 0.0015832965586697711 0.032864839957813689 0 0.0033220958342606074 0.029660360170983301 0 0.0021830733851139613 0.032817487216242336 0 0.0020264816913021589 0.033837833914191755 0 0.0030028986769365528 0.033489893866986489 0 0.0015832965586697711 0.032864839957813689 0 0.002782534169678906 0.03333439032555055 0 0.0023919384924671922 0.032725289789029416 0 0.0015832965586697711 0.032864839957813689 0 0.0018111386657675937 0.036871227676597292 0 0.00041827169243650793 0.039020026529471015 0 0.0025061526989037177 0.038486491780372542 0 0.0018111386657675937 0.036871227676597292 0 0.0032568574233554646 0.036738274747711512 0 0.0025061526989037177 0.038486491780372542 0 0.0041447718337589172 0.038163432169504519 0 0.0032568574233554646 0.036738274747711512 0 0.0025061526989037177 0.038486491780372542 0 0.0047471874400284225 0.036407278368442618 0 0.0038816250754998846 0.03496051901178672 0 0.0032568574233554646 0.036738274747711512 0 0.0038816250754998846 0.03496051901178672 0 0.0032568574233554646 0.036738274747711512 0 0.0024616034014973086 0.035511864691014444 0 0.0010967264521874634 0.035200571860250461 0 0.0018111386657675937 0.036871227676597292 0 0.0024616034014973086 0.035511864691014444 0 0.0018111386657675937 0.036871227676597292 0 0.0032568574233554646 0.036738274747711512 0 0.0024616034014973086 0.035511864691014444 0 0.0010967264521874634 0.035200571860250461 0 0.0018111386657675937 0.036871227676597292 0 9.0016583740630784e-05 0.036299539660603987 0 0.00017788067693360474 0.037754718207189328 0 -0.00053307380821318215 0.037420298336236078 0 -0.00061756154253291039 0.037870018622437121 0 -0.00093449382600207436 0.037192142467570868 0 -0.00053307380821318215 0.037420298336236078 0 -0.00061756154253291039 0.037870018622437121 0 -0.00024082875336548697 0.037178769335090268 0 0.00017788067693360474 0.037754718207189328 0 -0.00053307380821318215 0.037420298336236078 0 -0.00061756154253291039 0.037870018622437121 0 -0.00089069744489759378 0.039204072865592125 0 -0.0012512027740496702 0.038431990246822922 0 -0.00061756154253291039 0.037870018622437121 0 0.00041827169243650793 0.039020026529471015 0 -0.00089069744489759378 0.039204072865592125 0 0.0018111386657675937 0.036871227676597292 0 9.0016583740630784e-05 0.036299539660603987 0 0.00041827169243650793 0.039020026529471015 0 0.00015189063960920743 0.037075049888705275 0 0.00037956069378791642 0.03889797582213305 0 0.00017788067693360474 0.037754718207189328 0 -0.00061756154253291039 0.037870018622437121 0 0.00041827169243650793 0.039020026529471015 0 0.00041827169243650793 0.039020026529471015 0 0.00063521899493012451 0.040421668124413536 0 0.0017001935714046766 0.039811608009661839 0 0.00041827169243650793 0.039020026529471015 0 -0.00089069744489759378 0.039204072865592125 0 -0.00043124407762924738 0.040529198117562205 0 -0.00089069744489759378 0.039204072865592125 0 -0.00043124407762924738 0.040529198117562205 0 -0.0012876337368894122 0.040763898029134348 0 0.00041827169243650793 0.039020026529471015 0 -0.00043124407762924738 0.040529198117562205 0 0.00063521899493012451 0.040421668124413536 0 -0.00043124407762924738 0.040529198117562205 0 0.00063521899493012451 0.040421668124413536 0 5.7476669732197431e-05 0.041382988448932762 0 0.0017001935714046766 0.039811608009661839 0 0.0035077431515677573 0.039804148948722307 0 0.0015668773456276376 0.041211404845665281 0 0.00063521899493012451 0.040421668124413536 0 0.0017001935714046766 0.039811608009661839 0 0.0015668773456276376 0.041211404845665281 0 0.00041827169243650793 0.039020026529471015 0 0.0017001935714046766 0.039811608009661839 0 0.0025061526989037177 0.038486491780372542 0 0.0017001935714046766 0.039811608009661839 0 0.0025061526989037177 0.038486491780372542 0 0.0035077431515677573 0.039804148948722307 0 0.0041447718337589172 0.038163432169504519 0 0.0025061526989037177 0.038486491780372542 0 0.0035077431515677573 0.039804148948722307 0 0.0033924154846818981 0.035510197958564554 0 0.0025550765152246584 0.035535624552750188 0 0.0025550765152246584 0.035535624552750188 0 0.0012420921775535411 0.039241891341951406 0 0.0023203237228684908 0.035680900796204354 0 0.0018915430644490089 0.03696694993871312 0 0.0009782005412802637 0.036791443715871938 0 0.0040114303457541431 0.03379280355220398 0 0.002565428525138966 0.033253229954053991 0 0.001878762450833695 0.035817483178589772 0 0.0025550765152246584 0.035535624552750188 0 0.0019343323535497975 0.036198646613098795 0 0.0018915430644490089 0.03696694993871312 0 0.0009782005412802637 0.036791443715871938 0 0.00088279901871452318 0.037727161490658245 0 0.00088279901871452318 0.037727161490658245 0 0.0014769596039127203 0.038220580795443243 0 0.00041968145549633426 0.038739367613139578 0 0.0018915430644490089 0.03696694993871312 0 0.00088279901871452318 0.037727161490658245 0 0.0014769596039127203 0.038220580795443243 0 0.0019343323535497975 0.036198646613098795 0 0.0014649475726826358 0.038121751543744337 0 0.001878762450833695 0.035817483178589772 0 0.0014769596039127203 0.038220580795443243 0 0.0029469683111258247 0.03718831643287529 0 0.0038174306713345961 0.038639976230007964 0 0.0014769596039127203 0.038220580795443243 0 0.0029469683111258247 0.03718831643287529 0 0.0029600005249362533 0.040950841537974889 0 0.0038174306713345961 0.038639976230007964 0 0.0016998281463708506 0.039842325981199737 0 0.0038174306713345961 0.038639976230007964 0 0.0014769596039127203 0.038220580795443243 0 0.0016998281463708506 0.039842325981199737 0 0.0016998281463708506 0.039842325981199737 0 0.00034856403987117905 0.040046708780976083 0 0.00041968145549633426 0.038739367613139578 0 0.0014769596039127203 0.038220580795443243 0 0.0016998281463708506 0.039842325981199737 0 0.00041968145549633426 0.038739367613139578 0 0.0016998281463708506 0.039842325981199737 0 0.0012068747528716874 0.041079865412330642 0 0.00034856403987117905 0.040046708780976083 0 0.0029600005249362533 0.040950841537974889 0 0.0016998281463708506 0.039842325981199737 0 0.0012068747528716874 0.041079865412330642 0 -0.00080582815943891777 0.040927397058529304 0 0.00034856403987117905 0.040046708780976083 0 -0.0014038372428403177 0.039641013398400565 0 0.0012068747528716874 0.041079865412330642 0 0.00034856403987117905 0.040046708780976083 0 0.00025595283291037521 0.04125073278346128 0 -0.00080582815943891777 0.040927397058529304 0 0.00034856403987117905 0.040046708780976083 0 0.00025595283291037521 0.04125073278346128 0 0.00034856403987117905 0.040046708780976083 0 0.00041968145549633426 0.038739367613139578 0 -0.0014038372428403177 0.039641013398400565 0 0.00041968145549633426 0.038739367613139578 0 -0.0014038372428403177 0.039641013398400565 0 -0.00047660727661030312 0.03801278829384535 0 -0.00079911182917189632 0.043785132272035517 0 0.0002786105791691118 0.042062740036388102 0 -0.0014949706401911965 0.043645048648517253 0 -0.00099387156347728167 0.041264024144144387 0 -2.8358908792913309e-06 0.040861037030514573 0 -2.8358908792913309e-06 0.040861037030514573 0 -0.0014732880006538833 0.044041249762872395 0 2.5228953500705451e-05 0.042365869633901397 0 -0.0011317210087728152 0.042546702785330522 0 -0.0014949706401911965 0.043645048648517253 0 -0.00038323636817989739 0.042060956371597645 0 2.5228953500705451e-05 0.042365869633901397 0 -0.0011317210087728152 0.042546702785330522 0 -0.00038323636817989739 0.042060956371597645 0 -0.00092621304764714508 0.041696045772981444 0 -0.0011317210087728152 0.042546702785330522 0 0.00088279901871452318 0.037727161490658245 0 0.00041968145549633426 0.038739367613139578 0 -0.00047660727661030312 0.03801278829384535 0 0.0009782005412802637 0.036791443715871938 0 0.00088279901871452318 0.037727161490658245 0 -0.00047660727661030312 0.03801278829384535 0 0.0012420921775535411 0.039241891341951406 0 -2.8358908792913309e-06 0.040861037030514573 0 0.00063521899493012451 0.040421668124413536 0 0.0015668773456276376 0.041211404845665281 0 5.7476669732197431e-05 0.041382988448932762 0 0.0015668773456276376 0.041211404845665281 0 2.5228953500705451e-05 0.042365869633901397 0 5.7476669732197431e-05 0.041382988448932762 0 -0.00043124407762924738 0.040529198117562205 0 -0.00092621304764714508 0.041696045772981444 0 -0.0012876337368894122 0.040763898029134348 0 -0.00043124407762924738 0.040529198117562205 0 5.7476669732197431e-05 0.041382988448932762 0 -0.00092621304764714508 0.041696045772981444 0 -0.00038323636817989739 0.042060956371597645 0 2.5228953500705451e-05 0.042365869633901397 0 5.7476669732197431e-05 0.041382988448932762 0 -0.00038323636817989739 0.042060956371597645 0 5.7476669732197431e-05 0.041382988448932762 0 -0.00092621304764714508 0.041696045772981444 0 -0.00092621304764714508 0.041696045772981444 0 -0.0020622766751817907 0.042023764770291239 0 -0.0012876337368894122 0.040763898029134348 0 -0.0020622766751817907 0.042023764770291239 0 -0.0021392088385068387 0.040405212881482432 0 -0.0012876337368894122 0.040763898029134348 0 -0.0023351318245654839 0.049337908353540239 0 -0.0021328327143657609 0.049482700893355318 0 -0.0021280798963611504 0.049488122124868091 0 -0.0021921018106435745 0.045619898417925055 0 -0.0021865526111795623 0.044763059569190397 0 -0.0023351318245654839 0.049337908353540239 0 -0.0021440758427704672 0.049392042509765886 0 -0.0021328327143657609 0.049482700893355318 0 -0.0023351318245654839 0.049337908353540239 0 -0.0024963105154996714 0.048989159347025885 0 -0.0022005060576498737 0.049137808393489073 0 -0.0023351318245654839 0.049337908353540239 0 -0.0022005060576498737 0.049137808393489073 0 -0.0021440758427704672 0.049392042509765886 0 -0.0021921018106435745 0.045619898417925055 0 -0.0022210984278923339 0.046718255793851082 0 -0.0020622766751817907 0.042023764770291239 0 -0.0011317210087728152 0.042546702785330522 0 -0.0019532758034307642 0.043610335930589703 0 -0.00092621304764714508 0.041696045772981444 0 -0.0020622766751817907 0.042023764770291239 0 -0.0011317210087728152 0.042546702785330522 0 -0.0011317210087728152 0.042546702785330522 0 -0.0014949706401911965 0.043645048648517253 0 -0.0019532758034307642 0.043610335930589703 0 -0.0024963105154996714 0.048989159347025885 0 -0.0022597329971559285 0.048801293181987782 0 -0.0022005060576498737 0.049137808393489073 0 -0.0024963105154996714 0.048989159347025885 0 -0.0022597329971559285 0.048801293181987782 0 -0.0026166618763625383 0.048588343365019368 0 -0.0022597329971559285 0.048801293181987782 0 -0.0026166618763625383 0.048588343365019368 0 -0.0023889172513534241 0.04853943863850619 0 -0.00079911182917189632 0.043785132272035517 0 -0.0014949706401911965 0.043645048648517253 0 -0.0018477909663768852 0.045345498712843879 0 -0.0022210984278923339 0.046718255793851082 0 -0.0020792544167083826 0.044934933948430636 0 -0.00099387156347728167 0.041264024144144387 0 -0.0020792544167083826 0.044934933948430636 0 -0.0014949706401911965 0.043645048648517253 0 -0.0019532758034307642 0.043610335930589703 0 -0.0018477909663768852 0.045345498712843879 0 -0.00080582815943891777 0.040927397058529304 0 -0.0014038372428403177 0.039641013398400565 0 -0.0022761198321085176 0.041218179435396893 0 -0.0018255350737012759 0.048784217128157906 0 -0.0022597329971559285 0.048801293181987782 0 -0.0020727618648888908 0.048578767604894497 0 -0.0018255350737012759 0.048784217128157906 0 -0.0022597329971559285 0.048801293181987782 0 -0.0019250957863109752 0.049095627805402851 0 -0.0022597329971559285 0.048801293181987782 0 -0.0020727618648888908 0.048578767604894497 0 -0.0023889172513534241 0.04853943863850619 0 -0.0022597329971559285 0.048801293181987782 0 -0.0022005060576498737 0.049137808393489073 0 -0.0019250957863109752 0.049095627805402851 0 -0.0019250957863109752 0.049095627805402851 0 -0.0016904404378953377 0.049306568508127487 0 -0.0016052228373434111 0.049039441448287556 0 -0.0018255350737012759 0.048784217128157906 0 -0.0019250957863109752 0.049095627805402851 0 -0.0016052228373434111 0.049039441448287556 0 -0.0019250957863109752 0.049095627805402851 0 -0.0018456660578416344 0.049385188710037671 0 -0.0016904404378953377 0.049306568508127487 0 -0.0019250957863109752 0.049095627805402851 0 -0.0018456660578416344 0.049385188710037671 0 -0.0020249276672387345 0.049293991852924851 0 -0.0022005060576498737 0.049137808393489073 0 -0.0020249276672387345 0.049293991852924851 0 -0.0021440758427704672 0.049392042509765886 0 -0.0022005060576498737 0.049137808393489073 0 -0.0019250957863109752 0.049095627805402851 0 -0.0020249276672387345 0.049293991852924851 0 -0.0018456660578416344 0.049385188710037671 0 -0.0020249276672387345 0.049293991852924851 0 -0.001984495842584083 0.049438355528329023 0 -0.0020592249829922485 0.049499977829265331 0 -0.0017904065275223255 0.049621881630829562 0 -0.0020806009655092435 0.049519723192872671 0 -0.001984495842584083 0.049438355528329023 0 -0.0020592249829922485 0.049499977829265331 0 -0.0017904065275223255 0.049621881630829562 0 -0.0021440758427704672 0.049392042509765886 0 -0.001984495842584083 0.049438355528329023 0 -0.0020592249829922485 0.049499977829265331 0 -0.0020249276672387345 0.049293991852924851 0 -0.0021440758427704672 0.049392042509765886 0 -0.001984495842584083 0.049438355528329023 0 -0.0021440758427704672 0.049392042509765886 0 -0.0020592249829922485 0.049499977829265331 0 -0.0021328327143657609 0.049482700893355318 0 -0.0018456660578416344 0.049385188710037671 0 -0.0016889531256931022 0.049567715819575288 0 -0.0016904404378953377 0.049306568508127487 0 -0.0018456660578416344 0.049385188710037671 0 -0.0017904065275223255 0.049621881630829562 0 -0.0016889531256931022 0.049567715819575288 0 -0.0018456660578416344 0.049385188710037671 0 -0.001984495842584083 0.049438355528329023 0 -0.0017904065275223255 0.049621881630829562 0 -0.0017904065275223255 0.049621881630829562 0 -0.0018037540377586439 0.049421351550310737 0 -0.0016889531256931022 0.049567715819575288 0 -0.0017904065275223255 0.049621881630829562 0 -0.0013813751399563284 0.048927656374984765 0 -0.00059131771714481538 0.048818038348253892 0 -0.0017904065275223255 0.049621881630829562 0 -0.0018037540377586439 0.049421351550310737 0 -0.0013813751399563284 0.048927656374984765 0 -0.0018037540377586439 0.049421351550310737 0 -0.0013813751399563284 0.048927656374984765 0 -0.0019595838269118142 0.048660851561800299 0 -0.0013813751399563284 0.048927656374984765 0 -0.0019595838269118142 0.048660851561800299 0 -0.0015249193965041425 0.048177309893847622 0 -0.0013813751399563284 0.048927656374984765 0 -0.0015249193965041425 0.048177309893847622 0 -0.00082027909475603303 0.048136462972297844 0 -0.0015249193965041425 0.048177309893847622 0 -0.00082027909475603303 0.048136462972297844 0 -0.0011842172125952129 0.047524729831855045 0 -0.0019595838269118142 0.048660851561800299 0 -0.0015249193965041425 0.048177309893847622 0 -0.0022981700014557986 0.04803158828567887 0 -0.0015249193965041425 0.048177309893847622 0 -0.0017956211406613574 0.047476125794999838 0 -0.0022981700014557986 0.04803158828567887 0 -0.00082027909475603303 0.048136462972297844 0 -0.00059131771714481538 0.048818038348253892 0 -0.00023835596990317263 0.047509158834349752 0 -0.0013813751399563284 0.048927656374984765 0 -0.00082027909475603303 0.048136462972297844 0 -0.00059131771714481538 0.048818038348253892 0 -0.0016974175541135733 0.049471028967715672 0 -0.0014268592702222616 0.049386264850586843 0 -0.0021559226132946397 0.049483335224893926 0 -0.0020806009655092435 0.049519723192872671 0 -0.0020977090206724391 0.04948209682846514 0 -0.0017904065275223255 0.049621881630829562 0 -0.0021559226132946397 0.049483335224893926 0 -0.0020806009655092435 0.049519723192872671 0 -0.0020592249829922485 0.049499977829265331 0 -0.0020806009655092435 0.049519723192872671 0 -0.0021328327143657609 0.049482700893355318 0 -0.0020806009655092435 0.049519723192872671 0 -0.0021328327143657609 0.049482700893355318 0 -0.0020977090206724391 0.04948209682846514 0 -0.0021328327143657609 0.049482700893355318 0 -0.0021280798963611504 0.049488122124868091 0 -0.0020977090206724391 0.04948209682846514 0 -0.00089069744489759378 0.039204072865592125 0 -0.0021392088385068387 0.040405212881482432 0 -0.0012876337368894122 0.040763898029134348 0 -0.00089069744489759378 0.039204072865592125 0 -0.0021392088385068387 0.040405212881482432 0 -0.0021503361996840337 0.038900572007005363 0 -0.0021280798963611504 0.049488122124868091 0 -0.0020977090206724391 0.04948209682846514 0 -0.0020525652915355909 0.049347738557547177 0 -0.0026134418133808212 0.050811470189997848 0 -0.0016589189053827235 0.045034522221560659 0 -0.0021559226132946397 0.049483335224893926 0 -0.0020977090206724391 0.04948209682846514 0 -0.0019407612515502176 0.049203322467471972 0 -0.0014268592702222616 0.049386264850586843 0 -0.00061273057861605418 0.04684148875393869 0 -0.0021559226132946397 0.049483335224893926 0 -0.0019407612515502176 0.049203322467471972 0 -0.0019554720930993956 0.049071573708579008 0 -0.0021865526111795623 0.044763059569190397 0 -0.0016589189053827235 0.045034522221560659 0 -0.00059131771714481538 0.048818038348253892 0 0.00072428601077958511 0.047298987280100645 0 -0.00023835596990317263 0.047509158834349752 0 -0.001835614523100053 0.045898890887894152 0 -0.0019562520207299884 0.044310094789761743 0 0.0003329107441550302 0.041405711170965816 0 -0.0016589189053827235 0.045034522221560659 0 -0.00061273057861605418 0.04684148875393869 0 0.00072428601077958511 0.047298987280100645 0 -5.6059646285256357e-05 0.046708483267854789 0 -0.00023835596990317263 0.047509158834349752 0 -0.0021503361996840337 0.038900572007005363 0 -0.0012512027740496702 0.038431990246822922 0 -0.0014583295154123746 0.037727300538963678 0 -0.0016589189053827235 0.045034522221560659 0 -0.00031084205654686385 0.040385281118671394 0 -0.00089069744489759378 0.039204072865592125 0 -0.0021503361996840337 0.038900572007005363 0 -0.0012512027740496702 0.038431990246822922 0 -0.00061273057861605418 0.04684148875393869 0 -0.00031084205654686385 0.040385281118671394 0 0.00032790872858540036 0.041134060897164058 0 -0.00031084205654686385 0.040385281118671394 0 0.0010890057282072088 0.044937406146067616 0 0.0012114898840607272 0.045713044878828268 0 0.00062040515059636836 0.045493319946329713 0 -0.00061756154253291039 0.037870018622437121 0 -0.0012512027740496702 0.038431990246822922 0 -0.0014583295154123746 0.037727300538963678 0 -0.00093449382600207436 0.037192142467570868 0 -0.00061756154253291039 0.037870018622437121 0 -0.0014583295154123746 0.037727300538963678 0 -0.000541195588811726 0.037176710950130601 0 -0.00031084205654686385 0.040385281118671394 0 -0.00061273057861605418 0.04684148875393869 0 0.000641663969963112 0.045736944353290239 0 0.00067825958833393979 0.04636330425937682 0 0.0012114898840607272 0.045713044878828268 0 0.00062040515059636836 0.045493319946329713 0 0.00072428601077958511 0.047298987280100645 0 -5.6059646285256357e-05 0.046708483267854789 0 0.00064112857746246124 0.045996842290117995 0 -5.6059646285256357e-05 0.046708483267854789 0 0.00064112857746246124 0.045996842290117995 0 -0.00013944792108631804 0.04563986406213786 0 -0.00074943102425742772 0.045470719139676305 0 -0.00013944792108631804 0.04563986406213786 0 -0.00082325592102101093 0.046308726995742192 0 -5.6059646285256357e-05 0.046708483267854789 0 -0.00082325592102101093 0.046308726995742192 0 -0.00074916180288088843 0.047066253088395654 0 -5.6059646285256357e-05 0.046708483267854789 0 -0.00013944792108631804 0.04563986406213786 0 -0.00082325592102101093 0.046308726995742192 0 -0.00082325592102101093 0.046308726995742192 0 -0.0015131806680445141 0.046814350088659709 0 -0.00074916180288088843 0.047066253088395654 0 -0.00074943102425742772 0.045470719139676305 0 -0.00082325592102101093 0.046308726995742192 0 -0.0016743446113693492 0.045921391707993038 0 -0.0016743446113693492 0.045921391707993038 0 -0.0015131806680445141 0.046814350088659709 0 -0.0025030700222703549 0.046780072055335985 0 -0.00082325592102101093 0.046308726995742192 0 -0.0016743446113693492 0.045921391707993038 0 -0.0015131806680445141 0.046814350088659709 0 -0.0015131806680445141 0.046814350088659709 0 -0.0017956211406613574 0.047476125794999838 0 -0.0011842172125952129 0.047524729831855045 0 -0.0015131806680445141 0.046814350088659709 0 -0.0017956211406613574 0.047476125794999838 0 -0.0025030700222703549 0.046780072055335985 0 -0.0015249193965041425 0.048177309893847622 0 -0.0017956211406613574 0.047476125794999838 0 -0.0011842172125952129 0.047524729831855045 0 -0.0011842172125952129 0.047524729831855045 0 -0.00065143534756130169 0.047523649517751801 0 -0.00074916180288088843 0.047066253088395654 0 -0.00082027909475603303 0.048136462972297844 0 -0.0011842172125952129 0.047524729831855045 0 -0.00065143534756130169 0.047523649517751801 0 -0.00082027909475603303 0.048136462972297844 0 -0.00065143534756130169 0.047523649517751801 0 -0.00023835596990317263 0.047509158834349752 0 -0.00065143534756130169 0.047523649517751801 0 -0.00023835596990317263 0.047509158834349752 0 -0.00074916180288088843 0.047066253088395654 0 -5.6059646285256357e-05 0.046708483267854789 0 -0.00023835596990317263 0.047509158834349752 0 -0.00074916180288088843 0.047066253088395654 0 -0.0015131806680445141 0.046814350088659709 0 -0.0011842172125952129 0.047524729831855045 0 -0.00074916180288088843 0.047066253088395654 0 -0.0029827762382299556 0.047252787296140769 0 -0.0039271837699869144 0.047679012620310636 0 -0.0038558767426633655 0.046880763164518023 0 -0.0044918151671132162 0.047603546175456618 0 -0.0037267714318042038 0.048033035022727384 0 -0.0030191943609912644 0.047573914823842316 0 -0.0039905950305034925 0.04645108044797356 0 -0.0037267714318042038 0.048033035022727384 0 -0.0030191943609912644 0.047573914823842316 0 -0.0025030700222703549 0.046780072055335985 0 -0.0022981700014557986 0.04803158828567887 0 -0.0030191943609912644 0.047573914823842316 0 -0.0025030700222703549 0.046780072055335985 0 -0.0039905950305034925 0.04645108044797356 0 -0.0017956211406613574 0.047476125794999838 0 -0.0025030700222703549 0.046780072055335985 0 -0.0022981700014557986 0.04803158828567887 0 -0.0030453000395809036 0.045270414171367138 0 -0.0025030700222703549 0.046780072055335985 0 -0.0039905950305034925 0.04645108044797356 0 -0.0030453000395809036 0.045270414171367138 0 -0.0016743446113693492 0.045921391707993038 0 -0.0025030700222703549 0.046780072055335985 0 -0.0024599943680950645 0.045794586444963099 0 -0.0029827762382299556 0.047252787296140769 0 -0.0013438614427108324 0.048505064421320541 0 -0.0012965600239205157 0.048506159082430021 0 -0.0013383193286954568 0.048432438232117493 0 -0.001385491647245541 0.048480582315346882 0 -0.0013438614427108324 0.048505064421320541 0 -0.0013383193286954568 0.048432438232117493 0 -0.001355873339003832 0.048545231827793932 0 -0.001385491647245541 0.048480582315346882 0 -0.0013438614427108324 0.048505064421320541 0 -0.001320866907837196 0.048539862536656354 0 -0.0013438614427108324 0.048505064421320541 0 -0.0012965600239205157 0.048506159082430021 0 -0.0012240970203599335 0.048535176376212082 0 -0.0012965600239205157 0.048506159082430021 0 -0.0012532831765708909 0.048456444917131775 0 -0.0012965600239205157 0.048506159082430021 0 -0.0012532831765708909 0.048456444917131775 0 -0.0013383193286954568 0.048432438232117493 0 -0.0012532831765708909 0.048456444917131775 0 -0.0012857391330720548 0.048378322223509941 0 -0.0011878701164277029 0.048404230542970147 0 -0.0012532831765708909 0.048456444917131775 0 -0.0013383193286954568 0.048432438232117493 0 -0.0012857391330720548 0.048378322223509941 0 -0.0029827762382299556 0.047252787296140769 0 -0.002981784667272884 0.048051957783633137 0 -0.00072308787164982683 0.050255597502293921 0 -0.00082452952410717319 0.050012353863712534 0 -0.0013044037784167946 0.050039308208317021 0 -0.0044918151671132162 0.047603546175456618 0 -0.0051367630161413 0.048355705444784472 0 -0.0037267714318042038 0.048033035022727384 0 -0.0051367630161413 0.048355705444784472 0 -0.0036768036994902545 0.048841395219238963 0 -0.0037267714318042038 0.048033035022727384 0 -0.0018891489614037151 0.049123428791576988 0 -0.0027011425418109569 0.049428326066294034 0 -0.002981784667272884 0.048051957783633137 0 -0.0018891489614037151 0.049123428791576988 0 -0.00065763643282801113 0.050156875702448464 0 -0.00056223861608734158 0.050060113190691501 0 -0.00042065073021230773 0.050208064625794656 0 -0.0018891489614037151 0.049123428791576988 0 -0.00079553875754588923 0.0499142220982286 0 -0.00072308787164982683 0.050255597502293921 0 -0.00056223861608734158 0.050060113190691501 0 -0.00082452952410717319 0.050012353863712534 0 -0.00082452952410717319 0.050012353863712534 0 -0.00093524694804174107 0.049859887580483375 0 -0.00065580318024848351 0.049877848400830184 0 -0.00056223861608734158 0.050060113190691501 0 -0.00082452952410717319 0.050012353863712534 0 -0.00065580318024848351 0.049877848400830184 0 -0.00082452952410717319 0.050012353863712534 0 -0.00093524694804174107 0.049859887580483375 0 -0.0013044037784167946 0.050039308208317021 0 -0.00093524694804174107 0.049859887580483375 0 -0.0013044037784167946 0.050039308208317021 0 -0.001200008288971323 0.049723102633728478 0 -0.0013044037784167946 0.050039308208317021 0 -0.0015256504698851121 0.049662622318013487 0 -0.001200008288971323 0.049723102633728478 0 -0.0036768036994902545 0.048841395219238963 0 -0.0037267714318042038 0.048033035022727384 0 -0.002756671284063413 0.04842156084831372 0 -0.0030191943609912644 0.047573914823842316 0 -0.0037267714318042038 0.048033035022727384 0 -0.002756671284063413 0.04842156084831372 0 -0.0030191943609912644 0.047573914823842316 0 -0.0022981700014557986 0.04803158828567887 0 -0.002756671284063413 0.04842156084831372 0 -0.0019595838269118142 0.048660851561800299 0 -0.0022981700014557986 0.04803158828567887 0 -0.002756671284063413 0.04842156084831372 0 -0.0018037540377586439 0.049421351550310737 0 -0.0019595838269118142 0.048660851561800299 0 -0.002756671284063413 0.04842156084831372 0 -0.0017181548170527826 0.049463718270953687 0 -0.0027011425418109569 0.049428326066294034 0 -0.0018037540377586439 0.049421351550310737 0 -0.0013044037784167946 0.050039308208317021 0 -0.0015256504698851121 0.049662622318013487 0 -0.0018037540377586439 0.049421351550310737 0 -0.0036768036994902545 0.048841395219238963 0 -0.002756671284063413 0.04842156084831372 0 -0.0018037540377586439 0.049421351550310737 0 -0.0015256504698851121 0.049662622318013487 0 -0.0016889531256931022 0.049567715819575288 0 -0.0016889531256931022 0.049567715819575288 0 -0.0014722056261098208 0.049588466730464777 0 -0.0016904404378953377 0.049306568508127487 0 -0.0015256504698851121 0.049662622318013487 0 -0.0016889531256931022 0.049567715819575288 0 -0.0014722056261098208 0.049588466730464777 0 -0.0015256504698851121 0.049662622318013487 0 -0.0014722056261098208 0.049588466730464777 0 -0.001200008288971323 0.049723102633728478 0 -0.0014722056261098208 0.049588466730464777 0 -0.001200008288971323 0.049723102633728478 0 -0.0012009077357972551 0.049525455513897483 0 -0.0014722056261098208 0.049588466730464777 0 -0.0014418665883864361 0.04930601479383985 0 -0.0012009077357972551 0.049525455513897483 0 -0.0014418665883864361 0.04930601479383985 0 -0.0012009077357972551 0.049525455513897483 0 -0.0011858230102024343 0.049024938790173431 0 -0.0014722056261098208 0.049588466730464777 0 -0.0014418665883864361 0.04930601479383985 0 -0.0016904404378953377 0.049306568508127487 0 -0.0014418665883864361 0.04930601479383985 0 -0.0016904404378953377 0.049306568508127487 0 -0.0016052228373434111 0.049039441448287556 0 -0.0014418665883864361 0.04930601479383985 0 -0.0016052228373434111 0.049039441448287556 0 -0.0011858230102024343 0.049024938790173431 0 -0.0016052228373434111 0.049039441448287556 0 -0.0011858230102024343 0.049024938790173431 0 -0.0014836239753489616 0.048630238062040289 0 -0.00096371671637437159 0.049563911109922247 0 -0.00079724299499251967 0.049190691666986239 0 -0.0013201894314037639 0.049144886158587947 0 -0.0010760318161038276 0.049297327209711611 0 -0.0013974266266037669 0.048872036868092453 0 -0.0018255350737012759 0.048784217128157906 0 -0.0016052228373434111 0.049039441448287556 0 -0.0014836239753489616 0.048630238062040289 0 -0.00056744018502044059 0.049528342942832704 0 -0.00042184897293174244 0.04938690148110348 0 -0.00079724299499251967 0.049190691666986239 0 -0.00096371671637437159 0.049563911109922247 0 -0.00056744018502044059 0.049528342942832704 0 -0.00079724299499251967 0.049190691666986239 0 -0.00096371671637437159 0.049563911109922247 0 -0.00056744018502044059 0.049528342942832704 0 -0.00065821793868577733 0.04963524046631073 0 -0.00065821793868577733 0.04963524046631073 0 -0.0008130331519035092 0.049638614124494926 0 -0.0005285628188832146 0.049774213247018528 0 -0.00096371671637437159 0.049563911109922247 0 -0.00065821793868577733 0.04963524046631073 0 -0.0008130331519035092 0.049638614124494926 0 -0.0010760318161038276 0.049297327209711611 0 -0.00083201717211933571 0.049619027278335719 0 -0.0012009077357972551 0.049525455513897483 0 -0.0011858230102024343 0.049024938790173431 0 -0.0008130331519035092 0.049638614124494926 0 -0.00093524694804174107 0.049859887580483375 0 -0.001200008288971323 0.049723102633728478 0 -0.0008130331519035092 0.049638614124494926 0 -0.001200008288971323 0.049723102633728478 0 -0.0012009077357972551 0.049525455513897483 0 -0.0008130331519035092 0.049638614124494926 0 -0.00093524694804174107 0.049859887580483375 0 -0.0008130331519035092 0.049638614124494926 0 -0.00065580318024848351 0.049877848400830184 0 -0.0008130331519035092 0.049638614124494926 0 -0.00065580318024848351 0.049877848400830184 0 -0.0005285628188832146 0.049774213247018528 0 -0.00065580318024848351 0.049877848400830184 0 -0.0005285628188832146 0.049774213247018528 0 -0.00041811748447573055 0.049943065097998909 0 -0.0005285628188832146 0.049774213247018528 0 -0.00025530950452079862 0.049898171131463998 0 -0.00041811748447573055 0.049943065097998909 0 -0.00025530950452079862 0.049898171131463998 0 -0.00019778685087167716 0.04998435683916623 0 -0.00041811748447573055 0.049943065097998909 0 -0.0005285628188832146 0.049774213247018528 0 -0.00025530950452079862 0.049898171131463998 0 -0.00024560670045280621 0.049816670054888573 0 -0.00025530950452079862 0.049898171131463998 0 -0.00024560670045280621 0.049816670054888573 0 -8.8230091075028609e-05 0.049942089865391191 0 -0.00050191632272559661 0.049795728443731098 0 -0.00028583753370589832 0.049794992327939866 0 -0.00065821793868577733 0.04963524046631073 0 -0.0005285628188832146 0.049774213247018528 0 -0.00030624265623384979 0.049769408366120871 0 -0.00056744018502044059 0.049528342942832704 0 -0.00030624265623384979 0.049769408366120871 0 -0.00026570123067176784 0.049640894476720834 0 -0.00056744018502044059 0.049528342942832704 0 -0.00065821793868577733 0.04963524046631073 0 -0.00030624265623384979 0.049769408366120871 0 -0.00030624265623384979 0.049769408366120871 0 -0.00026570123067176784 0.049640894476720834 0 -0.00012204699497361083 0.049806483640799586 0 -0.00026570123067176784 0.049640894476720834 0 -0.00018302032822464562 0.049578251301393213 0 -0.00042184897293174244 0.04938690148110348 0 -0.00056744018502044059 0.049528342942832704 0 -0.00026570123067176784 0.049640894476720834 0 -0.00042184897293174244 0.04938690148110348 0 -6.05958883211775e-05 0.049817704966359844 0 -1.1071913422854513e-08 0.049999543074636048 0 -9.6612201106253341e-08 0.050000035887546534 0 -6.05958883211775e-05 0.049817704966359844 0 -1.1071913422854513e-08 0.049999543074636048 0 -0.00012204699497361083 0.049806483640799586 0 -0.00026570123067176784 0.049640894476720834 0 -6.05958883211775e-05 0.049817704966359844 0 -0.00018302032822464562 0.049578251301393213 0 -0.00026570123067176784 0.049640894476720834 0 -6.05958883211775e-05 0.049817704966359844 0 -0.00012204699497361083 0.049806483640799586 0 -0.00028583753370589832 0.049794992327939866 0 -9.8594412145798594e-05 0.049858550590258392 0 -7.5105683812827655e-09 0.049999916158412282 0 -8.1153956550592817e-05 0.049905580371130603 0 -5.5932592497846067e-08 0.049999881159739176 0 -2.0326542595494497e-08 0.049999922643897368 0 -9.8594412145798594e-05 0.049858550590258392 0 -8.1153956550592817e-05 0.049905580371130603 0 -5.5932592497846067e-08 0.049999881159739176 0 -8.8230091075028609e-05 0.049942089865391191 0 -0.00024560670045280621 0.049816670054888573 0 -8.1153956550592817e-05 0.049905580371130603 0 -8.8230091075028609e-05 0.049942089865391191 0 -8.8230091075028609e-05 0.049942089865391191 0 -7.9264779034302472e-05 0.049985257425702256 0 -0.00019778685087167716 0.04998435683916623 0 -0.00025530950452079862 0.049898171131463998 0 -8.8230091075028609e-05 0.049942089865391191 0 -0.00019778685087167716 0.04998435683916623 0 -5.5932592497846067e-08 0.049999881159739176 0 -8.8230091075028609e-05 0.049942089865391191 0 -3.9601110183422729e-08 0.049999980188070954 0 -8.8230091075028609e-05 0.049942089865391191 0 -7.9264779034302472e-05 0.049985257425702256 0 -3.9601110183422729e-08 0.049999980188070954 0 -3.9601110183422729e-08 0.049999980188070954 0 -9.7056178453203213e-07 0.050008122392532557 0 -6.2086531343933111e-09 0.050000115004907024 0 -3.9601110183422729e-08 0.049999980188070954 0 -3.6583308452353664e-05 0.050007406776982337 0 -9.7056178453203213e-07 0.050008122392532557 0 -7.9264779034302472e-05 0.049985257425702256 0 -3.9601110183422729e-08 0.049999980188070954 0 -3.6583308452353664e-05 0.050007406776982337 0 -7.9264779034302472e-05 0.049985257425702256 0 -3.6583308452353664e-05 0.050007406776982337 0 -0.00010023054644918714 0.050022576041323638 0 -3.6583308452353664e-05 0.050007406776982337 0 -5.052504449360377e-05 0.05003036322600412 0 -0.00010023054644918714 0.050022576041323638 0 -5.052504449360377e-05 0.05003036322600412 0 -0.00010721016731147639 0.05007520831647768 0 -0.00010023054644918714 0.050022576041323638 0 -3.6583308452353664e-05 0.050007406776982337 0 -5.052504449360377e-05 0.05003036322600412 0 -9.7056178453203213e-07 0.050008122392532557 0 -6.3639967510429905e-05 0.050096366805817125 0 -0.00012138676750860374 0.050141009277063588 0 -4.2976553625545754e-05 0.050266197252005186 0 5.5720080112619489e-05 0.050230749826863014 0 -0.00035778628092653818 0.049568239276434362 0 -5.052504449360377e-05 0.05003036322600412 0 -9.7056178453203213e-07 0.050008122392532557 0 -6.3639967510429905e-05 0.050096366805817125 0 -9.7056178453203213e-07 0.050008122392532557 0 -6.2086531343933111e-09 0.050000115004907024 0 1.8002413254688944e-07 0.049996005510107237 0 -9.7056178453203213e-07 0.050008122392532557 0 -6.3639967510429905e-05 0.050096366805817125 0 -4.2976553625545754e-05 0.050266197252005186 0 -5.052504449360377e-05 0.05003036322600412 0 -6.3639967510429905e-05 0.050096366805817125 0 -0.00010721016731147639 0.05007520831647768 0 -0.00012138676750860374 0.050141009277063588 0 -0.00020513973359061996 0.050093406736278531 0 -0.000223319065300157 0.050226682318208954 0 -0.00012138676750860374 0.050141009277063588 0 -0.00010721016731147639 0.05007520831647768 0 -0.00020513973359061996 0.050093406736278531 0 -6.3639967510429905e-05 0.050096366805817125 0 -0.00012138676750860374 0.050141009277063588 0 -0.00010721016731147639 0.05007520831647768 0 -0.00020513973359061996 0.050093406736278531 0 -0.00010023054644918714 0.050022576041323638 0 -0.00019778685087167716 0.04998435683916623 0 -0.00010721016731147639 0.05007520831647768 0 -0.00020513973359061996 0.050093406736278531 0 -0.00010023054644918714 0.050022576041323638 0 -7.9264779034302472e-05 0.049985257425702256 0 -0.00010023054644918714 0.050022576041323638 0 -0.00019778685087167716 0.04998435683916623 0 -0.00020513973359061996 0.050093406736278531 0 -0.00019778685087167716 0.04998435683916623 0 -0.00035345553099511368 0.050056991162272184 0 -0.00019778685087167716 0.04998435683916623 0 -0.00035345553099511368 0.050056991162272184 0 -0.00041811748447573055 0.049943065097998909 0 -0.00056223861608734158 0.050060113190691501 0 -0.00065580318024848351 0.049877848400830184 0 -0.00041811748447573055 0.049943065097998909 0 -0.00056223861608734158 0.050060113190691501 0 -0.00035345553099511368 0.050056991162272184 0 -0.00041811748447573055 0.049943065097998909 0 -0.00056223861608734158 0.050060113190691501 0 -0.00035345553099511368 0.050056991162272184 0 -0.00042065073021230773 0.050208064625794656 0 -0.0018891489614037151 0.049123428791576988 0 -0.00061588191152325876 0.049350892636745039 0 -0.00020513973359061996 0.050093406736278531 0 -0.00035345553099511368 0.050056991162272184 0 -0.00042065073021230773 0.050208064625794656 0 -0.00020513973359061996 0.050093406736278531 0 -0.00042065073021230773 0.050208064625794656 0 -0.000223319065300157 0.050226682318208954 0 -0.0011769091215943312 0.048471817751866743 0 -0.0011246300169944668 0.048526621443450685 0 -0.0010935390589082324 0.048434156195172301 0 -0.00061588191152325876 0.049350892636745039 0 -0.00073520780400241823 0.049299968231151688 0 -0.0011878701164277029 0.048404230542970147 0 -0.0011769091215943312 0.048471817751866743 0 -0.0010935390589082324 0.048434156195172301 0 -0.0012532831765708909 0.048456444917131775 0 -0.0011878701164277029 0.048404230542970147 0 -0.0011769091215943312 0.048471817751866743 0 -0.0012240970203599335 0.048535176376212082 0 -0.0012532831765708909 0.048456444917131775 0 -0.0011769091215943312 0.048471817751866743 0 -0.0012240970203599335 0.048535176376212082 0 -0.0011769091215943312 0.048471817751866743 0 -0.0011246300169944668 0.048526621443450685 0 -0.0011246300169944668 0.048526621443450685 0 -0.0010640727400933563 0.048495363404248058 0 -0.0010935390589082324 0.048434156195172301 0 -0.001036043801116519 0.048554522398550876 0 -0.0011246300169944668 0.048526621443450685 0 -0.0010640727400933563 0.048495363404248058 0 -0.001036043801116519 0.048554522398550876 0 -0.0010640727400933563 0.048495363404248058 0 -0.0010029384593032576 0.048466455757614983 0 -1.9740479042430858e-09 0.049999994847688196 0 -2.9974550600491488e-06 0.049995380413982195 0 -1.3657505847989497e-06 0.049998107542673614 0 -2.9974550600491488e-06 0.049995380413982195 0 -1.3657505847989497e-06 0.049998107542673614 0 -2.6567657049088543e-06 0.049996745836219575 0 -0.00052260150043012413 0.04920954970399613 0 -0.00035778628092653818 0.049568239276434362 0 -1.9740479042430858e-09 0.049999994847688196 0 -1.3657505847989497e-06 0.049998107542673614 0 -4.210759999433158e-09 0.049999989046428342 0 -6.2086531343933111e-09 0.050000115004907024 0 1.8002413254688944e-07 0.049996005510107237 0 2.6643807655730226e-09 0.04999992818760924 0 -0.00035778628092653818 0.049568239276434362 0 1.2707583268299156e-07 0.049999810794967431 0 -1.3657505847989497e-06 0.049998107542673614 0 -2.6567657049088543e-06 0.049996745836219575 0 -4.210759999433158e-09 0.049999989046428342 0 -0.00035778628092653818 0.049568239276434362 0 -0.00073520780400241823 0.049299968231151688 0 -0.00012138676750860374 0.050141009277063588 0 -4.2976553625545754e-05 0.050266197252005186 0 -0.000223319065300157 0.050226682318208954 0 -0.0010640727400933563 0.048495363404248058 0 -0.0010029384593032576 0.048466455757614983 0 -0.0010935390589082324 0.048434156195172301 0 -5.9280395465557143e-07 0.049997015758280666 0 -1.4296360560546635e-06 0.049988304519556347 0 -1.5829616454478857e-05 0.04999451904152262 0 7.2452962216400618e-06 0.050008207964618079 0 2.4601927659248849e-05 0.0496513122830015 0 -5.9280395465557143e-07 0.049997015758280666 0 2.4935759023788541e-08 0.04999995846573544 0 -1.4296360560546635e-06 0.049988304519556347 0 -5.9280395465557143e-07 0.049997015758280666 0 2.4935759023788541e-08 0.04999995846573544 0 -1.2942329915402735e-08 0.050000015389820539 0 2.4935759023788541e-08 0.04999995846573544 0 -1.4296360560546635e-06 0.049988304519556347 0 8.0969867893909108e-06 0.049967465737078248 0 -1.4296360560546635e-06 0.049988304519556347 0 -1.7675756347261263e-05 0.049974284344212833 0 8.0969867893909108e-06 0.049967465737078248 0 -1.4296360560546635e-06 0.049988304519556347 0 -1.7675756347261263e-05 0.049974284344212833 0 -1.5829616454478857e-05 0.04999451904152262 0 -5.083938699963724e-06 0.04977620642775047 0 2.4601927659248849e-05 0.0496513122830015 0 -9.8128663250076866e-07 0.049581840890793233 0 0.00024394811653778573 0.04960592823969532 0 0.00015871535359406722 0.049329944722645333 0 0.00024394811653778573 0.04960592823969532 0 0.00031898988322733203 0.049333578550216653 0 0.00015871535359406722 0.049329944722645333 0 0.00024394811653778573 0.04960592823969532 0 0.00031898988322733203 0.049333578550216653 0 0.00049369716279166153 0.049391405923680021 0 0.00031898988322733203 0.049333578550216653 0 0.00037165456737153166 0.049171631243022845 0 0.00049369716279166153 0.049391405923680021 0 0.00031898988322733203 0.049333578550216653 0 0.00020838735819939431 0.049186207988323259 0 0.00015871535359406722 0.049329944722645333 0 0.00031898988322733203 0.049333578550216653 0 0.00020838735819939431 0.049186207988323259 0 0.00037165456737153166 0.049171631243022845 0 -9.8128663250076866e-07 0.049581840890793233 0 0.00015871535359406722 0.049329944722645333 0 2.9343610900152473e-05 0.049289958947430976 0 6.7855139717113428e-05 0.049459249613382883 0 2.4601927659248849e-05 0.0496513122830015 0 0.00020838735819939431 0.049186207988323259 0 0.00015871535359406722 0.049329944722645333 0 3.0651522221798311e-05 0.049284200209670899 0 0.00020838735819939431 0.049186207988323259 0 3.0651522221798311e-05 0.049284200209670899 0 8.6588649116348067e-05 0.048985090128110441 0 2.4601927659248849e-05 0.0496513122830015 0 4.2901359278590658e-05 0.049540779974915808 0 -1.7804649939125301e-06 0.04999124407387754 0 -4.0945158182365135e-06 0.049985989984956958 0 -4.5173377341380247e-06 0.04998853389975625 0 0.00020838735819939431 0.049186207988323259 0 0.00037165456737153166 0.049171631243022845 0 0.00029088599232704731 0.049032655013704213 0 0.00020838735819939431 0.049186207988323259 0 8.6588649116348067e-05 0.048985090128110441 0 0.00029088599232704731 0.049032655013704213 0 -0.00037225197936168397 0.048458888324770209 0 -0.00032172356167441964 0.048509159898534007 0 -0.0003585048297092644 0.048500534755807338 0 8.6588649116348067e-05 0.048985090128110441 0 0.00034796826872413646 0.04887019761115622 0 0.00013352600169211592 0.048704989031128063 0 8.6588649116348067e-05 0.048985090128110441 0 0.00029088599232704731 0.049032655013704213 0 0.00034796826872413646 0.04887019761115622 0 -5.7824177043246803e-05 0.048631041106181168 0 -5.6814253950083376e-05 0.04904062519151612 0 -0.00037225197936168397 0.048458888324770209 0 -0.0003585048297092644 0.048500534755807338 0 -0.000383163147487058 0.048490451431751028 0 -4.5173377341380247e-06 0.04998853389975625 0 -2.3636998198113434e-06 0.049994369487140318 0 -5.7162344253384695e-06 0.04998734542675206 0 4.2901359278590658e-05 0.049540779974915808 0 -5.6814253950083376e-05 0.04904062519151612 0 -4.5173377341380247e-06 0.04998853389975625 0 -1.5215179072976459e-06 0.049994914902434677 0 -2.3636998198113434e-06 0.049994369487140318 0 -1.7804649939125301e-06 0.04999124407387754 0 -4.5173377341380247e-06 0.04998853389975625 0 -1.5215179072976459e-06 0.049994914902434677 0 -1.7804649939125301e-06 0.04999124407387754 0 -1.5215179072976459e-06 0.049994914902434677 0 6.0742358783731357e-10 0.049999984961686283 0 7.2452962216400618e-06 0.050008207964618079 0 -1.2583675356569808e-08 0.049999991732841406 0 -1.5215179072976459e-06 0.049994914902434677 0 6.0742358783731357e-10 0.049999984961686283 0 -1.3998803993297825e-09 0.049999995336764955 0 -1.5215179072976459e-06 0.049994914902434677 0 -1.3998803993297825e-09 0.049999995336764955 0 -2.3636998198113434e-06 0.049994369487140318 0 -2.3636998198113434e-06 0.049994369487140318 0 -3.0726019056584174e-06 0.049995713500089231 0 -1.0880152380197751e-09 0.049999993248175299 0 -1.3998803993297825e-09 0.049999995336764955 0 -2.3636998198113434e-06 0.049994369487140318 0 -1.0880152380197751e-09 0.049999993248175299 0 -2.3636998198113434e-06 0.049994369487140318 0 -3.0726019056584174e-06 0.049995713500089231 0 -5.7162344253384695e-06 0.04998734542675206 0 -3.0726019056584174e-06 0.049995713500089231 0 -1.0880152380197751e-09 0.049999993248175299 0 -4.7059069962766857e-10 0.050000002121444585 0 -5.1023046840408264e-05 0.049547662071147108 0 -5.0714650939667927e-08 0.049999764458799834 0 -7.4557815661739002e-06 0.049073889672717141 0 3.6007414281599661e-07 0.04999873056423465 0 -3.3177184459060186e-05 0.049725554311258302 0 -7.4557815661739002e-06 0.049073889672717141 0 -3.3177184459060186e-05 0.049725554311258302 0 -0.0002405417323936474 0.049311342718748714 0 -6.05958883211775e-05 0.049817704966359844 0 -3.3177184459060186e-05 0.049725554311258302 0 -0.00018302032822464562 0.049578251301393213 0 -3.3177184459060186e-05 0.049725554311258302 0 -0.00018302032822464562 0.049578251301393213 0 -0.0002405417323936474 0.049311342718748714 0 3.6007414281599661e-07 0.04999873056423465 0 -3.3177184459060186e-05 0.049725554311258302 0 -9.6612201106253341e-08 0.050000035887546534 0 -6.05958883211775e-05 0.049817704966359844 0 -3.3177184459060186e-05 0.049725554311258302 0 -9.6612201106253341e-08 0.050000035887546534 0 -0.00042184897293174244 0.04938690148110348 0 -0.0002405417323936474 0.049311342718748714 0 -0.00052455263411767055 0.049075073554468975 0 -0.00018302032822464562 0.049578251301393213 0 -0.00042184897293174244 0.04938690148110348 0 -0.0002405417323936474 0.049311342718748714 0 -0.0002405417323936474 0.049311342718748714 0 -0.00052455263411767055 0.049075073554468975 0 -0.0003036761832046857 0.048892114979226506 0 -0.00052455263411767055 0.049075073554468975 0 -0.0004977201048548093 0.048704023909103583 0 -0.0003036761832046857 0.048892114979226506 0 -0.00052455263411767055 0.049075073554468975 0 -0.0004977201048548093 0.048704023909103583 0 -0.00073095362769466361 0.04856363898710455 0 -0.0004977201048548093 0.048704023909103583 0 -0.0003036761832046857 0.048892114979226506 0 -0.00035454744383681678 0.048533688675747276 0 -0.0004977201048548093 0.048704023909103583 0 -0.00058565169047308688 0.048434954864920103 0 -0.00035454744383681678 0.048533688675747276 0 -0.0004977201048548093 0.048704023909103583 0 -0.00058565169047308688 0.048434954864920103 0 -0.00073095362769466361 0.04856363898710455 0 -7.4557815661739002e-06 0.049073889672717141 0 -0.0003036761832046857 0.048892114979226506 0 -0.00031613990201811922 0.048543552190156526 0 -7.4557815661739002e-06 0.049073889672717141 0 -0.0002405417323936474 0.049311342718748714 0 -0.0003036761832046857 0.048892114979226506 0 -0.0003036761832046857 0.048892114979226506 0 -0.00031613990201811922 0.048543552190156526 0 -0.00035454744383681678 0.048533688675747276 0 -7.4557815661739002e-06 0.049073889672717141 0 -0.00031613990201811922 0.048543552190156526 0 -0.00028768407099727909 0.048417708077026583 0 -5.1023046840408264e-05 0.049547662071147108 0 -5.6814253950083376e-05 0.04904062519151612 0 -0.00031613990201811922 0.048543552190156526 0 -0.00032172356167441964 0.048509159898534007 0 -0.00035454744383681678 0.048533688675747276 0 -8.7390312051685898e-05 0.048722739289986515 0 -5.6814253950083376e-05 0.04904062519151612 0 -0.00058565169047308688 0.048434954864920103 0 -0.00035454744383681678 0.048533688675747276 0 -0.00062020883264179126 0.048074954771382579 0 -0.00032172356167441964 0.048509159898534007 0 -0.00035454744383681678 0.048533688675747276 0 -0.0003585048297092644 0.048500534755807338 0 -0.0003717795339390653 0.048472233907911499 0 -0.00051302012003597583 0.048297962149730159 0 -0.00035454744383681678 0.048533688675747276 0 -0.0003585048297092644 0.048500534755807338 0 -0.000383163147487058 0.048490451431751028 0 -0.00062020883264179126 0.048074954771382579 0 -0.00080595764280455117 0.048200697054567344 0 -0.00083687525345090593 0.047939810423476371 0 -0.00080595764280455117 0.048200697054567344 0 -0.00097940494308922077 0.047960183790922775 0 -0.00083687525345090593 0.047939810423476371 0 -0.00058565169047308688 0.048434954864920103 0 -0.00062020883264179126 0.048074954771382579 0 -0.00080595764280455117 0.048200697054567344 0 -0.00080595764280455117 0.048200697054567344 0 -0.00097940494308922077 0.047960183790922775 0 -0.0010004754466857852 0.048226787135755927 0 -0.0011472671440477663 0.047953514477182442 0 -0.00097940494308922077 0.047960183790922775 0 -0.0010004754466857852 0.048226787135755927 0 -0.0011472671440477663 0.047953514477182442 0 -0.0010004754466857852 0.048226787135755927 0 -0.0012187388572705202 0.048126135389594614 0 -0.0010004754466857852 0.048226787135755927 0 -0.001064945571374017 0.048612287414452102 0 -0.0012187388572705202 0.048126135389594614 0 -0.0010004754466857852 0.048226787135755927 0 -0.00073095362769466361 0.04856363898710455 0 -0.001064945571374017 0.048612287414452102 0 -0.00058565169047308688 0.048434954864920103 0 -0.00080595764280455117 0.048200697054567344 0 -0.00073095362769466361 0.04856363898710455 0 -0.00080595764280455117 0.048200697054567344 0 -0.0010004754466857852 0.048226787135755927 0 -0.00073095362769466361 0.04856363898710455 0 -0.00052455263411767055 0.049075073554468975 0 -0.00073095362769466361 0.04856363898710455 0 -0.001064945571374017 0.048612287414452102 0 -0.00052455263411767055 0.049075073554468975 0 -0.00082833605844506817 0.048660827602629055 0 -0.00079724299499251967 0.049190691666986239 0 -0.00042184897293174244 0.04938690148110348 0 -0.00052455263411767055 0.049075073554468975 0 -0.00079724299499251967 0.049190691666986239 0 -0.00054091125442645661 0.04901752378614558 0 -0.00093461239278149941 0.048637628731210567 0 -0.00082833605844506817 0.048660827602629055 0 -0.00079724299499251967 0.049190691666986239 0 -0.001162998775955239 0.048698393186895943 0 -0.0018255350737012759 0.048784217128157906 0 -0.0014836239753489616 0.048630238062040289 0 -0.0018140163147609995 0.048502804585106508 0 -0.0013974266266037669 0.048872036868092453 0 -0.0017008332965073522 0.048316056922007071 0 -0.0014836239753489616 0.048630238062040289 0 -0.0017133810688088193 0.048271224110732085 0 -0.0018140163147609995 0.048502804585106508 0 -0.0013201894314037639 0.049144886158587947 0 -0.001162998775955239 0.048698393186895943 0 -0.0017133810688088193 0.048271224110732085 0 -0.00079724299499251967 0.049190691666986239 0 -0.0013201894314037639 0.049144886158587947 0 -0.001162998775955239 0.048698393186895943 0 -0.00082833605844506817 0.048660827602629055 0 -0.001162998775955239 0.048698393186895943 0 -0.0013574988342577689 0.048130754276005557 0 -0.00093461239278149941 0.048637628731210567 0 -0.001390954059416537 0.048071680939756632 0 -0.0013574988342577689 0.048130754276005557 0 -0.0017901434705628486 0.048016148366742138 0 -0.0017133810688088193 0.048271224110732085 0 -0.001162998775955239 0.048698393186895943 0 -0.0013574988342577689 0.048130754276005557 0 -0.0017133810688088193 0.048271224110732085 0 -0.0013971920263313215 0.048031222037279213 0 -0.0013878277180266437 0.047746405433318789 0 -0.0017525763942230867 0.047352556625122909 0 -0.0013971920263313215 0.048031222037279213 0 -0.0012187388572705202 0.048126135389594614 0 -0.0013878277180266437 0.047746405433318789 0 -0.001064945571374017 0.048612287414452102 0 -0.0013971920263313215 0.048031222037279213 0 -0.0012187388572705202 0.048126135389594614 0 -0.0011472671440477663 0.047953514477182442 0 -0.0012187388572705202 0.048126135389594614 0 -0.0013878277180266437 0.047746405433318789 0 -0.0011176604284558608 0.047049791163563122 0 -0.0017241959411059631 0.047376043176179203 0 -0.00071539978782611123 0.046352622941737857 0 -0.0015630031628310059 0.046263059607349021 0 -0.0017525763942230867 0.047352556625122909 0 -0.00071539978782611123 0.046352622941737857 0 -0.0010791481306294316 0.045721606412848143 0 -0.0015630031628310059 0.046263059607349021 0 -0.0010791481306294316 0.045721606412848143 0 -0.00083181626393524354 0.045024275340300582 0 -0.00033126547171682843 0.045340924386639885 0 0.00044849860033916567 0.044198831758348593 0 -0.00082511935657679568 0.044816913107230898 0 -0.0010791481306294316 0.045721606412848143 0 -0.00083181626393524354 0.045024275340300582 0 -0.0019220469503676096 0.045625048996581742 0 0.00030129326487182505 0.045953625822372807 0 0.00023552527204523068 0.046147789828151591 0 0.0005339492226310098 0.046265028273808781 0 0.00092414248653955103 0.045659639309754099 0 0.00072777814709569261 0.045181829880295302 0 0.0017455245699933926 0.043842575218486259 0 0.0016438033790547469 0.043845615443815822 0 0.0016672126188169143 0.044093360636264414 0 0.0016438033790547469 0.043845615443815822 0 0.0015436285680737608 0.043848714752435604 0 0.0016672126188169143 0.044093360636264414 0 0.0013940535225613652 0.043920081627282129 0 0.0015436285680737608 0.043848714752435604 0 0.0016672126188169143 0.044093360636264414 0 0.00044849860033916567 0.044198831758348593 0 0.00072777814709569261 0.045181829880295302 0 0.0014373921923189893 0.043890804605975019 0 0.0015436285680737608 0.043848714752435604 0 0.0014676047933275705 0.043728773796058079 0 0.00044849860033916567 0.044198831758348593 0 0.0012233134088366602 0.043881246732552441 0 0.00072777814709569261 0.045181829880295302 0 -0.00022193786455450642 0.046816600281970593 0 -0.00071539978782611123 0.046352622941737857 0 -0.00033126547171682843 0.045340924386639885 0 0.00022220515628328997 0.045693334908035232 0 -0.00071539978782611123 0.046352622941737857 0 -0.0010791481306294316 0.045721606412848143 0 -0.00033126547171682843 0.045340924386639885 0 -0.0011472671440477663 0.047953514477182442 0 -0.0013878277180266437 0.047746405433318789 0 -0.0010781472266569207 0.047690338062029408 0 -0.0011176604284558608 0.047049791163563122 0 -0.00022193786455450642 0.046816600281970593 0 -0.0011472671440477663 0.047953514477182442 0 -0.00097940494308922077 0.047960183790922775 0 -0.0010781472266569207 0.047690338062029408 0 -0.00097940494308922077 0.047960183790922775 0 -0.00092844598647184038 0.047797959467421547 0 -0.00083687525345090593 0.047939810423476371 0 -0.00097940494308922077 0.047960183790922775 0 -0.00092844598647184038 0.047797959467421547 0 -0.0010781472266569207 0.047690338062029408 0 -0.00047946393365352804 0.047740372810295285 0 2.6470447250699023e-05 0.047310763246669114 0 -0.00047946393365352804 0.047740372810295285 0 -0.00022193786455450642 0.046816600281970593 0 -0.00016168986316212076 0.047346536330830448 0 -0.00024212176515171302 0.047240120682449038 0 -0.00028300012199925352 0.047267905877778155 0 -0.00041707491661393457 0.048454217690780926 0 -0.00042886546343624902 0.048432421049918309 0 -0.00040351528879783484 0.048445339901223475 0 2.6470447250699023e-05 0.047310763246669114 0 -0.00022193786455450642 0.046816600281970593 0 -5.7824177043246803e-05 0.048631041106181168 0 0.0002966609065255401 0.04844755016622377 0 -0.00037225197936168397 0.048458888324770209 0 -0.00040351528879783484 0.048445339901223475 0 -0.00040568660220757292 0.048419956403500643 0 -0.00037225197936168397 0.048458888324770209 0 -0.000383163147487058 0.048490451431751028 0 -0.00039366617404218695 0.04846098622978446 0 -0.00062020883264179126 0.048074954771382579 0 -0.00093734305471220958 0.047757453967920561 0 -0.00083687525345090593 0.047939810423476371 0 -0.000383163147487058 0.048490451431751028 0 -0.00041707491661393457 0.048454217690780926 0 -0.00039366617404218695 0.04846098622978446 0 -0.00051302012003597583 0.048297962149730159 0 -0.00047946393365352804 0.047740372810295285 0 -0.00047946393365352804 0.047740372810295285 0 -0.00069407286835065972 0.047759443892044395 0 -0.00041707491661393457 0.048454217690780926 0 -0.00039366617404218695 0.04846098622978446 0 -0.00040351528879783484 0.048445339901223475 0 -0.00037225197936168397 0.048458888324770209 0 -0.00039366617404218695 0.04846098622978446 0 -0.00040351528879783484 0.048445339901223475 0 0.00029088599232704731 0.049032655013704213 0 0.00034796826872413646 0.04887019761115622 0 0.00055824864697112122 0.049034837359726795 0 0.00037165456737153166 0.049171631243022845 0 0.0005945483198466474 0.048996198413812878 0 0.00065236954521784459 0.049222151321628514 0 0.00037165456737153166 0.049171631243022845 0 0.00029088599232704731 0.049032655013704213 0 0.00055824864697112122 0.049034837359726795 0 0.00037762622841003507 0.04918964944783296 0 0.0002966609065255401 0.04844755016622377 0 0.0002966609065255401 0.04844755016622377 0 0.0010123806556122921 0.046882246132470544 0 0.00030885663495734846 0.047051478572286108 0 0.00067452071018175061 0.047221169638112313 0 0.00034579645514462126 0.046943399147290898 0 0.00092414248653955103 0.045659639309754099 0 2.6470447250699023e-05 0.047310763246669114 0 0.00030885663495734846 0.047051478572286108 0 0.00051515543395731171 0.047327681334102333 0 0.00067452071018175061 0.047221169638112313 0 0.00023552527204523068 0.046147789828151591 0 0.0005339492226310098 0.046265028273808781 0 0.00047457076272354915 0.046305309995703058 0 2.6470447250699023e-05 0.047310763246669114 0 0.0002966609065255401 0.04844755016622377 0 -0.00042886546343624902 0.048432421049918309 0 -0.00040351528879783484 0.048445339901223475 0 -0.00040568660220757292 0.048419956403500643 0 0.00065236954521784459 0.049222151321628514 0 0.00084378482192099989 0.04934330748783753 0 0.00049369716279166153 0.049391405923680021 0 0.0005945483198466474 0.048996198413812878 0 0.00065236954521784459 0.049222151321628514 0 0.00088624479414170781 0.049212033528988001 0 0.00065236954521784459 0.049222151321628514 0 0.00084378482192099989 0.04934330748783753 0 0.00088624479414170781 0.049212033528988001 0 0.00037165456737153166 0.049171631243022845 0 0.00065236954521784459 0.049222151321628514 0 0.00049369716279166153 0.049391405923680021 0 0.00024394811653778573 0.04960592823969532 0 0.00049369716279166153 0.049391405923680021 0 0.00054626538245990542 0.049667303220892224 0 0.001533801254579919 0.04303042450559167 0 0.0015392296042192023 0.043093288374766024 0 0.0014518386216642392 0.043142273211016637 0 0.00077452107448873703 0.046022890840326257 0 0.00036882407317501083 0.04802578520725876 0 0.00077452107448873703 0.046022890840326257 0 0.00096488466042459755 0.044123882811851201 0 0.00084378482192099989 0.04934330748783753 0 0.00049369716279166153 0.049391405923680021 0 0.00054626538245990542 0.049667303220892224 0 0.00032335114280196474 0.045893050905746663 0 0.00034812996862956564 0.045767721961637906 0 0.00039912027297177852 0.045793303453970848 0 0.0015392296042192023 0.043093288374766024 0 0.0015808537746588385 0.043081537059029118 0 0.0015666752627708682 0.043054580955998026 0 0.0015392296042192023 0.043093288374766024 0 0.0015808537746588385 0.043081537059029118 0 0.0015863047546140685 0.043126423890059794 0 0.001533801254579919 0.04303042450559167 0 0.0015392296042192023 0.043093288374766024 0 0.0015666752627708682 0.043054580955998026 0 0.0015808537746588385 0.043081537059029118 0 0.0015666752627708682 0.043054580955998026 0 0.001596267033516198 0.043060595348098002 0 0.0015666752627708682 0.043054580955998026 0 0.001587544316980709 0.043037329115423004 0 0.001596267033516198 0.043060595348098002 0 0.0015666752627708682 0.043054580955998026 0 0.001587544316980709 0.043037329115423004 0 0.0015610852071624574 0.043029749930988126 0 0.001533801254579919 0.04303042450559167 0 0.0015666752627708682 0.043054580955998026 0 0.0015610852071624574 0.043029749930988126 0 0.0016225361242436932 0.043047075209342991 0 0.0016653950127304329 0.043043409076095246 0 0.0015625521393466137 0.042999521468195391 0 0.001587544316980709 0.043037329115423004 0 0.001596267033516198 0.043060595348098002 0 0.0016225361242436932 0.043047075209342991 0 0.001596267033516198 0.043060595348098002 0 0.0016225361242436932 0.043047075209342991 0 0.0016266151963708142 0.043086408974041694 0 0.0015808537746588385 0.043081537059029118 0 0.0016266151963708142 0.043086408974041694 0 0.0015863047546140685 0.043126423890059794 0 0.0016225361242436932 0.043047075209342991 0 0.0016266151963708142 0.043086408974041694 0 0.0016563112612254329 0.043067763701808683 0 0.0015808537746588385 0.043081537059029118 0 0.001596267033516198 0.043060595348098002 0 0.0016266151963708142 0.043086408974041694 0 0.0016563112612254329 0.043067763701808683 0 0.0016870432449651888 0.043059046265155804 0 0.0016910806213951083 0.04311684755272574 0 0.0016266151963708142 0.043086408974041694 0 0.0016563112612254329 0.043067763701808683 0 0.0016910806213951083 0.04311684755272574 0 0.0012750978473800867 0.043220309244291572 0 0.0012098537009446557 0.043367685273368463 0 0.0013626214458331096 0.043339962491146952 0 0.0017305367989869029 0.043097646564840157 0 0.0016870432449651888 0.043059046265155804 0 0.0016910806213951083 0.04311684755272574 0 0.0015858182571755284 0.04328108368816156 0 0.0013756620027600788 0.043307835178560003 0 0.0012098537009446557 0.043367685273368463 0 0.0013626214458331096 0.043339962491146952 0 0.001308229044012276 0.043490702505700293 0 0.0012098537009446557 0.043367685273368463 0 0.0012287891031913052 0.043523439050206857 0 0.001308229044012276 0.043490702505700293 0 0.0013626214458331096 0.043339962491146952 0 0.0014054009298372465 0.043399919382778165 0 0.001526509238473936 0.043650848370011167 0 0.0013626214458331096 0.043339962491146952 0 0.0014126190305316392 0.043570889647638271 0 0.001308229044012276 0.043490702505700293 0 0.0016225361242436932 0.043047075209342991 0 0.0016563112612254329 0.043067763701808683 0 0.0016653950127304329 0.043043409076095246 0 0.0013756620027600788 0.043307835178560003 0 0.0012455545320715843 0.043393271796795994 0 0.0016563112612254329 0.043067763701808683 0 0.0016870432449651888 0.043059046265155804 0 0.0016653950127304329 0.043043409076095246 0 0.0013626214458331096 0.043339962491146952 0 0.0014126190305316392 0.043570889647638271 0 0.001526509238473936 0.043650848370011167 0 0.0014126190305316392 0.043570889647638271 0 0.0013173194331053571 0.043639152765433495 0 0.0014676047933275705 0.043728773796058079 0 0.0014373921923189893 0.043890804605975019 0 0.0013173194331053571 0.043639152765433495 0 0.001024505424430249 0.043596368490239359 0 0.00044849860033916567 0.044198831758348593 0 0.00085891320618413476 0.043696506740104009 0 0.0014126190305316392 0.043570889647638271 0 0.001308229044012276 0.043490702505700293 0 0.0013173194331053571 0.043639152765433495 0 0.0014126190305316392 0.043570889647638271 0 0.0014676047933275705 0.043728773796058079 0 0.001526509238473936 0.043650848370011167 0 0.0012287891031913052 0.043523439050206857 0 0.0013173194331053571 0.043639152765433495 0 0.001024505424430249 0.043596368490239359 0 0.0012287891031913052 0.043523439050206857 0 0.001308229044012276 0.043490702505700293 0 0.0013173194331053571 0.043639152765433495 0 0.0014373921923189893 0.043890804605975019 0 0.0013173194331053571 0.043639152765433495 0 0.0014676047933275705 0.043728773796058079 0 0.00082203918019505039 0.043903276192299341 0 0.0014785085012660329 0.044755790739851489 0 0.0016511288777279892 0.044571018459951414 0 0.0012455545320715843 0.043393271796795994 0 0.0013055439160195874 0.044794982160655243 0 0.0015436285680737608 0.043848714752435604 0 0.0014676047933275705 0.043728773796058079 0 0.0015473754431190455 0.043736291984838603 0 0.0014054009298372465 0.043399919382778165 0 0.0016372514636028555 0.043722954113476022 0 0.001526509238473936 0.043650848370011167 0 0.0014676047933275705 0.043728773796058079 0 0.0015473754431190455 0.043736291984838603 0 0.001526509238473936 0.043650848370011167 0 0.0015473754431190455 0.043736291984838603 0 0.0015803657822398437 0.043715677139596829 0 0.001526509238473936 0.043650848370011167 0 0.0015803657822398437 0.043715677139596829 0 0.0016372514636028555 0.043722954113476022 0 0.001526509238473936 0.043650848370011167 0 0.0015803657822398437 0.043715677139596829 0 0.001610605546338561 0.043753476954712406 0 0.0016372514636028555 0.043722954113476022 0 0.0015436285680737608 0.043848714752435604 0 0.0015473754431190455 0.043736291984838603 0 0.001610605546338561 0.043753476954712406 0 0.0013968964399403894 0.044666241503162278 0 0.0013055439160195874 0.044794982160655243 0 0.0016438033790547469 0.043845615443815822 0 0.0015436285680737608 0.043848714752435604 0 0.001610605546338561 0.043753476954712406 0 0.0016438033790547469 0.043845615443815822 0 0.001610605546338561 0.043753476954712406 0 0.0016438448867656635 0.04371837267405828 0 0.0015473754431190455 0.043736291984838603 0 0.0015803657822398437 0.043715677139596829 0 0.001610605546338561 0.043753476954712406 0 0.0017455245699933926 0.043842575218486259 0 0.0016438033790547469 0.043845615443815822 0 0.0016438448867656635 0.04371837267405828 0 0.0011648801524754293 0.04569489539432476 0 0.0012073661949821373 0.045748365632190424 0 0.0011740330540148296 0.0457510092263625 0 0.00092414248653955103 0.045659639309754099 0 0.0013055439160195874 0.044794982160655243 0 0.0011648801524754293 0.04569489539432476 0 0.0011427964780358841 0.045761259823217 0 0.0011740330540148296 0.0457510092263625 0 0.00092414248653955103 0.045659639309754099 0 0.0010123806556122921 0.046882246132470544 0 0.0010123806556122921 0.046882246132470544 0 0.0011420135078997892 0.045200290597056332 0 0.0011427964780358841 0.045761259823217 0 0.0011740330540148296 0.0457510092263625 0 0.001173825117656079 0.045784844024441357 0 0.0012073661949821373 0.045748365632190424 0 0.0011740330540148296 0.0457510092263625 0 0.001173825117656079 0.045784844024441357 0 0.0013055439160195874 0.044794982160655243 0 0.0011420135078997892 0.045200290597056332 0 0.00075111078217308231 0.045997679562011035 0 0.0008459275601200247 0.045719543954551828 0 0.0009421594177135001 0.045795336110021304 0 0.00077452107448873703 0.046022890840326257 0 0.0010123806556122921 0.046882246132470544 0 0.001587544316980709 0.043037329115423004 0 0.0015625521393466137 0.042999521468195391 0 0.0015610852071624574 0.043029749930988126 0 0.00077452107448873703 0.046022890840326257 0 0.0011420135078997892 0.045200290597056332 0 0.001533801254579919 0.04303042450559167 0 0.0015625521393466137 0.042999521468195391 0 0.0015610852071624574 0.043029749930988126 0 0.0012455545320715843 0.043393271796795994 0 0.0011420135078997892 0.045200290597056332 0 0.001587544316980709 0.043037329115423004 0 0.0016225361242436932 0.043047075209342991 0 0.0015625521393466137 0.042999521468195391 0 0.00051322711823799752 0.043880804356852127 0 0.00052042909365319131 0.043865802854509993 0 0.00051717431183868738 0.04387055299267005 0 0.00051322711823799752 0.043880804356852127 0 0.00051717431183868738 0.04387055299267005 0 0.00051238762710619206 0.043881197432505917 0 0.0012098537009446557 0.043367685273368463 0 0.0012287891031913052 0.043523439050206857 0 0.001024505424430249 0.043596368490239359 0 0.0012750978473800867 0.043220309244291572 0 0.0012098537009446557 0.043367685273368463 0 0.00097771265347230811 0.04329725295524383 0 0.0012750978473800867 0.043220309244291572 0 0.00097771265347230811 0.04329725295524383 0 0.00077088726013132907 0.042992908917028443 0 0.0012098537009446557 0.043367685273368463 0 0.001024505424430249 0.043596368490239359 0 0.00097771265347230811 0.04329725295524383 0 0.001024505424430249 0.043596368490239359 0 0.00097771265347230811 0.04329725295524383 0 0.0006064527049040692 0.043307361974212498 0 0.00085891320618413476 0.043696506740104009 0 0.00049357557341502738 0.043756678665819664 0 0.00097771265347230811 0.04329725295524383 0 0.0006064527049040692 0.043307361974212498 0 0.00077088726013132907 0.042992908917028443 0 0.00052042909365319131 0.043865802854509993 0 0.00052040752378177475 0.043856532185396264 0 0.00052285584024407768 0.043837722296991691 0 0.00052042909365319131 0.043865802854509993 0 0.00052040752378177475 0.043856532185396264 0 0.00051717431183868738 0.04387055299267005 0 0.00049357557341502738 0.043756678665819664 0 0.00096037794795293631 0.042042753978061148 0 0.00052040752378177475 0.043856532185396264 0 0.00051762012370809183 0.043864117858952743 0 0.00051717431183868738 0.04387055299267005 0 0.00051975495150546316 0.043856996647053337 0 0.00052061718603310192 0.043849048110360639 0 0.00051929837617602063 0.043843825372845362 0 0.00051975495150546316 0.043856996647053337 0 0.00052716584616998609 0.043860183133961311 0 0.00051929837617602063 0.043843825372845362 0 0.00052040752378177475 0.043856532185396264 0 0.00051975495150546316 0.043856996647053337 0 0.00052061718603310192 0.043849048110360639 0 0.00052040752378177475 0.043856532185396264 0 0.00052061718603310192 0.043849048110360639 0 0.00052285584024407768 0.043837722296991691 0 0.00052040752378177475 0.043856532185396264 0 0.00051975495150546316 0.043856996647053337 0 0.00051762012370809183 0.043864117858952743 0 0.00051975495150546316 0.043856996647053337 0 0.00051762012370809183 0.043864117858952743 0 0.00051753016619717081 0.043866127274062451 0 0.00051975495150546316 0.043856996647053337 0 0.00051753016619717081 0.043866127274062451 0 0.00052716584616998609 0.043860183133961311 0 0.00051762012370809183 0.043864117858952743 0 0.00051753016619717081 0.043866127274062451 0 0.00051373602731444778 0.043871290993312974 0 0.00051753016619717081 0.043866127274062451 0 0.00051373602731444778 0.043871290993312974 0 0.00051053623534218109 0.04387132703875788 0 0.00051373602731444778 0.043871290993312974 0 0.00051717431183868738 0.04387055299267005 0 0.00051238762710619206 0.043881197432505917 0 0.00051762012370809183 0.043864117858952743 0 0.00051373602731444778 0.043871290993312974 0 0.00051717431183868738 0.04387055299267005 0 0.00051238762710619206 0.043881197432505917 0 0.0005095340187817347 0.043885649355758331 0 0.00050804594947820086 0.04389542752073769 0 0.00051373602731444778 0.043871290993312974 0 0.00051238762710619206 0.043881197432505917 0 0.00050935130851742993 0.043877346072503133 0 0.00051238762710619206 0.043881197432505917 0 0.0005095340187817347 0.043885649355758331 0 0.00050935130851742993 0.043877346072503133 0 0.00051053623534218109 0.04387132703875788 0 0.00050935130851742993 0.043877346072503133 0 0.00049775193834980904 0.043876262759797793 0 0.00051373602731444778 0.043871290993312974 0 0.00051053623534218109 0.04387132703875788 0 0.00050935130851742993 0.043877346072503133 0 0.0005095340187817347 0.043885649355758331 0 0.00050935130851742993 0.043877346072503133 0 0.0005068431076297907 0.043888816163738527 0 0.00050935130851742993 0.043877346072503133 0 0.00049775193834980904 0.043876262759797793 0 0.0005068431076297907 0.043888816163738527 0 0.0005068431076297907 0.043888816163738527 0 0.0005132517398047892 0.04393379808739771 0 0.00047775747025116937 0.043886597500126967 0 0.00049775193834980904 0.043876262759797793 0 0.0005068431076297907 0.043888816163738527 0 0.00047775747025116937 0.043886597500126967 0 0.0005068431076297907 0.043888816163738527 0 0.00050804594947820086 0.04389542752073769 0 0.0005132517398047892 0.04393379808739771 0 0.0005095340187817347 0.043885649355758331 0 0.0005068431076297907 0.043888816163738527 0 0.00050804594947820086 0.04389542752073769 0 -0.0023350098541452934 0.04603874087227245 0 -0.0019220469503676096 0.045625048996581742 0 -0.0023070582638381313 0.046403273184615998 0 0.00051238762710619206 0.043881197432505917 0 0.00050804594947820086 0.04389542752073769 0 0.00050552950365230444 0.043889552769855456 0 -0.00087273751719006438 0.044939780571264895 0 -0.00082511935657679568 0.044816913107230898 0 0.00051322711823799752 0.043880804356852127 0 0.00051238762710619206 0.043881197432505917 0 0.00050552950365230444 0.043889552769855456 0 0.00050834739837734991 0.043889059870101554 0 0.00051322711823799752 0.043880804356852127 0 0.00050552950365230444 0.043889552769855456 0 -0.0019220469503676096 0.045625048996581742 0 -0.0015630031628310059 0.046263059607349021 0 -0.0023070582638381313 0.046403273184615998 0 -0.0010791481306294316 0.045721606412848143 0 -0.0019220469503676096 0.045625048996581742 0 -0.0015630031628310059 0.046263059607349021 0 -0.0015630031628310059 0.046263059607349021 0 -0.0023070582638381313 0.046403273184615998 0 -0.0017525763942230867 0.047352556625122909 0 -0.0023350098541452934 0.04603874087227245 0 -0.0023070582638381313 0.046403273184615998 0 -0.0021422136931767187 0.045540165263596465 0 -0.0023070582638381313 0.046403273184615998 0 -0.0023213835131582271 0.045223373722669637 0 -0.0021422136931767187 0.045540165263596465 0 -0.0025633484720261218 0.047820348627148158 0 -0.0020313547544006075 0.047495852065550313 0 -0.0020744534354653617 0.048182674327773345 0 -0.0023070582638381313 0.046403273184615998 0 -0.0025633484720261218 0.047820348627148158 0 -0.0020313547544006075 0.047495852065550313 0 -0.0022976795609933043 0.046361270985357951 0 -0.0023582994113336433 0.04643317351772748 0 -0.0013574988342577689 0.048130754276005557 0 -0.0020313547544006075 0.047495852065550313 0 -0.0017901434705628486 0.048016148366742138 0 -0.001390954059416537 0.048071680939756632 0 -0.0020118357201039301 0.047569873822305264 0 -0.0013971920263313215 0.048031222037279213 0 -0.0017525763942230867 0.047352556625122909 0 -0.0020313547544006075 0.047495852065550313 0 -0.0020313547544006075 0.047495852065550313 0 -0.0017901434705628486 0.048016148366742138 0 -0.0020744534354653617 0.048182674327773345 0 -0.0023070582638381313 0.046403273184615998 0 -0.0017525763942230867 0.047352556625122909 0 -0.0020313547544006075 0.047495852065550313 0 -0.0017901434705628486 0.048016148366742138 0 -0.0017133810688088193 0.048271224110732085 0 -0.0020744534354653617 0.048182674327773345 0 -0.0017133810688088193 0.048271224110732085 0 -0.0020744534354653617 0.048182674327773345 0 -0.0018140163147609995 0.048502804585106508 0 -0.0025633484720261218 0.047820348627148158 0 -0.0020744534354653617 0.048182674327773345 0 -0.0022761032483521165 0.0483716458074415 0 -0.0025633484720261218 0.047820348627148158 0 -0.0022761032483521165 0.0483716458074415 0 -0.0025353364870753375 0.048283322653197715 0 -0.0020727618648888908 0.048578767604894497 0 -0.0022761032483521165 0.0483716458074415 0 -0.0023889172513534241 0.04853943863850619 0 -0.0020744534354653617 0.048182674327773345 0 -0.0020727618648888908 0.048578767604894497 0 -0.0022761032483521165 0.0483716458074415 0 -0.0020744534354653617 0.048182674327773345 0 -0.0020727618648888908 0.048578767604894497 0 -0.0018140163147609995 0.048502804585106508 0 -0.0018255350737012759 0.048784217128157906 0 -0.0020727618648888908 0.048578767604894497 0 -0.0018140163147609995 0.048502804585106508 0 -0.0019197891960040169 0.044606003991128323 0 -0.0020531876941803713 0.04479568927216044 0 -0.0018995973271590193 0.044859008098122717 0 -0.0020792544167083826 0.044934933948430636 0 -0.0020072210258589899 0.043396725525450909 0 -0.00080582815943891777 0.040927397058529304 0 -0.0022761198321085176 0.041218179435396893 0 -0.0012614475692498243 0.041927220013718465 0 -0.0022761198321085176 0.041218179435396893 0 -0.0020993309307275835 0.042736020897923027 0 -0.0012614475692498243 0.041927220013718465 0 -0.0020792544167083826 0.044934933948430636 0 -0.0024288961904455788 0.046806898089789328 0 -0.0026166618763625383 0.048588343365019368 0 -0.0023889172513534241 0.04853943863850619 0 -0.0025353364870753375 0.048283322653197715 0 -0.0022761032483521165 0.0483716458074415 0 -0.0023889172513534241 0.04853943863850619 0 -0.0025353364870753375 0.048283322653197715 0 -0.0023213835131582271 0.045223373722669637 0 -0.0020531876941803713 0.04479568927216044 0 -0.0019857275966900577 0.044995801798905409 0 -0.0023582994113336433 0.04643317351772748 0 -0.0024288961904455788 0.046806898089789328 0 -0.0020531876941803713 0.04479568927216044 0 -0.0018995973271590193 0.044859008098122717 0 -0.0019857275966900577 0.044995801798905409 0 -0.0020993309307275835 0.042736020897923027 0 -0.0011183152942124571 0.043690616433483924 0 -0.00065448350060970926 0.042970355904156217 0 -0.0020993309307275835 0.042736020897923027 0 -0.00065448350060970926 0.042970355904156217 0 -0.0012614475692498243 0.041927220013718465 0 -0.0020072210258589899 0.043396725525450909 0 -0.0018194181010329092 0.044919801138503156 0 -0.0020993309307275835 0.042736020897923027 0 -0.0017903019994199335 0.044846766908302069 0 -0.0011183152942124571 0.043690616433483924 0 -0.0018995973271590193 0.044859008098122717 0 -0.0017903019994199335 0.044846766908302069 0 -0.0019857275966900577 0.044995801798905409 0 -0.0017903019994199335 0.044846766908302069 0 -0.0019857275966900577 0.044995801798905409 0 -0.0021422136931767187 0.045540165263596465 0 -0.0023213835131582271 0.045223373722669637 0 -0.0019857275966900577 0.044995801798905409 0 -0.0021422136931767187 0.045540165263596465 0 -0.00087273751719006438 0.044939780571264895 0 -0.00055985208058803061 0.044739805265924887 0 -0.0023350098541452934 0.04603874087227245 0 -0.0021422136931767187 0.045540165263596465 0 -0.0016036618164424511 0.045611504158754507 0 -0.0017903019994199335 0.044846766908302069 0 -0.0021422136931767187 0.045540165263596465 0 -0.0016036618164424511 0.045611504158754507 0 -0.00055985208058803061 0.044739805265924887 0 0.00015756400970840957 0.044143906736344468 0 0.0005132517398047892 0.04393379808739771 0 0.00039572813337786868 0.043910144543828113 0 0.00021309278287521652 0.044040788695885812 0 0.0005132517398047892 0.04393379808739771 0 0.00039572813337786868 0.043910144543828113 0 0.00047775747025116937 0.043886597500126967 0 -0.0017903019994199335 0.044846766908302069 0 -0.0016036618164424511 0.045611504158754507 0 0.00021309278287521652 0.044040788695885812 0 0.00051656052853002422 0.043884185703049639 0 0.00021309278287521652 0.044040788695885812 0 0.00087347897032847123 0.043443039216860796 0 0.00039572813337786868 0.043910144543828113 0 0.00051656052853002422 0.043884185703049639 0 0.00021309278287521652 0.044040788695885812 0 0.00021309278287521652 0.044040788695885812 0 -0.00065448350060970926 0.042970355904156217 0 0.00039688602521065051 0.04304363623756971 0 0.00021309278287521652 0.044040788695885812 0 0.00039688602521065051 0.04304363623756971 0 0.00087347897032847123 0.043443039216860796 0 -0.0017903019994199335 0.044846766908302069 0 0.00021309278287521652 0.044040788695885812 0 -0.0011183152942124571 0.043690616433483924 0 0.00021309278287521652 0.044040788695885812 0 -0.0011183152942124571 0.043690616433483924 0 -0.00065448350060970926 0.042970355904156217 0 -0.00065448350060970926 0.042970355904156217 0 -0.00022249242876916297 0.042027310525405447 0 -0.0012614475692498243 0.041927220013718465 0 0.00039688602521065051 0.04304363623756971 0 -0.00022249242876916297 0.042027310525405447 0 0.00074205107386715835 0.042113154395942827 0 -0.00065448350060970926 0.042970355904156217 0 0.00039688602521065051 0.04304363623756971 0 -0.00022249242876916297 0.042027310525405447 0 -0.00022249242876916297 0.042027310525405447 0 0.00025595283291037521 0.04125073278346128 0 0.00074205107386715835 0.042113154395942827 0 -0.00080582815943891777 0.040927397058529304 0 -0.00022249242876916297 0.042027310525405447 0 0.00025595283291037521 0.04125073278346128 0 -0.00080582815943891777 0.040927397058529304 0 -0.00022249242876916297 0.042027310525405447 0 -0.0012614475692498243 0.041927220013718465 0 0.0029600005249362533 0.040950841537974889 0 0.0015724625693102809 0.042008796952459661 0 0.0021913598065658561 0.043097258157982252 0 0.0014479202500000622 0.033878847519472205 0 0.00032515542989381492 0.038785750672768654 0 -0.00026524764922197753 0.027784842985200831 0 -0.0007984849952371141 0.029813971342543932 0 0.00017280266625744424 0.028953952421252819 0 0.0029600005249362533 0.040950841537974889 0 0.0012068747528716874 0.041079865412330642 0 0.0015724625693102809 0.042008796952459661 0 0.0012068747528716874 0.041079865412330642 0 0.00025595283291037521 0.04125073278346128 0 0.00074205107386715835 0.042113154395942827 0 0.0012068747528716874 0.041079865412330642 0 0.00074205107386715835 0.042113154395942827 0 0.0015724625693102809 0.042008796952459661 0 0.00039688602521065051 0.04304363623756971 0 0.00074205107386715835 0.042113154395942827 0 0.0013478857103312897 0.042807287382610026 0 0.00074205107386715835 0.042113154395942827 0 0.0015724625693102809 0.042008796952459661 0 0.0013478857103312897 0.042807287382610026 0 0.00039688602521065051 0.04304363623756971 0 0.0013478857103312897 0.042807287382610026 0 0.00087347897032847123 0.043443039216860796 0 0.0013478857103312897 0.042807287382610026 0 0.0015451160847539077 0.043003819366299614 0 0.00087347897032847123 0.043443039216860796 0 0.0022635393370797102 0.041932706876577547 0 0.00032515542989381492 0.038785750672768654 0 0.0015724625693102809 0.042008796952459661 0 0.0013478857103312897 0.042807287382610026 0 0.0021913598065658561 0.043097258157982252 0 0.0009036074152561635 0.043245773918390337 0 0.00093116135146563102 0.043595130962390378 0 0.00099386710712668974 0.04346106378643582 0 0.0015451160847539077 0.043003819366299614 0 0.00087347897032847123 0.043443039216860796 0 0.00093116135146563102 0.043595130962390378 0 0.00032515542989381492 0.038785750672768654 0 0.00089925472636955765 0.045144979984682441 0 0.00051656052853002422 0.043884185703049639 0 0.00093116135146563102 0.043595130962390378 0 0.0007401190857590841 0.043792912880787092 0 0.00051656052853002422 0.043884185703049639 0 0.00087347897032847123 0.043443039216860796 0 0.00093116135146563102 0.043595130962390378 0 0.00093116135146563102 0.043595130962390378 0 0.00099386710712668974 0.04346106378643582 0 0.00096569973312374963 0.043629893260627231 0 0.00093116135146563102 0.043595130962390378 0 0.0007401190857590841 0.043792912880787092 0 0.00096569973312374963 0.043629893260627231 0 0.00074814261905512046 0.043840918077064146 0 0.0007401190857590841 0.043792912880787092 0 0.00096569973312374963 0.043629893260627231 0 0.00074814261905512046 0.043840918077064146 0 0.00095069738296475477 0.043823018988923081 0 0.00096569973312374963 0.043629893260627231 0 0.00074814261905512046 0.043840918077064146 0 0.0007401190857590841 0.043792912880787092 0 0.00057246159727681462 0.04386416566622444 0 0.00074814261905512046 0.043840918077064146 0 0.00057246159727681462 0.04386416566622444 0 0.00062640063438309005 0.043873480844711342 0 0.00051656052853002422 0.043884185703049639 0 0.0007401190857590841 0.043792912880787092 0 0.00057246159727681462 0.04386416566622444 0 0.00039572813337786868 0.043910144543828113 0 0.00051656052853002422 0.043884185703049639 0 0.00047673706010997648 0.043883306563445058 0 0.00051656052853002422 0.043884185703049639 0 0.00047673706010997648 0.043883306563445058 0 0.00057246159727681462 0.04386416566622444 0 0.00039572813337786868 0.043910144543828113 0 0.00047775747025116937 0.043886597500126967 0 0.00047673706010997648 0.043883306563445058 0 0.00049775193834980904 0.043876262759797793 0 0.00047775747025116937 0.043886597500126967 0 0.00047673706010997648 0.043883306563445058 0 0.00049775193834980904 0.043876262759797793 0 0.00047673706010997648 0.043883306563445058 0 0.00051323872783768135 0.043871989985174643 0 0.00051053623534218109 0.04387132703875788 0 0.00049775193834980904 0.043876262759797793 0 0.00051323872783768135 0.043871989985174643 0 0.00051323872783768135 0.043871989985174643 0 0.00057246159727681462 0.04386416566622444 0 0.00055151301689136494 0.043872547417195429 0 0.00047673706010997648 0.043883306563445058 0 0.00051323872783768135 0.043871989985174643 0 0.00057246159727681462 0.04386416566622444 0 0.00057246159727681462 0.04386416566622444 0 0.00055151301689136494 0.043872547417195429 0 0.00062640063438309005 0.043873480844711342 0 0.00055151301689136494 0.043872547417195429 0 0.00056202655763609754 0.043867600580891952 0 0.00062640063438309005 0.043873480844711342 0 0.00055151301689136494 0.043872547417195429 0 0.00052281573020887117 0.043868845817958656 0 0.00052716584616998609 0.043860183133961311 0 0.00051753016619717081 0.043866127274062451 0 0.00052281573020887117 0.043868845817958656 0 0.00052716584616998609 0.043860183133961311 0 0.00051753016619717081 0.043866127274062451 0 0.00051053623534218109 0.04387132703875788 0 0.00052281573020887117 0.043868845817958656 0 0.00051053623534218109 0.04387132703875788 0 0.00051323872783768135 0.043871989985174643 0 0.00052281573020887117 0.043868845817958656 0 0.00051323872783768135 0.043871989985174643 0 0.00055151301689136494 0.043872547417195429 0 0.00052281573020887117 0.043868845817958656 0 0.00055151301689136494 0.043872547417195429 0 0.00052716584616998609 0.043860183133961311 0 0.00056202655763609754 0.043867600580891952 0 -0.0010799125117706178 0.037267563671225787 0 -0.001104149672588506 0.034037585042875199 0 -0.0026933657072810628 0.029521627743648419 0 -0.0020927496462064357 0.02933383752238428 0 -0.0024125794060926055 0.029575876271312283 0 -0.001104149672588506 0.034037585042875199 0 -0.001964607046166785 0.02781042006766192 0 0.00056202655763609754 0.043867600580891952 0 0.0007310596656687733 0.043887445630279305 0 0.00062640063438309005 0.043873480844711342 0 -0.0013735362481966751 0.027898478448196158 0 -0.00068506186266898371 0.029119179937949859 0 -0.0015378642245806832 0.029422512125073762 0 -0.0013735362481966751 0.027898478448196158 0 -0.0015378642245806832 0.029422512125073762 0 -0.0024125794060926055 0.029575876271312283 0 0.00074814261905512046 0.043840918077064146 0 0.0007310596656687733 0.043887445630279305 0 0.00095069738296475477 0.043823018988923081 0 -0.001104149672588506 0.034037585042875199 0 0.00037465187920444833 0.03941187336561626 0 0.00074814261905512046 0.043840918077064146 0 0.0007310596656687733 0.043887445630279305 0 0.00062640063438309005 0.043873480844711342 0 -0.0024385763158470738 0.031230535266971955 0 -0.0020553323727896147 0.030127509175474954 0 -0.0039653028195271185 0.031471256708925976 0 -0.0019497570058437975 0.029640842519335808 0 -0.0036206084891417527 0.032635556070259232 0 -0.0024385763158470738 0.031230535266971955 0 -0.0016346217021825263 0.031013995264961014 0 -0.0020553323727896147 0.030127509175474954 0 -0.0016346217021825263 0.031013995264961014 0 -0.0010345034141609815 0.030135044289120543 0 -0.00052952947427284793 0.031283694395704678 0 -0.0016346217021825263 0.031013995264961014 0 -0.0010345034141609815 0.030135044289120543 0 -0.0020553323727896147 0.030127509175474954 0 -0.0010345034141609815 0.030135044289120543 0 -0.0015378642245806832 0.029422512125073762 0 -0.0020553323727896147 0.030127509175474954 0 -0.0010345034141609815 0.030135044289120543 0 -0.00068506186266898371 0.029119179937949859 0 -0.0015378642245806832 0.029422512125073762 0 -0.0020553323727896147 0.030127509175474954 0 -0.0026230935994019833 0.029954371173167373 0 -0.0027766979854433379 0.03029143581560308 0 -0.0015378642245806832 0.029422512125073762 0 -0.0020553323727896147 0.030127509175474954 0 -0.0024125794060926055 0.029575876271312283 0 -0.0020553323727896147 0.030127509175474954 0 -0.0024125794060926055 0.029575876271312283 0 -0.0026230935994019833 0.029954371173167373 0 -0.0026933657072810628 0.029521627743648419 0 -0.0024125794060926055 0.029575876271312283 0 -0.0026230935994019833 0.029954371173167373 0 -0.0026933657072810628 0.029521627743648419 0 -0.0029651247273108725 0.030124654064208927 0 -0.0026230935994019833 0.029954371173167373 0 -0.0029651247273108725 0.030124654064208927 0 -0.0026230935994019833 0.029954371173167373 0 -0.0027766979854433379 0.03029143581560308 0 0.00052716584616998609 0.043860183133961311 0 0.00056202655763609754 0.043867600580891952 0 0.00050908922918475256 0.043817517306759708 0 -0.0010799125117706178 0.037267563671225787 0 -0.0016498335434322272 0.035927635667861044 0 -0.0026933657072810628 0.029521627743648419 0 -0.0029651247273108725 0.030124654064208927 0 -0.0037217547955103575 0.030154496947140379 0 0.00052716584616998609 0.043860183133961311 0 0.00050908922918475256 0.043817517306759708 0 0.00051929837617602063 0.043843825372845362 0 -0.0029651247273108725 0.030124654064208927 0 -0.0031542099323707182 0.030474261345322304 0 -0.0037217547955103575 0.030154496947140379 0 -0.0036206084891417527 0.032635556070259232 0 -0.0011689316501209751 0.03759263502895821 0 -0.0031542099323707182 0.030474261345322304 0 -0.0030048123854253782 0.030761971608601283 0 -0.0034071201534780684 0.030575238864869424 0 -0.0045051845815313749 0.029744993641737681 0 -0.0016498335434322272 0.035927635667861044 0 -0.0031542099323707182 0.030474261345322304 0 -0.0034071201534780684 0.030575238864869424 0 -0.0033805921096493404 0.030442551624541125 0 -0.0020553323727896147 0.030127509175474954 0 -0.0027766979854433379 0.03029143581560308 0 -0.0030048123854253782 0.030761971608601283 0 -0.0031542099323707182 0.030474261345322304 0 -0.0027766979854433379 0.03029143581560308 0 -0.0030048123854253782 0.030761971608601283 0 -0.0029651247273108725 0.030124654064208927 0 -0.0031542099323707182 0.030474261345322304 0 -0.0027766979854433379 0.03029143581560308 0 -0.0046759485335551246 0.032456484026608501 0 -0.0045032657159120816 0.033612468157282825 0 -0.0056110390784118854 0.033169589083586117 0 -0.0045032657159120816 0.033612468157282825 0 -0.0056110390784118854 0.033169589083586117 0 -0.004674938838853184 0.03418073931361057 0 -0.0046759485335551246 0.032456484026608501 0 -0.0045032657159120816 0.033612468157282825 0 -0.0037317672213052827 0.03361193974918722 0 -0.0011389468760161152 0.03896294323058392 0 -0.0011689316501209751 0.03759263502895821 0 -0.0025472838212261886 0.036288100978102839 0 -0.001825908103249574 0.035795279079112959 0 -0.0013336820351163921 0.036767787931797982 0 -0.0036206084891417527 0.032635556070259232 0 -0.0011389468760161152 0.03896294323058392 0 0.00091072368627290623 0.043170261894866273 0 0.00088148689300200883 0.042797685622987372 0 0.0010297522470375797 0.042863966042881632 0 0.00091072368627290623 0.043170261894866273 0 0.00088148689300200883 0.042797685622987372 0 0.00072657606735616236 0.042789703883548059 0 -0.0011389468760161152 0.03896294323058392 0 -0.0014721649584711366 0.039617735841407507 0 0.00091072368627290623 0.043170261894866273 0 0.00072657606735616236 0.042789703883548059 0 0.00067253478056863503 0.042742907311513818 0 -0.0056110390784118854 0.033169589083586117 0 -0.004674938838853184 0.03418073931361057 0 -0.0047232939180952838 0.03504435602916222 0 -0.0045032657159120816 0.033612468157282825 0 -0.004674938838853184 0.03418073931361057 0 -0.0040688759542868505 0.034338662288665174 0 -0.0045032657159120816 0.033612468157282825 0 -0.0040688759542868505 0.034338662288665174 0 -0.0037317672213052827 0.03361193974918722 0 -0.004674938838853184 0.03418073931361057 0 -0.004385201488392684 0.034617423702326247 0 -0.0047232939180952838 0.03504435602916222 0 -0.004385201488392684 0.034617423702326247 0 -0.0040688759542868505 0.034338662288665174 0 -0.0040653609909714955 0.034905078994045706 0 -0.004674938838853184 0.03418073931361057 0 -0.004385201488392684 0.034617423702326247 0 -0.0040688759542868505 0.034338662288665174 0 -0.004385201488392684 0.034617423702326247 0 -0.0040653609909714955 0.034905078994045706 0 -0.0047232939180952838 0.03504435602916222 0 -0.0030407060820555696 0.034659035973747254 0 -0.0037317672213052827 0.03361193974918722 0 -0.0027014621960825915 0.033074699046209556 0 -0.0040688759542868505 0.034338662288665174 0 -0.0040653609909714955 0.034905078994045706 0 -0.0030407060820555696 0.034659035973747254 0 -0.0040688759542868505 0.034338662288665174 0 -0.0030407060820555696 0.034659035973747254 0 -0.0037317672213052827 0.03361193974918722 0 -0.0036206084891417527 0.032635556070259232 0 -0.0025524224204320255 0.032530127606729582 0 -0.0024385763158470738 0.031230535266971955 0 -0.0039653028195271185 0.031471256708925976 0 -0.0020716917858878393 0.032205245954302311 0 -0.0046759485335551246 0.032456484026608501 0 -0.0037317672213052827 0.03361193974918722 0 -0.0027014621960825915 0.033074699046209556 0 -0.0024385763158470738 0.031230535266971955 0 -0.0016346217021825263 0.031013995264961014 0 -0.0020716917858878393 0.032205245954302311 0 -0.0016346217021825263 0.031013995264961014 0 -0.0020716917858878393 0.032205245954302311 0 -0.00052952947427284793 0.031283694395704678 0 -0.0025524224204320255 0.032530127606729582 0 -0.0002752880803915381 0.033414000946805328 0 -0.0020716917858878393 0.032205245954302311 0 -0.00052952947427284793 0.031283694395704678 0 -0.00022327621616076556 0.03307173037511453 0 -0.0030407060820555696 0.034659035973747254 0 -0.0027014621960825915 0.033074699046209556 0 -0.00052800570732589481 0.033675344012714714 0 -0.0030407060820555696 0.034659035973747254 0 -0.0013463502975383944 0.035711101338799803 0 -0.00052800570732589481 0.033675344012714714 0 -0.0030407060820555696 0.034659035973747254 0 -0.0013463502975383944 0.035711101338799803 0 -0.0027763997347568996 0.035746844483642994 0 -0.0013463502975383944 0.035711101338799803 0 -0.0027763997347568996 0.035746844483642994 0 -0.0022982413660716005 0.036448771015037719 0 -0.0040653609909714955 0.034905078994045706 0 -0.0030407060820555696 0.034659035973747254 0 -0.003764312299654122 0.035446633536560093 0 -0.0030407060820555696 0.034659035973747254 0 -0.003764312299654122 0.035446633536560093 0 -0.0027763997347568996 0.035746844483642994 0 -0.0027763997347568996 0.035746844483642994 0 -0.0033490891977310897 0.036496675360750727 0 -0.0022982413660716005 0.036448771015037719 0 -0.003764312299654122 0.035446633536560093 0 -0.0027763997347568996 0.035746844483642994 0 -0.0033490891977310897 0.036496675360750727 0 0.00030931075450310738 0.041811914170610025 0 0.0003370234074285625 0.041799944558123338 0 0.00027473944465098387 0.04155436092702456 0 0.00030931075450310738 0.041811914170610025 0 0.00012784694720120756 0.041444643442482748 0 0.00027473944465098387 0.04155436092702456 0 0.00030931075450310738 0.041811914170610025 0 0.0003370234074285625 0.041799944558123338 0 0.00020182024699458355 0.041762240572868321 0 -0.0013463502975383944 0.035711101338799803 0 -0.0022982413660716005 0.036448771015037719 0 -0.0018236990301083067 0.038240151154995711 0 -0.0033490891977310897 0.036496675360750727 0 -0.0022982413660716005 0.036448771015037719 0 -0.0018236990301083067 0.038240151154995711 0 -0.0017322266312914713 0.038898709376466618 0 -0.00072617135861637212 0.039906705320427817 0 0.00012784694720120756 0.041444643442482748 0 0.00027473944465098387 0.04155436092702456 0 0.00015873784420461867 0.041074435907253161 0 0.00027473944465098387 0.04155436092702456 0 0.0004272326022396441 0.041631127694327731 0 0.00037367205014393119 0.041325359976194659 0 0.0003370234074285625 0.041799944558123338 0 0.00027473944465098387 0.04155436092702456 0 0.0004272326022396441 0.041631127694327731 0 0.00027473944465098387 0.04155436092702456 0 0.00037367205014393119 0.041325359976194659 0 0.00015873784420461867 0.041074435907253161 0 0.00012784694720120756 0.041444643442482748 0 0.00015873784420461867 0.041074435907253161 0 0.00016400238388900409 0.040381905733761797 0 0.00086355874305319368 0.041629070991903237 0 0.00060965906631332768 0.041613888974742101 0 0.00082786840575034657 0.041814354131926912 0 0.00086355874305319368 0.041629070991903237 0 0.00082786840575034657 0.041814354131926912 0 0.0010915984851291069 0.041870688454288568 0 0.00037367205014393119 0.041325359976194659 0 0.00062663966103821225 0.041429627599218047 0 0.00060965906631332768 0.041613888974742101 0 0.00086355874305319368 0.041629070991903237 0 0.00062663966103821225 0.041429627599218047 0 0.00060965906631332768 0.041613888974742101 0 0.0004272326022396441 0.041631127694327731 0 0.00037367205014393119 0.041325359976194659 0 0.00060965906631332768 0.041613888974742101 0 0.00060965906631332768 0.041613888974742101 0 0.00061594027837518818 0.041851973347865223 0 0.00082786840575034657 0.041814354131926912 0 0.0004272326022396441 0.041631127694327731 0 0.00060965906631332768 0.041613888974742101 0 0.00061594027837518818 0.041851973347865223 0 0.0003370234074285625 0.041799944558123338 0 0.0004272326022396441 0.041631127694327731 0 0.00061594027837518818 0.041851973347865223 0 0.00061594027837518818 0.041851973347865223 0 0.00085240037989484606 0.042032028013876892 0 0.00078000295473585051 0.042192716172344345 0 0.00061594027837518818 0.041851973347865223 0 0.00085240037989484606 0.042032028013876892 0 0.00082786840575034657 0.041814354131926912 0 0.00085240037989484606 0.042032028013876892 0 0.00082786840575034657 0.041814354131926912 0 0.0010607012998510084 0.042082979782467715 0 0.00082786840575034657 0.041814354131926912 0 0.0010607012998510084 0.042082979782467715 0 0.0010915984851291069 0.041870688454288568 0 0.00085240037989484606 0.042032028013876892 0 0.0010607012998510084 0.042082979782467715 0 0.00099385284094569799 0.042243172337483779 0 0.00085240037989484606 0.042032028013876892 0 0.00099385284094569799 0.042243172337483779 0 0.00078000295473585051 0.042192716172344345 0 0.00099385284094569799 0.042243172337483779 0 0.00078000295473585051 0.042192716172344345 0 0.00091990259666665337 0.042401755882876813 0 0.00078000295473585051 0.042192716172344345 0 0.00091990259666665337 0.042401755882876813 0 0.0007193313109732397 0.042449341720211982 0 0.00099385284094569799 0.042243172337483779 0 0.00091990259666665337 0.042401755882876813 0 0.0011170742352905306 0.042457691399655897 0 0.00091990259666665337 0.042401755882876813 0 0.0010146698386802756 0.042547275318779713 0 0.0011170742352905306 0.042457691399655897 0 0.0003370234074285625 0.041799944558123338 0 0.00055379662942916879 0.042067744250493699 0 0.00046685745258325271 0.042404867013196998 0 0.0003370234074285625 0.041799944558123338 0 0.00061594027837518818 0.041851973347865223 0 0.00055379662942916879 0.042067744250493699 0 0.00061594027837518818 0.041851973347865223 0 0.00078000295473585051 0.042192716172344345 0 0.00055379662942916879 0.042067744250493699 0 0.00055379662942916879 0.042067744250493699 0 0.00046685745258325271 0.042404867013196998 0 0.0007193313109732397 0.042449341720211982 0 0.00078000295473585051 0.042192716172344345 0 0.00055379662942916879 0.042067744250493699 0 0.0007193313109732397 0.042449341720211982 0 0.00024384529816905696 0.041719759547319629 0 0.00056535872504746441 0.042513579689208866 0 -0.003764312299654122 0.035446633536560093 0 -0.0033490891977310897 0.036496675360750727 0 -0.0047232939180952838 0.03504435602916222 0 0.00030931075450310738 0.041811914170610025 0 0.00020182024699458355 0.041762240572868321 0 0.00011780156749606671 0.041537964633631574 0 -0.0017322266312914713 0.038898709376466618 0 -0.0014721649584711366 0.039617735841407507 0 0.00056535872504746441 0.042513579689208866 0 -0.0014721649584711366 0.039617735841407507 0 0.00046685745258325271 0.042404867013196998 0 0.0007193313109732397 0.042449341720211982 0 0.00068041668292371648 0.04259809364316007 0 0.00046685745258325271 0.042404867013196998 0 0.00068041668292371648 0.04259809364316007 0 0.00066092835697876813 0.04275035278597427 0 0.0007193313109732397 0.042449341720211982 0 0.00068041668292371648 0.04259809364316007 0 0.00079938543404833677 0.042648564109542986 0 0.00068041668292371648 0.04259809364316007 0 0.00074902486229341293 0.042722087523307681 0 0.00066092835697876813 0.04275035278597427 0 0.00068041668292371648 0.04259809364316007 0 0.00074902486229341293 0.042722087523307681 0 0.00079938543404833677 0.042648564109542986 0 0.00072657606735616236 0.042789703883548059 0 0.00074902486229341293 0.042722087523307681 0 0.00066092835697876813 0.04275035278597427 0 -0.00041856320544073088 0.040730591631752841 0 -0.0014721649584711366 0.039617735841407507 0 -0.0040653609909714955 0.034905078994045706 0 -0.003764312299654122 0.035446633536560093 0 -0.0047232939180952838 0.03504435602916222 0 0.0010146698386802756 0.042547275318779713 0 0.00096459583338266968 0.042681488254390401 0 0.0011619750400766098 0.042679660795551029 0 0.0010146698386802756 0.042547275318779713 0 0.00087311819096036458 0.042553694688090157 0 0.00096459583338266968 0.042681488254390401 0 0.00091990259666665337 0.042401755882876813 0 0.0010146698386802756 0.042547275318779713 0 0.00087311819096036458 0.042553694688090157 0 0.00087311819096036458 0.042553694688090157 0 0.00079938543404833677 0.042648564109542986 0 0.00096459583338266968 0.042681488254390401 0 0.0007193313109732397 0.042449341720211982 0 0.00087311819096036458 0.042553694688090157 0 0.00079938543404833677 0.042648564109542986 0 0.00091990259666665337 0.042401755882876813 0 0.0007193313109732397 0.042449341720211982 0 0.00087311819096036458 0.042553694688090157 0 0.00088148689300200883 0.042797685622987372 0 0.00079938543404833677 0.042648564109542986 0 0.00096459583338266968 0.042681488254390401 0 0.00088148689300200883 0.042797685622987372 0 0.00074902486229341293 0.042722087523307681 0 0.00079938543404833677 0.042648564109542986 0 0.00088148689300200883 0.042797685622987372 0 0.00072657606735616236 0.042789703883548059 0 0.00074902486229341293 0.042722087523307681 0 0.00088148689300200883 0.042797685622987372 0 0.0010297522470375797 0.042863966042881632 0 0.00096459583338266968 0.042681488254390401 0 0.0010297522470375797 0.042863966042881632 0 0.00096459583338266968 0.042681488254390401 0 0.0011619750400766098 0.042679660795551029 0 0.0011619750400766098 0.042679660795551029 0 0.0016175434319327521 0.042820646088605023 0 0.001274763719206041 0.04296821553640387 0 0.0010146698386802756 0.042547275318779713 0 0.0011619750400766098 0.042679660795551029 0 0.0011170742352905306 0.042457691399655897 0 0.0011619750400766098 0.042679660795551029 0 0.0011170742352905306 0.042457691399655897 0 0.0013709134284004697 0.042554815730569323 0 0.0016175434319327521 0.042820646088605023 0 0.0015976126809932748 0.042556786077843065 0 0.0013709134284004697 0.042554815730569323 0 0.0011619750400766098 0.042679660795551029 0 0.0016175434319327521 0.042820646088605023 0 0.0013709134284004697 0.042554815730569323 0 0.0015976126809932748 0.042556786077843065 0 0.0013709134284004697 0.042554815730569323 0 0.001419451794875155 0.042339810066198941 0 0.0015976126809932748 0.042556786077843065 0 0.001635559661233441 0.042401075964875572 0 0.001750781796251573 0.042535812575325009 0 0.0015976126809932748 0.042556786077843065 0 0.001419451794875155 0.042339810066198941 0 0.001635559661233441 0.042401075964875572 0 0.0011170742352905306 0.042457691399655897 0 0.0013709134284004697 0.042554815730569323 0 0.0012073218048495261 0.042301181938418635 0 0.0013709134284004697 0.042554815730569323 0 0.0012073218048495261 0.042301181938418635 0 0.001419451794875155 0.042339810066198941 0 0.00099385284094569799 0.042243172337483779 0 0.0011170742352905306 0.042457691399655897 0 0.0012073218048495261 0.042301181938418635 0 0.0010607012998510084 0.042082979782467715 0 0.0012073218048495261 0.042301181938418635 0 0.0012710429525086804 0.042123603127289744 0 0.0010607012998510084 0.042082979782467715 0 0.00099385284094569799 0.042243172337483779 0 0.0012073218048495261 0.042301181938418635 0 0.0010607012998510084 0.042082979782467715 0 0.0012710429525086804 0.042123603127289744 0 0.0010915984851291069 0.041870688454288568 0 0.0012073218048495261 0.042301181938418635 0 0.0012710429525086804 0.042123603127289744 0 0.001419451794875155 0.042339810066198941 0 0.001419451794875155 0.042339810066198941 0 0.001635559661233441 0.042401075964875572 0 0.0014889722805929892 0.042193483270321956 0 0.001635559661233441 0.042401075964875572 0 0.0014889722805929892 0.042193483270321956 0 0.0017322930832512639 0.04230354903556905 0 0.0012710429525086804 0.042123603127289744 0 0.001419451794875155 0.042339810066198941 0 0.0014889722805929892 0.042193483270321956 0 0.0014889722805929892 0.042193483270321956 0 0.0016066183936496922 0.042055325456312222 0 0.0013472480691542926 0.041942471678115718 0 0.0012710429525086804 0.042123603127289744 0 0.0014889722805929892 0.042193483270321956 0 0.0013472480691542926 0.041942471678115718 0 0.0014889722805929892 0.042193483270321956 0 0.0016066183936496922 0.042055325456312222 0 0.0017322930832512639 0.04230354903556905 0 0.0016066183936496922 0.042055325456312222 0 0.0013472480691542926 0.041942471678115718 0 0.0014942483859183211 0.041773218396416609 0 0.00086355874305319368 0.041629070991903237 0 0.0010915984851291069 0.041870688454288568 0 0.0011735460243142161 0.041632203130004465 0 0.0013472480691542926 0.041942471678115718 0 0.0011735460243142161 0.041632203130004465 0 0.0014942483859183211 0.041773218396416609 0 0.0010915984851291069 0.041870688454288568 0 0.0013472480691542926 0.041942471678115718 0 0.0011735460243142161 0.041632203130004465 0 0.0012710429525086804 0.042123603127289744 0 0.0010915984851291069 0.041870688454288568 0 0.0013472480691542926 0.041942471678115718 0 0.0020434025836220766 0.042536296961132411 0 0.0021990138140544546 0.042602188693469295 0 0.0020617914689706291 0.042362848368758102 0 0.0020434025836220766 0.042536296961132411 0 0.0021990138140544546 0.042602188693469295 0 0.0020619855560760261 0.04271931876394041 0 0.0021990138140544546 0.042602188693469295 0 0.0023509297594620656 0.042723930372041745 0 0.0020619855560760261 0.04271931876394041 0 0.0023509297594620656 0.042723930372041745 0 0.0020619855560760261 0.04271931876394041 0 0.0027970831942507649 0.042922816456021938 0 0.0023509297594620656 0.042723930372041745 0 0.0023999272662077586 0.042618231241272668 0 0.0025269866553635678 0.042755327987579514 0 0.0021990138140544546 0.042602188693469295 0 0.0023999272662077586 0.042618231241272668 0 0.0022568742024989415 0.042436880121390047 0 0.0021990138140544546 0.042602188693469295 0 0.0023509297594620656 0.042723930372041745 0 0.0023999272662077586 0.042618231241272668 0 0.0022568742024989415 0.042436880121390047 0 0.0024441444300835136 0.04244026067839389 0 0.0021977702699302573 0.042123679236840489 0 0.0023999272662077586 0.042618231241272668 0 0.0022568742024989415 0.042436880121390047 0 0.0024441444300835136 0.04244026067839389 0 0.0023999272662077586 0.042618231241272668 0 0.0024441444300835136 0.04244026067839389 0 0.0026294260412961126 0.042718871713332038 0 0.0020617914689706291 0.042362848368758102 0 0.0019673500343914867 0.042079391772227553 0 0.0021977702699302573 0.042123679236840489 0 0.0022568742024989415 0.042436880121390047 0 0.0020617914689706291 0.042362848368758102 0 0.0021977702699302573 0.042123679236840489 0 0.0021990138140544546 0.042602188693469295 0 0.0022568742024989415 0.042436880121390047 0 0.0020617914689706291 0.042362848368758102 0 0.0018339377723349012 0.042194757118406229 0 0.001757368053059021 0.041926918158591647 0 0.0019673500343914867 0.042079391772227553 0 0.0020617914689706291 0.042362848368758102 0 0.0018339377723349012 0.042194757118406229 0 0.0019673500343914867 0.042079391772227553 0 0.0016066183936496922 0.042055325456312222 0 0.0018339377723349012 0.042194757118406229 0 0.001757368053059021 0.041926918158591647 0 0.0018339377723349012 0.042194757118406229 0 0.0017322930832512639 0.04230354903556905 0 0.0019037804973607063 0.042413941269273066 0 0.0016066183936496922 0.042055325456312222 0 0.0018339377723349012 0.042194757118406229 0 0.0017322930832512639 0.04230354903556905 0 0.0020617914689706291 0.042362848368758102 0 0.0018339377723349012 0.042194757118406229 0 0.0019037804973607063 0.042413941269273066 0 0.0020434025836220766 0.042536296961132411 0 0.0020617914689706291 0.042362848368758102 0 0.0019037804973607063 0.042413941269273066 0 0.0020434025836220766 0.042536296961132411 0 0.0019037804973607063 0.042413941269273066 0 0.0020343457752254519 0.042630685344886593 0 0.0019037804973607063 0.042413941269273066 0 0.0018465507160074844 0.042494577875933207 0 0.0020343457752254519 0.042630685344886593 0 0.001635559661233441 0.042401075964875572 0 0.0017322930832512639 0.04230354903556905 0 0.0018465507160074844 0.042494577875933207 0 0.0017322930832512639 0.04230354903556905 0 0.0019037804973607063 0.042413941269273066 0 0.0018465507160074844 0.042494577875933207 0 0.001635559661233441 0.042401075964875572 0 0.0018465507160074844 0.042494577875933207 0 0.001750781796251573 0.042535812575325009 0 0.0018465507160074844 0.042494577875933207 0 0.0020343457752254519 0.042630685344886593 0 0.0018987963568044143 0.042598140534259407 0 0.0018465507160074844 0.042494577875933207 0 0.001750781796251573 0.042535812575325009 0 0.0018987963568044143 0.042598140534259407 0 0.0020385117106683803 0.042669038312928634 0 0.0019977721645065487 0.042515373360618891 0 0.0020343457752254519 0.042630685344886593 0 0.0020619855560760261 0.04271931876394041 0 0.001919596919509683 0.042593300788276112 0 0.0020343457752254519 0.042630685344886593 0 0.0019397739100930037 0.042652883013042042 0 0.0018987963568044143 0.042598140534259407 0 0.0020434025836220766 0.042536296961132411 0 0.0020343457752254519 0.042630685344886593 0 0.0020619855560760261 0.04271931876394041 0 0.0019397739100930037 0.042652883013042042 0 0.0019050037456408088 0.042870569272829125 0 0.0020574325781578463 0.042651832941549631 0 0.0020343457752254519 0.042630685344886593 0 0.0019397739100930037 0.042652883013042042 0 0.0020574325781578463 0.042651832941549631 0 0.0015976126809932748 0.042556786077843065 0 0.001750781796251573 0.042535812575325009 0 0.0017731861925698287 0.042675743957603672 0 0.001750781796251573 0.042535812575325009 0 0.0018987963568044143 0.042598140534259407 0 0.0017731861925698287 0.042675743957603672 0 0.0019397739100930037 0.042652883013042042 0 0.0018987963568044143 0.042598140534259407 0 0.0017731861925698287 0.042675743957603672 0 0.0016175434319327521 0.042820646088605023 0 0.0017731861925698287 0.042675743957603672 0 0.0019050037456408088 0.042870569272829125 0 0.0016175434319327521 0.042820646088605023 0 0.0015976126809932748 0.042556786077843065 0 0.0017731861925698287 0.042675743957603672 0 0.0019397739100930037 0.042652883013042042 0 0.0017731861925698287 0.042675743957603672 0 0.0019050037456408088 0.042870569272829125 0 0.0019050037456408088 0.042870569272829125 0 0.0018778254203074922 0.043248360770579683 0 0.0017419127344522395 0.043068833625703379 0 0.0018778254203074922 0.043248360770579683 0 0.0017419127344522395 0.043068833625703379 0 0.0017472220691450188 0.043255306808274205 0 0.0018778254203074922 0.043248360770579683 0 0.0018042649904264881 0.043245991507276073 0 0.0017472220691450188 0.043255306808274205 0 0.0017419127344522395 0.043068833625703379 0 0.0015712928245989995 0.043137632200076333 0 0.0017472220691450188 0.043255306808274205 0 0.0016175434319327521 0.042820646088605023 0 0.0019050037456408088 0.042870569272829125 0 0.0017419127344522395 0.043068833625703379 0 0.0016175434319327521 0.042820646088605023 0 0.0017419127344522395 0.043068833625703379 0 0.0015712928245989995 0.043137632200076333 0 0.0016002532323608854 0.042730966193583464 0 0.0014440562266522668 0.043369809829274242 0 0.0016175434319327521 0.042820646088605023 0 0.0013685426542691186 0.042947734308247477 0 0.0015712928245989995 0.043137632200076333 0 0.0010297522470375797 0.042863966042881632 0 0.0011619750400766098 0.042679660795551029 0 0.001274763719206041 0.04296821553640387 0 0.00091072368627290623 0.043170261894866273 0 0.0010297522470375797 0.042863966042881632 0 0.001274763719206041 0.04296821553640387 0 0.0011189081670684102 0.043058633613763796 0 0.0013636397711966469 0.043180997262961804 0 0.0012215880952864274 0.043265757603924225 0 -0.0011389468760161152 0.03896294323058392 0 0.0014440562266522668 0.043369809829274242 0 0.0011189081670684102 0.043058633613763796 0 0.0013685426542691186 0.042947734308247477 0 0.0013636397711966469 0.043180997262961804 0 0.0013636397711966469 0.043180997262961804 0 0.0015712928245989995 0.043137632200076333 0 0.001495145164652642 0.043300225178410819 0 0.0013685426542691186 0.042947734308247477 0 0.0013636397711966469 0.043180997262961804 0 0.0015712928245989995 0.043137632200076333 0 0.0015712928245989995 0.043137632200076333 0 0.001495145164652642 0.043300225178410819 0 0.0016414695192866224 0.043343738576210926 0 0.001495145164652642 0.043300225178410819 0 0.0013970709811412648 0.043346516084903787 0 0.0016414695192866224 0.043343738576210926 0 0.0010928863797923644 0.042622897208140255 0 0.00080256656795574949 0.0416255014401875 0 0.0013636397711966469 0.043180997262961804 0 0.0013812378276290417 0.043339465289373859 0 0.0012215880952864274 0.043265757603924225 0 0.0013636397711966469 0.043180997262961804 0 0.001495145164652642 0.043300225178410819 0 0.0013812378276290417 0.043339465289373859 0 0.00080256656795574949 0.0416255014401875 0 -0.00071587722745873324 0.037772628374255914 0 0.00033843209054422961 0.039286517155500314 0 -0.0011403457358407363 0.038710986102546648 0 -0.00060896134222441221 0.039765336960858801 0 -0.0011689316501209751 0.03759263502895821 0 -0.00071587722745873324 0.037772628374255914 0 0.00080256656795574949 0.0416255014401875 0 -0.0011689316501209751 0.03759263502895821 0 -0.0034071201534780684 0.030575238864869424 0 -0.0033805921096493404 0.030442551624541125 0 -0.0034328034944227769 0.030488492609369824 0 -0.0016498335434322272 0.035927635667861044 0 0.00096037794795293631 0.042042753978061148 0 -0.00071587722745873324 0.037772628374255914 0 0.00096037794795293631 0.042042753978061148 0 -0.0018497305886573884 0.038204296614499957 0 -0.00034473193959824852 0.037433841719154801 0 0.0009091766673662271 0.039928864638996052 0 -0.0016498335434322272 0.035927635667861044 0 -0.00071587722745873324 0.037772628374255914 0 7.2888021561672258e-05 0.042808772363125171 0 0.00023769402187692588 0.042890434595515566 0 0.00016188189609553534 0.042995899491505785 0 0.00023908376064173345 0.042737090701847009 0 7.2888021561672258e-05 0.042808772363125171 0 0.00023769402187692588 0.042890434595515566 0 0.00023769402187692588 0.042890434595515566 0 0.00016188189609553534 0.042995899491505785 0 0.00046936751265271872 0.043016979080678433 0 0.00052061718603310192 0.043849048110360639 0 0.00052285584024407768 0.043837722296991691 0 0.00051929837617602063 0.043843825372845362 0 0.00052285584024407768 0.043837722296991691 0 0.00052142428329156765 0.043833209687163296 0 0.00051929837617602063 0.043843825372845362 0 0.00099435198512445974 0.042177901297976453 0 0.00096037794795293631 0.042042753978061148 0 0.00050908922918475256 0.043817517306759708 0 0.00052142428329156765 0.043833209687163296 0 0.00051929837617602063 0.043843825372845362 0 0.00080256656795574949 0.0416255014401875 0 0.0012851761783338098 0.043444437122887522 0 0.0006064527049040692 0.043307361974212498 0 0.00016188189609553534 0.042995899491505785 0 0.00046936751265271872 0.043016979080678433 0 0.00023908376064173345 0.042737090701847009 0 0.00046936751265271872 0.043016979080678433 0 0.00077088726013132907 0.042992908917028443 0 0.0013970709811412648 0.043346516084903787 0 0.0017069872867525203 0.043458994833443149 0 0.0016414695192866224 0.043343738576210926 0 0.00052042909365319131 0.043865802854509993 0 0.00052285584024407768 0.043837722296991691 0 0.00052329941035988796 0.043835337367161512 0 0.00023908376064173345 0.042737090701847009 0 0.00023769402187692588 0.042890434595515566 0 0.00046936751265271872 0.043016979080678433 0 0.0006064527049040692 0.043307361974212498 0 0.00046936751265271872 0.043016979080678433 0 0.00077088726013132907 0.042992908917028443 0 0.0019417940959925053 0.043536645506559314 0 0.0017069872867525203 0.043458994833443149 0 0.0018594260891766435 0.04343351852325375 0 0.0015858182571755284 0.04328108368816156 0 0.0012851761783338098 0.043444437122887522 0 0.0015858182571755284 0.04328108368816156 0 0.0018364564065116743 0.043336552945013755 0 0.0018051426554347029 0.04320244804156393 0 0.0018042649904264881 0.043245991507276073 0 0.0017472220691450188 0.043255306808274205 0 0.0018364564065116743 0.043336552945013755 0 0.0017481834752058321 0.043244409274104077 0 0.0018778254203074922 0.043248360770579683 0 0.0018042649904264881 0.043245991507276073 0 0.0017487195117968628 0.04324562411482312 0 0.0018051426554347029 0.04320244804156393 0 0.0018042649904264881 0.043245991507276073 0 0.0017487195117968628 0.04324562411482312 0 0.0017069872867525203 0.043458994833443149 0 0.0017472220691450188 0.043255306808274205 0 0.0016414695192866224 0.043343738576210926 0 0.0015712928245989995 0.043137632200076333 0 0.0017472220691450188 0.043255306808274205 0 0.0016414695192866224 0.043343738576210926 0 0.0017069872867525203 0.043458994833443149 0 0.0018594260891766435 0.04343351852325375 0 0.0017472220691450188 0.043255306808274205 0 0.0016098662576879423 0.043267864024354903 0 0.0016427988784898596 0.043188202757981776 0 0.0015411181113448315 0.043188581863544975 0 0.0016098662576879423 0.043267864024354903 0 0.0017487195117968628 0.04324562411482312 0 0.0016427988784898596 0.043188202757981776 0 0.0016098662576879423 0.043267864024354903 0 0.0015411181113448315 0.043188581863544975 0 0.0014662481444978255 0.043277625913755988 0 0.0016098662576879423 0.043267864024354903 0 0.0014662481444978255 0.043277625913755988 0 0.0015482267832484648 0.043377327709130886 0 0.0016098662576879423 0.043267864024354903 0 0.0017487195117968628 0.04324562411482312 0 0.0016864126158855014 0.043369052010476916 0 0.0017104456917186501 0.043175447295472513 0 0.0016509128129230048 0.043138185662315205 0 0.0016427988784898596 0.043188202757981776 0 0.0017487195117968628 0.04324562411482312 0 0.0017104456917186501 0.043175447295472513 0 0.0016427988784898596 0.043188202757981776 0 0.0018051426554347029 0.04320244804156393 0 0.0017487195117968628 0.04324562411482312 0 0.0017104456917186501 0.043175447295472513 0 0.0017305367989869029 0.043097646564840157 0 0.0018051426554347029 0.04320244804156393 0 0.0016910806213951083 0.04311684755272574 0 0.0018051426554347029 0.04320244804156393 0 0.0017104456917186501 0.043175447295472513 0 0.0016910806213951083 0.04311684755272574 0 0.0016266151963708142 0.043086408974041694 0 0.0016910806213951083 0.04311684755272574 0 0.0016509128129230048 0.043138185662315205 0 0.0017104456917186501 0.043175447295472513 0 0.0016910806213951083 0.04311684755272574 0 0.0016509128129230048 0.043138185662315205 0 0.0016509128129230048 0.043138185662315205 0 0.0016427988784898596 0.043188202757981776 0 0.0015863047546140685 0.043126423890059794 0 0.0016266151963708142 0.043086408974041694 0 0.0016509128129230048 0.043138185662315205 0 0.0015863047546140685 0.043126423890059794 0 0.0015411181113448315 0.043188581863544975 0 0.0015286060097058961 0.04313858129758498 0 0.0015863047546140685 0.043126423890059794 0 0.0016427988784898596 0.043188202757981776 0 0.0015411181113448315 0.043188581863544975 0 0.0015863047546140685 0.043126423890059794 0 0.0015392296042192023 0.043093288374766024 0 0.0015286060097058961 0.04313858129758498 0 0.0015863047546140685 0.043126423890059794 0 0.0015392296042192023 0.043093288374766024 0 0.0015286060097058961 0.04313858129758498 0 0.0014518386216642392 0.043142273211016637 0 0.0015411181113448315 0.043188581863544975 0 0.0015286060097058961 0.04313858129758498 0 0.0014518386216642392 0.043142273211016637 0 0.00039912027297177852 0.045793303453970848 0 0.00039567724061796158 0.045718431345832082 0 0.00048283889847960146 0.045688336416202513 0 0.00036882407317501083 0.04802578520725876 0 0.00037419562163202262 0.047781704865828056 0 0.00034812996862956564 0.045767721961637906 0 0.00039912027297177852 0.045793303453970848 0 0.00039567724061796158 0.045718431345832082 0 0.00039567724061796158 0.045718431345832082 0 0.00038171375905756869 0.045640347577653978 0 0.00048283889847960146 0.045688336416202513 0 0.00034812996862956564 0.045767721961637906 0 0.00039567724061796158 0.045718431345832082 0 0.00038171375905756869 0.045640347577653978 0 0.00096488466042459755 0.044123882811851201 0 0.00080172652480156755 0.044557987358349163 0 0.0014518386216642392 0.043142273211016637 0 0.0014662481444978255 0.043277625913755988 0 0.0012718329240428057 0.043310987901374637 0 0.0015411181113448315 0.043188581863544975 0 0.0014518386216642392 0.043142273211016637 0 0.0014662481444978255 0.043277625913755988 0 0.0014662481444978255 0.043277625913755988 0 0.0014183991447221306 0.043445117847673673 0 0.0015482267832484648 0.043377327709130886 0 0.0014183991447221306 0.043445117847673673 0 0.0012136499306266439 0.043740330285221708 0 0.001535784114956697 0.043568210097172162 0 0.0014183991447221306 0.043445117847673673 0 0.0012718329240428057 0.043310987901374637 0 0.0012136499306266439 0.043740330285221708 0 0.0014662481444978255 0.043277625913755988 0 0.0014183991447221306 0.043445117847673673 0 0.0012718329240428057 0.043310987901374637 0 0.0014183991447221306 0.043445117847673673 0 0.001535784114956697 0.043568210097172162 0 0.0015482267832484648 0.043377327709130886 0 0.00038171375905756869 0.045640347577653978 0 0.00045492447368118379 0.045601900044300807 0 0.00048283889847960146 0.045688336416202513 0 0.0012718329240428057 0.043310987901374637 0 0.0012136499306266439 0.043740330285221708 0 0.00089637002044814791 0.043985198450839154 0 0.00038171375905756869 0.045640347577653978 0 0.00042124219072090858 0.04551997409138743 0 0.00045492447368118379 0.045601900044300807 0 0.00080172652480156755 0.044557987358349163 0 0.00067398958935064462 0.044759111784532964 0 0.0012136499306266439 0.043740330285221708 0 0.001156194878983996 0.044168663038778345 0 0.00089637002044814791 0.043985198450839154 0 0.001156194878983996 0.044168663038778345 0 0.00089637002044814791 0.043985198450839154 0 0.0010541298070639539 0.044648348807654059 0 0.0012136499306266439 0.043740330285221708 0 0.001156194878983996 0.044168663038778345 0 0.0014303200235279592 0.044366857061034777 0 0.0012894407487725151 0.043823099529058107 0 0.0018115752663292019 0.043834476600177898 0 0.0012136499306266439 0.043740330285221708 0 0.001535784114956697 0.043568210097172162 0 0.0014881304842414963 0.043811289299477835 0 0.0012136499306266439 0.043740330285221708 0 0.0014303200235279592 0.044366857061034777 0 0.0021067524191049269 0.04442266184243409 0 0.0019394852994666751 0.043313660800355896 0 0.0017276052057680713 0.043195556265064182 0 0.001535784114956697 0.043568210097172162 0 0.0017358667725983884 0.043593638946788936 0 0.0015297776449725239 0.043839998640897111 0 0.001535784114956697 0.043568210097172162 0 0.0015297776449725239 0.043839998640897111 0 0.0014881304842414963 0.043811289299477835 0 0.001535784114956697 0.043568210097172162 0 0.0016864126158855014 0.043369052010476916 0 0.0017358667725983884 0.043593638946788936 0 0.001535784114956697 0.043568210097172162 0 0.0016864126158855014 0.043369052010476916 0 0.0015482267832484648 0.043377327709130886 0 0.0016098662576879423 0.043267864024354903 0 0.0016864126158855014 0.043369052010476916 0 0.0015482267832484648 0.043377327709130886 0 0.0018778254203074922 0.043248360770579683 0 0.0017487195117968628 0.04324562411482312 0 0.0016864126158855014 0.043369052010476916 0 0.0018778254203074922 0.043248360770579683 0 0.0016864126158855014 0.043369052010476916 0 0.0017358667725983884 0.043593638946788936 0 0.001877984900137237 0.043273693293521771 0 0.0019394852994666751 0.043313660800355896 0 0.0019050037456408088 0.042870569272829125 0 0.0018778254203074922 0.043248360770579683 0 0.0021327461613561386 0.043024748760862361 0 0.0019050037456408088 0.042870569272829125 0 0.0021327461613561386 0.043024748760862361 0 0.0021004878045047548 0.042850332315675164 0 0.0019050037456408088 0.042870569272829125 0 0.0021004878045047548 0.042850332315675164 0 0.0020574325781578463 0.042651832941549631 0 0.0021327461613561386 0.043024748760862361 0 0.0021004878045047548 0.042850332315675164 0 0.0023165526884341039 0.04285903717285551 0 0.0017276052057680713 0.043195556265064182 0 0.0019977721645065487 0.042515373360618891 0 0.0015519627891110237 0.042243953767291786 0 0.0016122471287343323 0.042457213368548116 0 0.001919596919509683 0.042593300788276112 0 0.0021004878045047548 0.042850332315675164 0 0.0023165526884341039 0.04285903717285551 0 0.0020574325781578463 0.042651832941549631 0 0.0017276052057680713 0.043195556265064182 0 0.0018115752663292019 0.043834476600177898 0 0.0015519627891110237 0.042243953767291786 0 0.0015211383431253402 0.042380249528474329 0 0.0016122471287343323 0.042457213368548116 0 0.0016122471287343323 0.042457213368548116 0 0.0016917161664374018 0.042631369759689113 0 0.001919596919509683 0.042593300788276112 0 0.0016122471287343323 0.042457213368548116 0 0.0016917161664374018 0.042631369759689113 0 0.001537995671240699 0.042595931464924124 0 0.0016122471287343323 0.042457213368548116 0 0.001537995671240699 0.042595931464924124 0 0.0014940544128968338 0.042475021081625076 0 0.0015211383431253402 0.042380249528474329 0 0.0016122471287343323 0.042457213368548116 0 0.0014940544128968338 0.042475021081625076 0 0.0016917161664374018 0.042631369759689113 0 0.001919596919509683 0.042593300788276112 0 0.0017546618873678912 0.042782519305449539 0 0.0016917161664374018 0.042631369759689113 0 0.001537995671240699 0.042595931464924124 0 0.0016030002198756626 0.042714741854958459 0 0.001537995671240699 0.042595931464924124 0 0.0016030002198756626 0.042714741854958459 0 0.0014750597938980004 0.042721888953459665 0 0.0020619855560760261 0.04271931876394041 0 0.0018706334440307887 0.042830623773814545 0 0.0018146286258306234 0.042982836515031944 0 0.0020619855560760261 0.04271931876394041 0 0.001919596919509683 0.042593300788276112 0 0.0019044771574487276 0.042739403366620188 0 0.0020619855560760261 0.04271931876394041 0 0.0019044771574487276 0.042739403366620188 0 0.0018706334440307887 0.042830623773814545 0 0.0021908341635406507 0.042783817431119621 0 0.0024770218469848128 0.043110301851259046 0 0.0018706334440307887 0.042830623773814545 0 0.0017736107025896391 0.042887158474780765 0 0.0018146286258306234 0.042982836515031944 0 0.0018706334440307887 0.042830623773814545 0 0.0017546618873678912 0.042782519305449539 0 0.0017736107025896391 0.042887158474780765 0 0.001919596919509683 0.042593300788276112 0 0.0019044771574487276 0.042739403366620188 0 0.0017546618873678912 0.042782519305449539 0 0.0019044771574487276 0.042739403366620188 0 0.0018706334440307887 0.042830623773814545 0 0.0017546618873678912 0.042782519305449539 0 0.0016917161664374018 0.042631369759689113 0 0.0017546618873678912 0.042782519305449539 0 0.0016030002198756626 0.042714741854958459 0 0.0017546618873678912 0.042782519305449539 0 0.0016030002198756626 0.042714741854958459 0 0.0015390478804702872 0.042840497674797473 0 0.0016030002198756626 0.042714741854958459 0 0.0015390478804702872 0.042840497674797473 0 0.0014750597938980004 0.042721888953459665 0 0.0017546618873678912 0.042782519305449539 0 0.0015390478804702872 0.042840497674797473 0 0.0016596243286791596 0.042943209875775053 0 0.0015390478804702872 0.042840497674797473 0 0.0016596243286791596 0.042943209875775053 0 0.001449431682993505 0.042974244884960822 0 0.0016596243286791596 0.042943209875775053 0 0.0017736107025896391 0.042887158474780765 0 0.0018146286258306234 0.042982836515031944 0 0.0017546618873678912 0.042782519305449539 0 0.0016596243286791596 0.042943209875775053 0 0.0017736107025896391 0.042887158474780765 0 0.0016596243286791596 0.042943209875775053 0 0.0018146286258306234 0.042982836515031944 0 0.0013752499186431282 0.043248945414675423 0 0.0024770218469848128 0.043110301851259046 0 0.0015172463165384817 0.043811836649654955 0 0.0031974167593397996 0.043607927303339983 0 0.0033069778176724792 0.043156053440389058 0 0.001131948095901007 0.04485959574844732 0 0.0031974167593397996 0.043607927303339983 0 0.001131948095901007 0.04485959574844732 0 0.0020565050999896413 0.045403445994902591 0 0.0029776063912014699 0.042788781617577556 0 0.0028611002477008343 0.042896208249655302 0 0.0030828444593340673 0.043167172244032916 0 0.0020619855560760261 0.04271931876394041 0 0.0027970831942507649 0.042922816456021938 0 0.0033069778176724792 0.043156053440389058 0 0.0031974167593397996 0.043607927303339983 0 0.0029776063912014699 0.042788781617577556 0 0.0030828444593340673 0.043167172244032916 0 0.0029776063912014699 0.042788781617577556 0 0.0028611002477008343 0.042896208249655302 0 0.0027072923709524732 0.04254514413004621 0 0.0024441444300835136 0.04244026067839389 0 0.0026294260412961126 0.042718871713332038 0 0.0027072923709524732 0.04254514413004621 0 0.0028611002477008343 0.042896208249655302 0 0.0026294260412961126 0.042718871713332038 0 0.0027072923709524732 0.04254514413004621 0 0.0028611002477008343 0.042896208249655302 0 0.0026294260412961126 0.042718871713332038 0 0.0027970831942507649 0.042922816456021938 0 0.0023509297594620656 0.042723930372041745 0 0.0025269866553635678 0.042755327987579514 0 0.0027970831942507649 0.042922816456021938 0 0.0026294260412961126 0.042718871713332038 0 0.0025269866553635678 0.042755327987579514 0 0.0027970831942507649 0.042922816456021938 0 0.0023999272662077586 0.042618231241272668 0 0.0026294260412961126 0.042718871713332038 0 0.0025269866553635678 0.042755327987579514 0 0.0027970831942507649 0.042922816456021938 0 0.0033069778176724792 0.043156053440389058 0 0.0030828444593340673 0.043167172244032916 0 0.0031974167593397996 0.043607927303339983 0 0.0033069778176724792 0.043156053440389058 0 0.0030828444593340673 0.043167172244032916 0 0.0028611002477008343 0.042896208249655302 0 0.0027970831942507649 0.042922816456021938 0 0.0030828444593340673 0.043167172244032916 0 0.0013752499186431282 0.043248945414675423 0 0.0011530072623395734 0.043150761479374966 0 0.0007751665950076975 0.043499672659131766 0 0.0015172463165384817 0.043811836649654955 0 -0.0005567121146577282 0.046883338439727106 0 0.0010433679227121566 0.043108263383603941 0 0.00092758601727736226 0.043160719369306391 0 0.0011526616851002922 0.042951525469437639 0 0.0010433679227121566 0.043108263383603941 0 0.00092758601727736226 0.043160719369306391 0 0.0011530072623395734 0.043150761479374966 0 0.0010433679227121566 0.043108263383603941 0 0.0011530072623395734 0.043150761479374966 0 0.0011526616851002922 0.042951525469437639 0 0.00064394995416684373 0.046239769696027951 0 -0.0005567121146577282 0.046883338439727106 0 -0.0013609059947429698 0.049527432265004327 0 -0.00096494491536981176 0.049502713048490105 0 -0.001243875301503059 0.049221497154511948 0 0.00092758601727736226 0.043160719369306391 0 0.0011530072623395734 0.043150761479374966 0 0.0007751665950076975 0.043499672659131766 0 0.0016596243286791596 0.042943209875775053 0 0.0013752499186431282 0.043248945414675423 0 0.001449431682993505 0.042974244884960822 0 0.0013752499186431282 0.043248945414675423 0 0.0013138989400284596 0.043027401569019477 0 0.001449431682993505 0.042974244884960822 0 0.0013752499186431282 0.043248945414675423 0 0.0011530072623395734 0.043150761479374966 0 0.0013138989400284596 0.043027401569019477 0 0.0011530072623395734 0.043150761479374966 0 0.0013138989400284596 0.043027401569019477 0 0.0011526616851002922 0.042951525469437639 0 0.0013138989400284596 0.043027401569019477 0 0.001347892909544365 0.042828524435442848 0 0.0011526616851002922 0.042951525469437639 0 0.0013138989400284596 0.043027401569019477 0 0.001449431682993505 0.042974244884960822 0 0.001347892909544365 0.042828524435442848 0 0.0015390478804702872 0.042840497674797473 0 0.001449431682993505 0.042974244884960822 0 0.001347892909544365 0.042828524435442848 0 0.001347892909544365 0.042828524435442848 0 0.0014750597938980004 0.042721888953459665 0 0.001416997065831481 0.042603419561213295 0 0.0015390478804702872 0.042840497674797473 0 0.001347892909544365 0.042828524435442848 0 0.0014750597938980004 0.042721888953459665 0 0.001347892909544365 0.042828524435442848 0 0.001416997065831481 0.042603419561213295 0 0.0012196902504067624 0.042688077234320061 0 0.001347892909544365 0.042828524435442848 0 0.0011526616851002922 0.042951525469437639 0 0.0012196902504067624 0.042688077234320061 0 0.0010082476229647528 0.045005291774286686 0 0.00078903209335317345 0.045407898853938838 0 -3.624224490394748e-05 0.045414268112364715 0 0.0010082476229647528 0.045005291774286686 0 0.0010149492545238573 0.044548317124088452 0 -3.624224490394748e-05 0.045414268112364715 0 0.00064394995416684373 0.046239769696027951 0 0.0014642483527357259 0.04342587058580287 0 0.0011216547024902076 0.044894294280601092 0 0.00013736387181399534 0.046885567740090672 0 0.0010082476229647528 0.045005291774286686 0 0.00078903209335317345 0.045407898853938838 0 0.0014623806749514037 0.044957901741671899 0 0.00087742974874354123 0.046209364820239608 0 0.00078903209335317345 0.045407898853938838 0 0.0014623806749514037 0.044957901741671899 0 0.00092758601727736226 0.043160719369306391 0 0.0011526616851002922 0.042951525469437639 0 0.0012196902504067624 0.042688077234320061 0 0.00087742974874354123 0.046209364820239608 0 0.00078903209335317345 0.045407898853938838 0 -3.624224490394748e-05 0.045414268112364715 0 0.00071098892205397632 0.045529378641612689 0 0.0010199695899617447 0.045503349944132743 0 0.00049603909169325649 0.045722434605580717 0 0.0010082476229647528 0.045005291774286686 0 0.0010149492545238573 0.044548317124088452 0 0.0014623806749514037 0.044957901741671899 0 0.0010199695899617447 0.045503349944132743 0 0.0009143534385546014 0.045256040246436799 0 0.0013153889534953975 0.04498161106902801 0 0.00071098892205397632 0.045529378641612689 0 0.0010199695899617447 0.045503349944132743 0 0.0009143534385546014 0.045256040246436799 0 0.00071098892205397632 0.045529378641612689 0 0.0009143534385546014 0.045256040246436799 0 0.00054414828994843185 0.045375689006618584 0 0.0011216547024902076 0.044894294280601092 0 0.0017316897799599244 0.043677068900079295 0 0.0010149492545238573 0.044548317124088452 0 0.0014623806749514037 0.044957901741671899 0 0.0020430684759633042 0.043712080543084772 0 0.0014642483527357259 0.04342587058580287 0 0.0017316897799599244 0.043677068900079295 0 0.001416997065831481 0.042603419561213295 0 0.0012196902504067624 0.042688077234320061 0 0.0014289874198043949 0.042342964212694435 0 0.0010199695899617447 0.045503349944132743 0 0.0019178980574179724 0.044843871235234735 0 0.0013153889534953975 0.04498161106902801 0 0.001537995671240699 0.042595931464924124 0 0.0014750597938980004 0.042721888953459665 0 0.001416997065831481 0.042603419561213295 0 0.001416997065831481 0.042603419561213295 0 0.0014940544128968338 0.042475021081625076 0 0.0014289874198043949 0.042342964212694435 0 0.001537995671240699 0.042595931464924124 0 0.001416997065831481 0.042603419561213295 0 0.0014940544128968338 0.042475021081625076 0 0.0015519627891110237 0.042243953767291786 0 0.0015211383431253402 0.042380249528474329 0 0.0014289874198043949 0.042342964212694435 0 0.0017276052057680713 0.043195556265064182 0 0.0017316897799599244 0.043677068900079295 0 0.0015211383431253402 0.042380249528474329 0 0.0014940544128968338 0.042475021081625076 0 0.0014289874198043949 0.042342964212694435 0 0.0019178980574179724 0.044843871235234735 0 0.0016015529889665274 0.044731372728632514 0 0.0017587403862162 0.044613198050166926 0 0.0019178980574179724 0.044843871235234735 0 0.0016015529889665274 0.044731372728632514 0 0.0013153889534953975 0.04498161106902801 0 0.0016015529889665274 0.044731372728632514 0 0.0014303200235279592 0.044366857061034777 0 0.0013153889534953975 0.04498161106902801 0 0.0016015529889665274 0.044731372728632514 0 0.0014303200235279592 0.044366857061034777 0 0.0017587403862162 0.044613198050166926 0 0.0019178980574179724 0.044843871235234735 0 0.0017587403862162 0.044613198050166926 0 0.0021067524191049269 0.04442266184243409 0 0.0018381779733778541 0.043462593438676971 0 0.0016612635520413244 0.043605620974524251 0 0.0017619761759997072 0.043397618849785075 0 0.0014303200235279592 0.044366857061034777 0 0.0017587403862162 0.044613198050166926 0 0.0021067524191049269 0.04442266184243409 0 0.0017316897799599244 0.043677068900079295 0 0.0018115752663292019 0.043834476600177898 0 0.00067398958935064462 0.044759111784532964 0 0.00053680308612063859 0.045335598752353642 0 0.00089637002044814791 0.043985198450839154 0 0.0010541298070639539 0.044648348807654059 0 0.00054414828994843185 0.045375689006618584 0 0.0009143534385546014 0.045256040246436799 0 0.0010541298070639539 0.044648348807654059 0 0.00054414828994843185 0.045375689006618584 0 0.0009143534385546014 0.045256040246436799 0 0.0013153889534953975 0.04498161106902801 0 0.0010541298070639539 0.044648348807654059 0 0.001156194878983996 0.044168663038778345 0 0.0014303200235279592 0.044366857061034777 0 0.0010541298070639539 0.044648348807654059 0 0.0014303200235279592 0.044366857061034777 0 0.0013153889534953975 0.04498161106902801 0 0.0010541298070639539 0.044648348807654059 0 0.00049506600847018327 0.045479505091241601 0 0.00051331304825157921 0.045487603552839213 0 0.00054414828994843185 0.045375689006618584 0 0.00042124219072090858 0.04551997409138743 0 0.00049506600847018327 0.045479505091241601 0 0.00054414828994843185 0.045375689006618584 0 0.00051331304825157921 0.045487603552839213 0 0.00054414828994843185 0.045375689006618584 0 0.00050667489204687607 0.045470602557434105 0 0.00053272275377686462 0.045513962876137112 0 0.00051331304825157921 0.045487603552839213 0 0.00050118359513981079 0.045470687621451622 0 0.00051331304825157921 0.045487603552839213 0 0.00050118359513981079 0.045470687621451622 0 0.00050667489204687607 0.045470602557434105 0 -0.00038411413283710944 0.050124638494151531 0 -0.00061015635667740944 0.049893358834422967 0 -0.00039333553195794783 0.049901087611352125 0 -0.00038411413283710944 0.050124638494151531 0 -0.0008237629126840655 0.049930213615023089 0 -0.00061015635667740944 0.049893358834422967 0 0.00050118359513981079 0.045470687621451622 0 0.00050667489204687607 0.045470602557434105 0 0.00047664641593400539 0.04563046169994954 0 2.294735236588516e-05 0.047749468738196944 0 7.7270307671666407e-05 0.047438431349228267 0 0.00054414828994843185 0.045375689006618584 0 0.00050667489204687607 0.045470602557434105 0 0.00053432147483177279 0.045521023798721479 0 0.00050667489204687607 0.045470602557434105 0 0.00053432147483177279 0.045521023798721479 0 0.00047664641593400539 0.04563046169994954 0 0.00071098892205397632 0.045529378641612689 0 0.00053432147483177279 0.045521023798721479 0 0.00055201198810855476 0.045602565004025007 0 0.00071098892205397632 0.045529378641612689 0 0.00054414828994843185 0.045375689006618584 0 0.00053432147483177279 0.045521023798721479 0 0.00071098892205397632 0.045529378641612689 0 0.00055201198810855476 0.045602565004025007 0 0.00049603909169325649 0.045722434605580717 0 -0.0013609059947429698 0.049527432265004327 0 -0.00092672042651221359 0.049869994021946022 0 -0.00085583498443612114 0.049693278681036873 0 0.00064394995416684373 0.046239769696027951 0 0.00013736387181399534 0.046885567740090672 0 -0.00085583498443612114 0.049693278681036873 0 -0.0008237629126840655 0.049930213615023089 0 -0.00061015635667740944 0.049893358834422967 0 -0.00092672042651221359 0.049869994021946022 0 -0.00085583498443612114 0.049693278681036873 0 -0.0008237629126840655 0.049930213615023089 0 0.00053432147483177279 0.045521023798721479 0 0.00055201198810855476 0.045602565004025007 0 0.00047664641593400539 0.04563046169994954 0 0.00055201198810855476 0.045602565004025007 0 0.00049603909169325649 0.045722434605580717 0 0.00047664641593400539 0.04563046169994954 0 0.00013736387181399534 0.046885567740090672 0 7.7270307671666407e-05 0.047438431349228267 0 -0.00039333553195794783 0.049901087611352125 0 -0.00059544450070775747 0.049714651700664678 0 -0.00029016405749989556 0.049738681121327608 0 -0.00061015635667740944 0.049893358834422967 0 -0.00039333553195794783 0.049901087611352125 0 -0.00059544450070775747 0.049714651700664678 0 -0.00085583498443612114 0.049693278681036873 0 -0.00061015635667740944 0.049893358834422967 0 -0.00059544450070775747 0.049714651700664678 0 -0.00066873457831839722 0.049416360251284111 0 -0.00029016405749989556 0.049738681121327608 0 -0.00040141685428558155 0.049402697608041501 0 -0.00059544450070775747 0.049714651700664678 0 -0.00075077878699902673 0.049597013800281059 0 -0.00066873457831839722 0.049416360251284111 0 -0.00059544450070775747 0.049714651700664678 0 -0.00066873457831839722 0.049416360251284111 0 -0.00029016405749989556 0.049738681121327608 0 -0.00085583498443612114 0.049693278681036873 0 -0.00059544450070775747 0.049714651700664678 0 -0.00075077878699902673 0.049597013800281059 0 -0.0013609059947429698 0.049527432265004327 0 -0.00085583498443612114 0.049693278681036873 0 -0.00096494491536981176 0.049502713048490105 0 -0.00066873457831839722 0.049416360251284111 0 -0.00096494491536981176 0.049502713048490105 0 -0.001243875301503059 0.049221497154511948 0 -0.00085583498443612114 0.049693278681036873 0 -0.00075077878699902673 0.049597013800281059 0 -0.00096494491536981176 0.049502713048490105 0 -0.00075077878699902673 0.049597013800281059 0 -0.00066873457831839722 0.049416360251284111 0 -0.00096494491536981176 0.049502713048490105 0 -1.0548130530384758e-07 0.050000033318781979 0 -0.00029016405749989556 0.049738681121327608 0 -0.00018580459481928909 0.049614640774557954 0 -0.00029016405749989556 0.049738681121327608 0 -0.00040141685428558155 0.049402697608041501 0 -0.00018580459481928909 0.049614640774557954 0 -0.00039333553195794783 0.049901087611352125 0 -0.00029016405749989556 0.049738681121327608 0 -0.00015260754442559944 0.049980779216626858 0 -1.0548130530384758e-07 0.050000033318781979 0 -7.8533135313184046e-08 0.050000260740396214 0 -0.00015260754442559944 0.049980779216626858 0 -1.0548130530384758e-07 0.050000033318781979 0 -0.00029016405749989556 0.049738681121327608 0 -0.00015260754442559944 0.049980779216626858 0 -7.8533135313184046e-08 0.050000260740396214 0 -0.00015260754442559944 0.049980779216626858 0 -0.00015101680268482276 0.050215231327233011 0 -0.00038411413283710944 0.050124638494151531 0 -0.00039333553195794783 0.049901087611352125 0 -0.00015260754442559944 0.049980779216626858 0 -0.00038411413283710944 0.050124638494151531 0 -0.00015260754442559944 0.049980779216626858 0 -0.00015101680268482276 0.050215231327233011 0 2.294735236588516e-05 0.047749468738196944 0 1.2418525730899641e-05 0.048562373269586789 0 0.00053272275377686462 0.045513962876137112 0 0.00050118359513981079 0.045470687621451622 0 0.00057694948681683662 0.045531100368285962 0 -1.5782485540066093e-09 0.049999978404345127 0 1.4666390099691563e-06 0.049995459017480835 0 1.9826127601663454e-06 0.050000657950415014 0 -8.1969084366432423e-07 0.050001289268429706 0 1.2418525730899641e-05 0.048562373269586789 0 -1.5782485540066093e-09 0.049999978404345127 0 1.9826127601663454e-06 0.050000657950415014 0 1.0779550701949395e-08 0.050000027459495805 0 1.1267308942252486e-05 0.05000944184515374 0 1.9826127601663454e-06 0.050000657950415014 0 6.8736182028137533e-06 0.049997843657774745 0 1.2418525730899641e-05 0.048562373269586789 0 0.00032823391117049278 0.049904295427434714 0 1.9826127601663454e-06 0.050000657950415014 0 1.0779550701949395e-08 0.050000027459495805 0 6.8736182028137533e-06 0.049997843657774745 0 1.0779550701949395e-08 0.050000027459495805 0 6.8736182028137533e-06 0.049997843657774745 0 -1.1648277526482828e-08 0.049999912373206827 0 6.8736182028137533e-06 0.049997843657774745 0 6.4156653949074579e-05 0.050012663745292438 0 6.3038278146953048e-06 0.049900496580823468 0 0.00053272275377686462 0.045513962876137112 0 0.00057694948681683662 0.045531100368285962 0 0.00054447247854841395 0.045584459455458443 0 1.2418525730899641e-05 0.048562373269586789 0 0.00038658012735660202 0.047651342458026519 0 1.1267308942252486e-05 0.05000944184515374 0 6.8736182028137533e-06 0.049997843657774745 0 6.4156653949074579e-05 0.050012663745292438 0 0.00051331304825157921 0.045487603552839213 0 0.00048803855400210666 0.045535883868410329 0 0.00054447247854841395 0.045584459455458443 0 0.00053272275377686462 0.045513962876137112 0 0.00051331304825157921 0.045487603552839213 0 0.00054447247854841395 0.045584459455458443 0 0.00042124219072090858 0.04551997409138743 0 0.00048803855400210666 0.045535883868410329 0 0.00045492447368118379 0.045601900044300807 0 0.00048803855400210666 0.045535883868410329 0 0.00045492447368118379 0.045601900044300807 0 0.00054447247854841395 0.045584459455458443 0 0.00042124219072090858 0.04551997409138743 0 0.00049506600847018327 0.045479505091241601 0 0.00048803855400210666 0.045535883868410329 0 0.00049506600847018327 0.045479505091241601 0 0.00051331304825157921 0.045487603552839213 0 0.00048803855400210666 0.045535883868410329 0 0.00045492447368118379 0.045601900044300807 0 0.00054447247854841395 0.045584459455458443 0 0.00048283889847960146 0.045688336416202513 0 0.00038658012735660202 0.047651342458026519 0 0.00037419562163202262 0.047781704865828056 0 6.4156653949074579e-05 0.050012663745292438 0 0.00024233867168025689 0.049939892305027024 0 6.3038278146953048e-06 0.049900496580823468 0 0.00024394811653778573 0.04960592823969532 0 0.00054626538245990542 0.049667303220892224 0 0.00024233867168025689 0.049939892305027024 0 -5.083938699963724e-06 0.04977620642775047 0 -1.7176036388530864e-06 0.0498847888745063 0 0.00024394811653778573 0.04960592823969532 0 0.00024233867168025689 0.049939892305027024 0 6.3038278146953048e-06 0.049900496580823468 0 -9.8128663250076866e-07 0.049581840890793233 0 0.00024394811653778573 0.04960592823969532 0 6.3038278146953048e-06 0.049900496580823468 0 -1.7675756347261263e-05 0.049974284344212833 0 6.3038278146953048e-06 0.049900496580823468 0 8.0969867893909108e-06 0.049967465737078248 0 2.4935759023788541e-08 0.04999995846573544 0 8.0969867893909108e-06 0.049967465737078248 0 -1.1648277526482828e-08 0.049999912373206827 0 6.3038278146953048e-06 0.049900496580823468 0 8.0969867893909108e-06 0.049967465737078248 0 -1.1648277526482828e-08 0.049999912373206827 0 6.8736182028137533e-06 0.049997843657774745 0 6.3038278146953048e-06 0.049900496580823468 0 -1.1648277526482828e-08 0.049999912373206827 0 0.0068665464370328893 0.0050746681436962451 0 0.0069962995566431301 0.00092859194741481325 0 0.0044541964955291226 0.0039815295595138304 0 0.0077979922047166188 0.0022013462867438794 0 0.0055838436264570093 -0.0013167631230600644 0 0.0068665464370328893 0.0050746681436962451 0 0.0095474780659352328 0.0047635644442133637 0 0.0069962995566431301 0.00092859194741481325 0 0.0045713542485913894 -0.0029643968963466946 0 0.0045662075357122273 -0.0030302502571672484 0 0.0045339413745527635 -0.0029160853945262477 0 0.0045963425570949177 -0.0029985487215008397 0 0.0045713542485913894 -0.0029643968963466946 0 0.0045662075357122273 -0.0030302502571672484 0 0.0069962995566431301 0.00092859194741481325 0 0.0028572496603651324 0.00036796121152663972 0 0.0044541964955291226 0.0039815295595138304 0 0.0061835894986558967 0.0074237941348897678 0 0.0053956355887958994 0.0062495712229588786 0 0.012593578172399826 0.01915444628719876 0 0.010253727414697936 0.019231688202171242 0 0.011750267976467629 0.023589335156726732 0 0.012593578172399826 0.01915444628719876 0 0.010253727414697936 0.019231688202171242 0 0.011391296635974759 0.016636077049333252 0 0.0094594533426560316 0.020394349823956551 0 0.0094167865387898529 0.021138433278448072 0 0.011750267976467629 0.023589335156726732 0 0.0097210335077528333 0.023959652523305428 0 0.0092114112836135572 0.021728241296759002 0 0.010253727414697936 0.019231688202171242 0 0.011750267976467629 0.023589335156726732 0 0.0092114112836135572 0.021728241296759002 0 0.006432779059206333 0.0086772691373471038 0 0.0061869336881836805 0.010063726393604299 0 0.0069404042023147369 0.0097223493891933754 0 0.0061835894986558967 0.0074237941348897678 0 0.00923833084957317 0.018294881310556409 0 0.0061869336881836805 0.010063726393604299 0 0.0069404042023147369 0.0097223493891933754 0 0.0067237678743504855 0.010701719139312237 0 0.0069404042023147369 0.0097223493891933754 0 0.0067237678743504855 0.010701719139312237 0 0.0074907959117253625 0.010741383472400374 0 0.0061869336881836805 0.010063726393604299 0 0.0067237678743504855 0.010701719139312237 0 0.0058714624828521593 0.011482651726552408 0 0.0097210335077528333 0.023959652523305428 0 0.010779719646688172 0.027078718356408044 0 0.0092378624793115118 0.025969277062866787 0 0.00923833084957317 0.018294881310556409 0 0.0083921133307113191 0.018401022540499665 0 0.011750267976467629 0.023589335156726732 0 0.0097210335077528333 0.023959652523305428 0 0.010779719646688172 0.027078718356408044 0 0.010779719646688172 0.027078718356408044 0 0.0092378624793115118 0.025969277062866787 0 0.0096300722318233764 0.027800911962672547 0 0.0067237678743504855 0.010701719139312237 0 0.0058714624828521593 0.011482651726552408 0 0.0070936711157278884 0.011541665390315137 0 0.0067237678743504855 0.010701719139312237 0 0.0070936711157278884 0.011541665390315137 0 0.0074907959117253625 0.010741383472400374 0 0.0061850187018728641 0.0077549813420739102 0 0.0086793256693497925 0.0085515926436675275 0 0.008201112503636079 0.011568258335555017 0 0.0070936711157278884 0.011541665390315137 0 0.0074907959117253625 0.010741383472400374 0 0.008201112503636079 0.011568258335555017 0 0.0069524621188531309 0.009410614605757945 0 0.0080449094345952325 0.011364543805977895 0 0.0068665464370328893 0.0050746681436962451 0 0.0044541964955291226 0.0039815295595138304 0 0.0061850187018728641 0.0077549813420739102 0 0.0053956355887958994 0.0062495712229588786 0 0.0069524621188531309 0.009410614605757945 0 0.0068665464370328893 0.0050746681436962451 0 0.0061850187018728641 0.0077549813420739102 0 0.0086793256693497925 0.0085515926436675275 0 0.0068665464370328893 0.0050746681436962451 0 0.0095474780659352328 0.0047635644442133637 0 0.0086793256693497925 0.0085515926436675275 0 0.0095474780659352328 0.0047635644442133637 0 0.0086793256693497925 0.0085515926436675275 0 0.012043076367689179 0.008678539111028798 0 0.0086793256693497925 0.0085515926436675275 0 0.008201112503636079 0.011568258335555017 0 0.0099137078926747127 0.011162075457651105 0 0.0086793256693497925 0.0085515926436675275 0 0.012043076367689179 0.008678539111028798 0 0.0099137078926747127 0.011162075457651105 0 0.0053964918247740813 -0.0034397798594045679 0 0.0067817385862289203 0.0043669937891582244 0 0.0053964918247740813 -0.0034397798594045679 0 0.0010370037726547853 -0.012111579728084633 0 0.0045963425570949177 -0.0029985487215008397 0 0.004609148816283438 -0.0030246758783821289 0 0.0046057907159758379 -0.0030582456609521877 0 0.0036795612692462356 -0.0023307490636237378 0 0.0043365634893556167 -0.0030572947053541717 0 0.0039670681098112632 -0.0036478266252663611 0 0.0016368887500943757 -0.015734279945384035 0 0.0016833320596048268 -0.0157808878599425 0 0.0015823932198104275 -0.015635451185679529 0 0.0016833320596048268 -0.0157808878599425 0 0.0018035102731028209 -0.015840813188055053 0 0.0015613681067536164 -0.015641435248089391 0 0.0053964918247740813 -0.0034397798594045679 0 0.0030339395849326004 -0.01046040915446037 0 0.0016368887500943757 -0.015734279945384035 0 0.0016833320596048268 -0.0157808878599425 0 0.0018222323446689707 -0.015820675703014434 0 0.0016833320596048268 -0.0157808878599425 0 0.0017969604649600418 -0.015874495057193305 0 0.0018222323446689707 -0.015820675703014434 0 0.0077979922047166188 0.0022013462867438794 0 0.0053964918247740813 -0.0034397798594045679 0 0.0016534346437299605 -0.016014621560387871 0 0.0017044427040247632 -0.016147541046664913 0 0.0018353468077165972 -0.015977498517210115 0 0.0017044427040247632 -0.016147541046664913 0 0.0018353468077165972 -0.015977498517210115 0 0.002009521289408029 -0.015930217198672582 0 0.0018353468077165972 -0.015977498517210115 0 0.0018035102731028209 -0.015840813188055053 0 0.0017969604649600418 -0.015874495057193305 0 0.0018353468077165972 -0.015977498517210115 0 0.0018035102731028209 -0.015840813188055053 0 0.002009521289408029 -0.015930217198672582 0 0.0016833320596048268 -0.0157808878599425 0 0.0018035102731028209 -0.015840813188055053 0 0.0017969604649600418 -0.015874495057193305 0 0.0018353468077165972 -0.015977498517210115 0 0.0017969604649600418 -0.015874495057193305 0 0.0017775761522530102 -0.01587555164462091 0 0.0017969604649600418 -0.015874495057193305 0 0.0017775761522530102 -0.01587555164462091 0 0.0018222323446689707 -0.015820675703014434 0 0.0016534346437299605 -0.016014621560387871 0 0.0018353468077165972 -0.015977498517210115 0 0.0017775761522530102 -0.01587555164462091 0 0.0016534346437299605 -0.016014621560387871 0 0.0016409742655330839 -0.015821409548050207 0 0.0017775761522530102 -0.01587555164462091 0 0.0016409742655330839 -0.015821409548050207 0 0.0017775761522530102 -0.01587555164462091 0 0.0018256733746083789 -0.015577602638087662 0 0.0017775761522530102 -0.01587555164462091 0 0.0018256733746083789 -0.015577602638087662 0 0.0018222323446689707 -0.015820675703014434 0 0.003282249486457574 -0.009283216864146869 0 0.0030339395849326004 -0.01046040915446037 0 0.0046778728805776139 -0.0031284696597876811 0 0.0046106702431512143 -0.0030834647075102489 0 0.0045996054488640272 -0.0031421361387804262 0 0.0046778728805776139 -0.0031284696597876811 0 0.0046057907159758379 -0.0030582456609521877 0 0.0046106702431512143 -0.0030834647075102489 0 0.0016409742655330839 -0.015821409548050207 0 0.0015966261253586114 -0.015463997116697164 0 0.0018256733746083789 -0.015577602638087662 0 0.0045963425570949177 -0.0029985487215008397 0 0.0046057907159758379 -0.0030582456609521877 0 0.0045662075357122273 -0.0030302502571672484 0 0.0046057907159758379 -0.0030582456609521877 0 0.0046106702431512143 -0.0030834647075102489 0 0.0045662075357122273 -0.0030302502571672484 0 0.0046106702431512143 -0.0030834647075102489 0 0.0045662075357122273 -0.0030302502571672484 0 0.0045996054488640272 -0.0031421361387804262 0 0.0045662075357122273 -0.0030302502571672484 0 0.0045440845083015817 -0.0031276608216504139 0 0.0045339413745527635 -0.0029160853945262477 0 0.0045662075357122273 -0.0030302502571672484 0 0.0045996054488640272 -0.0031421361387804262 0 0.0045440845083015817 -0.0031276608216504139 0 0.0045996054488640272 -0.0031421361387804262 0 0.0045440845083015817 -0.0031276608216504139 0 0.0045998620715926803 -0.0032526973314530388 0 0.00479829108072627 -0.0032760094617181185 0 0.0046778728805776139 -0.0031284696597876811 0 0.0046736822467906012 -0.003229849028120904 0 0.0031109336515359361 -0.0086183884058029618 0 0.003282249486457574 -0.009283216864146869 0 0.0015966261253586114 -0.015463997116697164 0 0.0016722044516261829 -0.015198537643984118 0 0.0018256733746083789 -0.015577602638087662 0 0.0046778728805776139 -0.0031284696597876811 0 0.0045996054488640272 -0.0031421361387804262 0 0.0046736822467906012 -0.003229849028120904 0 0.0045996054488640272 -0.0031421361387804262 0 0.0045998620715926803 -0.0032526973314530388 0 0.0046736822467906012 -0.003229849028120904 0 0.0045998620715926803 -0.0032526973314530388 0 0.0046736822467906012 -0.003229849028120904 0 0.0047183941759374043 -0.0033836155179261338 0 0.00479829108072627 -0.0032760094617181185 0 0.0046736822467906012 -0.003229849028120904 0 0.0047183941759374043 -0.0033836155179261338 0 0.0045998620715926803 -0.0032526973314530388 0 0.0047183941759374043 -0.0033836155179261338 0 0.0045880534968579644 -0.0033956059552269291 0 0.004606607001868962 -0.0035545341134392552 0 0.0045880534968579644 -0.0033956059552269291 0 0.0047104255318119346 -0.0035254872522635316 0 0.0047183941759374043 -0.0033836155179261338 0 0.0045880534968579644 -0.0033956059552269291 0 0.0047104255318119346 -0.0035254872522635316 0 0.0048547110200924974 -0.0035617056077540017 0 0.0047183941759374043 -0.0033836155179261338 0 0.0047104255318119346 -0.0035254872522635316 0 0.0045440845083015817 -0.0031276608216504139 0 0.0044687930357235747 -0.0032504254196272218 0 0.0045315275009811381 -0.0032654840595305436 0 0.0045440845083015817 -0.0031276608216504139 0 0.0045998620715926803 -0.0032526973314530388 0 0.0045315275009811381 -0.0032654840595305436 0 0.0045998620715926803 -0.0032526973314530388 0 0.0045880534968579644 -0.0033956059552269291 0 0.0045315275009811381 -0.0032654840595305436 0 0.0045880534968579644 -0.0033956059552269291 0 0.0045315275009811381 -0.0032654840595305436 0 0.0044740962553734779 -0.0033482277531785569 0 0.0045134185648420871 -0.0035070487441978423 0 0.0045880534968579644 -0.0033956059552269291 0 0.0044740962553734779 -0.0033482277531785569 0 0.0043320786151635369 -0.003232105840985355 0 0.0044687930357235747 -0.0032504254196272218 0 0.0044740962553734779 -0.0033482277531785569 0 0.0044687930357235747 -0.0032504254196272218 0 0.0045315275009811381 -0.0032654840595305436 0 0.0044740962553734779 -0.0033482277531785569 0 0.0043320786151635369 -0.003232105840985355 0 0.0044687930357235747 -0.0032504254196272218 0 0.0044580516482300167 -0.0032781958255457076 0 0.0044580516482300167 -0.0032781958255457076 0 0.0045926043234046591 -0.0032804386501742826 0 0.0044374657157542517 -0.0032554227009696708 0 0.0043320786151635369 -0.003232105840985355 0 0.0044580516482300167 -0.0032781958255457076 0 0.0045926043234046591 -0.0032804386501742826 0 0.0044580516482300167 -0.0032781958255457076 0 0.0044374657157542517 -0.0032554227009696708 0 0.0045119083703039657 -0.0030980784297971091 0 0.0044374657157542517 -0.0032554227009696708 0 0.0045119083703039657 -0.0030980784297971091 0 0.0043595087866809459 -0.0030189984974800916 0 0.0045926043234046591 -0.0032804386501742826 0 0.0044374657157542517 -0.0032554227009696708 0 0.0041514640550293028 -0.0032580286684628893 0 0.0044687930357235747 -0.0032504254196272218 0 0.0044580516482300167 -0.0032781958255457076 0 0.0045119083703039657 -0.0030980784297971091 0 0.0045440845083015817 -0.0031276608216504139 0 0.0044687930357235747 -0.0032504254196272218 0 0.0045119083703039657 -0.0030980784297971091 0 0.0045440845083015817 -0.0031276608216504139 0 0.0045119083703039657 -0.0030980784297971091 0 0.0045339413745527635 -0.0029160853945262477 0 0.0045119083703039657 -0.0030980784297971091 0 0.0045110307569107052 -0.0029035636949284837 0 0.0045339413745527635 -0.0029160853945262477 0 0.0045119083703039657 -0.0030980784297971091 0 0.0045110307569107052 -0.0029035636949284837 0 0.0043595087866809459 -0.0030189984974800916 0 0.0045110307569107052 -0.0029035636949284837 0 0.0045341519680372061 -0.0026013988279437951 0 0.0043595087866809459 -0.0030189984974800916 0 0.0045110307569107052 -0.0029035636949284837 0 0.0045339413745527635 -0.0029160853945262477 0 0.0045341519680372061 -0.0026013988279437951 0 0.0045713542485913894 -0.0029643968963466946 0 0.0045339413745527635 -0.0029160853945262477 0 0.0045341519680372061 -0.0026013988279437951 0 0.0055838436264570093 -0.0013167631230600644 0 0.0047053795506078232 -0.0024062226936812335 0 0.0099226089240140002 0.019842984788288213 0 0.010706208491547339 0.017976697633426495 0 0.0089868121223740868 0.017921260318270526 0 0.0094594533426560316 0.020394349823956551 0 0.0072352877297838479 0.0085686219672154729 0 0.0061835894986558967 0.0074237941348897678 0 0.0072352877297838479 0.0085686219672154729 0 0.0069962995566431301 0.00092859194741481325 0 0.0028572496603651324 0.00036796121152663972 0 0.0045341519680372061 -0.0026013988279437951 0 0.0061835894986558967 0.0074237941348897678 0 0.0038281017392953831 -0.005091228348376638 0 0.0037045025641173706 -0.0012941088748052508 0 0.0032507780046951156 -0.0023055187229942689 0 0.003800569274694617 -0.0026142381648118231 0 0.0028572496603651324 0.00036796121152663972 0 0.0045341519680372061 -0.0026013988279437951 0 0.003800569274694617 -0.0026142381648118231 0 0.0032507780046951156 -0.0023055187229942689 0 0.003800569274694617 -0.0026142381648118231 0 0.0041514640550293028 -0.0032580286684628893 0 0.003800569274694617 -0.0026142381648118231 0 0.0043595087866809459 -0.0030189984974800916 0 0.0041514640550293028 -0.0032580286684628893 0 0.0031469262039421032 0.0038497126160078679 0 0.0031057306085860996 0.0027855921259049921 0 0.0036634473014751775 0.0025958299558967025 0 0.0072352877297838479 0.0085686219672154729 0 0.0036333619570286003 -0.0017228656891092313 0 0.0045341519680372061 -0.0026013988279437951 0 0.003800569274694617 -0.0026142381648118231 0 0.0043595087866809459 -0.0030189984974800916 0 0.0031469262039421032 0.0038497126160078679 0 0.0031057306085860996 0.0027855921259049921 0 0.0025233009982491626 0.0024843673251663859 0 0.010706208491547339 0.017976697633426495 0 0.0089661052963916407 0.01473025459780844 0 0.0089868121223740868 0.017921260318270526 0 0.0072352877297838479 0.0085686219672154729 0 0.0059913743712007323 0.009593064953415012 0 0.0030993277074458495 0.0022160835945900692 0 0.0027799446826933228 0.0016223501620452169 0 0.0025233009982491626 0.0024843673251663859 0 0.0031057306085860996 0.0027855921259049921 0 0.0030993277074458495 0.0022160835945900692 0 0.0025233009982491626 0.0024843673251663859 0 0.0041785390753988974 0.0012049138384348295 0 0.0036634473014751775 0.0025958299558967025 0 0.0035700264001185221 0.0017089684331927125 0 0.0044374657157542517 -0.0032554227009696708 0 0.0043595087866809459 -0.0030189984974800916 0 0.0041514640550293028 -0.0032580286684628893 0 0.0030993277074458495 0.0022160835945900692 0 0.0036634473014751775 0.0025958299558967025 0 0.0035700264001185221 0.0017089684331927125 0 0.0043491386803306952 -0.00072848882449987051 0 0.0036333619570286003 -0.0017228656891092313 0 0.0031057306085860996 0.0027855921259049921 0 0.0030993277074458495 0.0022160835945900692 0 0.0036634473014751775 0.0025958299558967025 0 0.0032505940831293366 0.00056920280127308509 0 0.0041785390753988974 0.0012049138384348295 0 0.0035700264001185221 0.0017089684331927125 0 0.0032505940831293366 0.00056920280127308509 0 0.0035700264001185221 0.0017089684331927125 0 0.0024431996739919413 0.001239460008268994 0 0.0030993277074458495 0.0022160835945900692 0 0.0035700264001185221 0.0017089684331927125 0 0.0027799446826933228 0.0016223501620452169 0 0.0036830564219807564 0.0017744051668495812 0 0.0021581668347149369 0.0011547545353948771 0 0.0073059830221698339 0.011560530023961232 0 0.0089661052963916407 0.01473025459780844 0 0.0062366885177089042 0.012647386063945566 0 0.0037786396592574723 0.0041419115272898696 0 0.0021581668347149369 0.0011547545353948771 0 0.0020566282513309452 0.0014045068282318601 0 0.0027799446826933228 0.0016223501620452169 0 0.0025233009982491626 0.0024843673251663859 0 0.0037786396592574723 0.0041419115272898696 0 0.0059913743712007323 0.009593064953415012 0 0.0089661052963916407 0.01473025459780844 0 0.006046064558183171 0.014351999172355856 0 0.0064868041414597828 0.016000076543332763 0 0.0089661052963916407 0.01473025459780844 0 0.006046064558183171 0.014351999172355856 0 0.0062366885177089042 0.012647386063945566 0 0.006046064558183171 0.014351999172355856 0 0.0064868041414597828 0.016000076543332763 0 0.0053307628561809648 0.015503407603771557 0 0.006046064558183171 0.014351999172355856 0 0.0062366885177089042 0.012647386063945566 0 0.0047243002424173812 0.012871879076365531 0 0.0049373052815992286 0.01076722428951362 0 0.0062366885177089042 0.012647386063945566 0 0.0049116686094396985 0.011971844674792238 0 0.0049373052815992286 0.01076722428951362 0 0.0073059830221698339 0.011560530023961232 0 0.0062366885177089042 0.012647386063945566 0 0.0062366885177089042 0.012647386063945566 0 0.0049116686094396985 0.011971844674792238 0 0.0047243002424173812 0.012871879076365531 0 0.0037194683503285427 0.011592924190765639 0 0.0049116686094396985 0.011971844674792238 0 0.0047243002424173812 0.012871879076365531 0 0.0037194683503285427 0.011592924190765639 0 0.0047243002424173812 0.012871879076365531 0 0.0030787358568338773 0.013128568659792441 0 0.0047243002424173812 0.012871879076365531 0 0.0030787358568338773 0.013128568659792441 0 0.0019035346709161507 0.014284432261252745 0 0.004403064424818956 0.011979540350180088 0 0.0033231186719533952 0.018656727163532491 0 0.0037194683503285427 0.011592924190765639 0 0.0030787358568338773 0.013128568659792441 0 0.0019664830873867933 0.013783622810283912 0 0.0038839504972759797 0.010383915316944627 0 0.0030231275490176603 0.019211556382911506 0 0.0037194683503285427 0.011592924190765639 0 0.00192134717577805 0.011991631748340777 0 0.0016351166351661422 0.014386090878185728 0 0.0040744321984781673 0.027326958317880155 0 0.0044384652878869746 0.027767433868019151 0 0.003834554096299275 0.028173665601184249 0 0.0044384652878869746 0.027767433868019151 0 0.0043150202024323549 0.028842124437073798 0 0.003834554096299275 0.028173665601184249 0 0.0029351496443206951 0.021106721346844978 0 0.0030231275490176603 0.019211556382911506 0 0.0020339763524153415 0.014161122118524003 0 0.001737353293396239 0.016385643487411342 0 0.0030912015259922112 0.015475816371497142 0 0.0033231186719533952 0.018656727163532491 0 0.0026450569519570859 0.021436678702278604 0 0.0020339763524153415 0.014161122118524003 0 0.0043080519794958519 0.014645188303208899 0 0.0030912015259922112 0.015475816371497142 0 0.0041473166486533037 0.022018352988595565 0 0.0036868218920658368 0.025481355353953482 0 0.0033481680059967546 0.022394445538070643 0 0.0030787358568338773 0.013128568659792441 0 0.0019664830873867933 0.013783622810283912 0 0.0019035346709161507 0.014284432261252745 0 0.0042710944013899495 0.01988247021326885 0 0.0040975314975357354 0.021203269628716437 0 0.0026341843747001953 0.021883288010780429 0 0.0033231186719533952 0.018656727163532491 0 0.0030032951104947284 0.024184309772332983 0 0.0030231275490176603 0.019211556382911506 0 0.0030032951104947284 0.024184309772332983 0 0.0030231275490176603 0.019211556382911506 0 0.0033231186719533952 0.018656727163532491 0 0.0047243002424173812 0.012871879076365531 0 0.0020339763524153415 0.014161122118524003 0 0.0043080519794958519 0.014645188303208899 0 0.006046064558183171 0.014351999172355856 0 0.0047243002424173812 0.012871879076365531 0 0.0043080519794958519 0.014645188303208899 0 0.0043080519794958519 0.014645188303208899 0 0.0040666974110062934 0.015973340960917157 0 0.0030912015259922112 0.015475816371497142 0 0.006046064558183171 0.014351999172355856 0 0.0043080519794958519 0.014645188303208899 0 0.0053307628561809648 0.015503407603771557 0 0.0043080519794958519 0.014645188303208899 0 0.0040666974110062934 0.015973340960917157 0 0.0053307628561809648 0.015503407603771557 0 0.0040666974110062934 0.015973340960917157 0 0.0050015024793443122 0.016615988180088716 0 0.0053307628561809648 0.015503407603771557 0 0.0040666974110062934 0.015973340960917157 0 0.0030912015259922112 0.015475816371497142 0 0.0031122184364595468 0.016245372899337251 0 0.0040666974110062934 0.015973340960917157 0 0.0035576453862056368 0.017146059262793344 0 0.0031122184364595468 0.016245372899337251 0 0.0040666974110062934 0.015973340960917157 0 0.0035576453862056368 0.017146059262793344 0 0.0050015024793443122 0.016615988180088716 0 0.0035576453862056368 0.017146059262793344 0 0.0050015024793443122 0.016615988180088716 0 0.0046530457855966665 0.017747481481877398 0 0.0050015024793443122 0.016615988180088716 0 0.0046530457855966665 0.017747481481877398 0 0.0059426172155211208 0.017333070950781144 0 0.0026450569519570859 0.021436678702278604 0 0.0028392759031782067 0.027498715028547033 0 0.001737353293396239 0.016385643487411342 0 0.0030912015259922112 0.015475816371497142 0 0.0031122184364595468 0.016245372899337251 0 0.0035576453862056368 0.017146059262793344 0 0.001737353293396239 0.016385643487411342 0 0.0031122184364595468 0.016245372899337251 0 0.0026450569519570859 0.021436678702278604 0 0.0045781359677613109 0.021729824260881596 0 0.0045781359677613109 0.021729824260881596 0 0.0028392759031782067 0.027498715028547033 0 0.0032542661734771272 0.022780490294129287 0 0.0040138485036035768 0.023716551324523334 0 0.0031711616183016126 0.023435647713881864 0 0.0035576453862056368 0.017146059262793344 0 0.001737353293396239 0.016385643487411342 0 0.0039528667240690176 0.019183763730017005 0 0.0035576453862056368 0.017146059262793344 0 0.0046530457855966665 0.017747481481877398 0 0.0039528667240690176 0.019183763730017005 0 0.0038932096866376182 0.019194338346303266 0 0.0046136502987305858 0.018835211308246318 0 0.0040455754870143421 0.019383662178485452 0 0.0045781359677613109 0.021729824260881596 0 0.0049594525749615502 0.020645067142658839 0 0.0046530457855966665 0.017747481481877398 0 0.0046136502987305858 0.018835211308246318 0 0.005996821777961724 0.018710609780280576 0 0.0046530457855966665 0.017747481481877398 0 0.0039528667240690176 0.019183763730017005 0 0.0046136502987305858 0.018835211308246318 0 0.005996821777961724 0.018710609780280576 0 0.0074350891549045039 0.017515625702342018 0 0.0079123407455850489 0.019636615054495044 0 0.0046136502987305858 0.018835211308246318 0 0.005996821777961724 0.018710609780280576 0 0.0054900387639507022 0.019920820403740106 0 0.0046530457855966665 0.017747481481877398 0 0.005996821777961724 0.018710609780280576 0 0.0059426172155211208 0.017333070950781144 0 0.005996821777961724 0.018710609780280576 0 0.0059426172155211208 0.017333070950781144 0 0.0074350891549045039 0.017515625702342018 0 0.0099226089240140002 0.019842984788288213 0 0.0089868121223740868 0.017921260318270526 0 0.0079123407455850489 0.019636615054495044 0 0.0089868121223740868 0.017921260318270526 0 0.0074350891549045039 0.017515625702342018 0 0.0079123407455850489 0.019636615054495044 0 0.0089661052963916407 0.01473025459780844 0 0.0089868121223740868 0.017921260318270526 0 0.0074350891549045039 0.017515625702342018 0 0.0089661052963916407 0.01473025459780844 0 0.0074350891549045039 0.017515625702342018 0 0.0064868041414597828 0.016000076543332763 0 0.0050015024793443122 0.016615988180088716 0 0.0064868041414597828 0.016000076543332763 0 0.0053307628561809648 0.015503407603771557 0 0.0050015024793443122 0.016615988180088716 0 0.0059426172155211208 0.017333070950781144 0 0.0064868041414597828 0.016000076543332763 0 0.0059426172155211208 0.017333070950781144 0 0.0074350891549045039 0.017515625702342018 0 0.0064868041414597828 0.016000076543332763 0 0.00017280266625744424 0.028953952421252819 0 0.00112450916510796 0.02973470851882911 0 0.00031357441436058957 0.030213868845426529 0 0.00032515542989381492 0.038785750672768654 0 0.00052786170243684016 0.036698094576435823 0 -0.0007984849952371141 0.029813971342543932 0 0.00017280266625744424 0.028953952421252819 0 0.00031357441436058957 0.030213868845426529 0 -0.00026524764922197753 0.027784842985200831 0 0.00017280266625744424 0.028953952421252819 0 0.0014265718941607753 0.028823440778675432 0 0.0013786607860176829 0.027226629739278863 0 -0.00026524764922197753 0.027784842985200831 0 0.0014265718941607753 0.028823440778675432 0 0.0013786607860176829 0.027226629739278863 0 0.0014265718941607753 0.028823440778675432 0 0.0023060520603097557 0.028070702987647623 0 0.00017280266625744424 0.028953952421252819 0 0.0014265718941607753 0.028823440778675432 0 0.00112450916510796 0.02973470851882911 0 0.0014265718941607753 0.028823440778675432 0 0.00112450916510796 0.02973470851882911 0 0.0026963747260970445 0.029954176261607832 0 0.0014265718941607753 0.028823440778675432 0 0.0026963747260970445 0.029954176261607832 0 0.0030379524983292351 0.029035948870744288 0 0.0014265718941607753 0.028823440778675432 0 0.0023060520603097557 0.028070702987647623 0 0.0030379524983292351 0.029035948870744288 0 0.0025772758861711664 0.027155155016014669 0 0.0023060520603097557 0.028070702987647623 0 0.0031226209233192227 0.028130944237020433 0 0.0023060520603097557 0.028070702987647623 0 0.0031226209233192227 0.028130944237020433 0 0.0030379524983292351 0.029035948870744288 0 0.0031226209233192227 0.028130944237020433 0 0.0036580796574568605 0.028690577640893021 0 0.0030379524983292351 0.029035948870744288 0 0.0035148330288741684 0.027286077154033906 0 0.0031226209233192227 0.028130944237020433 0 0.003834554096299275 0.028173665601184249 0 0.0031226209233192227 0.028130944237020433 0 0.003834554096299275 0.028173665601184249 0 0.0036580796574568605 0.028690577640893021 0 0.0043150202024323549 0.028842124437073798 0 0.003834554096299275 0.028173665601184249 0 0.0036580796574568605 0.028690577640893021 0 0.0027617096979114472 0.029830664823607599 0 0.0030032951104947284 0.024184309772332983 0 0.0036868218920658368 0.025481355353953482 0 0.0033481680059967546 0.022394445538070643 0 0.0027012950403726556 0.024258227686556048 0 0.002394022931547733 0.030003531989085588 0 0.0055520700412607458 0.028449787860261783 0 0.0038735884416794359 0.030582314774321051 0 0.0043150202024323549 0.028842124437073798 0 0.0036580796574568605 0.028690577640893021 0 0.0039850220468242289 0.029270536324058731 0 0.0036580796574568605 0.028690577640893021 0 0.0039850220468242289 0.029270536324058731 0 0.0030379524983292351 0.029035948870744288 0 0.0026963747260970445 0.029954176261607832 0 0.0039850220468242289 0.029270536324058731 0 0.0030379524983292351 0.029035948870744288 0 0.0033481680059967546 0.022394445538070643 0 0.0027012950403726556 0.024258227686556048 0 0.0014609089215186831 0.024715859253620614 0 0.0030032951104947284 0.024184309772332983 0 0.0029753457537169728 0.027332011522735764 0 0.0037255101723177148 0.025530072742459047 0 0.0021563136217665506 0.02603609056577641 0 0.0033293099716033012 0.028577256808596012 0 0.0027012950403726556 0.024258227686556048 0 0.0014609089215186831 0.024715859253620614 0 0.0021563136217665506 0.02603609056577641 0 0.0037255101723177148 0.025530072742459047 0 0.0027012950403726556 0.024258227686556048 0 0.0021563136217665506 0.02603609056577641 0 0.0026450569519570859 0.021436678702278604 0 0.0037013610132320646 0.024092978800128409 0 0.0029753457537169728 0.027332011522735764 0 0.0014090428979734143 0.03413794036642822 0 0.0014609089215186831 0.024715859253620614 0 0.0021563136217665506 0.02603609056577641 0 -0.00044525031897579479 0.027092699359467586 0 0.0028392759031782067 0.027498715028547033 0 0.0014090428979734143 0.03413794036642822 0 0.0021563136217665506 0.02603609056577641 0 0.0033293099716033012 0.028577256808596012 0 -0.00044525031897579479 0.027092699359467586 0 0.0026404694557404986 0.031643223302090608 0 0.0016271040426075411 0.03127751770083087 0 0.0017114746847207835 0.032211634937906485 0 0.0014090428979734143 0.03413794036642822 0 0.00089625898079330663 0.038397543247922508 0 0.0016271040426075411 0.03127751770083087 0 0.00075114671224095757 0.032366214737799388 0 0.0017114746847207835 0.032211634937906485 0 0.002394022931547733 0.030003531989085588 0 0.0038735884416794359 0.030582314774321051 0 0.0021917501266068306 0.032665233041259394 0 0.0014090428979734143 0.03413794036642822 0 0.0011879576114432967 0.037005863265127351 0 0.0027617096979114472 0.029830664823607599 0 0.0011879576114432967 0.037005863265127351 0 0.002394022931547733 0.030003531989085588 0 0.0021917501266068306 0.032665233041259394 0 -0.00073042607518396718 0.031516333072902636 0 0.0014474616901386582 0.043290843400843791 0 0.0012103108667076182 0.043257001124230698 0 0.0011812961862499478 0.043444326834188945 0 0.0011652953122543806 0.043316977959628293 0 0.0010885743479086675 0.043395335522432563 0 0.0010629670021175576 0.043313300939564911 0 0.0011879576114432967 0.037005863265127351 0 0.00052786170243684016 0.036698094576435823 0 0.00112450916510796 0.02973470851882911 0 0.0014104202761376387 0.030629834108713786 0 0.00031357441436058957 0.030213868845426529 0 0.00112450916510796 0.02973470851882911 0 0.0026963747260970445 0.029954176261607832 0 0.0014104202761376387 0.030629834108713786 0 0.0011879576114432967 0.037005863265127351 0 3.5071588106960602e-05 0.04232102621111776 0 0.0012103108667076182 0.043257001124230698 0 0.0011812961862499478 0.043444326834188945 0 0.0010885743479086675 0.043395335522432563 0 0.0014474616901386582 0.043290843400843791 0 0.0011812961862499478 0.043444326834188945 0 0.0012013449652015598 0.043619418391367258 0 0.0011812961862499478 0.043444326834188945 0 0.00096569973312374963 0.043629893260627231 0 0.0012013449652015598 0.043619418391367258 0 0.0011812961862499478 0.043444326834188945 0 0.0010885743479086675 0.043395335522432563 0 0.00096569973312374963 0.043629893260627231 0 0.00099386710712668974 0.04346106378643582 0 0.0010885743479086675 0.043395335522432563 0 0.00096569973312374963 0.043629893260627231 0 0.00099386710712668974 0.04346106378643582 0 0.0010885743479086675 0.043395335522432563 0 0.0010629670021175576 0.043313300939564911 0 0.0009036074152561635 0.043245773918390337 0 0.00099386710712668974 0.04346106378643582 0 0.0010629670021175576 0.043313300939564911 0 0.00095069738296475477 0.043823018988923081 0 0.00096569973312374963 0.043629893260627231 0 0.0012013449652015598 0.043619418391367258 0 0.00037465187920444833 0.03941187336561626 0 0.00089625898079330663 0.038397543247922508 0 -0.0001180696981490806 0.033444289086740769 0 0.00075114671224095757 0.032366214737799388 0 0.0013449489836018375 0.033262619751110258 0 0.0015734923986662137 0.030018868859498667 0 0.00045579702718012992 0.029985234241656087 0 -0.0001180696981490806 0.033444289086740769 0 0.0013449489836018375 0.033262619751110258 0 0.00017452310461265347 0.033886109773775749 0 0.0013449489836018375 0.033262619751110258 0 0.0017114746847207835 0.032211634937906485 0 0.0025185649288479916 0.032619626713063066 0 0.00075114671224095757 0.032366214737799388 0 0.0013449489836018375 0.033262619751110258 0 0.0017114746847207835 0.032211634937906485 0 0.0028392759031782067 0.027498715028547033 0 0.0033310110091311542 0.02697642418160108 0 0.0026404694557404986 0.031643223302090608 0 0.0017114746847207835 0.032211634937906485 0 0.0025185649288479916 0.032619626713063066 0 0.0033310110091311542 0.02697642418160108 0 0.0039093806585762357 0.025431902199895495 0 0.0015734923986662137 0.030018868859498667 0 0.0033310110091311542 0.02697642418160108 0 0.0021440116517189123 0.026107329986433708 0 0.0037191746663638153 0.025328069389813562 0 0.0035374696996334385 0.026811527062952568 0 0.0040899942144575693 0.025151499830723994 0 0.003720379320953942 0.027155541555087707 0 0.0055798597240993928 0.026222135605043544 0 0.0039093806585762357 0.025431902199895495 0 0.0035447940227652276 0.027902365431697104 0 0.0035374696996334385 0.026811527062952568 0 0.0033895764850342654 0.028317579941992927 0 0.002242629901800716 0.027277013132241942 0 0.0033895764850342654 0.028317579941992927 0 0.002242629901800716 0.027277013132241942 0 0.0015991883088879489 0.028217477098252241 0 0.0033895764850342654 0.028317579941992927 0 0.0015991883088879489 0.028217477098252241 0 0.0020640659208661575 0.02928918521959285 0 0.0021440116517189123 0.026107329986433708 0 0.0035374696996334385 0.026811527062952568 0 0.002242629901800716 0.027277013132241942 0 0.002242629901800716 0.027277013132241942 0 0.0015991883088879489 0.028217477098252241 0 0.00044497816773510023 0.026924199482439719 0 0.0021440116517189123 0.026107329986433708 0 0.002242629901800716 0.027277013132241942 0 0.00044497816773510023 0.026924199482439719 0 0.0015991883088879489 0.028217477098252241 0 0.00025435931951760889 0.028289364813066757 0 0.00044497816773510023 0.026924199482439719 0 0.0015991883088879489 0.028217477098252241 0 0.00025435931951760889 0.028289364813066757 0 0.0004408539616827309 0.029643072799369778 0 -0.0013735362481966751 0.027898478448196158 0 -0.00068506186266898371 0.029119179937949859 0 0.00025435931951760889 0.028289364813066757 0 -0.00097092162900265196 0.03447037928361886 0 -0.0001180696981490806 0.033444289086740769 0 0.00017452310461265347 0.033886109773775749 0 -0.0013735362481966751 0.027898478448196158 0 0.00025435931951760889 0.028289364813066757 0 0.00044497816773510023 0.026924199482439719 0 -0.001104149672588506 0.034037585042875199 0 0.00045579702718012992 0.029985234241656087 0 0.0097210335077528333 0.023959652523305428 0 0.006319692329021207 0.02245933316819931 0 0.0092114112836135572 0.021728241296759002 0 0.006319692329021207 0.02245933316819931 0 0.0092114112836135572 0.021728241296759002 0 0.0074895654991017184 0.02101580482321027 0 0.0099226089240140002 0.019842984788288213 0 0.0092114112836135572 0.021728241296759002 0 0.0079123407455850489 0.019636615054495044 0 0.0092114112836135572 0.021728241296759002 0 0.0074895654991017184 0.02101580482321027 0 0.0079123407455850489 0.019636615054495044 0 0.0074895654991017184 0.02101580482321027 0 0.0079123407455850489 0.019636615054495044 0 0.00651277888590889 0.020296438639437198 0 0.006319692329021207 0.02245933316819931 0 0.0074895654991017184 0.02101580482321027 0 0.00651277888590889 0.020296438639437198 0 0.005996821777961724 0.018710609780280576 0 0.0079123407455850489 0.019636615054495044 0 0.00651277888590889 0.020296438639437198 0 0.006319692329021207 0.02245933316819931 0 0.00651277888590889 0.020296438639437198 0 0.0054900387639507022 0.019920820403740106 0 0.006319692329021207 0.02245933316819931 0 0.0054900387639507022 0.019920820403740106 0 0.0040455754870143421 0.019383662178485452 0 0.005996821777961724 0.018710609780280576 0 0.00651277888590889 0.020296438639437198 0 0.0054900387639507022 0.019920820403740106 0 0.0046136502987305858 0.018835211308246318 0 0.0054900387639507022 0.019920820403740106 0 0.0040455754870143421 0.019383662178485452 0 0.0080020757523581593 0.024417672149563488 0 0.0064410675780779466 0.022424563589380865 0 0.0059692189252822537 0.023332534288038002 0 0.0072487459696373392 0.023366553476284118 0 0.0047886361759242142 0.021473176444279433 0 0.0063389001276277918 0.022298100102007456 0 0.0064410675780779466 0.022424563589380865 0 0.0059692189252822537 0.023332534288038002 0 0.0045781359677613109 0.021729824260881596 0 0.0047886361759242142 0.021473176444279433 0 0.0043164786779965065 0.025264644176305445 0 0.0032599851619743007 0.024918306191743452 0 0.0031324353243332597 0.025898781473631245 0 0.0045781359677613109 0.021729824260881596 0 0.0033310110091311542 0.02697642418160108 0 0.0063389001276277918 0.022298100102007456 0 0.0043621394089397173 0.023313191584409327 0 0.0059692189252822537 0.023332534288038002 0 0.0043621394089397173 0.023313191584409327 0 0.0040899942144575693 0.025151499830723994 0 0.005828138214536583 0.024626194024764163 0 0.0043621394089397173 0.023313191584409327 0 0.0059692189252822537 0.023332534288038002 0 0.005828138214536583 0.024626194024764163 0 0.0080020757523581593 0.024417672149563488 0 0.0059692189252822537 0.023332534288038002 0 0.005828138214536583 0.024626194024764163 0 0.0080020757523581593 0.024417672149563488 0 0.005828138214536583 0.024626194024764163 0 0.0069171419766792192 0.025557909783398905 0 0.0069171419766792192 0.025557909783398905 0 0.0055798597240993928 0.026222135605043544 0 0.0071225579578534422 0.026746531518862405 0 0.005828138214536583 0.024626194024764163 0 0.0069171419766792192 0.025557909783398905 0 0.0055798597240993928 0.026222135605043544 0 0.0069171419766792192 0.025557909783398905 0 0.0071225579578534422 0.026746531518862405 0 0.0079387283991406155 0.025849380653823108 0 0.0040899942144575693 0.025151499830723994 0 0.005828138214536583 0.024626194024764163 0 0.0055798597240993928 0.026222135605043544 0 0.003720379320953942 0.027155541555087707 0 0.0055798597240993928 0.026222135605043544 0 0.0059141734129431259 0.028385394961777079 0 0.0055798597240993928 0.026222135605043544 0 0.0071225579578534422 0.026746531518862405 0 0.0059141734129431259 0.028385394961777079 0 0.0071225579578534422 0.026746531518862405 0 0.0077438819123869223 0.027865499658990048 0 0.0059141734129431259 0.028385394961777079 0 0.0081665238592774376 0.026889946472168965 0 0.0079387283991406155 0.025849380653823108 0 0.0092378624793115118 0.025969277062866787 0 0.0071225579578534422 0.026746531518862405 0 0.0081665238592774376 0.026889946472168965 0 0.0077438819123869223 0.027865499658990048 0 0.0071225579578534422 0.026746531518862405 0 0.0081665238592774376 0.026889946472168965 0 0.0079387283991406155 0.025849380653823108 0 0.0080020757523581593 0.024417672149563488 0 0.0069171419766792192 0.025557909783398905 0 0.0079387283991406155 0.025849380653823108 0 0.0080020757523581593 0.024417672149563488 0 0.0079387283991406155 0.025849380653823108 0 0.0092378624793115118 0.025969277062866787 0 0.0072487459696373392 0.023366553476284118 0 0.009120740437866948 0.025882826564935912 0 0.0097210335077528333 0.023959652523305428 0 0.006319692329021207 0.02245933316819931 0 0.0092378624793115118 0.025969277062866787 0 0.0081665238592774376 0.026889946472168965 0 0.0092378624793115118 0.025969277062866787 0 0.0087291498112397302 0.02800943489911277 0 0.0092378624793115118 0.025969277062866787 0 0.0096300722318233764 0.027800911962672547 0 0.0087291498112397302 0.02800943489911277 0 0.0096300722318233764 0.027800911962672547 0 0.0087291498112397302 0.02800943489911277 0 0.0092804070355440027 0.028459626301345711 0 0.0096300722318233764 0.027800911962672547 0 0.0092804070355440027 0.028459626301345711 0 0.010008860571475124 0.029041304812915694 0 0.0087291498112397302 0.02800943489911277 0 0.0092804070355440027 0.028459626301345711 0 0.0086649016520725756 0.02905491787005457 0 0.0092804070355440027 0.028459626301345711 0 0.0086649016520725756 0.02905491787005457 0 0.010008860571475124 0.029041304812915694 0 0.0086649016520725756 0.02905491787005457 0 0.0086647195129116519 0.028574034091308931 0 0.0084399847510346626 0.029037364491596315 0 0.0089770127187739218 0.028951051207669859 0 0.0075468840108198418 0.023621412245081849 0 0.0087291498112397302 0.02800943489911277 0 0.0086649016520725756 0.02905491787005457 0 0.0081494562272601528 0.029191580057462186 0 0.0086649016520725756 0.02905491787005457 0 0.0081494562272601528 0.029191580057462186 0 0.0085466914138042985 0.028783918410931982 0 0.0087291498112397302 0.02800943489911277 0 0.0081494562272601528 0.029191580057462186 0 0.0077438819123869223 0.027865499658990048 0 0.0081665238592774376 0.026889946472168965 0 0.0087291498112397302 0.02800943489911277 0 0.0077438819123869223 0.027865499658990048 0 0.0081494562272601528 0.029191580057462186 0 0.0077438819123869223 0.027865499658990048 0 0.0059141734129431259 0.028385394961777079 0 0.0059141734129431259 0.028385394961777079 0 0.0056949517707121254 0.030533863290192514 0 0.0033746417243756101 0.029667534621931464 0 0.0081494562272601528 0.029191580057462186 0 0.0056949517707121254 0.030533863290192514 0 0.007520489853562364 0.031555816459863432 0 0.0081494562272601528 0.029191580057462186 0 0.0059141734129431259 0.028385394961777079 0 0.0056949517707121254 0.030533863290192514 0 0.007520489853562364 0.031555816459863432 0 0.0058451929796270573 0.03253748968681313 0 0.0075856318283981997 0.033329981364526501 0 0.0056949517707121254 0.030533863290192514 0 0.007520489853562364 0.031555816459863432 0 0.0058451929796270573 0.03253748968681313 0 0.0056949517707121254 0.030533863290192514 0 0.0058451929796270573 0.03253748968681313 0 0.003575257974351809 0.031813693920163234 0 0.0058451929796270573 0.03253748968681313 0 0.0039911008053752743 0.034168506864066736 0 0.0060288353250976421 0.034496242828247523 0 0.0058451929796270573 0.03253748968681313 0 0.0075856318283981997 0.033329981364526501 0 0.0060288353250976421 0.034496242828247523 0 0.0075856318283981997 0.033329981364526501 0 0.0077492884663253776 0.034700707012177825 0 0.0060288353250976421 0.034496242828247523 0 0.0075856318283981997 0.033329981364526501 0 0.0090387509464187974 0.034258725839185933 0 0.0077492884663253776 0.034700707012177825 0 0.0075856318283981997 0.033329981364526501 0 0.0090387509464187974 0.034258725839185933 0 0.0096324166277544695 0.0324860443163719 0 0.0094088204667460706 0.031737226010650203 0 0.0084893230478068019 0.027851752423136922 0 0.0090387509464187974 0.034258725839185933 0 0.0096324166277544695 0.0324860443163719 0 0.010777562639035759 0.035284312711731824 0 0.0085466914138042985 0.028783918410931982 0 0.0086872778482930783 0.02969043959203423 0 0.0086647195129116519 0.028574034091308931 0 0.0086649016520725756 0.02905491787005457 0 0.0085466914138042985 0.028783918410931982 0 0.0086647195129116519 0.028574034091308931 0 0.0081494562272601528 0.029191580057462186 0 0.007520489853562364 0.031555816459863432 0 0.0096324166277544695 0.0324860443163719 0 0.0080467394271265813 0.028738665932056262 0 0.0094088204667460706 0.031737226010650203 0 0.007520489853562364 0.031555816459863432 0 0.0075856318283981997 0.033329981364526501 0 0.0096324166277544695 0.0324860443163719 0 -0.00052952947427284793 0.031283694395704678 0 0.0004408539616827309 0.029643072799369778 0 0.0014639859783101704 0.031209955932519927 0 -0.0010345034141609815 0.030135044289120543 0 -0.00052952947427284793 0.031283694395704678 0 0.0004408539616827309 0.029643072799369778 0 -0.0010345034141609815 0.030135044289120543 0 -0.00068506186266898371 0.029119179937949859 0 0.0004408539616827309 0.029643072799369778 0 -0.00068506186266898371 0.029119179937949859 0 0.00025435931951760889 0.028289364813066757 0 0.0004408539616827309 0.029643072799369778 0 0.0004408539616827309 0.029643072799369778 0 0.0014639859783101704 0.031209955932519927 0 0.0020640659208661575 0.02928918521959285 0 0.0015991883088879489 0.028217477098252241 0 0.0004408539616827309 0.029643072799369778 0 0.0020640659208661575 0.02928918521959285 0 0.0014639859783101704 0.031209955932519927 0 0.0033746417243756101 0.029667534621931464 0 0.003575257974351809 0.031813693920163234 0 0.0014639859783101704 0.031209955932519927 0 0.0020640659208661575 0.02928918521959285 0 0.0033746417243756101 0.029667534621931464 0 0.0033895764850342654 0.028317579941992927 0 0.0020640659208661575 0.02928918521959285 0 0.0033746417243756101 0.029667534621931464 0 0.0035447940227652276 0.027902365431697104 0 0.0033808292830285855 0.029477738816254002 0 0.003720379320953942 0.027155541555087707 0 0.0059141734129431259 0.028385394961777079 0 0.0033746417243756101 0.029667534621931464 0 0.0056949517707121254 0.030533863290192514 0 0.0033746417243756101 0.029667534621931464 0 0.003575257974351809 0.031813693920163234 0 0.0058451929796270573 0.03253748968681313 0 0.003575257974351809 0.031813693920163234 0 0.0039911008053752743 0.034168506864066736 0 0.003575257974351809 0.031813693920163234 0 0.0039911008053752743 0.034168506864066736 0 0.0018932278276372026 0.034179476231075027 0 0.0014639859783101704 0.031209955932519927 0 0.003575257974351809 0.031813693920163234 0 0.0018932278276372026 0.034179476231075027 0 0.0014639859783101704 0.031209955932519927 0 0.0018932278276372026 0.034179476231075027 0 -0.00022327621616076556 0.03307173037511453 0 0.0017767494823259036 0.034145361114870952 0 -0.0002752880803915381 0.033414000946805328 0 0.0018932278276372026 0.034179476231075027 0 -0.00052800570732589481 0.033675344012714714 0 0.00034168168920965623 0.035281981519820829 0 -0.00052952947427284793 0.031283694395704678 0 0.0014639859783101704 0.031209955932519927 0 -0.00022327621616076556 0.03307173037511453 0 -0.0013463502975383944 0.035711101338799803 0 -0.0018236990301083067 0.038240151154995711 0 -0.00014272276642605066 0.038283990391368081 0 -0.0013463502975383944 0.035711101338799803 0 0.00096911269043200589 0.036993317602654591 0 -0.00014272276642605066 0.038283990391368081 0 -0.0013463502975383944 0.035711101338799803 0 0.00034168168920965623 0.035281981519820829 0 0.00096911269043200589 0.036993317602654591 0 -0.0013463502975383944 0.035711101338799803 0 -0.00052800570732589481 0.033675344012714714 0 0.00034168168920965623 0.035281981519820829 0 0.0018932278276372026 0.034179476231075027 0 0.00034168168920965623 0.035281981519820829 0 0.0022838833269707018 0.036033509571136518 0 0.00034168168920965623 0.035281981519820829 0 0.00096911269043200589 0.036993317602654591 0 0.0022838833269707018 0.036033509571136518 0 0.0022838833269707018 0.036033509571136518 0 0.0045166634029740818 0.036139184413366797 0 0.0030019863955674077 0.037784841877545099 0 0.00096911269043200589 0.036993317602654591 0 0.0022838833269707018 0.036033509571136518 0 0.0030019863955674077 0.037784841877545099 0 0.0039911008053752743 0.034168506864066736 0 0.0018932278276372026 0.034179476231075027 0 0.0022838833269707018 0.036033509571136518 0 0.0039911008053752743 0.034168506864066736 0 0.0022838833269707018 0.036033509571136518 0 0.0045166634029740818 0.036139184413366797 0 0.0045166634029740818 0.036139184413366797 0 0.0030019863955674077 0.037784841877545099 0 0.0051098791484216538 0.038951899533386757 0 0.0026923452168151024 0.040326272425264841 0 0.0030019863955674077 0.037784841877545099 0 0.0051098791484216538 0.038951899533386757 0 0.0065947746490837957 0.02611354895099981 0 0.007428037097832514 0.025525202526476713 0 0.0074977184011447906 0.026297846439385538 0 0.0046414247481101024 0.033212137541715044 0 0.0062663784074094798 0.032190127848098243 0 0.0026923452168151024 0.040326272425264841 0 0.0030019863955674077 0.037784841877545099 0 0.0016258641325920717 0.038967278940281722 0 0.00096911269043200589 0.036993317602654591 0 0.0030019863955674077 0.037784841877545099 0 0.0016258641325920717 0.038967278940281722 0 0.0016258641325920717 0.038967278940281722 0 0.00016400238388900409 0.040381905733761797 0 -0.00014272276642605066 0.038283990391368081 0 0.00096911269043200589 0.036993317602654591 0 0.0016258641325920717 0.038967278940281722 0 -0.00014272276642605066 0.038283990391368081 0 0.0026923452168151024 0.040326272425264841 0 0.0016258641325920717 0.038967278940281722 0 0.00016400238388900409 0.040381905733761797 0 0.0026923452168151024 0.040326272425264841 0 0.00016400238388900409 0.040381905733761797 0 0.00052270511013565693 0.041239195507182982 0 0.00016400238388900409 0.040381905733761797 0 0.00018102040788326124 0.040964935168544034 0 0.00052270511013565693 0.041239195507182982 0 0.00015873784420461867 0.041074435907253161 0 0.00016400238388900409 0.040381905733761797 0 0.00018102040788326124 0.040964935168544034 0 -0.00072617135861637212 0.039906705320427817 0 8.9420592095233256e-05 0.040398285139372311 0 -0.0018236990301083067 0.038240151154995711 0 0.00016400238388900409 0.040381905733761797 0 -0.00014272276642605066 0.038283990391368081 0 0.0089579178975989337 0.024643193612835214 0 0.0092384027370405568 0.024281385324665575 0 0.0083153665388851928 0.024896493012037599 0 0.0085606752947002367 0.027416267889636137 0 0.0079848518157078132 0.031625966155427024 0 0.0089579178975989337 0.024643193612835214 0 0.0092734384928388949 0.02419085931721348 0 0.0091236577678056978 0.025171787919208155 0 0.0098929285376882555 0.036302507311290776 0 0.0085762150443877156 0.035709823184703213 0 0.0074708194528163088 0.037611649207388895 0 0.0096845855128115197 0.024542414605724434 0 0.0085606752947002367 0.027416267889636137 0 0.0092734384928388949 0.02419085931721348 0 0.0091236577678056978 0.025171787919208155 0 0.0098720944292442145 0.024154571300676407 0 0.006566026172022385 0.014819654173596382 0 0.0045502741425927891 0.011159587909430996 0 0.0085606752947002367 0.027416267889636137 0 0.0065222819779013879 0.020267072448849222 0 0.0092734384928388949 0.02419085931721348 0 0.0097514856384163604 0.023875887367942064 0 0.0098720944292442145 0.024154571300676407 0 0.0065222819779013879 0.020267072448849222 0 0.0045502741425927891 0.011159587909430996 0 0.0085606752947002367 0.027416267889636137 0 0.0084893230478068019 0.027851752423136922 0 0.0098929285376882555 0.036302507311290776 0 0.010777562639035759 0.035284312711731824 0 0.0085762150443877156 0.035709823184703213 0 0.0074671524321781582 0.025955877922604561 0 0.0093039957853981569 0.025015267937900768 0 0.0089730534983394616 0.024237156264649642 0 0.0065222819779013879 0.020267072448849222 0 0.0084893230478068019 0.027851752423136922 0 0.0090387509464187974 0.034258725839185933 0 0.010777562639035759 0.035284312711731824 0 0.0085762150443877156 0.035709823184703213 0 0.0090387509464187974 0.034258725839185933 0 0.0085762150443877156 0.035709823184703213 0 0.0077492884663253776 0.034700707012177825 0 0.0085762150443877156 0.035709823184703213 0 0.0077492884663253776 0.034700707012177825 0 0.0065428357289893284 0.036085138201356656 0 0.0077492884663253776 0.034700707012177825 0 0.0060288353250976421 0.034496242828247523 0 0.0065428357289893284 0.036085138201356656 0 0.0039911008053752743 0.034168506864066736 0 0.0045166634029740818 0.036139184413366797 0 0.0060288353250976421 0.034496242828247523 0 0.0045166634029740818 0.036139184413366797 0 0.0060288353250976421 0.034496242828247523 0 0.0065428357289893284 0.036085138201356656 0 0.0045166634029740818 0.036139184413366797 0 0.0065428357289893284 0.036085138201356656 0 0.0051098791484216538 0.038951899533386757 0 0.0065428357289893284 0.036085138201356656 0 0.0074708194528163088 0.037611649207388895 0 0.0051098791484216538 0.038951899533386757 0 0.0085762150443877156 0.035709823184703213 0 0.0065428357289893284 0.036085138201356656 0 0.0074708194528163088 0.037611649207388895 0 0.0083153665388851928 0.024896493012037599 0 0.007428037097832514 0.025525202526476713 0 0.0082835790941144499 0.025501277880552349 0 0.0083153665388851928 0.024896493012037599 0 0.0082835790941144499 0.025501277880552349 0 0.0086675024570462122 0.025055223089660829 0 0.0079848518157078132 0.031625966155427024 0 0.0062663784074094798 0.032190127848098243 0 0.007428037097832514 0.025525202526476713 0 0.0082835790941144499 0.025501277880552349 0 0.0074977184011447906 0.026297846439385538 0 0.0084725023092161317 0.026027004442350909 0 0.0082835790941144499 0.025501277880552349 0 0.0074977184011447906 0.026297846439385538 0 0.0059302736081581747 0.015019308230433549 0 0.006566026172022385 0.014819654173596382 0 0.0084725023092161317 0.026027004442350909 0 0.0082835790941144499 0.025501277880552349 0 0.0091236577678056978 0.025171787919208155 0 0.0034101511466567268 0.0040491480953760003 0 0.0035694256493734914 0.0037355925756655342 0 0.003690541073427118 0.0038476861998150954 0 0.0082835790941144499 0.025501277880552349 0 0.0091236577678056978 0.025171787919208155 0 0.0086675024570462122 0.025055223089660829 0 0.0089579178975989337 0.024643193612835214 0 0.0083153665388851928 0.024896493012037599 0 0.0086675024570462122 0.025055223089660829 0 0.0089579178975989337 0.024643193612835214 0 0.0091236577678056978 0.025171787919208155 0 0.0086675024570462122 0.025055223089660829 0 0.0035694256493734914 0.0037355925756655342 0 0.0037215967495710088 0.0035661537554221665 0 0.0036911172033087703 0.0035943602309562979 0 0.0035694256493734914 0.0037355925756655342 0 0.003690541073427118 0.0038476861998150954 0 0.0037215967495710088 0.0035661537554221665 0 0.003690541073427118 0.0038476861998150954 0 0.0038371764231779565 0.0037152112154950185 0 0.0037215967495710088 0.0035661537554221665 0 0.0038371764231779565 0.0037152112154950185 0 0.004076770474573773 0.0037310511507252352 0 0.0037957193730148607 0.0040236569287883843 0 0.003690541073427118 0.0038476861998150954 0 0.0038371764231779565 0.0037152112154950185 0 0.0037957193730148607 0.0040236569287883843 0 0.0038371764231779565 0.0037152112154950185 0 0.004076770474573773 0.0037310511507252352 0 0.004004118900425741 0.0035219207398788852 0 0.004004118900425741 0.0035219207398788852 0 0.0037215967495710088 0.0035661537554221665 0 0.0040127801420746807 0.0031810771064477998 0 0.0038371764231779565 0.0037152112154950185 0 0.004004118900425741 0.0035219207398788852 0 0.0037215967495710088 0.0035661537554221665 0 0.0019097267737708836 -0.017204623625038426 0 0.0029095323392128755 -0.015984835112941274 0 0.0026992866848336823 -0.0180051142926386 0 0.0036096276827648679 -0.0064370051702676394 0 0.0037071014953188744 -0.0068328385237998628 0 0.0019097267737708836 -0.017204623625038426 0 0.0015783688499868521 -0.018560475681184085 0 0.0026992866848336823 -0.0180051142926386 0 0.004076770474573773 0.0037310511507252352 0 0.0043895543509734755 0.0033844717546413746 0 0.0043831715378738157 0.0036827777778121471 0 0.004004118900425741 0.0035219207398788852 0 0.0043895543509734755 0.0033844717546413746 0 0.0040127801420746807 0.0031810771064477998 0 0.004076770474573773 0.0037310511507252352 0 0.004004118900425741 0.0035219207398788852 0 0.0043895543509734755 0.0033844717546413746 0 0.0029095323392128755 -0.015984835112941274 0 0.0021199532054252688 -0.016311353444413666 0 0.002022932415996821 -0.015660041628276066 0 0.0029095323392128755 -0.015984835112941274 0 0.0024884165700523844 -0.015359448057171694 0 0.002022932415996821 -0.015660041628276066 0 0.0019097267737708836 -0.017204623625038426 0 0.0029095323392128755 -0.015984835112941274 0 0.0021199532054252688 -0.016311353444413666 0 0.0024884165700523844 -0.015359448057171694 0 0.0022310907138000432 -0.014994736978549189 0 0.002022932415996821 -0.015660041628276066 0 0.0029095323392128755 -0.015984835112941274 0 0.0024884165700523844 -0.015359448057171694 0 0.0028224697549394718 -0.014924391768774397 0 0.0036096276827648679 -0.0064370051702676394 0 0.0036425985628893345 -0.0058264535449503536 0 0.0024884165700523844 -0.015359448057171694 0 0.0028224697549394718 -0.014924391768774397 0 0.0022310907138000432 -0.014994736978549189 0 0.0043895543509734755 0.0033844717546413746 0 0.0043920181459084278 0.0029452021916624065 0 0.0040127801420746807 0.0031810771064477998 0 0.0043920181459084278 0.0029452021916624065 0 0.0040148725013857776 0.0026369312031533482 0 0.0043407103818550782 0.0023823526534756693 0 0.0043920181459084278 0.0029452021916624065 0 0.0040127801420746807 0.0031810771064477998 0 0.0040148725013857776 0.0026369312031533482 0 0.0036425985628893345 -0.0058264535449503536 0 0.0034609913241373234 -0.006743508846510364 0 0.0028224697549394718 -0.014924391768774397 0 0.0028374938353494259 -0.014284717180985736 0 0.0023899838200194552 -0.014501382899314939 0 0.0028224697549394718 -0.014924391768774397 0 0.0023899838200194552 -0.014501382899314939 0 0.0022310907138000432 -0.014994736978549189 0 0.0037215967495710088 0.0035661537554221665 0 0.0037403793228016429 0.0032022251018828302 0 0.0040127801420746807 0.0031810771064477998 0 0.0037403793228016429 0.0032022251018828302 0 0.0034912605749372219 0.0031969483787599074 0 0.003718373312869365 0.0028754928399496219 0 0.0037215967495710088 0.0035661537554221665 0 0.0037403793228016429 0.0032022251018828302 0 0.0034912605749372219 0.0031969483787599074 0 0.0027020997930004729 0.0013132918257329491 0 0.0045502741425927891 0.011159587909430996 0 0.0037403793228016429 0.0032022251018828302 0 0.0040127801420746807 0.0031810771064477998 0 0.003718373312869365 0.0028754928399496219 0 0.0040127801420746807 0.0031810771064477998 0 0.0040148725013857776 0.0026369312031533482 0 0.003718373312869365 0.0028754928399496219 0 0.0036713156271973432 0.0037151728433826772 0 0.00049854084673416434 0.0054074457911425676 0 0.0033647978916926929 0.0018670805273214102 0 0.0036532957568889911 0.0032413992964211479 0 0.0037397137405872001 0.0093470305499973438 0 0.0033573570952137549 0.013524760994133279 0 0.0037798196197659476 0.014516523712726175 0 0.0055494196114118282 0.012386173542305841 0 0.0065222819779013879 0.020267072448849222 0 0.0037397137405872001 0.0093470305499973438 0 0.0023914186663031348 0.018610013894597363 0 0.0019921653293629442 0.01768082539795042 0 0.0051271531772367528 0.017156540667758246 0 0.0045502741425927891 0.011159587909430996 0 0.0037397137405872001 0.0093470305499973438 0 0.0019921653293629442 0.01768082539795042 0 0.0051271531772367528 0.017156540667758246 0 0.0047634941874516411 0.01439152382672235 0 0.0084893230478068019 0.027851752423136922 0 0.0071480260391839903 0.021267453246443208 0 0.0093404282509681417 0.02923574656110367 0 0.0086647195129116519 0.028574034091308931 0 0.010960828932572176 0.027934429129062601 0 0.0086872778482930783 0.02969043959203423 0 0.0093404282509681417 0.02923574656110367 0 0.0086647195129116519 0.028574034091308931 0 0.0051271531772367528 0.017156540667758246 0 0.0047634941874516411 0.01439152382672235 0 0.0079658511533816923 0.013678636902400412 0 0.0087042571475928962 0.029858984479438452 0 0.0075468840108198418 0.023621412245081849 0 0.0086647195129116519 0.028574034091308931 0 0.010960828932572176 0.027934429129062601 0 0.010388016739970104 0.026345466146792194 0 0.0086647195129116519 0.028574034091308931 0 0.0088127670286499132 0.025358936787286672 0 0.010388016739970104 0.026345466146792194 0 0.0075705335391801423 0.011028741111703847 0 0.0079658511533816923 0.013678636902400412 0 0.010888410895622515 0.010103058541742269 0 0.010960828932572176 0.027934429129062601 0 0.012826140899485583 0.025828175292516086 0 0.010388016739970104 0.026345466146792194 0 0.0088719575458703886 0.020658217916613462 0 0.0086866294881649299 0.0063531279485771223 0 0.0036713156271973432 0.0037151728433826772 0 0.0033647978916926929 0.0018670805273214102 0 0.006867480648902473 0.002028579021684242 0 0.0037397137405872001 0.0093470305499973438 0 0.0054106652632293032 0.0088985393877135024 0 0.0047634941874516411 0.01439152382672235 0 0.0075705335391801423 0.011028741111703847 0 0.0079658511533816923 0.013678636902400412 0 0.0071480260391839903 0.021267453246443208 0 0.0088719575458703886 0.020658217916613462 0 0.0033647978916926929 0.0018670805273214102 0 0.006867480648902473 0.002028579021684242 0 0.0062637147784201878 -0.0016584859492556215 0 0.0036532957568889911 0.0032413992964211479 0 0.0034609913241373234 -0.006743508846510364 0 0.0028374938353494259 -0.014284717180985736 0 0.0023899838200194552 -0.014501382899314939 0 0.002248077705568223 -0.014134385581117044 0 0.0034609913241373234 -0.006743508846510364 0 0.0018386064959863904 -0.014761815944244246 0 0.00090272352714234792 -0.013510313320707901 0 0.0012214523079811085 -0.013826424413200587 0 0.0010144354702152868 -0.013875536837564066 0 0.0012214523079811085 -0.013826424413200587 0 0.0010144354702152868 -0.013875536837564066 0 0.0012111880421785733 -0.014179583531217338 0 0.00090272352714234792 -0.013510313320707901 0 0.0010144354702152868 -0.013875536837564066 0 0.00085467680835738284 -0.013816020394433566 0 0.0054106652632293032 0.0088985393877135024 0 0.0047073513813920579 -0.0032849979299429208 0 0.0034609913241373234 -0.006743508846510364 0 0.0047073513813920579 -0.0032849979299429208 0 0.0010144354702152868 -0.013875536837564066 0 0.00088840519947243487 -0.013855827488243452 0 0.00085467680835738284 -0.013816020394433566 0 0.0010144354702152868 -0.013875536837564066 0 0.00088840519947243487 -0.013855827488243452 0 0.0010195072094219795 -0.014065360526975801 0 0.0051633119845922127 -0.0053202659401975824 0 0.0047073513813920579 -0.0032849979299429208 0 0.0047073513813920579 -0.0032849979299429208 0 0.0086866294881649299 0.0063531279485771223 0 0.0075705335391801423 0.011028741111703847 0 0.010888410895622515 0.010103058541742269 0 0.010481944612685338 0.0076209858932135312 0 0.00088840519947243487 -0.013855827488243452 0 0.0008570577239109397 -0.013798800325498567 0 0.00083617551958787791 -0.013970717647339542 0 0.012826140899485583 0.025828175292516086 0 0.014314416640842447 0.023892524877823 0 0.011494564308515419 0.024676337035429589 0 0.00088840519947243487 -0.013855827488243452 0 0.00083617551958787791 -0.013970717647339542 0 0.0010195072094219795 -0.014065360526975801 0 0.00083617551958787791 -0.013970717647339542 0 0.0010195072094219795 -0.014065360526975801 0 0.0010117483028490087 -0.014246189717622719 0 0.0086866294881649299 0.0063531279485771223 0 0.0077208529340090856 0.0058242121240853579 0 0.0010117483028490087 -0.014246189717622719 0 0.0012742666647656842 -0.014453834796998754 0 0.0012111880421785733 -0.014179583531217338 0 0.0010144354702152868 -0.013875536837564066 0 0.0010195072094219795 -0.014065360526975801 0 0.0012111880421785733 -0.014179583531217338 0 0.0010195072094219795 -0.014065360526975801 0 0.0010117483028490087 -0.014246189717622719 0 0.0012111880421785733 -0.014179583531217338 0 0.0077208529340090856 0.0058242121240853579 0 0.0023555719342692487 -0.0091064443071896331 0 0.004987564714924635 -0.003720021318653921 0 0.0043365634893556167 -0.0030572947053541717 0 0.0039670681098112632 -0.0036478266252663611 0 0.0081660705436824733 0.012664573230037944 0 0.008201112503636079 0.011568258335555017 0 0.0099137078926747127 0.011162075457651105 0 0.0077208529340090856 0.0058242121240853579 0 0.0067817385862289203 0.0043669937891582244 0 0.0070936711157278884 0.011541665390315137 0 0.008201112503636079 0.011568258335555017 0 0.0075060106115276172 0.012140119411832578 0 0.0070936711157278884 0.011541665390315137 0 0.0075060106115276172 0.012140119411832578 0 0.0068154793975293516 0.012787447400666226 0 0.0081660705436824733 0.012664573230037944 0 0.0075060106115276172 0.012140119411832578 0 0.0068154793975293516 0.012787447400666226 0 0.0077208529340090856 0.0058242121240853579 0 0.0096161447545928553 0.019272561050614537 0 0.0081660705436824733 0.012664573230037944 0 0.008201112503636079 0.011568258335555017 0 0.0075060106115276172 0.012140119411832578 0 0.0058714624828521593 0.011482651726552408 0 0.0070936711157278884 0.011541665390315137 0 0.0068154793975293516 0.012787447400666226 0 0.0058714624828521593 0.011482651726552408 0 0.0055707361921021612 0.013115623483587092 0 0.0068154793975293516 0.012787447400666226 0 0.010779719646688172 0.027078718356408044 0 0.0096300722318233764 0.027800911962672547 0 0.010008860571475124 0.029041304812915694 0 0.0083921133307113191 0.018401022540499665 0 0.0075468840108198418 0.023621412245081849 0 0.0075468840108198418 0.023621412245081849 0 0.0096161447545928553 0.019272561050614537 0 0.0088127670286499132 0.025358936787286672 0 0.010388016739970104 0.026345466146792194 0 0.011494564308515419 0.024676337035429589 0 0.012826140899485583 0.025828175292516086 0 0.010388016739970104 0.026345466146792194 0 0.011494564308515419 0.024676337035429589 0 0.0026112831206624521 -0.016107319615817642 0 0.0013445004392430538 -0.01379705304694369 0 0.002033073890416944 -0.014812594053424956 0 0.0018204258876641729 -0.015457441559985637 0 0.0016356490435759021 -0.014740998205284836 0 0.0044227387885855231 -0.018683997230560155 0 0.0031785037754226671 -0.019067590494253318 0 0.0038806714084584689 -0.020154748496135518 0 0.0044227387885855231 -0.018683997230560155 0 0.0031785037754226671 -0.019067590494253318 0 0.0027130988207094814 -0.017714072426945674 0 0.0026112831206624521 -0.016107319615817642 0 0.0024069408941992704 -0.017171104060134387 0 0.002225065762744251 -0.018697938051401474 0 0.0031785037754226671 -0.019067590494253318 0 0.002608873739828889 -0.020227858245497291 0 0.002225065762744251 -0.018697938051401474 0 0.0031785037754226671 -0.019067590494253318 0 0.0027130988207094814 -0.017714072426945674 0 0.002285945892362886 -0.016513829902425906 0 0.0017315804293523559 -0.016279663105102475 0 0.002009521289408029 -0.015930217198672582 0 0.0017044427040247632 -0.016147541046664913 0 0.0017315804293523559 -0.016279663105102475 0 0.002009521289408029 -0.015930217198672582 0 0.002033073890416944 -0.014812594053424956 0 0.002009521289408029 -0.015930217198672582 0 0.0018204258876641729 -0.015457441559985637 0 0.0018035102731028209 -0.015840813188055053 0 0.002009521289408029 -0.015930217198672582 0 0.0018204258876641729 -0.015457441559985637 0 0.0026112831206624521 -0.016107319615817642 0 0.0019550866312937577 -0.015658579186956841 0 0.0018035102731028209 -0.015840813188055053 0 0.0018204258876641729 -0.015457441559985637 0 0.0015613681067536164 -0.015641435248089391 0 0.0016833320596048268 -0.0157808878599425 0 0.0015613681067536164 -0.015641435248089391 0 0.0015823932198104275 -0.015635451185679529 0 0.0015922374337914466 -0.01305093790533972 0 0.0010370037726547853 -0.012111579728084633 0 0.0015613681067536164 -0.015641435248089391 0 0.001264298084906429 -0.015583663971229629 0 0.0016356490435759021 -0.014740998205284836 0 0.0010370037726547853 -0.012111579728084633 0 0.001192386233790138 -0.015388591864534555 0 0.0018204258876641729 -0.015457441559985637 0 0.0015613681067536164 -0.015641435248089391 0 0.0016356490435759021 -0.014740998205284836 0 0.0010370037726547853 -0.012111579728084633 0 0.0023555719342692487 -0.0091064443071896331 0 0.0036795612692462356 -0.0023307490636237378 0 0.0029103933541529481 -0.0035311406444205324 0 0.0039670681098112632 -0.0036478266252663611 0 0.0014731063274338793 -0.014599122334952377 0 0.0012742666647656842 -0.014453834796998754 0 0.0014193848820861306 -0.014469296301957965 0 0.0012742666647656842 -0.014453834796998754 0 0.0012111880421785733 -0.014179583531217338 0 0.0014193848820861306 -0.014469296301957965 0 0.0012111880421785733 -0.014179583531217338 0 0.0014193848820861306 -0.014469296301957965 0 0.0014719735091144835 -0.014214273159645805 0 0.002033073890416944 -0.014812594053424956 0 0.0016356490435759021 -0.014740998205284836 0 0.0014719735091144835 -0.014214273159645805 0 0.0014731063274338793 -0.014599122334952377 0 0.0016356490435759021 -0.014740998205284836 0 0.0014193848820861306 -0.014469296301957965 0 0.0016356490435759021 -0.014740998205284836 0 0.0014193848820861306 -0.014469296301957965 0 0.0014719735091144835 -0.014214273159645805 0 0.001791061764338867 -0.014038067803740764 0 0.0019470014528432727 -0.014345470131399741 0 0.0016293090449075115 -0.014291819801356062 0 0.0015106710693287301 -0.013932067014098524 0 0.001791061764338867 -0.014038067803740764 0 0.0016293090449075115 -0.014291819801356062 0 0.0012214523079811085 -0.013826424413200587 0 0.0012111880421785733 -0.014179583531217338 0 0.0014719735091144835 -0.014214273159645805 0 0.002248077705568223 -0.014134385581117044 0 0.001791061764338867 -0.014038067803740764 0 0.0019470014528432727 -0.014345470131399741 0 0.0018386064959863904 -0.014761815944244246 0 0.0013445004392430538 -0.01379705304694369 0 0.0023899838200194552 -0.014501382899314939 0 0.002248077705568223 -0.014134385581117044 0 0.0019470014528432727 -0.014345470131399741 0 0.0019470014528432727 -0.014345470131399741 0 0.0016293090449075115 -0.014291819801356062 0 0.0017404085721186011 -0.014902213751186512 0 0.0053677293923673521 -0.021305433743437605 0 0.0046674197007113855 -0.022475243098556766 0 0.0061501005988061387 -0.023690620707671223 0 0.0034885971966674102 -0.017759941178230793 0 0.0042620221115738195 -0.019662704730258485 0 0.0046674197007113855 -0.022475243098556766 0 0.0037426777031763815 -0.02168840260361684 0 0.0037615858753435112 -0.023497376970221223 0 0.0053677293923673521 -0.021305433743437605 0 0.0046674197007113855 -0.022475243098556766 0 0.0037426777031763815 -0.02168840260361684 0 0.0053677293923673521 -0.021305433743437605 0 0.0038806714084584689 -0.020154748496135518 0 0.0037426777031763815 -0.02168840260361684 0 0.0026112831206624521 -0.016107319615817642 0 0.0034885971966674102 -0.017759941178230793 0 0.0044227387885855231 -0.018683997230560155 0 0.0053677293923673521 -0.021305433743437605 0 0.0038806714084584689 -0.020154748496135518 0 0.0031785037754226671 -0.019067590494253318 0 0.0038806714084584689 -0.020154748496135518 0 0.002608873739828889 -0.020227858245497291 0 0.0038806714084584689 -0.020154748496135518 0 0.002608873739828889 -0.020227858245497291 0 0.0037426777031763815 -0.02168840260361684 0 0.002608873739828889 -0.020227858245497291 0 0.0037426777031763815 -0.02168840260361684 0 0.0026501609215138925 -0.022913172468954753 0 0.001856112033244187 -0.025068327991669779 0 0.0026501609215138925 -0.022913172468954753 0 0.0029545613103159332 -0.024571542987502658 0 0.0026501609215138925 -0.022913172468954753 0 0.0037615858753435112 -0.023497376970221223 0 0.0029545613103159332 -0.024571542987502658 0 0.0037426777031763815 -0.02168840260361684 0 0.0026501609215138925 -0.022913172468954753 0 0.0037615858753435112 -0.023497376970221223 0 0.0046674197007113855 -0.022475243098556766 0 0.0037615858753435112 -0.023497376970221223 0 0.0061501005988061387 -0.023690620707671223 0 0.0037615858753435112 -0.023497376970221223 0 0.0041697263152663559 -0.024918873433330043 0 0.0061501005988061387 -0.023690620707671223 0 0.001856112033244187 -0.025068327991669779 0 0.0029545613103159332 -0.024571542987502658 0 0.0027398709845329267 -0.025806799143964519 0 0.0037615858753435112 -0.023497376970221223 0 0.0041697263152663559 -0.024918873433330043 0 0.0029545613103159332 -0.024571542987502658 0 0.0041697263152663559 -0.024918873433330043 0 0.0029545613103159332 -0.024571542987502658 0 0.0027398709845329267 -0.025806799143964519 0 0.0023899838200194552 -0.014501382899314939 0 0.0017404085721186011 -0.014902213751186512 0 0.0022310907138000432 -0.014994736978549189 0 0.0023899838200194552 -0.014501382899314939 0 0.0019470014528432727 -0.014345470131399741 0 0.0017404085721186011 -0.014902213751186512 0 0.0041697263152663559 -0.024918873433330043 0 0.0061501005988061387 -0.023690620707671223 0 0.0053440543275590641 -0.025604047180935032 0 0.0061501005988061387 -0.023690620707671223 0 0.0070509906136782697 -0.025916712331760371 0 0.0053440543275590641 -0.025604047180935032 0 0.0017404085721186011 -0.014902213751186512 0 0.002022932415996821 -0.015660041628276066 0 0.0018790836658864496 -0.015788074922755399 0 0.0017404085721186011 -0.014902213751186512 0 0.0022310907138000432 -0.014994736978549189 0 0.002022932415996821 -0.015660041628276066 0 0.0042620221115738195 -0.019662704730258485 0 0.0026473669521845104 -0.019368562783629018 0 0.0019097267737708836 -0.017204623625038426 0 0.0021199532054252688 -0.016311353444413666 0 0.0015869976451955122 -0.015927276461315712 0 0.0013664954888516724 -0.015918824738257651 0 0.0026473669521845104 -0.019368562783629018 0 0.0021199532054252688 -0.016311353444413666 0 0.002022932415996821 -0.015660041628276066 0 0.0015869976451955122 -0.015927276461315712 0 0.0030197565752846027 -0.017704870318572888 0 0.0026473669521845104 -0.019368562783629018 0 0.0070509906136782697 -0.025916712331760371 0 0.0053440543275590641 -0.025604047180935032 0 0.0053350837755822096 -0.027314298387612249 0 0.0026473669521845104 -0.019368562783629018 0 0.0025390227358458011 -0.022291076566445914 0 0.0053440543275590641 -0.025604047180935032 0 0.0053350837755822096 -0.027314298387612249 0 0.0041795857707736458 -0.026185987016179975 0 -0.00056272388821788282 -0.017235279696668507 0 0.00077746520524968343 -0.017161617344588449 0 0.00056414893528105518 -0.018459024157588756 0 0.0019097267737708836 -0.017204623625038426 0 0.0012111639265409502 -0.015786616715139357 0 0.00077746520524968343 -0.017161617344588449 0 0.0012111639265409502 -0.015786616715139357 0 -0.00056272388821788282 -0.017235279696668507 0 0.00077746520524968343 -0.017161617344588449 0 0.0019097267737708836 -0.017204623625038426 0 0.00077746520524968343 -0.017161617344588449 0 0.00056414893528105518 -0.018459024157588756 0 0.0025946937097232857 -0.025711318490638565 0 0.0027590768050262831 -0.027240901025493366 0 0.0020787026167832031 -0.026129522459669988 0 0.0027398709845329267 -0.025806799143964519 0 0.0020535910822740118 -0.026340240096752857 0 0.0027398709845329267 -0.025806799143964519 0 0.0041795857707736458 -0.026185987016179975 0 0.0032178103716065448 -0.027257736211337195 0 0.0041697263152663559 -0.024918873433330043 0 0.0027398709845329267 -0.025806799143964519 0 0.0041795857707736458 -0.026185987016179975 0 0.0041697263152663559 -0.024918873433330043 0 0.0053440543275590641 -0.025604047180935032 0 0.0041795857707736458 -0.026185987016179975 0 0.0053350837755822096 -0.027314298387612249 0 0.0032178103716065448 -0.027257736211337195 0 0.0035698736689855825 -0.028669518975216423 0 0.0053350837755822096 -0.027314298387612249 0 0.0041795857707736458 -0.026185987016179975 0 0.0032178103716065448 -0.027257736211337195 0 0.0025390227358458011 -0.022291076566445914 0 0.0010617443051350219 -0.024644537924072632 0 0.0020535910822740118 -0.026340240096752857 0 0.0015903915355218934 -0.026412558551705188 0 0.0016529941824099878 -0.026426598965065596 0 0.0027590768050262831 -0.027240901025493366 0 0.0010617443051350219 -0.024644537924072632 0 0.0020787026167832031 -0.026129522459669988 0 0.001740218691887632 -0.026411063060550723 0 0.0020535910822740118 -0.026340240096752857 0 0.001740218691887632 -0.026411063060550723 0 0.0020535910822740118 -0.026340240096752857 0 0.0015903915355218934 -0.026412558551705188 0 0.0010617443051350219 -0.024644537924072632 0 0.00073509154927706296 -0.026510331672613855 0 0.0015903915355218934 -0.026412558551705188 0 0.0016529941824099878 -0.026426598965065596 0 0.0010366367734312143 -0.025858917454923733 0 -0.002279485042767644 -0.018708581743096194 0 -0.0017044296217786335 -0.020772653610873486 0 -0.00083830472735145966 -0.019033424229926429 0 -0.00056272388821788282 -0.017235279696668507 0 -0.002279485042767644 -0.018708581743096194 0 -0.00083830472735145966 -0.019033424229926429 0 0.0010617443051350219 -0.024644537924072632 0 -0.0015432244127967184 -0.022426113908556158 0 -0.0004298890940042288 -0.02691291886900285 0 -0.00087779957637694472 -0.025014762399670352 0 0.0010366367734312143 -0.025858917454923733 0 -0.00087779957637694472 -0.025014762399670352 0 0.00034236169051686061 -0.024143686933757999 0 0.0010366367734312143 -0.025858917454923733 0 0.00056414893528105518 -0.018459024157588756 0 0.00096625250765994123 -0.019270610979323255 0 0.00029460922312401382 -0.019928424518281463 0 0.0015783688499868521 -0.018560475681184085 0 0.00096625250765994123 -0.019270610979323255 0 0.0016152842441064848 -0.019777635065731783 0 0.0019097267737708836 -0.017204623625038426 0 0.0015783688499868521 -0.018560475681184085 0 0.00056414893528105518 -0.018459024157588756 0 0.0015783688499868521 -0.018560475681184085 0 0.00056414893528105518 -0.018459024157588756 0 0.00096625250765994123 -0.019270610979323255 0 -0.00056272388821788282 -0.017235279696668507 0 0.00056414893528105518 -0.018459024157588756 0 -0.00083830472735145966 -0.019033424229926429 0 0.00056414893528105518 -0.018459024157588756 0 -0.00083830472735145966 -0.019033424229926429 0 0.00029460922312401382 -0.019928424518281463 0 -0.0017044296217786335 -0.020772653610873486 0 -0.00083830472735145966 -0.019033424229926429 0 0.00029460922312401382 -0.019928424518281463 0 -0.0017044296217786335 -0.020772653610873486 0 0.00029460922312401382 -0.019928424518281463 0 8.9152907277228921e-05 -0.021807856228692874 0 0.00029460922312401382 -0.019928424518281463 0 0.0010767859724799876 -0.020873560051471812 0 8.9152907277228921e-05 -0.021807856228692874 0 0.00096625250765994123 -0.019270610979323255 0 0.00029460922312401382 -0.019928424518281463 0 0.0016152842441064848 -0.019777635065731783 0 0.0010767859724799876 -0.020873560051471812 0 0.0016152842441064848 -0.019777635065731783 0 0.002047037214057329 -0.020304678015809985 0 0.00029460922312401382 -0.019928424518281463 0 0.0010767859724799876 -0.020873560051471812 0 0.0016152842441064848 -0.019777635065731783 0 0.0010767859724799876 -0.020873560051471812 0 8.9152907277228921e-05 -0.021807856228692874 0 0.001227353526994815 -0.022233871463711408 0 -0.0017044296217786335 -0.020772653610873486 0 8.9152907277228921e-05 -0.021807856228692874 0 -0.00089938616858988257 -0.022928141264930906 0 8.9152907277228921e-05 -0.021807856228692874 0 -0.00089938616858988257 -0.022928141264930906 0 -0.00012529282987231837 -0.022945836148438401 0 -0.00089938616858988257 -0.022928141264930906 0 -0.00055874853943388382 -0.02298260602592354 0 -0.00012529282987231837 -0.022945836148438401 0 8.9152907277228921e-05 -0.021807856228692874 0 -0.00012529282987231837 -0.022945836148438401 0 0.001227353526994815 -0.022233871463711408 0 0.0013406307571195029 -0.015050622734016986 0 0.0014498070009320077 -0.015623008120612156 0 -0.00087779957637694472 -0.025014762399670352 0 0.00034236169051686061 -0.024143686933757999 0 -0.00089938616858988257 -0.022928141264930906 0 -0.0015432244127967184 -0.022426113908556158 0 -0.00090083732061848644 -0.023151650673453254 0 -0.00089938616858988257 -0.022928141264930906 0 -0.00022943749575342386 -0.023091321751367265 0 -0.00055874853943388382 -0.02298260602592354 0 0.00034236169051686061 -0.024143686933757999 0 -0.00089938616858988257 -0.022928141264930906 0 -0.00022943749575342386 -0.023091321751367265 0 0.00034236169051686061 -0.024143686933757999 0 -0.00022943749575342386 -0.023091321751367265 0 0.0003513027965502201 -0.023059979254480573 0 -0.00022943749575342386 -0.023091321751367265 0 -0.00029123974809981294 -0.022875628412901854 0 0.0003513027965502201 -0.023059979254480573 0 -0.0011405432902316737 -0.022153563080725133 0 0.00023912044009506469 -0.023060173059801032 0 -0.0020409415776879666 -0.021563884447200019 0 0.0003513027965502201 -0.023059979254480573 0 -0.00036581790329400378 -0.021243199535943672 0 -0.0020409415776879666 -0.021563884447200019 0 -0.0012951198377879872 -0.019960418284186768 0 -0.002599859392893397 -0.0197591098793727 0 -0.0020409415776879666 -0.021563884447200019 0 -0.0012951198377879872 -0.019960418284186768 0 -0.00036581790329400378 -0.021243199535943672 0 -0.0011405432902316737 -0.022153563080725133 0 -0.0023915253578525235 -0.02157121682240476 0 -0.00029123974809981294 -0.022875628412901854 0 -0.00049760071532307601 -0.023042549115834792 0 -0.00057052658723397989 -0.022576582195984424 0 -0.0020409415776879666 -0.021563884447200019 0 -0.0041475785429738211 -0.019909311562856517 0 -0.002599859392893397 -0.0197591098793727 0 -0.00029123974809981294 -0.022875628412901854 0 -0.00049760071532307601 -0.023042549115834792 0 -0.00055874853943388382 -0.02298260602592354 0 -0.00022943749575342386 -0.023091321751367265 0 -0.00029123974809981294 -0.022875628412901854 0 -0.00055874853943388382 -0.02298260602592354 0 -0.00049760071532307601 -0.023042549115834792 0 -0.00055874853943388382 -0.02298260602592354 0 -0.00012529282987231837 -0.022945836148438401 0 -0.00049760071532307601 -0.023042549115834792 0 -0.00012529282987231837 -0.022945836148438401 0 -4.0451777778434129e-05 -0.023156099037753324 0 -0.00012529282987231837 -0.022945836148438401 0 -4.0451777778434129e-05 -0.023156099037753324 0 0.0005418398390513577 -0.023189990551148995 0 -0.00012529282987231837 -0.022945836148438401 0 0.0005418398390513577 -0.023189990551148995 0 0.001227353526994815 -0.022233871463711408 0 0.0005418398390513577 -0.023189990551148995 0 -3.0137071994558664e-05 -0.023533826182268756 0 0.00029818474917294742 -0.023755801346783609 0 0.0013406307571195029 -0.015050622734016986 0 -0.00036637917734439878 -0.016616711512693862 0 -4.0451777778434129e-05 -0.023156099037753324 0 0.0005418398390513577 -0.023189990551148995 0 -3.0137071994558664e-05 -0.023533826182268756 0 -0.00066874568893820889 -0.022923909842060119 0 2.6795707583031616e-05 -0.023495265627542065 0 -0.00049760071532307601 -0.023042549115834792 0 -4.0451777778434129e-05 -0.023156099037753324 0 -3.0137071994558664e-05 -0.023533826182268756 0 -0.00049760071532307601 -0.023042549115834792 0 -0.0010056270954891613 -0.022736444988780115 0 -0.00057052658723397989 -0.022576582195984424 0 -0.0023915253578525235 -0.02157121682240476 0 -0.0031407111437111094 -0.017392282657111506 0 -0.0010056270954891613 -0.022736444988780115 0 -0.00057052658723397989 -0.022576582195984424 0 -0.0016730909036683568 -0.02209966346704454 0 -0.0041475785429738211 -0.019909311562856517 0 -0.0045806882115489948 -0.018578195591019621 0 -0.0062659268006193041 -0.01818779296404964 0 -0.0045806882115489948 -0.018578195591019621 0 -0.0042005463992066221 -0.018062643115661373 0 -0.0033071629022844795 -0.018847567659342181 0 -0.0041475785429738211 -0.019909311562856517 0 -0.0045806882115489948 -0.018578195591019621 0 -0.0033071629022844795 -0.018847567659342181 0 -0.00057052658723397989 -0.022576582195984424 0 -0.0016730909036683568 -0.02209966346704454 0 -0.0015945516571664053 -0.021555974529641083 0 2.6795707583031616e-05 -0.023495265627542065 0 -0.00036637917734439878 -0.016616711512693862 0 -0.00068920638813276946 -0.014511580907355314 0 -0.0005287970165963582 -0.013490367099667569 0 -0.0018779634044215072 -0.013413692920344585 0 -0.00036637917734439878 -0.016616711512693862 0 -0.0031407111437111094 -0.017392282657111506 0 -0.00036637917734439878 -0.016616711512693862 0 0.00063658396735119592 -0.0082681521596702882 0 -0.0010229488516024841 -0.013081049847109057 0 -0.0005287970165963582 -0.013490367099667569 0 -0.0018779634044215072 -0.013413692920344585 0 -0.0040431354955251979 -0.015679333699052792 0 -0.0040488944839826525 -0.015672305111070244 0 -0.0040162479464251628 -0.015646408272056368 0 -0.0040431354955251979 -0.015679333699052792 0 -0.0040605942365867093 -0.015663668846991403 0 -0.0040700588032563101 -0.0157073664196485 0 -0.0035758881996732642 -0.015375067850967622 0 -0.0035083230617968283 -0.015379972381606913 0 -0.0035083230617968283 -0.015379972381606913 0 -0.0031407111437111094 -0.017392282657111506 0 -0.0040605942365867093 -0.015663668846991403 0 -0.0041406703327538886 -0.015703304107267505 0 -0.0040700588032563101 -0.0157073664196485 0 -0.0035083230617968283 -0.015379972381606913 0 -0.0043668567342904181 -0.016572191329347678 0 -0.003683879352285974 -0.016158173826055593 0 -0.0036884335472313024 -0.016161175183313382 0 -0.0036856373972842453 -0.01615929657840991 0 -0.0061686809283263292 -0.017552131348573093 0 -0.0062659268006193041 -0.01818779296404964 0 -0.0049892831147181479 -0.017883584761468306 0 -0.0043668567342904181 -0.016572191329347678 0 -0.0031407111437111094 -0.017392282657111506 0 -0.0042392629835598938 -0.015858070556173637 0 -0.0041524560766161307 -0.015819908792702432 0 -0.0039505761194941671 -0.01590001360978114 0 -0.0041524560766161307 -0.015819908792702432 0 -0.0039505761194941671 -0.01590001360978114 0 -0.0040594262095436859 -0.015804189298027321 0 -0.0041524560766161307 -0.015819908792702432 0 -0.0040829683760689192 -0.015768294745035345 0 -0.0040594262095436859 -0.015804189298027321 0 -0.0041406703327538886 -0.015703304107267505 0 -0.0041524560766161307 -0.015819908792702432 0 -0.0040862192099564614 -0.015749081196981728 0 -0.0043668567342904181 -0.016572191329347678 0 -0.0042950101951153823 -0.016207586876554075 0 -0.0041406703327538886 -0.015703304107267505 0 -0.0040862192099564614 -0.015749081196981728 0 -0.0040700588032563101 -0.0157073664196485 0 -0.0040862192099564614 -0.015749081196981728 0 -0.0040700588032563101 -0.0157073664196485 0 -0.0040565051318688953 -0.015714880187954833 0 -0.0040862192099564614 -0.015749081196981728 0 -0.0040829683760689192 -0.015768294745035345 0 -0.0040565051318688953 -0.015714880187954833 0 -0.0041524560766161307 -0.015819908792702432 0 -0.0040862192099564614 -0.015749081196981728 0 -0.0040829683760689192 -0.015768294745035345 0 -0.0040829683760689192 -0.015768294745035345 0 -0.0040565051318688953 -0.015714880187954833 0 -0.0040543366202533578 -0.015696154800645002 0 -0.0040431354955251979 -0.015679333699052792 0 -0.0040700588032563101 -0.0157073664196485 0 -0.0040565051318688953 -0.015714880187954833 0 -0.0061686809283263292 -0.017552131348573093 0 -0.0049892831147181479 -0.017883584761468306 0 -0.0033186957573914117 -0.016313500244624645 0 -0.0042392629835598938 -0.015858070556173637 0 -0.0033186957573914117 -0.016313500244624645 0 -0.0039505761194941671 -0.01590001360978114 0 -0.0045806882115489948 -0.018578195591019621 0 -0.0062659268006193041 -0.01818779296404964 0 -0.0049892831147181479 -0.017883584761468306 0 -0.0042005463992066221 -0.018062643115661373 0 -0.0049892831147181479 -0.017883584761468306 0 -0.0033186957573914117 -0.016313500244624645 0 -0.0043668567342904181 -0.016572191329347678 0 -0.0037177419717687606 -0.016362804668903597 0 -0.0045806882115489948 -0.018578195591019621 0 -0.0042005463992066221 -0.018062643115661373 0 -0.0049892831147181479 -0.017883584761468306 0 -0.0042005463992066221 -0.018062643115661373 0 -0.0029998949070949178 -0.017810061922394666 0 -0.0033186957573914117 -0.016313500244624645 0 -0.0042005463992066221 -0.018062643115661373 0 -0.0029998949070949178 -0.017810061922394666 0 -0.0033071629022844795 -0.018847567659342181 0 -0.0029998949070949178 -0.017810061922394666 0 -0.0020314298609044263 -0.017167922238758047 0 -0.0021557099894407724 -0.018625984483286295 0 -0.0029998949070949178 -0.017810061922394666 0 -0.0020314298609044263 -0.017167922238758047 0 -0.0033186957573914117 -0.016313500244624645 0 -0.0020314298609044263 -0.017167922238758047 0 -0.00070398580869440188 -0.018179002159918786 0 -0.00087435273415174949 -0.016458477719622576 0 -0.0020314298609044263 -0.017167922238758047 0 -0.0021557099894407724 -0.018625984483286295 0 -0.00070398580869440188 -0.018179002159918786 0 -0.0012951198377879872 -0.019960418284186768 0 -0.0021557099894407724 -0.018625984483286295 0 -0.00070398580869440188 -0.018179002159918786 0 -0.0012951198377879872 -0.019960418284186768 0 -0.0021557099894407724 -0.018625984483286295 0 -0.002599859392893397 -0.0197591098793727 0 -0.0041475785429738211 -0.019909311562856517 0 -0.002599859392893397 -0.0197591098793727 0 -0.0033071629022844795 -0.018847567659342181 0 -0.0021557099894407724 -0.018625984483286295 0 -0.002599859392893397 -0.0197591098793727 0 -0.0033071629022844795 -0.018847567659342181 0 -0.0029998949070949178 -0.017810061922394666 0 -0.0021557099894407724 -0.018625984483286295 0 -0.0033071629022844795 -0.018847567659342181 0 0.0044423990231311911 -0.0035286547612647058 0 0.0031771412309854938 -0.005042898056341105 0 0.0045374301029261618 -0.00022807259600139795 0 0.004984108279745764 -0.00030456291616021407 0 0.0046341861133358236 -0.00057727251750893922 0 0.004984108279745764 -0.00030456291616021407 0 0.0051092177165385265 -0.00042631292176797389 0 0.0046341861133358236 -0.00057727251750893922 0 0.0045374301029261618 -0.00022807259600139795 0 0.0046341861133358236 -0.00057727251750893922 0 0.0042909677696601652 -0.0003623610302210982 0 0.0045374301029261618 -0.00022807259600139795 0 0.0041443761322496574 -2.1975909389591078e-05 0 0.0046669296447789119 0.0001606323115397273 0 0.0045374301029261618 -0.00022807259600139795 0 0.004984108279745764 -0.00030456291616021407 0 0.0046669296447789119 0.0001606323115397273 0 0.0048826702309926213 -0.00017533265271307716 0 0.0047709984025293781 -0.0001577365330570618 0 0.004984108279745764 -0.00030456291616021407 0 0.0050120051927703708 -4.0930352263071758e-06 0 0.0045863810491026851 4.4328275369371226e-05 0 0.004984108279745764 -0.00030456291616021407 0 0.0050120051927703708 -4.0930352263071758e-06 0 0.0051410938980505673 -0.00033592501114605456 0 0.0050120051927703708 -4.0930352263071758e-06 0 0.0051410938980505673 -0.00033592501114605456 0 0.0053490060236339801 -1.3293893950818152e-05 0 0.0051410938980505673 -0.00033592501114605456 0 0.0050467429549851455 -0.00040376615008019936 0 0.0051023918039735739 -0.0004596859982436848 0 0.0055220540487265646 0.0013025463315429219 0 0.0018810967172596855 -0.0070790289933728105 0 -0.0040290704611809494 -0.015664781225188062 0 -0.0040162479464251628 -0.015646408272056368 0 -0.0040156007490543006 -0.015614662243138913 0 0.00063658396735119592 -0.0082681521596702882 0 0.0018810967172596855 -0.0070790289933728105 0 -0.0040431354955251979 -0.015679333699052792 0 -0.0040565051318688953 -0.015714880187954833 0 -0.0040290704611809494 -0.015664781225188062 0 -0.0040565051318688953 -0.015714880187954833 0 -0.0040290704611809494 -0.015664781225188062 0 -0.0040543366202533578 -0.015696154800645002 0 -0.0035083230617968283 -0.015379972381606913 0 0.00063658396735119592 -0.0082681521596702882 0 -0.0040431354955251979 -0.015679333699052792 0 -0.0040290704611809494 -0.015664781225188062 0 -0.0040162479464251628 -0.015646408272056368 0 0.0018238903042229681 -0.0082188140584279062 0 0.0022170146952447791 -0.0079899230552893177 0 0.0019504924973800569 -0.0078783327665913512 0 0.0016345125318163779 -0.0080821049370504421 0 0.0018238903042229681 -0.0082188140584279062 0 0.0019504924973800569 -0.0078783327665913512 0 0.0051410938980505673 -0.00033592501114605456 0 0.0050467429549851455 -0.00040376615008019936 0 0.0051092177165385265 -0.00042631292176797389 0 0.00063658396735119592 -0.0082681521596702882 0 0.0044423990231311911 -0.0035286547612647058 0 0.004984108279745764 -0.00030456291616021407 0 0.0051410938980505673 -0.00033592501114605456 0 0.0051092177165385265 -0.00042631292176797389 0 0.0019504924973800569 -0.0078783327665913512 0 0.002152764838664869 -0.0074976901296594121 0 0.0023098008118578035 -0.0077071204937868105 0 0.0022170146952447791 -0.0079899230552893177 0 0.0019504924973800569 -0.0078783327665913512 0 0.0023098008118578035 -0.0077071204937868105 0 0.0017237728644745045 -0.0076552799640622442 0 0.0019504924973800569 -0.0078783327665913512 0 0.002152764838664869 -0.0074976901296594121 0 0.0017237728644745045 -0.0076552799640622442 0 0.0016345125318163779 -0.0080821049370504421 0 0.0019504924973800569 -0.0078783327665913512 0 0.0017237728644745045 -0.0076552799640622442 0 0.002152764838664869 -0.0074976901296594121 0 0.0018105994939574418 -0.0072670219703976262 0 0.002152764838664869 -0.0074976901296594121 0 0.002560434453327098 -0.0074923661726913459 0 0.0025091168121789678 -0.0072833613632114682 0 0.002152764838664869 -0.0074976901296594121 0 0.0023098008118578035 -0.0077071204937868105 0 0.002560434453327098 -0.0074923661726913459 0 0.0022170146952447791 -0.0079899230552893177 0 0.0023098008118578035 -0.0077071204937868105 0 0.002572551106997209 -0.0077486597166696956 0 0.0023098008118578035 -0.0077071204937868105 0 0.002572551106997209 -0.0077486597166696956 0 0.002560434453327098 -0.0074923661726913459 0 0.002560434453327098 -0.0074923661726913459 0 0.0028021603791320245 -0.0075035553595061621 0 0.0028641969037340419 -0.0074448117490321314 0 0.002572551106997209 -0.0077486597166696956 0 0.002560434453327098 -0.0074923661726913459 0 0.0028021603791320245 -0.0075035553595061621 0 0.0031771412309854938 -0.005042898056341105 0 0.0035886762878660702 0.0026033138914628635 0 0.002572551106997209 -0.0077486597166696956 0 0.0028021603791320245 -0.0075035553595061621 0 0.0029445596572914364 -0.0074675497116129773 0 0.003374033553256352 -0.0021991494956875813 0 0.0037883984981842774 0.0021928526957839612 0 0.002560434453327098 -0.0074923661726913459 0 0.0025091168121789678 -0.0072833613632114682 0 0.0028641969037340419 -0.0074448117490321314 0 0.0039242522023913932 0.0045324843182171157 0 0.0037107236425128038 0.0045494380581106884 0 0.0037153958471133623 0.0047418454968126697 0 0.0039242522023913932 0.0045324843182171157 0 0.0038689101409511346 0.0043042144302763742 0 0.0037107236425128038 0.0045494380581106884 0 0.002152764838664869 -0.0074976901296594121 0 0.0025091168121789678 -0.0072833613632114682 0 0.0021716292860778858 -0.0070993529653484667 0 0.003374033553256352 -0.0021991494956875813 0 0.0029995558747888569 2.4284753004963948e-05 0 0.0039242522023913932 0.0045324843182171157 0 0.0038689101409511346 0.0043042144302763742 0 0.0041637718715019584 0.0042692747775747962 0 0.0038689101409511346 0.0043042144302763742 0 0.0041637718715019584 0.0042692747775747962 0 0.0040994685201367663 0.0039997987565353098 0 0.002152764838664869 -0.0074976901296594121 0 0.0018105994939574418 -0.0072670219703976262 0 0.0021716292860778858 -0.0070993529653484667 0 0.0029995558747888569 2.4284753004963948e-05 0 0.0018148065170044043 -0.0095747027487543615 0 0.0018105994939574418 -0.0072670219703976262 0 0.0021716292860778858 -0.0070993529653484667 0 0.001880219696467917 -0.0069271028348196137 0 0.0014498070009320077 -0.015623008120612156 0 0.0018148065170044043 -0.0095747027487543615 0 0.0010767859724799876 -0.020873560051471812 0 0.001227353526994815 -0.022233871463711408 0 0.002047037214057329 -0.020304678015809985 0 0.0043537467052025859 -0.016934612310241185 0 0.0018148065170044043 -0.0095747027487543615 0 0.0041637718715019584 0.0042692747775747962 0 0.004418744333536867 0.0039394154996095065 0 0.0040994685201367663 0.0039997987565353098 0 0.004076770474573773 0.0037310511507252352 0 0.0043831715378738157 0.0036827777778121471 0 0.0040994685201367663 0.0039997987565353098 0 0.0015783688499868521 -0.018560475681184085 0 0.0016152842441064848 -0.019777635065731783 0 0.0026992866848336823 -0.0180051142926386 0 0.0016152842441064848 -0.019777635065731783 0 0.0022387688174808451 -0.020287468524285892 0 0.0026992866848336823 -0.0180051142926386 0 0.004418744333536867 0.0039394154996095065 0 0.0043831715378738157 0.0036827777778121471 0 0.0040994685201367663 0.0039997987565353098 0 0.0018148065170044043 -0.0095747027487543615 0 0.0037071014953188744 -0.0068328385237998628 0 0.0038689101409511346 0.0043042144302763742 0 0.0040994685201367663 0.0039997987565353098 0 0.0037957193730148607 0.0040236569287883843 0 0.004076770474573773 0.0037310511507252352 0 0.0040994685201367663 0.0039997987565353098 0 0.0037957193730148607 0.0040236569287883843 0 0.003690541073427118 0.0038476861998150954 0 0.0037957193730148607 0.0040236569287883843 0 0.0035360499064734929 0.0041770917873626854 0 0.0038689101409511346 0.0043042144302763742 0 0.0037957193730148607 0.0040236569287883843 0 0.0035846552395530601 0.0044130698421444353 0 0.0037957193730148607 0.0040236569287883843 0 0.0035360499064734929 0.0041770917873626854 0 0.0035846552395530601 0.0044130698421444353 0 0.0035360499064734929 0.0041770917873626854 0 0.0033931456554148038 0.0044474018660411816 0 0.0035846552395530601 0.0044130698421444353 0 0.0034101511466567268 0.0040491480953760003 0 0.003690541073427118 0.0038476861998150954 0 0.0035360499064734929 0.0041770917873626854 0 0.0059302736081581747 0.015019308230433549 0 0.0054833264814546992 0.015372362334268501 0 0.0034101511466567268 0.0040491480953760003 0 0.0035360499064734929 0.0041770917873626854 0 0.0032888668734008118 0.0043512808435194998 0 0.0074977184011447906 0.026297846439385538 0 0.0078512350415172703 0.026855231711518504 0 0.0072503844495548598 0.027043334304092975 0 0.0084725023092161317 0.026027004442350909 0 0.0074977184011447906 0.026297846439385538 0 0.0078512350415172703 0.026855231711518504 0 0.0054833264814546992 0.015372362334268501 0 0.0063054715795646202 0.017732379381080826 0 0.0032888668734008118 0.0043512808435194998 0 0.0033931456554148038 0.0044474018660411816 0 0.0031992755035729612 0.0046186623503812084 0 0.0078512350415172703 0.026855231711518504 0 0.0072503844495548598 0.027043334304092975 0 0.0072578282969741701 0.027596169892781859 0 0.0035360499064734929 0.0041770917873626854 0 0.0032888668734008118 0.0043512808435194998 0 0.0033931456554148038 0.0044474018660411816 0 0.0033931456554148038 0.0044474018660411816 0 0.0033597261230914237 0.0046235604009557873 0 0.0035846552395530601 0.0044130698421444353 0 0.0047112768825429722 0.0089148207727494499 0 0.0063054715795646202 0.017732379381080826 0 0.0033931456554148038 0.0044474018660411816 0 0.0033597261230914237 0.0046235604009557873 0 0.0031992755035729612 0.0046186623503812084 0 0.0083260619577540541 0.015442310021662495 0 0.0071596750856582373 0.015446521383218004 0 0.008670922764396044 0.01652081653346309 0 0.0083260619577540541 0.015442310021662495 0 0.0071596750856582373 0.015446521383218004 0 0.0077685386756369138 0.01443978466345985 0 0.0047112768825429722 0.0089148207727494499 0 0.0049264340077187505 0.010511777702373028 0 0.0071596750856582373 0.015446521383218004 0 0.0054905426180785841 0.014325929413374518 0 0.0063643655168885713 0.014279346333523821 0 0.0071596750856582373 0.015446521383218004 0 0.0063643655168885713 0.014279346333523821 0 0.0077685386756369138 0.01443978466345985 0 0.0037107236425128038 0.0045494380581106884 0 0.0035846552395530601 0.0044130698421444353 0 0.0035373732508402413 0.0046723174575026578 0 0.0033597261230914237 0.0046235604009557873 0 0.0035846552395530601 0.0044130698421444353 0 0.0035373732508402413 0.0046723174575026578 0 0.0038689101409511346 0.0043042144302763742 0 0.0037107236425128038 0.0045494380581106884 0 0.0035846552395530601 0.0044130698421444353 0 0.005569668349983339 0.027518545059435226 0 0.0048100350608384851 0.027218799105122045 0 0.0050841072259560664 0.027694521197530544 0 0.005569668349983339 0.027518545059435226 0 0.0057575747347301531 0.026664567060800601 0 0.0048100350608384851 0.027218799105122045 0 0.0031755441901929688 0.033922987469966026 0 0.0024997109426279241 0.034148756583411113 0 0.00018102040788326124 0.040964935168544034 0 0.00052270511013565693 0.041239195507182982 0 0.000157816465611545 0.041059955360385217 0 0.0046414247481101024 0.033212137541715044 0 0.0031755441901929688 0.033922987469966026 0 0.0057575747347301531 0.026664567060800601 0 0.0060701840079684048 0.027317181076006791 0 0.0066298475575084261 0.026927280827262479 0 0.005569668349983339 0.027518545059435226 0 0.0057575747347301531 0.026664567060800601 0 0.0060701840079684048 0.027317181076006791 0 0.005569668349983339 0.027518545059435226 0 0.0060701840079684048 0.027317181076006791 0 0.006041946235321405 0.027705500194986295 0 0.0060701840079684048 0.027317181076006791 0 0.0064269394440660682 0.027544108750659928 0 0.006041946235321405 0.027705500194986295 0 0.0060701840079684048 0.027317181076006791 0 0.0066298475575084261 0.026927280827262479 0 0.0064269394440660682 0.027544108750659928 0 0.0068639419410229784 0.027418523826938136 0 0.0066298475575084261 0.026927280827262479 0 0.0064269394440660682 0.027544108750659928 0 0.0065947746490837957 0.02611354895099981 0 0.0057575747347301531 0.026664567060800601 0 0.0066298475575084261 0.026927280827262479 0 0.0065947746490837957 0.02611354895099981 0 0.0074977184011447906 0.026297846439385538 0 0.0066298475575084261 0.026927280827262479 0 0.0074977184011447906 0.026297846439385538 0 0.0066298475575084261 0.026927280827262479 0 0.0072503844495548598 0.027043334304092975 0 0.0068639419410229784 0.027418523826938136 0 0.0066298475575084261 0.026927280827262479 0 0.0072503844495548598 0.027043334304092975 0 0.0068639419410229784 0.027418523826938136 0 0.0072503844495548598 0.027043334304092975 0 0.0072578282969741701 0.027596169892781859 0 0.0063054715795646202 0.017732379381080826 0 0.0086612847197777756 0.022591128816007663 0 0.0068639419410229784 0.027418523826938136 0 0.0073056839591123498 0.027694682870496 0 0.006818163486126223 0.027871767601523052 0 0.0089121581912601014 0.027605261766290842 0 0.0063054715795646202 0.017732379381080826 0 0.0073056839591123498 0.027694682870496 0 0.0068689440835047414 0.028061381670582211 0 0.006818163486126223 0.027871767601523052 0 0.0083260619577540541 0.015442310021662495 0 0.0096850530576174845 0.015362093549759514 0 0.0077685386756369138 0.01443978466345985 0 0.0086612847197777756 0.022591128816007663 0 0.0099112044426187523 0.019976287343590502 0 0.0083260619577540541 0.015442310021662495 0 0.008670922764396044 0.01652081653346309 0 0.0096850530576174845 0.015362093549759514 0 0.0073056839591123498 0.027694682870496 0 0.0068689440835047414 0.028061381670582211 0 0.0068243948832876497 0.028274125874443275 0 0.010773924012294028 0.025096043002293789 0 0.01095769948222069 0.02547726877225626 0 0.011586609711029015 0.025557027286215412 0 0.0086612847197777756 0.022591128816007663 0 0.0081476345756350283 0.027187027176946071 0 0.0068243948832876497 0.028274125874443275 0 0.0063625162867672275 0.028160990846647471 0 0.005992428858921376 0.028131419371680282 0 0.0068689440835047414 0.028061381670582211 0 0.006707338864731638 0.028109660107185616 0 0.0067552124765614006 0.028176504963205118 0 0.010773924012294028 0.025096043002293789 0 0.010435653092333488 0.025007145857534965 0 0.0097736067403597481 0.024607930830396807 0 0.0068689440835047414 0.028061381670582211 0 0.0067552124765614006 0.028176504963205118 0 0.0068064138284728796 0.028211344670450635 0 0.006707338864731638 0.028109660107185616 0 0.0066146525315429134 0.028119701524719442 0 0.0065951054872469602 0.028028434944950976 0 0.006707338864731638 0.028109660107185616 0 0.0066916326815458635 0.028165081726852663 0 0.0067552124765614006 0.028176504963205118 0 0.0066916326815458635 0.028165081726852663 0 0.0066402867053641616 0.028169272092486677 0 0.0067552124765614006 0.028176504963205118 0 0.006707338864731638 0.028109660107185616 0 0.0066402867053641616 0.028169272092486677 0 0.0066146525315429134 0.028119701524719442 0 0.006707338864731638 0.028109660107185616 0 0.0066916326815458635 0.028165081726852663 0 0.0066402867053641616 0.028169272092486677 0 0.0066402867053641616 0.028169272092486677 0 0.0068243948832876497 0.028274125874443275 0 0.0068064138284728796 0.028211344670450635 0 0.0066402867053641616 0.028169272092486677 0 0.0067552124765614006 0.028176504963205118 0 0.0068064138284728796 0.028211344670450635 0 0.0068689440835047414 0.028061381670582211 0 0.0068243948832876497 0.028274125874443275 0 0.0068064138284728796 0.028211344670450635 0 0.010773924012294028 0.025096043002293789 0 0.010565042003330583 0.025182202497917753 0 0.010435653092333488 0.025007145857534965 0 0.010773924012294028 0.025096043002293789 0 0.010694486018670523 0.025334095926159882 0 0.01095769948222069 0.02547726877225626 0 0.010773924012294028 0.025096043002293789 0 0.010565042003330583 0.025182202497917753 0 0.010694486018670523 0.025334095926159882 0 0.010565042003330583 0.025182202497917753 0 0.010694486018670523 0.025334095926159882 0 0.010524762488318946 0.025348479299188677 0 0.010378630086271266 0.025207559975789252 0 0.010169253025277733 0.025186150959426917 0 0.010309218232730439 0.025496446885578429 0 0.010565042003330583 0.025182202497917753 0 0.010524762488318946 0.025348479299188677 0 0.010378630086271266 0.025207559975789252 0 0.010524762488318946 0.025348479299188677 0 0.010378630086271266 0.025207559975789252 0 0.010309218232730439 0.025496446885578429 0 0.010565042003330583 0.025182202497917753 0 0.010378630086271266 0.025207559975789252 0 0.010435653092333488 0.025007145857534965 0 0.010378630086271266 0.025207559975789252 0 0.010274798701458948 0.025093183126716705 0 0.010435653092333488 0.025007145857534965 0 0.010378630086271266 0.025207559975789252 0 0.010274798701458948 0.025093183126716705 0 0.010169253025277733 0.025186150959426917 0 0.0066402867053641616 0.028169272092486677 0 0.0068243948832876497 0.028274125874443275 0 0.0063625162867672275 0.028160990846647471 0 0.0066402867053641616 0.028169272092486677 0 0.0065439163282629362 0.028145178007450578 0 0.0063625162867672275 0.028160990846647471 0 0.010274798701458948 0.025093183126716705 0 0.010435653092333488 0.025007145857534965 0 0.010114961634885636 0.024971634074343087 0 0.0066402867053641616 0.028169272092486677 0 0.0065439163282629362 0.028145178007450578 0 0.0066146525315429134 0.028119701524719442 0 0.0065439163282629362 0.028145178007450578 0 0.0066146525315429134 0.028119701524719442 0 0.0065951054872469602 0.028028434944950976 0 0.0065439163282629362 0.028145178007450578 0 0.0063625162867672275 0.028160990846647471 0 0.0064484457760075348 0.028052584764841414 0 0.0063625162867672275 0.028160990846647471 0 0.0064484457760075348 0.028052584764841414 0 0.0063327668915993717 0.027997532876746681 0 0.0064484457760075348 0.028052584764841414 0 0.0064347360804785361 0.027898587696621555 0 0.0063327668915993717 0.027997532876746681 0 0.0064347360804785361 0.027898587696621555 0 0.0065951054872469602 0.028028434944950976 0 0.0066267289633630475 0.02775504583489723 0 0.0064484457760075348 0.028052584764841414 0 0.0064347360804785361 0.027898587696621555 0 0.0065951054872469602 0.028028434944950976 0 0.0065439163282629362 0.028145178007450578 0 0.0064484457760075348 0.028052584764841414 0 0.0065951054872469602 0.028028434944950976 0 0.006707338864731638 0.028109660107185616 0 0.0065951054872469602 0.028028434944950976 0 0.006818163486126223 0.027871767601523052 0 0.0068689440835047414 0.028061381670582211 0 0.006707338864731638 0.028109660107185616 0 0.006818163486126223 0.027871767601523052 0 0.0065951054872469602 0.028028434944950976 0 0.006818163486126223 0.027871767601523052 0 0.0066267289633630475 0.02775504583489723 0 0.0068639419410229784 0.027418523826938136 0 0.006818163486126223 0.027871767601523052 0 0.0066267289633630475 0.02775504583489723 0 0.0068639419410229784 0.027418523826938136 0 0.0066267289633630475 0.02775504583489723 0 0.0064269394440660682 0.027544108750659928 0 0.0064347360804785361 0.027898587696621555 0 0.0066267289633630475 0.02775504583489723 0 0.0064269394440660682 0.027544108750659928 0 0.0064347360804785361 0.027898587696621555 0 0.0064269394440660682 0.027544108750659928 0 0.006237360269694475 0.027853084871019004 0 0.0064269394440660682 0.027544108750659928 0 0.006237360269694475 0.027853084871019004 0 0.006041946235321405 0.027705500194986295 0 0.006237360269694475 0.027853084871019004 0 0.006041946235321405 0.027705500194986295 0 0.0060311791944867446 0.027934856435339498 0 0.005569668349983339 0.027518545059435226 0 0.006041946235321405 0.027705500194986295 0 0.0057821200313911171 0.027901017195897299 0 0.006041946235321405 0.027705500194986295 0 0.0060311791944867446 0.027934856435339498 0 0.0057821200313911171 0.027901017195897299 0 0.0058752063257100813 0.02818073536652466 0 0.005992428858921376 0.028131419371680282 0 0.0061584203641917518 0.028024382213591159 0 0.0060311791944867446 0.027934856435339498 0 0.0058752063257100813 0.02818073536652466 0 0.0061584203641917518 0.028024382213591159 0 0.0060311791944867446 0.027934856435339498 0 0.0058752063257100813 0.02818073536652466 0 0.0057821200313911171 0.027901017195897299 0 0.0073133840026297914 0.027162312310429156 0 0.0081476345756350283 0.027187027176946071 0 0.0063625162867672275 0.028160990846647471 0 0.005992428858921376 0.028131419371680282 0 0.0061584203641917518 0.028024382213591159 0 0.006237360269694475 0.027853084871019004 0 0.0060311791944867446 0.027934856435339498 0 0.0061584203641917518 0.028024382213591159 0 0.006237360269694475 0.027853084871019004 0 0.0061584203641917518 0.028024382213591159 0 0.0063327668915993717 0.027997532876746681 0 0.0064347360804785361 0.027898587696621555 0 0.006237360269694475 0.027853084871019004 0 0.0063327668915993717 0.027997532876746681 0 0.0063625162867672275 0.028160990846647471 0 0.0061584203641917518 0.028024382213591159 0 0.0063327668915993717 0.027997532876746681 0 0.010435653092333488 0.025007145857534965 0 0.0097736067403597481 0.024607930830396807 0 0.010114961634885636 0.024971634074343087 0 0.0097736067403597481 0.024607930830396807 0 0.0099300395265767387 0.024985947782706443 0 0.010114961634885636 0.024971634074343087 0 0.0099300395265767387 0.024985947782706443 0 0.010169253025277733 0.025186150959426917 0 0.0096521527775224394 0.025249749719448916 0 0.0099300395265767387 0.024985947782706443 0 0.010114961634885636 0.024971634074343087 0 0.010169253025277733 0.025186150959426917 0 0.010274798701458948 0.025093183126716705 0 0.010114961634885636 0.024971634074343087 0 0.010169253025277733 0.025186150959426917 0 0.0097736067403597481 0.024607930830396807 0 0.0099300395265767387 0.024985947782706443 0 0.0096521527775224394 0.025249749719448916 0 0.0058752063257100813 0.02818073536652466 0 0.0060591858380904451 0.028231412372598408 0 0.005202772383337502 0.029378634382319288 0 0.0097736067403597481 0.024607930830396807 0 0.0096521527775224394 0.025249749719448916 0 0.0088090569777429985 0.025419766412219359 0 0.0058752063257100813 0.02818073536652466 0 0.0053492653474947437 0.028181023402077999 0 0.005202772383337502 0.029378634382319288 0 0.0081476345756350283 0.027187027176946071 0 0.006951706431523319 0.02730320194787085 0 0.0058752063257100813 0.02818073536652466 0 0.0053492653474947437 0.028181023402077999 0 0.0057821200313911171 0.027901017195897299 0 0.005569668349983339 0.027518545059435226 0 0.0053492653474947437 0.028181023402077999 0 0.0057821200313911171 0.027901017195897299 0 0.005569668349983339 0.027518545059435226 0 0.0053492653474947437 0.028181023402077999 0 0.0050841072259560664 0.027694521197530544 0 0.0090322856372359473 0.026843279400304718 0 0.00935923001459062 0.026002351007044702 0 0.0099715509641385425 0.026652326137576999 0 0.0090322856372359473 0.026843279400304718 0 0.00935923001459062 0.026002351007044702 0 0.0085788740961505062 0.026345543151107882 0 0.0096521527775224394 0.025249749719448916 0 0.00935923001459062 0.026002351007044702 0 0.0088090569777429985 0.025419766412219359 0 0.00935923001459062 0.026002351007044702 0 0.0088090569777429985 0.025419766412219359 0 0.0085788740961505062 0.026345543151107882 0 0.0096521527775224394 0.025249749719448916 0 0.00935923001459062 0.026002351007044702 0 0.0099755842140163004 0.025676934760247665 0 0.010169253025277733 0.025186150959426917 0 0.0096521527775224394 0.025249749719448916 0 0.0099755842140163004 0.025676934760247665 0 0.010169253025277733 0.025186150959426917 0 0.0099755842140163004 0.025676934760247665 0 0.010309218232730439 0.025496446885578429 0 0.0099755842140163004 0.025676934760247665 0 0.010430514103055698 0.026115297645346598 0 0.010309218232730439 0.025496446885578429 0 0.00935923001459062 0.026002351007044702 0 0.0099755842140163004 0.025676934760247665 0 0.0099715509641385425 0.026652326137576999 0 0.0099755842140163004 0.025676934760247665 0 0.0099715509641385425 0.026652326137576999 0 0.010430514103055698 0.026115297645346598 0 0.010430514103055698 0.026115297645346598 0 0.010914830252364628 0.026280802312493579 0 0.010715745583243248 0.026900690207916574 0 0.0099715509641385425 0.026652326137576999 0 0.010430514103055698 0.026115297645346598 0 0.010715745583243248 0.026900690207916574 0 0.010430514103055698 0.026115297645346598 0 0.010309218232730439 0.025496446885578429 0 0.010630754001584997 0.025659024555331693 0 0.010430514103055698 0.026115297645346598 0 0.010630754001584997 0.025659024555331693 0 0.010914830252364628 0.026280802312493579 0 0.010524762488318946 0.025348479299188677 0 0.010309218232730439 0.025496446885578429 0 0.010630754001584997 0.025659024555331693 0 0.010694486018670523 0.025334095926159882 0 0.010630754001584997 0.025659024555331693 0 0.01095769948222069 0.02547726877225626 0 0.010694486018670523 0.025334095926159882 0 0.010524762488318946 0.025348479299188677 0 0.010630754001584997 0.025659024555331693 0 0.010630754001584997 0.025659024555331693 0 0.011067810597407858 0.0258043675070301 0 0.010914830252364628 0.026280802312493579 0 0.011067810597407858 0.0258043675070301 0 0.011333203188064744 0.02611905109642031 0 0.011586609711029015 0.025557027286215412 0 0.011067810597407858 0.0258043675070301 0 0.01095769948222069 0.02547726877225626 0 0.011586609711029015 0.025557027286215412 0 0.010630754001584997 0.025659024555331693 0 0.011067810597407858 0.0258043675070301 0 0.01095769948222069 0.02547726877225626 0 0.011333203188064744 0.02611905109642031 0 0.010914830252364628 0.026280802312493579 0 0.011269681211627518 0.026757485577130456 0 0.011067810597407858 0.0258043675070301 0 0.011333203188064744 0.02611905109642031 0 0.010914830252364628 0.026280802312493579 0 0.011269681211627518 0.026757485577130456 0 0.010865504818060263 0.027304922416947684 0 0.010715745583243248 0.026900690207916574 0 0.010914830252364628 0.026280802312493579 0 0.011269681211627518 0.026757485577130456 0 0.010715745583243248 0.026900690207916574 0 0.012793326456546074 0.029136504301997837 0 0.0081073142448493275 0.016679249948608303 0 0.011269681211627518 0.026757485577130456 0 0.010865504818060263 0.027304922416947684 0 0.011378460599703698 0.027389164659240343 0 0.011971857125511021 0.028282174934019664 0 0.010313115917755345 0.027503904720397866 0 0.01062782192603378 0.029018946320712179 0 0.012793326456546074 0.029136504301997837 0 0.0097756563515934113 0.027095162027744608 0 0.010865504818060263 0.027304922416947684 0 0.010715745583243248 0.026900690207916574 0 0.010313115917755345 0.027503904720397866 0 0.0099715509641385425 0.026652326137576999 0 0.010715745583243248 0.026900690207916574 0 0.010313115917755345 0.027503904720397866 0 0.0099715509641385425 0.026652326137576999 0 0.010313115917755345 0.027503904720397866 0 0.0094980104797755954 0.027428284456129857 0 0.010313115917755345 0.027503904720397866 0 0.0093804504472560831 0.028642883438435907 0 0.0094980104797755954 0.027428284456129857 0 0.010313115917755345 0.027503904720397866 0 0.0093804504472560831 0.028642883438435907 0 0.01062782192603378 0.029018946320712179 0 0.0093804504472560831 0.028642883438435907 0 0.0094980104797755954 0.027428284456129857 0 0.0086843232418510937 0.02776496610423285 0 0.0093804504472560831 0.028642883438435907 0 0.0082889942459852071 0.028846079853681209 0 0.0086843232418510937 0.02776496610423285 0 0.0090322856372359473 0.026843279400304718 0 0.0099715509641385425 0.026652326137576999 0 0.0094980104797755954 0.027428284456129857 0 0.0090322856372359473 0.026843279400304718 0 0.0094980104797755954 0.027428284456129857 0 0.0086843232418510937 0.02776496610423285 0 0.0065037665372245966 0.0078528210554275318 0 0.0034816797897274606 0.010486800482562966 0 0.0083156958679239962 0.012485442824396389 0 0.0035886762878660702 0.0026033138914628635 0 0.0091174036238566535 0.017755438542361213 0 0.0052382299484428083 0.010362320928004995 0 0.0091174036238566535 0.017755438542361213 0 0.012422026386872266 0.026195594270728245 0 0.012256951816512098 0.025813592785078068 0 0.012053878093616917 0.026175154798522959 0 0.0052382299484428083 0.010362320928004995 0 0.0035886762878660702 0.0026033138914628635 0 0.0032349644175611561 0.012697688496901253 0 0.003688366055831217 0.012308502842475351 0 0.0055642075722158032 0.013191403012872738 0 0.0039828785838432572 -0.00045762989610673128 0 0.0041715327675697555 -0.00065829246018643366 0 0.0042909677696601652 -0.0003623610302210982 0 0.0046341861133358236 -0.00057727251750893922 0 0.0041715327675697555 -0.00065829246018643366 0 0.0042909677696601652 -0.0003623610302210982 0 0.0028021603791320245 -0.0075035553595061621 0 0.0028775947066725029 -0.0074138401270546243 0 0.0029445596572914364 -0.0074675497116129773 0 0.0014947103994759812 -0.0014603586535309511 0 0.0037883984981842774 0.0021928526957839612 0 0.0037883984981842774 0.0021928526957839612 0 0.0035886762878660702 0.0026033138914628635 0 0.0037107236425128038 0.0045494380581106884 0 0.0037153958471133623 0.0047418454968126697 0 0.0035373732508402413 0.0046723174575026578 0 0.0037883984981842774 0.0021928526957839612 0 0.0049264340077187505 0.010511777702373028 0 0.0032349644175611561 0.012697688496901253 0 0.0055642075722158032 0.013191403012872738 0 0.0054905426180785841 0.014325929413374518 0 0.0055642075722158032 0.013191403012872738 0 0.0057623808689564217 0.013785190858913349 0 0.0054905426180785841 0.014325929413374518 0 0.0056124679585183197 0.013372190843486967 0 0.0057623808689564217 0.013785190858913349 0 0.0063643655168885713 0.014279346333523821 0 0.0091174036238566535 0.017755438542361213 0 0.0075273732395777348 0.014799098479417133 0 0.0057623808689564217 0.013785190858913349 0 0.0054905426180785841 0.014325929413374518 0 0.0063643655168885713 0.014279346333523821 0 0.0056124679585183197 0.013372190843486967 0 0.0063643655168885713 0.014279346333523821 0 0.0077685386756369138 0.01443978466345985 0 0.0091174036238566535 0.017755438542361213 0 0.0099112044426187523 0.019976287343590502 0 0.012256951816512098 0.025813592785078068 0 0.011586609711029015 0.025557027286215412 0 0.011904027753300243 0.025942864281021317 0 0.011586609711029015 0.025557027286215412 0 0.011704823640508795 0.026218449867288707 0 0.011904027753300243 0.025942864281021317 0 0.011333203188064744 0.02611905109642031 0 0.011586609711029015 0.025557027286215412 0 0.011704823640508795 0.026218449867288707 0 0.011333203188064744 0.02611905109642031 0 0.011269681211627518 0.026757485577130456 0 0.011704823640508795 0.026218449867288707 0 0.012256951816512098 0.025813592785078068 0 0.011904027753300243 0.025942864281021317 0 0.012053878093616917 0.026175154798522959 0 0.011704823640508795 0.026218449867288707 0 0.011904027753300243 0.025942864281021317 0 0.012053878093616917 0.026175154798522959 0 0.012422026386872266 0.026195594270728245 0 0.012053878093616917 0.026175154798522959 0 0.01192000898509841 0.026825137048490558 0 0.011704823640508795 0.026218449867288707 0 0.012053878093616917 0.026175154798522959 0 0.01192000898509841 0.026825137048490558 0 0.011269681211627518 0.026757485577130456 0 0.011704823640508795 0.026218449867288707 0 0.01192000898509841 0.026825137048490558 0 0.0035124950518422775 0.0056867412315876643 0 0.0037370127481604156 0.0044219820023991153 0 0.0045358186391908023 0.0048640703734558087 0 0.0078051540710108117 0.017013935928992484 0 0.0081073142448493275 0.016679249948608303 0 0.011269681211627518 0.026757485577130456 0 0.01192000898509841 0.026825137048490558 0 0.011378460599703698 0.027389164659240343 0 0.0035124950518422775 0.0056867412315876643 0 0.0028284027140229634 0.0048776207675427403 0 0.0037370127481604156 0.0044219820023991153 0 0.0028284027140229634 0.0048776207675427403 0 0.0027321176342797594 0.0055503338160763993 0 0.0020774710457123931 0.0051181217767863182 0 0.0035124950518422775 0.0056867412315876643 0 0.0028284027140229634 0.0048776207675427403 0 0.0027321176342797594 0.0055503338160763993 0 0.0025342832788538385 0.0065472713435379875 0 0.0035124950518422775 0.0056867412315876643 0 0.0027321176342797594 0.0055503338160763993 0 0.0052382299484428083 0.010362320928004995 0 0.0025452344266787136 0.0010147819557048974 0 0.0025342832788538385 0.0065472713435379875 0 0.0027321176342797594 0.0055503338160763993 0 0.0020774710457123931 0.0051181217767863182 0 0.0052382299484428083 0.010362320928004995 0 0.0078051540710108117 0.017013935928992484 0 0.0039828785838432572 -0.00045762989610673128 0 0.0042909677696601652 -0.0003623610302210982 0 0.0041443761322496574 -2.1975909389591078e-05 0 0.0045374301029261618 -0.00022807259600139795 0 0.0042909677696601652 -0.0003623610302210982 0 0.0041443761322496574 -2.1975909389591078e-05 0 0.0020774710457123931 0.0051181217767863182 0 0.0019659756423490464 0.0040363392123254705 0 0.0024322832316153167 0.0043545500036726867 0 0.0025452344266787136 0.0010147819557048974 0 0.0038121079098103129 0.0022251165393772357 0 0.0019659756423490464 0.0040363392123254705 0 0.0025545576264377288 0.0039703724048562594 0 0.0024322832316153167 0.0043545500036726867 0 0.0038121079098103129 0.0022251165393772357 0 0.0029739063161136814 0.0033792891441527923 0 0.0019659756423490464 0.0040363392123254705 0 0.0025545576264377288 0.0039703724048562594 0 0.0025936800968383287 0.0038024462707321621 0 0.0025545576264377288 0.0039703724048562594 0 0.00283374486684049 0.0039924540569756303 0 0.0027072626917075912 0.0038961325772833635 0 0.0025545576264377288 0.0039703724048562594 0 0.00283374486684049 0.0039924540569756303 0 0.0024322832316153167 0.0043545500036726867 0 0.0028284027140229634 0.0048776207675427403 0 0.00283374486684049 0.0039924540569756303 0 0.0024322832316153167 0.0043545500036726867 0 0.0028284027140229634 0.0048776207675427403 0 0.0020774710457123931 0.0051181217767863182 0 0.0024322832316153167 0.0043545500036726867 0 0.0028284027140229634 0.0048776207675427403 0 0.00283374486684049 0.0039924540569756303 0 0.0037370127481604156 0.0044219820023991153 0 0.0033085079800203765 0.0041788836379391828 0 0.0015963434993120928 0.0035323710941670126 0 0.002555705045646367 0.0035773897450543345 0 0.0022570093233806486 0.0033814926863200744 0 0.0022401672202544192 0.0037261921251455239 0 0.0015963434993120928 0.0035323710941670126 0 0.0081073142448493275 0.016679249948608303 0 0.0022401672202544192 0.0037261921251455239 0 0.0026043991419980204 0.0038555440253358712 0 0.0025021563440168998 0.003999328447112727 0 0.002555705045646367 0.0035773897450543345 0 0.0022401672202544192 0.0037261921251455239 0 0.0026043991419980204 0.0038555440253358712 0 0.00283374486684049 0.0039924540569756303 0 0.0026043991419980204 0.0038555440253358712 0 0.0027072626917075912 0.0038961325772833635 0 0.00283374486684049 0.0039924540569756303 0 0.002555705045646367 0.0035773897450543345 0 0.0026043991419980204 0.0038555440253358712 0 0.0027072626917075912 0.0038961325772833635 0 0.0025021563440168998 0.003999328447112727 0 0.0028565612748031161 0.0039437913556372535 0 0.0026043991419980204 0.0038555440253358712 0 0.0027072626917075912 0.0038961325772833635 0 0.0025021563440168998 0.003999328447112727 0 0.0022401672202544192 0.0037261921251455239 0 0.0025021563440168998 0.003999328447112727 0 0.0017775035721100307 0.0042416435519308984 0 0.0025021563440168998 0.003999328447112727 0 0.002365798555124156 0.0043852360783119756 0 0.0017775035721100307 0.0042416435519308984 0 0.0025021563440168998 0.003999328447112727 0 0.002365798555124156 0.0043852360783119756 0 0.0028565612748031161 0.0039437913556372535 0 0.0029131823631592816 0.0037946894074545501 0 0.0029739063161136814 0.0033792891441527923 0 0.0028565612748031161 0.0039437913556372535 0 0.0036806559047663267 0.0025440452392171127 0 0.0040492699260795345 0.0036125760840911686 0 0.0043847701403354217 0.0029053504488155231 0 0.0036806559047663267 0.0025440452392171127 0 0.0040492699260795345 0.0036125760840911686 0 0.0043847701403354217 0.0029053504488155231 0 0.0040492699260795345 0.0036125760840911686 0 0.0045009606382496476 0.0031943409015623187 0 0.0043005436246413712 0.0018070531994324522 0 0.0036806559047663267 0.0025440452392171127 0 0.0045803911442576237 0.0024948404285910367 0 0.0043847701403354217 0.0029053504488155231 0 0.0036806559047663267 0.0025440452392171127 0 0.0045803911442576237 0.0024948404285910367 0 0.0027072626917075912 0.0038961325772833635 0 0.0028565612748031161 0.0039437913556372535 0 0.0025936800968383287 0.0038024462707321621 0 0.0025545576264377288 0.0039703724048562594 0 0.0027072626917075912 0.0038961325772833635 0 0.0025936800968383287 0.0038024462707321621 0 0.0088253979111274517 0.031106601464906247 0 0.0097206368439299237 0.030153526650794005 0 0.010421653178111924 0.031881047904424892 0 0.0088253979111274517 0.031106601464906247 0 0.0097206368439299237 0.030153526650794005 0 0.0087886460207483863 0.029728542777501976 0 0.0093804504472560831 0.028642883438435907 0 0.0097206368439299237 0.030153526650794005 0 0.0087886460207483863 0.029728542777501976 0 0.0093804504472560831 0.028642883438435907 0 0.0087886460207483863 0.029728542777501976 0 0.0082889942459852071 0.028846079853681209 0 0.0093804504472560831 0.028642883438435907 0 0.0097206368439299237 0.030153526650794005 0 0.01062782192603378 0.029018946320712179 0 0.0097206368439299237 0.030153526650794005 0 0.01062782192603378 0.029018946320712179 0 0.011878899861898747 0.030357556379208884 0 0.0097206368439299237 0.030153526650794005 0 0.011878899861898747 0.030357556379208884 0 0.010421653178111924 0.031881047904424892 0 0.006664775448835366 0.01691866006325355 0 0.0054084801304674574 0.018022480568455002 0 0.011971857125511021 0.028282174934019664 0 0.01062782192603378 0.029018946320712179 0 0.011878899861898747 0.030357556379208884 0 0.0022570093233806486 0.0033814926863200744 0 0.0022401672202544192 0.0037261921251455239 0 0.0015589270583060023 0.0036053292516776496 0 0.011971857125511021 0.028282174934019664 0 0.013370658695403123 0.028874843037867127 0 0.011878899861898747 0.030357556379208884 0 0.0081073142448493275 0.016679249948608303 0 0.006664775448835366 0.01691866006325355 0 0.0022401672202544192 0.0037261921251455239 0 0.0015589270583060023 0.0036053292516776496 0 0.0017775035721100307 0.0042416435519308984 0 0.0017775035721100307 0.0042416435519308984 0 0.00042021889819112931 0.0040911082724096213 0 0.00046533076248390378 0.0057186629126189112 0 0.002365798555124156 0.0043852360783119756 0 0.0017775035721100307 0.0042416435519308984 0 0.0018631273587574526 0.0051009798523268092 0 0.0015589270583060023 0.0036053292516776496 0 0.0017775035721100307 0.0042416435519308984 0 0.00042021889819112931 0.0040911082724096213 0 0.00042021889819112931 0.0040911082724096213 0 -0.00095586236942263585 0.0050452125982218769 0 0.00046533076248390378 0.0057186629126189112 0 0.0054084801304674574 0.018022480568455002 0 0.0040011734260356376 0.019229145235206867 0 0.010421653178111924 0.031881047904424892 0 0.0089785391093538825 0.033400900292725924 0 0.0087528879592940253 0.032273638751274168 0 0.0088253979111274517 0.031106601464906247 0 0.010421653178111924 0.031881047904424892 0 0.0087528879592940253 0.032273638751274168 0 -0.0011070661874074011 0.0062990444845306779 0 -0.00055908623461663979 0.0073866300635212429 0 -0.0017917716981524316 0.0080426325670368264 0 -0.0011070661874074011 0.0062990444845306779 0 0.00046533076248390378 0.0057186629126189112 0 -0.00055908623461663979 0.0073866300635212429 0 -0.00095586236942263585 0.0050452125982218769 0 -0.0011070661874074011 0.0062990444845306779 0 0.00046533076248390378 0.0057186629126189112 0 0.00046533076248390378 0.0057186629126189112 0 0.00040288909336086323 0.0078000441090474212 0 -0.00055908623461663979 0.0073866300635212429 0 0.00046533076248390378 0.0057186629126189112 0 0.0015389573410317006 0.0072314165120245409 0 0.00040288909336086323 0.0078000441090474212 0 0.00046533076248390378 0.0057186629126189112 0 0.0018631273587574526 0.0051009798523268092 0 0.0015389573410317006 0.0072314165120245409 0 0.0017775035721100307 0.0042416435519308984 0 0.00046533076248390378 0.0057186629126189112 0 0.0018631273587574526 0.0051009798523268092 0 0.0018336662352625736 0.0052145982697720259 0 0.0013808160627796905 0.006473924348152295 0 0.0018631273587574526 0.0051009798523268092 0 0.0012738750718535232 0.0057080694704242773 0 0.0023115913094173698 0.0057342272081489787 0 0.0017447907422496207 0.0071925700222385622 0 0.0012738750718535232 0.0057080694704242773 0 0.0023115913094173698 0.0057342272081489787 0 0.0017447907422496207 0.0071925700222385622 0 0.00047573744077758614 0.0071645015350216661 0 0.0012738750718535232 0.0057080694704242773 0 0.000739475854428949 0.0089947911349124669 0 0.0015389573410317006 0.0072314165120245409 0 0.00040288909336086323 0.0078000441090474212 0 0.00061257616797685778 0.0080802144960844275 0 0.0013808160627796905 0.006473924348152295 0 0.00040288909336086323 0.0078000441090474212 0 -0.00034221235932034431 0.0086341164394371072 0 -0.00055908623461663979 0.0073866300635212429 0 0.000739475854428949 0.0089947911349124669 0 -0.00034221235932034431 0.0086341164394371072 0 -0.00022912693197666841 0.0094574380669948492 0 0.000739475854428949 0.0089947911349124669 0 0.00040288909336086323 0.0078000441090474212 0 -0.00034221235932034431 0.0086341164394371072 0 -0.00034221235932034431 0.0086341164394371072 0 -0.00091263927187683553 0.0096934159070600646 0 -0.00022912693197666841 0.0094574380669948492 0 -0.00034221235932034431 0.0086341164394371072 0 -0.0017917716981524316 0.0080426325670368264 0 -0.00091263927187683553 0.0096934159070600646 0 -0.00034221235932034431 0.0086341164394371072 0 -0.00055908623461663979 0.0073866300635212429 0 -0.0017917716981524316 0.0080426325670368264 0 0.0036214800302213431 0.0044966617374487487 0 0.0030760569287985587 0.005274242664319505 0 0.0038843421663508075 0.0052808915152851984 0 0.0036214800302213431 0.0044966617374487487 0 0.0043642281749323103 0.0044551306567174719 0 0.0038843421663508075 0.0052808915152851984 0 0.0043642281749323103 0.0044551306567174719 0 0.0040492699260795345 0.0036125760840911686 0 0.0047301407817716004 0.0035568914390596939 0 0.0036214800302213431 0.0044966617374487487 0 0.0043642281749323103 0.0044551306567174719 0 0.0040492699260795345 0.0036125760840911686 0 0.0028565612748031161 0.0039437913556372535 0 0.0036214800302213431 0.0044966617374487487 0 0.0040492699260795345 0.0036125760840911686 0 0.002365798555124156 0.0043852360783119756 0 0.0028565612748031161 0.0039437913556372535 0 0.0026303957743902149 0.0047837256835065768 0 0.0028565612748031161 0.0039437913556372535 0 0.0036214800302213431 0.0044966617374487487 0 0.0026303957743902149 0.0047837256835065768 0 0.002365798555124156 0.0043852360783119756 0 0.0018631273587574526 0.0051009798523268092 0 0.0026303957743902149 0.0047837256835065768 0 0.0018631273587574526 0.0051009798523268092 0 0.0026303957743902149 0.0047837256835065768 0 0.0023115913094173698 0.0057342272081489787 0 0.0026303957743902149 0.0047837256835065768 0 0.0030760569287985587 0.005274242664319505 0 0.0023115913094173698 0.0057342272081489787 0 0.0036214800302213431 0.0044966617374487487 0 0.0026303957743902149 0.0047837256835065768 0 0.0030760569287985587 0.005274242664319505 0 0.0030760569287985587 0.005274242664319505 0 0.0023115913094173698 0.0057342272081489787 0 0.0032786408444661496 0.0061508269066718772 0 0.0017447907422496207 0.0071925700222385622 0 0.0023115913094173698 0.0057342272081489787 0 0.0026787758268742657 0.0071699161194244765 0 0.0023115913094173698 0.0057342272081489787 0 0.0032786408444661496 0.0061508269066718772 0 0.0026787758268742657 0.0071699161194244765 0 0.0032786408444661496 0.0061508269066718772 0 0.0035337911583057163 0.0074718110927295212 0 0.0026787758268742657 0.0071699161194244765 0 0.0032786408444661496 0.0061508269066718772 0 0.0041056750226101009 0.0062734273030763017 0 0.0035337911583057163 0.0074718110927295212 0 0.0032786408444661496 0.0061508269066718772 0 0.0038843421663508075 0.0052808915152851984 0 0.0041056750226101009 0.0062734273030763017 0 0.0030760569287985587 0.005274242664319505 0 0.0032786408444661496 0.0061508269066718772 0 0.0038843421663508075 0.0052808915152851984 0 0.0043642281749323103 0.0044551306567174719 0 0.0038843421663508075 0.0052808915152851984 0 0.0047673803238214175 0.0051918489348832331 0 0.0038843421663508075 0.0052808915152851984 0 0.0041056750226101009 0.0062734273030763017 0 0.0047673803238214175 0.0051918489348832331 0 0.0041056750226101009 0.0062734273030763017 0 0.0048621612867418458 0.0059850649014194478 0 0.0047673803238214175 0.0051918489348832331 0 0.0041585744103921282 0.0062351972204450941 0 0.0052024356115854585 0.0063345755374052716 0 0.0048621612867418458 0.0059850649014194478 0 0.005786278242112094 0.0050499886720413428 0 0.0047673803238214175 0.0051918489348832331 0 0.0048621612867418458 0.0059850649014194478 0 0.005786278242112094 0.0050499886720413428 0 0.0058802649312674265 0.0060325455814094755 0 0.005786278242112094 0.0050499886720413428 0 0.0051936898225480076 0.0042756467790986295 0 0.0060127906312848626 0.0039799214883431454 0 0.005786278242112094 0.0050499886720413428 0 0.0047673803238214175 0.0051918489348832331 0 0.0051936898225480076 0.0042756467790986295 0 0.0043642281749323103 0.0044551306567174719 0 0.0047673803238214175 0.0051918489348832331 0 0.0051936898225480076 0.0042756467790986295 0 0.0043642281749323103 0.0044551306567174719 0 0.0051936898225480076 0.0042756467790986295 0 0.0047301407817716004 0.0035568914390596939 0 0.0051936898225480076 0.0042756467790986295 0 0.005517343644115877 0.0034397341302567315 0 0.0047301407817716004 0.0035568914390596939 0 0.0051936898225480076 0.0042756467790986295 0 0.005517343644115877 0.0034397341302567315 0 0.0060127906312848626 0.0039799214883431454 0 0.0052670123485659423 0.0026872513710314103 0 0.0047301407817716004 0.0035568914390596939 0 0.0048208753288789012 0.0027419146589835034 0 0.005517343644115877 0.0034397341302567315 0 0.0052670123485659423 0.0026872513710314103 0 0.0047301407817716004 0.0035568914390596939 0 0.005517343644115877 0.0034397341302567315 0 0.0052670123485659423 0.0026872513710314103 0 0.0063299932968155781 0.0019880087750772514 0 0.0040492699260795345 0.0036125760840911686 0 0.0047301407817716004 0.0035568914390596939 0 0.0045009606382496476 0.0031943409015623187 0 0.0047301407817716004 0.0035568914390596939 0 0.0048208753288789012 0.0027419146589835034 0 0.0045009606382496476 0.0031943409015623187 0 0.0071776459589855245 0.0026393049814318831 0 0.008509584968352208 0.003094703598323585 0 0.0072404658300193186 0.00094963756612331644 0 0.0071776459589855245 0.0026393049814318831 0 0.0063299932968155781 0.0019880087750772514 0 0.0072404658300193186 0.00094963756612331644 0 0.005517343644115877 0.0034397341302567315 0 0.0063299932968155781 0.0019880087750772514 0 0.0063666600309241908 0.0030762831019637994 0 0.0071776459589855245 0.0026393049814318831 0 0.0063299932968155781 0.0019880087750772514 0 0.0063666600309241908 0.0030762831019637994 0 0.0063666600309241908 0.0030762831019637994 0 0.0060127906312848626 0.0039799214883431454 0 0.0068497916743087113 0.0035831276777619943 0 0.005517343644115877 0.0034397341302567315 0 0.0063666600309241908 0.0030762831019637994 0 0.0060127906312848626 0.0039799214883431454 0 0.0060127906312848626 0.0039799214883431454 0 0.0068497916743087113 0.0035831276777619943 0 0.0066013804683571946 0.004243522140428134 0 0.0068497916743087113 0.0035831276777619943 0 0.0073469169762464979 0.0040015009553215145 0 0.0066013804683571946 0.004243522140428134 0 0.0071776459589855245 0.0026393049814318831 0 0.0068497916743087113 0.0035831276777619943 0 0.0075968959033011364 0.0033836526561254769 0 0.0071776459589855245 0.0026393049814318831 0 0.0063666600309241908 0.0030762831019637994 0 0.0068497916743087113 0.0035831276777619943 0 0.0068497916743087113 0.0035831276777619943 0 0.0075968959033011364 0.0033836526561254769 0 0.0073469169762464979 0.0040015009553215145 0 0.0075968959033011364 0.0033836526561254769 0 0.0073469169762464979 0.0040015009553215145 0 0.0080250348589070413 0.0037903532898729991 0 0.0073469169762464979 0.0040015009553215145 0 0.0071478892612894399 0.0045899700243567099 0 0.0077555117802182282 0.0043237780020260993 0 0.0073469169762464979 0.0040015009553215145 0 0.0071478892612894399 0.0045899700243567099 0 0.0066013804683571946 0.004243522140428134 0 0.0071478892612894399 0.0045899700243567099 0 0.0066013804683571946 0.004243522140428134 0 0.0065473690503203555 0.0048960605259377957 0 0.0071478892612894399 0.0045899700243567099 0 0.0075045191753083419 0.0049100883748303273 0 0.0077555117802182282 0.0043237780020260993 0 0.005786278242112094 0.0050499886720413428 0 0.0060127906312848626 0.0039799214883431454 0 0.0066013804683571946 0.004243522140428134 0 0.005786278242112094 0.0050499886720413428 0 0.0066013804683571946 0.004243522140428134 0 0.0065473690503203555 0.0048960605259377957 0 0.005786278242112094 0.0050499886720413428 0 0.0063241789720158009 0.0054055193508188992 0 0.0058802649312674265 0.0060325455814094755 0 0.005786278242112094 0.0050499886720413428 0 0.0065473690503203555 0.0048960605259377957 0 0.0063241789720158009 0.0054055193508188992 0 0.0065473690503203555 0.0048960605259377957 0 0.0063241789720158009 0.0054055193508188992 0 0.0069056129807647838 0.0051784364031226479 0 0.0063241789720158009 0.0054055193508188992 0 0.0066703174622129617 0.0056793167039920975 0 0.0069056129807647838 0.0051784364031226479 0 0.0063241789720158009 0.0054055193508188992 0 0.0066703174622129617 0.0056793167039920975 0 0.0058802649312674265 0.0060325455814094755 0 0.0071478892612894399 0.0045899700243567099 0 0.0075045191753083419 0.0049100883748303273 0 0.0069056129807647838 0.0051784364031226479 0 0.0071478892612894399 0.0045899700243567099 0 0.0065473690503203555 0.0048960605259377957 0 0.0069056129807647838 0.0051784364031226479 0 0.0066703174622129617 0.0056793167039920975 0 0.0069056129807647838 0.0051784364031226479 0 0.0072181652369987751 0.0055128727994591328 0 0.0075045191753083419 0.0049100883748303273 0 0.0069056129807647838 0.0051784364031226479 0 0.0072181652369987751 0.0055128727994591328 0 0.0075045191753083419 0.0049100883748303273 0 0.0072181652369987751 0.0055128727994591328 0 0.0079494775279658238 0.0053954061627372483 0 0.0075045191753083419 0.0049100883748303273 0 0.0079494775279658238 0.0053954061627372483 0 0.008037312567951347 0.0045411519082381932 0 0.0075045191753083419 0.0049100883748303273 0 0.008037312567951347 0.0045411519082381932 0 0.0077555117802182282 0.0043237780020260993 0 0.0086726821829787772 0.0042960204622475009 0 0.0084891850821177586 0.0042587856272126318 0 0.0079494775279658238 0.0053954061627372483 0 0.008037312567951347 0.0045411519082381932 0 0.0085279903251128594 0.0041124710446170569 0 0.0092569044480813011 0.003489921533447727 0 0.0087125626388305216 0.0037051504280095058 0 0.0085279903251128594 0.0041124710446170569 0 0.0087125626388305216 0.0037051504280095058 0 0.008474654911901516 0.0034137564851767408 0 0.0087038446678631594 0.003227078313344484 0 0.0087125626388305216 0.0037051504280095058 0 0.008474654911901516 0.0034137564851767408 0 0.008420040771391378 0.0037261968432374792 0 0.008474654911901516 0.0034137564851767408 0 0.008420040771391378 0.0037261968432374792 0 0.0081804922513327178 0.0035203659991975421 0 0.008474654911901516 0.0034137564851767408 0 0.0081804922513327178 0.0035203659991975421 0 0.0082627415322441486 0.0031506617509993754 0 0.0082693909152825144 0.003793011723894445 0 0.0085279903251128594 0.0041124710446170569 0 0.0082209373262573885 0.0038978663797397434 0 0.0082693909152825144 0.003793011723894445 0 0.008420040771391378 0.0037261968432374792 0 0.0085279903251128594 0.0041124710446170569 0 0.0082693909152825144 0.003793011723894445 0 0.008420040771391378 0.0037261968432374792 0 0.0081804922513327178 0.0035203659991975421 0 0.0087125626388305216 0.0037051504280095058 0 0.008420040771391378 0.0037261968432374792 0 0.0085279903251128594 0.0041124710446170569 0 0.0085279903251128594 0.0041124710446170569 0 0.0084045099494293 0.003975924936657646 0 0.0082698220681022474 0.0040895186086332509 0 0.0085279903251128594 0.0041124710446170569 0 0.0084045099494293 0.003975924936657646 0 0.0082209373262573885 0.0038978663797397434 0 0.0084045099494293 0.003975924936657646 0 0.0082698220681022474 0.0040895186086332509 0 0.0083906268646109141 0.0038021643907065919 0 0.0082698220681022474 0.0040895186086332509 0 0.0080250348589070413 0.0037903532898729991 0 0.0083906268646109141 0.0038021643907065919 0 0.0073469169762464979 0.0040015009553215145 0 0.0077555117802182282 0.0043237780020260993 0 0.0080250348589070413 0.0037903532898729991 0 0.0077555117802182282 0.0043237780020260993 0 0.0082698220681022474 0.0040895186086332509 0 0.0080250348589070413 0.0037903532898729991 0 0.008037312567951347 0.0045411519082381932 0 0.0077555117802182282 0.0043237780020260993 0 0.0082698220681022474 0.0040895186086332509 0 0.008037312567951347 0.0045411519082381932 0 0.0085279903251128594 0.0041124710446170569 0 0.0082698220681022474 0.0040895186086332509 0 0.0073344530435718687 0.0035761391197590402 0 0.0073072179552534956 0.0037812399165511237 0 0.0070989763329548069 0.003567888110017244 0 0.0073344530435718687 0.0035761391197590402 0 0.0075150218955086622 0.0037519119978726644 0 0.0073072179552534956 0.0037812399165511237 0 0.0073344530435718687 0.0035761391197590402 0 0.0070909289827199556 0.0033167241471968411 0 0.0070989763329548069 0.003567888110017244 0 0.0070909289827199556 0.0033167241471968411 0 0.0074536150301763833 0.003380489416429711 0 0.0072623784287411926 0.00317332362154994 0 0.0073344530435718687 0.0035761391197590402 0 0.0070909289827199556 0.0033167241471968411 0 0.0074536150301763833 0.003380489416429711 0 0.0074536150301763833 0.003380489416429711 0 0.007676694546450224 0.0035801942484515342 0 0.007706246503861155 0.0032926461233218881 0 0.0074536150301763833 0.003380489416429711 0 0.0075146654082773696 0.0031165531078970487 0 0.0072623784287411926 0.00317332362154994 0 0.0074536150301763833 0.003380489416429711 0 0.007706246503861155 0.0032926461233218881 0 0.0075146654082773696 0.0031165531078970487 0 0.0073344530435718687 0.0035761391197590402 0 0.007676694546450224 0.0035801942484515342 0 0.0075150218955086622 0.0037519119978726644 0 0.0073344530435718687 0.0035761391197590402 0 0.0074536150301763833 0.003380489416429711 0 0.007676694546450224 0.0035801942484515342 0 0.007676694546450224 0.0035801942484515342 0 0.0078723964853870884 0.0038474416733859191 0 0.0075150218955086622 0.0037519119978726644 0 0.007676694546450224 0.0035801942484515342 0 0.0079302554903380122 0.0034472891750612286 0 0.0080272531541836275 0.0036928367902767144 0 0.007676694546450224 0.0035801942484515342 0 0.0080272531541836275 0.0036928367902767144 0 0.0078723964853870884 0.0038474416733859191 0 0.007676694546450224 0.0035801942484515342 0 0.007706246503861155 0.0032926461233218881 0 0.0079302554903380122 0.0034472891750612286 0 0.007706246503861155 0.0032926461233218881 0 0.0079302554903380122 0.0034472891750612286 0 0.0079711592842345164 0.0032297307674243108 0 0.0079302554903380122 0.0034472891750612286 0 0.0081804922513327178 0.0035203659991975421 0 0.0080272531541836275 0.0036928367902767144 0 0.0079302554903380122 0.0034472891750612286 0 0.0081804922513327178 0.0035203659991975421 0 0.0079711592842345164 0.0032297307674243108 0 0.0082693909152825144 0.003793011723894445 0 0.0081804922513327178 0.0035203659991975421 0 0.0080272531541836275 0.0036928367902767144 0 0.0082693909152825144 0.003793011723894445 0 0.0080272531541836275 0.0036928367902767144 0 0.0082209373262573885 0.0038978663797397434 0 0.0084045099494293 0.003975924936657646 0 0.0082209373262573885 0.0038978663797397434 0 0.008281817888680116 0.0040614392539551417 0 0.0078723964853870884 0.0038474416733859191 0 0.0076103686298997723 0.0039226865897574849 0 0.008281817888680116 0.0040614392539551417 0 0.0082209373262573885 0.0038978663797397434 0 0.0078723964853870884 0.0038474416733859191 0 0.008281817888680116 0.0040614392539551417 0 0.0080272531541836275 0.0036928367902767144 0 0.0082209373262573885 0.0038978663797397434 0 0.0078723964853870884 0.0038474416733859191 0 0.0052598907185063088 -0.0012050497653573902 0 0.0051992444932353055 -0.0022347665966831109 0 0.0076103686298997723 0.0039226865897574849 0 0.008281817888680116 0.0040614392539551417 0 0.0071767659887236601 0.0040101839723051215 0 0.0078723964853870884 0.0038474416733859191 0 0.0075150218955086622 0.0037519119978726644 0 0.0076103686298997723 0.0039226865897574849 0 0.0075150218955086622 0.0037519119978726644 0 0.0076103686298997723 0.0039226865897574849 0 0.0074230775640428404 0.0038340556770955049 0 0.0076103686298997723 0.0039226865897574849 0 0.0073397965012387692 0.0039287458750000481 0 0.0071767659887236601 0.0040101839723051215 0 0.0073397965012387692 0.0039287458750000481 0 0.0073072179552534956 0.0037812399165511237 0 0.0071767659887236601 0.0040101839723051215 0 0.0073072179552534956 0.0037812399165511237 0 0.0070989763329548069 0.003567888110017244 0 0.0071767659887236601 0.0040101839723051215 0 0.0076103686298997723 0.0039226865897574849 0 0.0073397965012387692 0.0039287458750000481 0 0.0074230775640428404 0.0038340556770955049 0 0.0075150218955086622 0.0037519119978726644 0 0.0074230775640428404 0.0038340556770955049 0 0.0073072179552534956 0.0037812399165511237 0 0.0073397965012387692 0.0039287458750000481 0 0.0074230775640428404 0.0038340556770955049 0 0.0073072179552534956 0.0037812399165511237 0 0.0010693022910652366 -0.006625093911032348 0 0.0028352921807294094 -0.0064285118989809396 0 0.0015575990541553649 -0.0033854930341752267 0 0.0010693022910652366 -0.006625093911032348 0 0.00033855170135189906 -0.0076526805758878021 0 0.00037643649020880927 -0.0078706908923709181 0 0.0010693022910652366 -0.006625093911032348 0 0.0028352921807294094 -0.0064285118989809396 0 0.00037643649020880927 -0.0078706908923709181 0 0.0010693022910652366 -0.006625093911032348 0 0.0015575990541553649 -0.0033854930341752267 0 7.6264777205978693e-05 -0.0079870611073553782 0 0.0028352921807294094 -0.0064285118989809396 0 0.0015575990541553649 -0.0033854930341752267 0 0.0040943201558815701 -0.0030303965212453089 0 -0.00032886571217893287 -0.0069865286972905314 0 0.00012300310318421145 -0.0077050480449239274 0 0.0071776459589855245 0.0026393049814318831 0 0.0075968959033011364 0.0033836526561254769 0 0.008509584968352208 0.003094703598323585 0 0.0075968959033011364 0.0033836526561254769 0 0.0080250348589070413 0.0037903532898729991 0 0.008509584968352208 0.003094703598323585 0 0.0080250348589070413 0.0037903532898729991 0 0.0083906268646109141 0.0038021643907065919 0 0.008509584968352208 0.003094703598323585 0 0.0084045099494293 0.003975924936657646 0 0.008281817888680116 0.0040614392539551417 0 0.0083906268646109141 0.0038021643907065919 0 0.0052598907185063088 -0.0012050497653573902 0 0.0071563843594282363 -1.2993852252102978e-05 0 0.008281817888680116 0.0040614392539551417 0 0.0083906268646109141 0.0038021643907065919 0 0.008509584968352208 0.003094703598323585 0 0.0028352921807294094 -0.0064285118989809396 0 0.0040943201558815701 -0.0030303965212453089 0 0.0061211833783817145 -0.0030826927602079159 0 0.0040943201558815701 -0.0030303965212453089 0 0.0061211833783817145 -0.0030826927602079159 0 0.0058908294431552575 -0.00098329025487711632 0 0.0061211833783817145 -0.0030826927602079159 0 0.0068143137087270361 -0.00016152051835350916 0 0.0058908294431552575 -0.00098329025487711632 0 0.0061211833783817145 -0.0030826927602079159 0 0.0068143137087270361 -0.00016152051835350916 0 0.0072404658300193186 0.00094963756612331644 0 0.0071563843594282363 -1.2993852252102978e-05 0 0.0071079410444334929 0.0006991754139385229 0 0.0068143137087270361 -0.00016152051835350916 0 0.006470348353825402 0.0003167235444638182 0 0.0068143514684537018 0.0006099835206895231 0 0.006470348353825402 0.0003167235444638182 0 0.0058908294431552575 -0.00098329025487711632 0 0.0049580243230509741 7.2736091441710435e-05 0 0.0068143137087270361 -0.00016152051835350916 0 0.006470348353825402 0.0003167235444638182 0 0.0058908294431552575 -0.00098329025487711632 0 0.0040943201558815701 -0.0030303965212453089 0 0.0058908294431552575 -0.00098329025487711632 0 0.0049580243230509741 7.2736091441710435e-05 0 -0.0043550856281280642 -0.012132851458049624 0 -0.0046356031202770516 -0.013517614883715142 0 -0.0033646821497637113 -0.013012207385446622 0 -0.0046356031202770516 -0.013517614883715142 0 -0.0033646821497637113 -0.013012207385446622 0 -0.0038835170247911903 -0.014291473005217912 0 -0.0043550856281280642 -0.012132851458049624 0 -0.0046356031202770516 -0.013517614883715142 0 -0.0063104475510335307 -0.013559249171830396 0 0.00037760344702378454 -0.0056700813361821104 0 0.00038383771106125143 -0.0084716867708145207 0 0.006470348353825402 0.0003167235444638182 0 0.0049580243230509741 7.2736091441710435e-05 0 0.0069435022510006324 0.001169889560823433 0 0.006470348353825402 0.0003167235444638182 0 0.0068143514684537018 0.0006099835206895231 0 0.0069435022510006324 0.001169889560823433 0 -0.0024746286865871222 -0.010450930299541923 0 -0.0019613199094534943 -0.012395054462526242 0 -0.00029806683447644014 -0.011888694882934415 0 -0.0024746286865871222 -0.010450930299541923 0 -0.0043550856281280642 -0.012132851458049624 0 -0.0033646821497637113 -0.013012207385446622 0 0.0015575990541553649 -0.0033854930341752267 0 0.0040943201558815701 -0.0030303965212453089 0 0.0049580243230509741 7.2736091441710435e-05 0 -0.0024746286865871222 -0.010450930299541923 0 -0.0019613199094534943 -0.012395054462526242 0 -0.0033646821497637113 -0.013012207385446622 0 -0.00032886571217893287 -0.0069865286972905314 0 0.00037760344702378454 -0.0056700813361821104 0 -0.0033646821497637113 -0.013012207385446622 0 -0.00254872848045092 -0.014164773032806766 0 -0.0038835170247911903 -0.014291473005217912 0 -0.0019613199094534943 -0.012395054462526242 0 -0.0033646821497637113 -0.013012207385446622 0 -0.00254872848045092 -0.014164773032806766 0 -0.0019613199094534943 -0.012395054462526242 0 -0.0013877048642200499 -0.013872236012597693 0 -0.00029806683447644014 -0.011888694882934415 0 -0.0019613199094534943 -0.012395054462526242 0 -0.0013877048642200499 -0.013872236012597693 0 -0.00254872848045092 -0.014164773032806766 0 -0.0013877048642200499 -0.013872236012597693 0 -0.0010332187830137439 -0.015103161426513025 0 -0.00254872848045092 -0.014164773032806766 0 -0.0010332187830137439 -0.015103161426513025 0 -0.00254872848045092 -0.014164773032806766 0 -0.0021652219264917455 -0.015716958521177587 0 -0.00254872848045092 -0.014164773032806766 0 -0.0032055867343600245 -0.015262052653826396 0 -0.0021652219264917455 -0.015716958521177587 0 -0.00254872848045092 -0.014164773032806766 0 -0.0032055867343600245 -0.015262052653826396 0 -0.0038835170247911903 -0.014291473005217912 0 -0.0032055867343600245 -0.015262052653826396 0 -0.0033186957573914117 -0.016313500244624645 0 -0.0039553801842496222 -0.015701717724744456 0 -0.0020314298609044263 -0.017167922238758047 0 -0.0033186957573914117 -0.016313500244624645 0 -0.0021652219264917455 -0.015716958521177587 0 -0.0032055867343600245 -0.015262052653826396 0 -0.0033186957573914117 -0.016313500244624645 0 -0.0021652219264917455 -0.015716958521177587 0 -0.0020314298609044263 -0.017167922238758047 0 -0.0021652219264917455 -0.015716958521177587 0 -0.00087435273415174949 -0.016458477719622576 0 -0.0010332187830137439 -0.015103161426513025 0 -0.0021652219264917455 -0.015716958521177587 0 -0.00087435273415174949 -0.016458477719622576 0 -0.0046356031202770516 -0.013517614883715142 0 -0.0052414193072463254 -0.014606852389057205 0 -0.0063104475510335307 -0.013559249171830396 0 -0.0040126526572726749 -0.015602465976304492 0 -0.0040266571816215766 -0.015596824999734879 0 -0.0040491256815103089 -0.015706505764670042 0 -0.0046744096817847849 -0.015164532151748582 0 0.00038383771106125143 -0.0084716867708145207 0 -0.0040126526572726749 -0.015602465976304492 0 -0.0040266571816215766 -0.015596824999734879 0 -0.0040052641274519948 -0.015513794187064273 0 -0.0046356031202770516 -0.013517614883715142 0 -0.0052414193072463254 -0.014606852389057205 0 -0.0038835170247911903 -0.014291473005217912 0 -0.0032055867343600245 -0.015262052653826396 0 -0.0038835170247911903 -0.014291473005217912 0 -0.0039553801842496222 -0.015701717724744456 0 -0.0052414193072463254 -0.014606852389057205 0 -0.0038835170247911903 -0.014291473005217912 0 -0.0039553801842496222 -0.015701717724744456 0 -0.0046744096817847849 -0.015164532151748582 0 -0.0040315144703448541 -0.015632440347534991 0 -0.0040126526572726749 -0.015602465976304492 0 -0.0039553801842496222 -0.015701717724744456 0 -0.0040491256815103089 -0.015706505764670042 0 -0.0033186957573914117 -0.016313500244624645 0 -0.0039553801842496222 -0.015701717724744456 0 -0.0039505761194941671 -0.01590001360978114 0 -0.0039553801842496222 -0.015701717724744456 0 -0.0039505761194941671 -0.01590001360978114 0 -0.0040491256815103089 -0.015706505764670042 0 -0.0039505761194941671 -0.01590001360978114 0 -0.0040594262095436859 -0.015804189298027321 0 -0.0040491256815103089 -0.015706505764670042 0 -0.0040829683760689192 -0.015768294745035345 0 -0.0040594262095436859 -0.015804189298027321 0 -0.0040491256815103089 -0.015706505764670042 0 -0.0040266571816215766 -0.015596824999734879 0 -0.0040491256815103089 -0.015706505764670042 0 -0.0040390647920725336 -0.015637806494959734 0 -0.0040829683760689192 -0.015768294745035345 0 -0.0040491256815103089 -0.015706505764670042 0 -0.0040543366202533578 -0.015696154800645002 0 -0.0040491256815103089 -0.015706505764670042 0 -0.0040543366202533578 -0.015696154800645002 0 -0.0040390647920725336 -0.015637806494959734 0 -0.0040290704611809494 -0.015664781225188062 0 -0.0040543366202533578 -0.015696154800645002 0 -0.0040299238928081403 -0.015633582646738226 0 -0.0040299238928081403 -0.015633582646738226 0 -0.0040302060106572734 -0.015539709317599886 0 -0.0040156007490543006 -0.015614662243138913 0 -0.0040543366202533578 -0.015696154800645002 0 -0.0040299238928081403 -0.015633582646738226 0 -0.0040390647920725336 -0.015637806494959734 0 -0.0040299238928081403 -0.015633582646738226 0 -0.0040390647920725336 -0.015637806494959734 0 -0.0040302060106572734 -0.015539709317599886 0 -0.0040290704611809494 -0.015664781225188062 0 -0.0040299238928081403 -0.015633582646738226 0 -0.0040156007490543006 -0.015614662243138913 0 -0.0040266571816215766 -0.015596824999734879 0 -0.0040390647920725336 -0.015637806494959734 0 -0.0040302060106572734 -0.015539709317599886 0 0.0013786855691738573 -0.0080810355770609306 0 0.00038383771106125143 -0.0084716867708145207 0 -0.0040266571816215766 -0.015596824999734879 0 -0.0040302060106572734 -0.015539709317599886 0 -0.0040052641274519948 -0.015513794187064273 0 0.0013786855691738573 -0.0080810355770609306 0 0.0053634589779203989 -0.0019036268141472469 0 0.0062602720088929184 0.0011112561612363046 0 0.0052249661249169216 0.00099794632245681796 0 0.0054102184707228483 0.0014968167056784581 0 0.0062602720088929184 0.0011112561612363046 0 0.0051436549225357519 0.00041937649540588754 0 0.0052249661249169216 0.00099794632245681796 0 0.001769113173630984 -0.0071219205761987175 0 0.0026686415780443665 -0.0045552246913796064 0 0.0039361097259112271 -0.0056642289801991583 0 0.0013786855691738573 -0.0080810355770609306 0 0.0018810967172596855 -0.0070790289933728105 0 0.0018810967172596855 -0.0070790289933728105 0 0.0053634589779203989 -0.0019036268141472469 0 0.0050120051927703708 -4.0930352263071758e-06 0 0.0053490060236339801 -1.3293893950818152e-05 0 0.0051436549225357519 0.00041937649540588754 0 0.0050120051927703708 -4.0930352263071758e-06 0 0.0048679602252280239 0.00037782480054588768 0 0.0051436549225357519 0.00041937649540588754 0 0.0050120051927703708 -4.0930352263071758e-06 0 0.0048679602252280239 0.00037782480054588768 0 0.0045863810491026851 4.4328275369371226e-05 0 0.0048679602252280239 0.00037782480054588768 0 0.0051436549225357519 0.00041937649540588754 0 0.004878578143085224 0.00074947356393200402 0 0.0039048107008592525 0.00074668389052272516 0 0.0045863810491026851 4.4328275369371226e-05 0 0.0044601637575559837 0.00072553558766579019 0 0.0048679602252280239 0.00037782480054588768 0 0.0045863810491026851 4.4328275369371226e-05 0 0.0044601637575559837 0.00072553558766579019 0 0.0038121079098103129 0.0022251165393772357 0 0.0047709984025293781 -0.0001577365330570618 0 0.0041443761322496574 -2.1975909389591078e-05 0 0.0043489978810323602 0.00055094348240851431 0 0.0046669296447789119 0.0001606323115397273 0 0.0038121079098103129 0.0022251165393772357 0 0.0044084682686033961 0.0019240889335596111 0 0.0044601637575559837 0.00072553558766579019 0 0.0047779777563209556 0.001148484607045323 0 0.0042428793778271513 0.0016711136519486148 0 0.0039048107008592525 0.00074668389052272516 0 0.0044601637575559837 0.00072553558766579019 0 0.0042428793778271513 0.0016711136519486148 0 0.0051436549225357519 0.00041937649540588754 0 0.0050865876436528889 0.0006626978844758481 0 0.0052249661249169216 0.00099794632245681796 0 0.0050865876436528889 0.0006626978844758481 0 0.004878578143085224 0.00074947356393200402 0 0.0052249661249169216 0.00099794632245681796 0 0.0051436549225357519 0.00041937649540588754 0 0.0050865876436528889 0.0006626978844758481 0 0.004878578143085224 0.00074947356393200402 0 0.0048679602252280239 0.00037782480054588768 0 0.0044601637575559837 0.00072553558766579019 0 0.004878578143085224 0.00074947356393200402 0 0.0044601637575559837 0.00072553558766579019 0 0.004878578143085224 0.00074947356393200402 0 0.0047779777563209556 0.001148484607045323 0 0.004878578143085224 0.00074947356393200402 0 0.0047779777563209556 0.001148484607045323 0 0.0052249661249169216 0.00099794632245681796 0 0.0047779777563209556 0.001148484607045323 0 0.0050892744511306038 0.0013213187622583232 0 0.0052249661249169216 0.00099794632245681796 0 0.0050892744511306038 0.0013213187622583232 0 0.0052249661249169216 0.00099794632245681796 0 0.0054102184707228483 0.0014968167056784581 0 0.0050892744511306038 0.0013213187622583232 0 0.0049404752995356599 0.00164035117284131 0 0.0054102184707228483 0.0014968167056784581 0 0.0047779777563209556 0.001148484607045323 0 0.0050892744511306038 0.0013213187622583232 0 0.0049404752995356599 0.00164035117284131 0 0.0049404752995356599 0.00164035117284131 0 0.0053103423764194677 0.00219651613962222 0 0.0054102184707228483 0.0014968167056784581 0 0.0049404752995356599 0.00164035117284131 0 0.0042428793778271513 0.0016711136519486148 0 0.0048208753288789012 0.0027419146589835034 0 0.0047779777563209556 0.001148484607045323 0 0.0049404752995356599 0.00164035117284131 0 0.0042428793778271513 0.0016711136519486148 0 0.0043847701403354217 0.0029053504488155231 0 0.0045803911442576237 0.0024948404285910367 0 0.0048208753288789012 0.0027419146589835034 0 0.0044084682686033961 0.0019240889335596111 0 0.0047784378740430115 0.0027512328092711047 0 0.0043847701403354217 0.0029053504488155231 0 0.0048208753288789012 0.0027419146589835034 0 0.0045009606382496476 0.0031943409015623187 0 0.0052670123485659423 0.0026872513710314103 0 0.0053103423764194677 0.00219651613962222 0 0.0057420532560004062 0.0023080279130080097 0 0.0049404752995356599 0.00164035117284131 0 0.0048208753288789012 0.0027419146589835034 0 0.0053103423764194677 0.00219651613962222 0 0.0052670123485659423 0.0026872513710314103 0 0.0048208753288789012 0.0027419146589835034 0 0.0053103423764194677 0.00219651613962222 0 0.0052670123485659423 0.0026872513710314103 0 0.0063299932968155781 0.0019880087750772514 0 0.0065145549645038575 0.00063101573894186773 0 0.0053349129526423806 0.0024780573794203255 0 0.0062606935634947373 0.001640692068514273 0 0.0053103423764194677 0.00219651613962222 0 0.0057420532560004062 0.0023080279130080097 0 0.0055899403517164241 0.0019386642916592368 0 0.0063299932968155781 0.0019880087750772514 0 0.0065145549645038575 0.00063101573894186773 0 0.0072404658300193186 0.00094963756612331644 0 0.0074397906914150025 0.00061486296788685431 0 0.0047646135106034146 -0.00065433235312207226 0 0.0065145549645038575 0.00063101573894186773 0 0.0072404658300193186 0.00094963756612331644 0 0.007060789224935006 0.00055688027939329045 0 0.0068143137087270361 -0.00016152051835350916 0 0.007060789224935006 0.00055688027939329045 0 0.0070671221432782932 0.00077958711052036195 0 0.0068143137087270361 -0.00016152051835350916 0 0.0068143514684537018 0.0006099835206895231 0 0.0071604530631105782 0.00078483185407884405 0 0.0068143137087270361 -0.00016152051835350916 0 0.0072404658300193186 0.00094963756612331644 0 0.007060789224935006 0.00055688027939329045 0 0.0065145549645038575 0.00063101573894186773 0 0.007060789224935006 0.00055688027939329045 0 0.0070671221432782932 0.00077958711052036195 0 0.0062606935634947373 0.001640692068514273 0 0.0047646135106034146 -0.00065433235312207226 0 0.0018104864294333756 -0.0072742888283582824 0 0.0025494701379202033 -0.0051430197512662909 0 0.0035827894000988016 -0.006081769529469469 0 0.0068143514684537018 0.0006099835206895231 0 0.0071604530631105782 0.00078483185407884405 0 0.0069435022510006324 0.001169889560823433 0 0.0047646135106034146 -0.00065433235312207226 0 0.00038383771106125143 -0.0084716867708145207 0 0.0013786855691738573 -0.0080810355770609306 0 0.0047646135106034146 -0.00065433235312207226 0 0.0062602720088929184 0.0011112561612363046 0 0.0064483654816375252 0.0016687436236501488 0 0.0058892477362683686 0.0017097343209926904 0 0.0062602720088929184 0.0011112561612363046 0 0.0054102184707228483 0.0014968167056784581 0 0.0058892477362683686 0.0017097343209926904 0 0.0054102184707228483 0.0014968167056784581 0 0.0055899403517164241 0.0019386642916592368 0 0.0058892477362683686 0.0017097343209926904 0 0.0053103423764194677 0.00219651613962222 0 0.0054102184707228483 0.0014968167056784581 0 0.0055899403517164241 0.0019386642916592368 0 0.0057420532560004062 0.0023080279130080097 0 0.0055899403517164241 0.0019386642916592368 0 0.0058892477362683686 0.0017097343209926904 0 0.0057420532560004062 0.0023080279130080097 0 0.0064483654816375252 0.0016687436236501488 0 0.0058892477362683686 0.0017097343209926904 0 1.6096699894402745e-06 0.049987527416153907 0 -1.0105062740147699e-09 0.049999986106327846 0 2.1844907215969885e-09 0.049999990926579842 0 1.6096699894402745e-06 0.049987527416153907 0 -1.0105062740147699e-09 0.049999986106327846 0 1.3327610696423486e-06 0.049991668456141121 0 0.00010564414161273695 0.047873416616801029 0 -8.3386312173233163e-05 0.050228347165006258 0 2.3012343178622499e-05 0.049810860966518482 0 7.4860719702574865e-05 0.049722504109888571 0 -2.2826553671911664e-05 0.049870694159500621 0 1.6096699894402745e-06 0.049987527416153907 0 5.1050814691933116e-06 0.04997277447095784 0 1.3327610696423486e-06 0.049991668456141121 0 2.3012343178622499e-05 0.049810860966518482 0 8.0882313765225609e-05 0.04976510791949839 0 7.4860719702574865e-05 0.049722504109888571 0 -3.5139736318063518e-05 0.049234464610962182 0 5.0202555133600999e-05 0.04630475718975214 0 5.0202555133600999e-05 0.04630475718975214 0 0.00010564414161273695 0.047873416616801029 0 0.00010564414161273695 0.047873416616801029 0 -0.00031780544758776334 0.04556238382808362 0 -0.0002904332913853876 0.043886168412566158 0 -0.00029923509543776063 0.043741177514523451 0 -1.2361925899061066e-05 0.043574339959122042 0 0.00010564414161273695 0.047873416616801029 0 4.3812515788181412e-05 0.049069657292292568 0 8.4366281247844307e-05 0.047903525659089737 0 -0.00050057838086004034 0.048063453029917165 0 -0.00046776690057370333 0.047466136145269198 0 4.887743263186491e-05 0.047211111778187348 0 8.4366281247844307e-05 0.047903525659089737 0 -0.00046776690057370333 0.047466136145269198 0 1.6096699894402745e-06 0.049987527416153907 0 5.1050814691933116e-06 0.04997277447095784 0 2.2608030599347278e-06 0.049976812662127806 0 2.2608030599347278e-06 0.049976812662127806 0 1.2553762194413761e-06 0.049984205263818374 0 5.8448523349144267e-07 0.049980647974571815 0 1.6096699894402745e-06 0.049987527416153907 0 2.2608030599347278e-06 0.049976812662127806 0 1.2553762194413761e-06 0.049984205263818374 0 0.00011797930365212226 0.048604675206393701 0 -0.00061440606905107547 0.048662104186563609 0 -0.00050057838086004034 0.048063453029917165 0 4.3812515788181412e-05 0.049069657292292568 0 7.4033688040612224e-05 0.04931373563671948 0 8.4366281247844307e-05 0.047903525659089737 0 0.00011797930365212226 0.048604675206393701 0 -0.00050057838086004034 0.048063453029917165 0 7.4033688040612224e-05 0.04931373563671948 0 -0.00021164777821764487 0.049421083086100742 0 -0.00051244831385380935 0.049165363474027134 0 -0.00060536142908578893 0.048961314364093629 0 -0.00061440606905107547 0.048662104186563609 0 0.00011797930365212226 0.048604675206393701 0 0.00015330126428001495 0.049323386937462493 0 -0.00061440606905107547 0.048662104186563609 0 -0.00021164777821764487 0.049421083086100742 0 -0.00062489515086113119 0.048632631179487178 0 5.8448523349144267e-07 0.049980647974571815 0 -8.4524348234810055e-08 0.049984592817012015 0 -7.2849206441586459e-07 0.049979827569677955 0 1.2553762194413761e-06 0.049984205263818374 0 5.8448523349144267e-07 0.049980647974571815 0 -8.4524348234810055e-08 0.049984592817012015 0 -8.4524348234810055e-08 0.049984592817012015 0 1.9039497747949831e-07 0.049991412149761882 0 -1.0887870815235529e-06 0.049987868174452124 0 1.2553762194413761e-06 0.049984205263818374 0 -8.4524348234810055e-08 0.049984592817012015 0 1.9039497747949831e-07 0.049991412149761882 0 1.6096699894402745e-06 0.049987527416153907 0 1.2553762194413761e-06 0.049984205263818374 0 1.9039497747949831e-07 0.049991412149761882 0 1.6096699894402745e-06 0.049987527416153907 0 1.9039497747949831e-07 0.049991412149761882 0 2.1844907215969885e-09 0.049999990926579842 0 1.9039497747949831e-07 0.049991412149761882 0 -4.9226599197003142e-09 0.049999975226281954 0 -1.0887870815235529e-06 0.049987868174452124 0 1.9039497747949831e-07 0.049991412149761882 0 2.1844907215969885e-09 0.049999990926579842 0 -4.9226599197003142e-09 0.049999975226281954 0 -8.1846594851720753e-09 0.049999994778571463 0 1.5912500875762645e-05 0.050012709251819422 0 -1.0227277221923709e-09 0.049999993596846481 0 -4.2399525747023277e-06 0.049995314100763272 0 -3.2548609336413701e-09 0.049999994563710022 0 1.5912500875762645e-05 0.050012709251819422 0 -0.0003541690706656317 0.049428795374905236 0 -8.4524348234810055e-08 0.049984592817012015 0 -1.0887870815235529e-06 0.049987868174452124 0 -2.3746799832846982e-06 0.049980373643399127 0 -4.2399525747023277e-06 0.049995314100763272 0 -4.9066011954167325e-06 0.049998235598940427 0 -1.2302324986304061e-05 0.049992429480407254 0 -0.00025854338407734287 0.048968944637273332 0 -0.00058638895365896958 0.048803734253819467 0 -0.00057443665518967237 0.048618247049075414 0 -0.00016518016134775418 0.049482187417810339 0 -0.0003541690706656317 0.049428795374905236 0 -4.2399525747023277e-06 0.049995314100763272 0 -3.2548609336413701e-09 0.049999994563710022 0 -4.9066011954167325e-06 0.049998235598940427 0 -0.00025854338407734287 0.048968944637273332 0 -0.00018580459481928909 0.049614640774557954 0 1.9000007635651023e-07 0.049997898498171177 0 -3.2548609336413701e-09 0.049999994563710022 0 -4.9066011954167325e-06 0.049998235598940427 0 -1.1232206900265169e-09 0.050000002556563686 0 -0.00016518016134775418 0.049482187417810339 0 -7.3724450969034752e-08 0.049999748809657102 0 -0.00025854338407734287 0.048968944637273332 0 -0.00047945529294933715 0.049066810288032128 0 -0.00058638895365896958 0.048803734253819467 0 -0.00025854338407734287 0.048968944637273332 0 -0.00047945529294933715 0.049066810288032128 0 -0.00018580459481928909 0.049614640774557954 0 -0.00047945529294933715 0.049066810288032128 0 -0.00040141685428558155 0.049402697608041501 0 -0.00018580459481928909 0.049614640774557954 0 -1.0548130530384758e-07 0.050000033318781979 0 -0.00018580459481928909 0.049614640774557954 0 1.9000007635651023e-07 0.049997898498171177 0 -0.00090130393827645729 0.049254818788577286 0 -0.0005567121146577282 0.046883338439727106 0 -0.00082172163428984415 0.047976050877107504 0 -0.00062382432451492658 0.048921675816081145 0 -0.00090001305080454695 0.048073816609993554 0 -0.00066873457831839722 0.049416360251284111 0 -0.00062382432451492658 0.048921675816081145 0 -0.001243875301503059 0.049221497154511948 0 -0.00082172163428984415 0.047976050877107504 0 -0.00062382432451492658 0.048921675816081145 0 -0.00071760320331996908 0.0486118799446165 0 -0.0008860298587363239 0.047825308171479328 0 -0.0005567121146577282 0.046883338439727106 0 -0.00047945529294933715 0.049066810288032128 0 -0.00040141685428558155 0.049402697608041501 0 -0.00062382432451492658 0.048921675816081145 0 -0.00066873457831839722 0.049416360251284111 0 -0.00040141685428558155 0.049402697608041501 0 -0.00062382432451492658 0.048921675816081145 0 -0.00047945529294933715 0.049066810288032128 0 -0.00062382432451492658 0.048921675816081145 0 -0.00071760320331996908 0.0486118799446165 0 -0.00071760320331996908 0.0486118799446165 0 -0.00058638895365896958 0.048803734253819467 0 -0.00070441690637451854 0.048741400127045767 0 -0.00047945529294933715 0.049066810288032128 0 -0.00071760320331996908 0.0486118799446165 0 -0.00058638895365896958 0.048803734253819467 0 -0.00071760320331996908 0.0486118799446165 0 -0.00057323313813727379 0.048425514886535861 0 -0.00070441690637451854 0.048741400127045767 0 -0.00082172163428984415 0.047976050877107504 0 -0.00071760320331996908 0.0486118799446165 0 -0.00057323313813727379 0.048425514886535861 0 -0.00082172163428984415 0.047976050877107504 0 -0.00057323313813727379 0.048425514886535861 0 -0.00030291063902194607 0.048046955427697699 0 -0.00057323313813727379 0.048425514886535861 0 -0.00070441690637451854 0.048741400127045767 0 -0.00034426806281229151 0.048809518751830594 0 -0.00070441690637451854 0.048741400127045767 0 -0.00057915406040783966 0.049023751785474044 0 -0.00062983237471494623 0.049153835809808151 0 -0.00057915406040783966 0.049023751785474044 0 -0.00049531964781997706 0.04920676643781708 0 -0.00034426806281229151 0.048809518751830594 0 -0.00070441690637451854 0.048741400127045767 0 -0.00057915406040783966 0.049023751785474044 0 -0.00034426806281229151 0.048809518751830594 0 -0.00058638895365896958 0.048803734253819467 0 -0.00070441690637451854 0.048741400127045767 0 -0.00057443665518967237 0.048618247049075414 0 -0.00070441690637451854 0.048741400127045767 0 -0.0010186617882174105 0.048960194043109119 0 -0.00062983237471494623 0.049153835809808151 0 -0.0007086771126118825 0.048791406175107091 0 -0.0003541690706656317 0.049428795374905236 0 -8.4524348234810055e-08 0.049984592817012015 0 -2.3746799832846982e-06 0.049980373643399127 0 -7.2849206441586459e-07 0.049979827569677955 0 -0.0003541690706656317 0.049428795374905236 0 -0.00021164777821764487 0.049421083086100742 0 -0.0010186617882174105 0.048960194043109119 0 -0.00062983237471494623 0.049153835809808151 0 -0.00062149263238263179 0.049279485903756116 0 -0.0005278598590926683 0.049164611175980387 0 -0.00051244831385380935 0.049165363474027134 0 -0.00060536142908578893 0.048961314364093629 0 -0.00049531964781997706 0.04920676643781708 0 -0.0005278598590926683 0.049164611175980387 0 -0.00060536142908578893 0.048961314364093629 0 -0.00057915406040783966 0.049023751785474044 0 -0.00049531964781997706 0.04920676643781708 0 -0.0005278598590926683 0.049164611175980387 0 -0.00057915406040783966 0.049023751785474044 0 -0.00062983237471494623 0.049153835809808151 0 -0.0005278598590926683 0.049164611175980387 0 -0.00062983237471494623 0.049153835809808151 0 -0.0005278598590926683 0.049164611175980387 0 -0.00051244831385380935 0.049165363474027134 0 -0.00028287053214414733 0.049276317230710055 0 -0.00021164777821764487 0.049421083086100742 0 -0.00049531964781997706 0.04920676643781708 0 -0.00060536142908578893 0.048961314364093629 0 -0.00081322029666663367 0.049119680607160349 0 -0.0004611562460472936 0.049256455601335 0 -0.00017018106460950767 0.049340310666544415 0 -0.00060536142908578893 0.048961314364093629 0 -0.00081322029666663367 0.049119680607160349 0 -0.0008747084192409515 0.048854181190435976 0 -0.00017018106460950767 0.049340310666544415 0 0.0010650080954181097 0.044902344387249916 0 -0.00081322029666663367 0.049119680607160349 0 -0.001187793279534131 0.049022543805852054 0 -0.0008747084192409515 0.048854181190435976 0 0.00035159764394813048 0.049676561016962446 0 0.0013391057569810047 0.049994894039526498 0 0.00068446889293293054 0.048959381371987611 0 0.0013391057569810047 0.049994894039526498 0 0.00068446889293293054 0.048959381371987611 0 0.0018229932431432622 0.048778698340679889 0 0.00068446889293293054 0.048959381371987611 0 0.0010737185028752798 0.047931360333875732 0 0.0018229932431432622 0.048778698340679889 0 0.00068446889293293054 0.048959381371987611 0 -0.00034426806281229151 0.048809518751830594 0 0.00010906516231643175 0.048371948558882244 0 -0.00049531964781997706 0.04920676643781708 0 0.00035159764394813048 0.049676561016962446 0 -0.00034426806281229151 0.048809518751830594 0 0.00035159764394813048 0.049676561016962446 0 0.00068446889293293054 0.048959381371987611 0 -0.00034426806281229151 0.048809518751830594 0 -0.00057323313813727379 0.048425514886535861 0 -0.00030291063902194607 0.048046955427697699 0 0.00010906516231643175 0.048371948558882244 0 -0.00057323313813727379 0.048425514886535861 0 -0.00034426806281229151 0.048809518751830594 0 0.00010906516231643175 0.048371948558882244 0 -0.00030291063902194607 0.048046955427697699 0 0.00010906516231643175 0.048371948558882244 0 0.00022980816760591354 0.047393238456297344 0 0.00010906516231643175 0.048371948558882244 0 0.0010737185028752798 0.047931360333875732 0 0.00022980816760591354 0.047393238456297344 0 0.00068446889293293054 0.048959381371987611 0 0.00010906516231643175 0.048371948558882244 0 0.0010737185028752798 0.047931360333875732 0 0.0010737185028752798 0.047931360333875732 0 0.0010334817953711174 0.046443262588824433 0 0.00022980816760591354 0.047393238456297344 0 0.0010737185028752798 0.047931360333875732 0 0.0010334817953711174 0.046443262588824433 0 0.0026649542979930072 0.047031630017873666 0 0.001131948095901007 0.04485959574844732 0 0.0010334817953711174 0.046443262588824433 0 -0.00064638034642067513 0.046422034625102332 0 0.001131948095901007 0.04485959574844732 0 0.0010334817953711174 0.046443262588824433 0 0.0020565050999896413 0.045403445994902591 0 0.0010334817953711174 0.046443262588824433 0 -0.00064638034642067513 0.046422034625102332 0 0.00022980816760591354 0.047393238456297344 0 -0.00082172163428984415 0.047976050877107504 0 -0.00064638034642067513 0.046422034625102332 0 0.00022980816760591354 0.047393238456297344 0 -0.00082172163428984415 0.047976050877107504 0 -0.00030291063902194607 0.048046955427697699 0 0.00022980816760591354 0.047393238456297344 0 0.0028429927026910953 0.042184830598808919 0 0.0035072340683817041 0.041861075141053465 0 0.002609357336952198 0.04159956415509676 0 0.0028429927026910953 0.042184830598808919 0 0.002609357336952198 0.04159956415509676 0 0.0025014646143553783 0.042104110512285423 0 0.0024441444300835136 0.04244026067839389 0 0.0027072923709524732 0.04254514413004621 0 0.0025014646143553783 0.042104110512285423 0 0.0028429927026910953 0.042184830598808919 0 0.0027072923709524732 0.04254514413004621 0 0.0025014646143553783 0.042104110512285423 0 0.0029776063912014699 0.042788781617577556 0 0.0028429927026910953 0.042184830598808919 0 0.0035072340683817041 0.041861075141053465 0 0.0029776063912014699 0.042788781617577556 0 0.0028429927026910953 0.042184830598808919 0 0.0027072923709524732 0.04254514413004621 0 0.0032029258873369033 0.043708646198514528 0 0.0030370941993289112 0.044416892758746968 0 0.0031974167593397996 0.043607927303339983 0 0.0029776063912014699 0.042788781617577556 0 0.0035072340683817041 0.041861075141053465 0 0.0010334817953711174 0.046443262588824433 0 0.0020565050999896413 0.045403445994902591 0 0.0026649542979930072 0.047031630017873666 0 0.0031974167593397996 0.043607927303339983 0 0.0020565050999896413 0.045403445994902591 0 0.0026649542979930072 0.047031630017873666 0 0.0035072340683817041 0.041861075141053465 0 0.0029710882302003069 0.041111612442674757 0 0.0035423067669294352 0.041120794008444192 0 0.0010737185028752798 0.047931360333875732 0 0.0026649542979930072 0.047031630017873666 0 0.0018229932431432622 0.048778698340679889 0 0.0030370941993289112 0.044416892758746968 0 0.0028218463291531074 0.044954767764700573 0 0.002609357336952198 0.04159956415509676 0 0.0029710882302003069 0.041111612442674757 0 0.002392639596734217 0.040988125299246565 0 0.0035072340683817041 0.041861075141053465 0 0.002609357336952198 0.04159956415509676 0 0.0029710882302003069 0.041111612442674757 0 0.0029710882302003069 0.041111612442674757 0 0.0027008931963660742 0.040657705188621406 0 0.002392639596734217 0.040988125299246565 0 0.0029710882302003069 0.041111612442674757 0 0.0031403265082700859 0.04068859841581178 0 0.0027008931963660742 0.040657705188621406 0 0.0010650080954181097 0.044902344387249916 0 0.0028218463291531074 0.044954767764700573 0 0.0036595051080281337 0.040444102150011388 0 0.0035423067669294352 0.041120794008444192 0 0.0031403265082700859 0.04068859841581178 0 0.0029710882302003069 0.041111612442674757 0 0.0035423067669294352 0.041120794008444192 0 0.0031403265082700859 0.04068859841581178 0 0.0010650080954181097 0.044902344387249916 0 0.0023154641846206631 0.040637695220653795 0 0.0036595051080281337 0.040444102150011388 0 0.0031403265082700859 0.04068859841581178 0 0.0028781902619122346 0.040202982774797898 0 0.0027008931963660742 0.040657705188621406 0 0.0028781902619122346 0.040202982774797898 0 0.0022378811957518316 0.04046216703141655 0 0.0031403265082700859 0.04068859841581178 0 0.0027008931963660742 0.040657705188621406 0 0.0028781902619122346 0.040202982774797898 0 0.0012682920858760802 0.041284680553622756 0 0.0011592409297877999 0.041683229291749682 0 0.0014470856316448344 0.04152445393648007 0 0.00090285990582553383 0.039308026922225653 0 0.0011814252990149936 0.038526663144388532 0 0.00076470689370670324 0.03561795207031538 0 0.00099412876152710173 0.035537255924538845 0 0.00096177001878101063 0.035502353606381695 0 0.00076470689370670324 0.03561795207031538 0 0.00091389515434202242 0.035797073332772156 0 0.00099412876152710173 0.035537255924538845 0 0.00090285990582553383 0.039308026922225653 0 0.00042314758343239416 0.034385708891138254 0 0.001244650571046915 0.041864215122217628 0 0.00084289937810969268 0.042085398293596019 0 0.00088773150518235754 0.041761126601700921 0 0.00090285990582553383 0.039308026922225653 0 0.00064421610809469224 0.039916344405361376 0 0.00010087302848143671 0.037853115285523216 0 9.8043849801120704e-05 0.037860507056342529 0 9.8152994543028625e-05 0.037844591844761799 0 0.00088773150518235754 0.041761126601700921 0 0.00087858174578211306 0.041395480380018952 0 0.00058189295110451522 0.041703633185179952 0 0.001244650571046915 0.041864215122217628 0 0.00088773150518235754 0.041761126601700921 0 0.00087858174578211306 0.041395480380018952 0 0.0012682920858760802 0.041284680553622756 0 0.0011592409297877999 0.041683229291749682 0 0.00087858174578211306 0.041395480380018952 0 0.00090285990582553383 0.039308026922225653 0 0.0012594933069894939 0.04221390073751765 0 0.00075896012917669585 0.041177398084396764 0 0.0012682920858760802 0.041284680553622756 0 0.00087858174578211306 0.041395480380018952 0 0.0010650080954181097 0.044902344387249916 0 -0.00045011486591355288 0.045533355231996649 0 -0.001187793279534131 0.049022543805852054 0 -0.0008747084192409515 0.048854181190435976 0 -0.0011172277517586843 0.048464710122430553 0 0.00075896012917669585 0.041177398084396764 0 0.00087858174578211306 0.041395480380018952 0 0.00058189295110451522 0.041703633185179952 0 -0.0008747084192409515 0.048854181190435976 0 -0.00061440606905107547 0.048662104186563609 0 -0.0011172277517586843 0.048464710122430553 0 -0.00060536142908578893 0.048961314364093629 0 -0.0008747084192409515 0.048854181190435976 0 -0.00061440606905107547 0.048662104186563609 0 -0.00061440606905107547 0.048662104186563609 0 -0.00050057838086004034 0.048063453029917165 0 -0.0011172277517586843 0.048464710122430553 0 -0.00050057838086004034 0.048063453029917165 0 -0.0011172277517586843 0.048464710122430553 0 -0.00096564070710644862 0.047717993658868731 0 0.00084289937810969268 0.042085398293596019 0 0.00058189295110451522 0.041703633185179952 0 0.00041772558864935401 0.042311104666690795 0 -0.00045011486591355288 0.045533355231996649 0 -1.5543675227078637e-05 0.043067121534040916 0 0.00084289937810969268 0.042085398293596019 0 0.00088773150518235754 0.041761126601700921 0 0.00058189295110451522 0.041703633185179952 0 0.00064421610809469224 0.039916344405361376 0 -1.5543675227078637e-05 0.043067121534040916 0 9.8043849801120704e-05 0.037860507056342529 0 9.1627801654512258e-05 0.037879278970273524 0 9.2146253767024262e-05 0.037863432063918422 0 -0.00050057838086004034 0.048063453029917165 0 -0.00096564070710644862 0.047717993658868731 0 -0.00046776690057370333 0.047466136145269198 0 -1.5543675227078637e-05 0.043067121534040916 0 -0.00031780544758776334 0.04556238382808362 0 5.0202555133600999e-05 0.04630475718975214 0 -9.6859697080336669e-06 0.038916596952447424 0 0.00026985775239066488 0.043419717642989526 0 -1.2361925899061066e-05 0.043574339959122042 0 0.00017289044592120012 0.04382281998628109 0 -0.0002904332913853876 0.043886168412566158 0 -1.2361925899061066e-05 0.043574339959122042 0 0.00017289044592120012 0.04382281998628109 0 -1.5543675227078637e-05 0.043067121534040916 0 -9.6859697080336669e-06 0.038916596952447424 0 -9.6859697080336669e-06 0.038916596952447424 0 -0.0004490646105498547 0.035370636493668992 0 9.2006540651501311e-05 0.037867484522951009 0 9.2146253767024262e-05 0.037863432063918422 0 9.1320888500104816e-05 0.03785001027512807 0 9.1627801654512258e-05 0.037879278970273524 0 9.2006540651501311e-05 0.037867484522951009 0 9.2146253767024262e-05 0.037863432063918422 0 9.2146253767024262e-05 0.037863432063918422 0 9.1320888500104816e-05 0.03785001027512807 0 9.5661804860714498e-05 0.037849533617777341 0 -0.0004490646105498547 0.035370636493668992 0 -0.0002589528974371057 0.034169010863319332 0 9.1320888500104816e-05 0.03785001027512807 0 9.5369417002446938e-05 0.037828887347173323 0 9.5661804860714498e-05 0.037849533617777341 0 -2.9620028351033744e-05 0.031791404142794223 0 0.0013006444705258656 0.031694765064418366 0 0.0007252497020015673 0.032309514426087704 0 -0.0002589528974371057 0.034169010863319332 0 0.0010859499102428534 0.031902562430788248 0 0.00022228085070803743 0.03357591200857088 0 0.00036975884906569376 0.033379829369055508 0 0.00051072395491937874 0.033550053613419527 0 -0.0002589528974371057 0.034169010863319332 0 0.00042314758343239416 0.034385708891138254 0 9.5369417002446938e-05 0.037828887347173323 0 9.639092608347693e-05 0.03782652219933804 0 9.8152994543028625e-05 0.037844591844761799 0 0.00010087302848143671 0.037853115285523216 0 9.639092608347693e-05 0.03782652219933804 0 9.8152994543028625e-05 0.037844591844761799 0 9.5369417002446938e-05 0.037828887347173323 0 9.8152994543028625e-05 0.037844591844761799 0 9.5661804860714498e-05 0.037849533617777341 0 9.8043849801120704e-05 0.037860507056342529 0 9.2146253767024262e-05 0.037863432063918422 0 9.5661804860714498e-05 0.037849533617777341 0 9.8043849801120704e-05 0.037860507056342529 0 9.8152994543028625e-05 0.037844591844761799 0 9.5661804860714498e-05 0.037849533617777341 0 0.0019355644042570043 0.030700152494658052 0 0.001589449716074709 0.031054184535034453 0 0.0019053010752959542 0.031155478002649881 0 0.0019355644042570043 0.030700152494658052 0 0.0019053010752959542 0.031155478002649881 0 0.002220962581329723 0.030951267993146375 0 0.0019053010752959542 0.031155478002649881 0 0.0021977026728434326 0.031236446610824 0 0.002220962581329723 0.030951267993146375 0 0.0019355644042570043 0.030700152494658052 0 0.002220962581329723 0.030951267993146375 0 0.0023034124091398113 0.030683509635565129 0 0.0019355644042570043 0.030700152494658052 0 0.001589449716074709 0.031054184535034453 0 0.0015694320581846252 0.030605224036671499 0 0.00096539462601974706 0.030878924597386517 0 0.001589449716074709 0.031054184535034453 0 0.0014660120854065111 0.031511391607938061 0 0.00096539462601974706 0.030878924597386517 0 0.001589449716074709 0.031054184535034453 0 0.0015694320581846252 0.030605224036671499 0 0.001589449716074709 0.031054184535034453 0 0.0014660120854065111 0.031511391607938061 0 0.0017059728628151069 0.031494859651242248 0 0.00042314758343239416 0.034385708891138254 0 0.0010859499102428534 0.031902562430788248 0 0.0010859499102428534 0.031902562430788248 0 0.0015485322963852877 0.031741937052022183 0 0.0017059728628151069 0.031494859651242248 0 0.0019824532822101471 0.031423198823439406 0 0.0019053010752959542 0.031155478002649881 0 0.001589449716074709 0.031054184535034453 0 0.0017059728628151069 0.031494859651242248 0 0.0019053010752959542 0.031155478002649881 0 0.0019824532822101471 0.031423198823439406 0 0.0019053010752959542 0.031155478002649881 0 0.0021977026728434326 0.031236446610824 0 0.0019824532822101471 0.031423198823439406 0 0.0021306524427762404 0.031701178565453667 0 0.0021977026728434326 0.031236446610824 0 0.0017059728628151069 0.031494859651242248 0 0.0019824532822101471 0.031423198823439406 0 0.0021306524427762404 0.031701178565453667 0 0.0021306524427762404 0.031701178565453667 0 0.002507791541109472 0.031429468514290036 0 0.0025889842857857084 0.031838455838409302 0 0.0021306524427762404 0.031701178565453667 0 0.002507791541109472 0.031429468514290036 0 0.0021977026728434326 0.031236446610824 0 0.002507791541109472 0.031429468514290036 0 0.0028586479969275476 0.031465164836451773 0 0.0025889842857857084 0.031838455838409302 0 0.002507791541109472 0.031429468514290036 0 0.0024521512647624807 0.031149775438575188 0 0.0027246926330685038 0.031133267583889603 0 0.002507791541109472 0.031429468514290036 0 0.0028586479969275476 0.031465164836451773 0 0.0027246926330685038 0.031133267583889603 0 0.002507791541109472 0.031429468514290036 0 0.0024521512647624807 0.031149775438575188 0 0.0021977026728434326 0.031236446610824 0 0.0032401544492618329 0.031443911321009557 0 0.0028586479969275476 0.031465164836451773 0 0.0030458027683205177 0.031894720567372054 0 0.0028586479969275476 0.031465164836451773 0 0.0027246926330685038 0.031133267583889603 0 0.0030796695228332339 0.031091140592404139 0 0.0032401544492618329 0.031443911321009557 0 0.0028586479969275476 0.031465164836451773 0 0.0030796695228332339 0.031091140592404139 0 0.0030796695228332339 0.031091140592404139 0 0.0028817650219529287 0.030753126827460363 0 0.0032925603106607952 0.030674746529849552 0 0.0027246926330685038 0.031133267583889603 0 0.0030796695228332339 0.031091140592404139 0 0.0028817650219529287 0.030753126827460363 0 0.0027246926330685038 0.031133267583889603 0 0.0028817650219529287 0.030753126827460363 0 0.0025261841590189398 0.030857192602706397 0 0.0024521512647624807 0.031149775438575188 0 0.0021977026728434326 0.031236446610824 0 0.002220962581329723 0.030951267993146375 0 0.0024521512647624807 0.031149775438575188 0 0.002220962581329723 0.030951267993146375 0 0.0025261841590189398 0.030857192602706397 0 0.0024521512647624807 0.031149775438575188 0 0.0027246926330685038 0.031133267583889603 0 0.0025261841590189398 0.030857192602706397 0 0.0025261841590189398 0.030857192602706397 0 0.0023034124091398113 0.030683509635565129 0 0.0025869568702666522 0.030500786200920647 0 0.0028817650219529287 0.030753126827460363 0 0.0025261841590189398 0.030857192602706397 0 0.0025869568702666522 0.030500786200920647 0 0.002220962581329723 0.030951267993146375 0 0.0025261841590189398 0.030857192602706397 0 0.0023034124091398113 0.030683509635565129 0 0.0022431836759912232 0.030411060950263274 0 0.0025334588625781688 0.029970328132512266 0 0.001927075155361288 0.030334788124310633 0 0.0023034124091398113 0.030683509635565129 0 0.0022431836759912232 0.030411060950263274 0 0.0025869568702666522 0.030500786200920647 0 0.0019355644042570043 0.030700152494658052 0 0.0023034124091398113 0.030683509635565129 0 0.0022431836759912232 0.030411060950263274 0 0.0022431836759912232 0.030411060950263274 0 0.0025869568702666522 0.030500786200920647 0 0.0025334588625781688 0.029970328132512266 0 0.0025869568702666522 0.030500786200920647 0 0.0030325133692823735 0.030266525847701752 0 0.0025334588625781688 0.029970328132512266 0 0.0028817650219529287 0.030753126827460363 0 0.0030325133692823735 0.030266525847701752 0 0.0032925603106607952 0.030674746529849552 0 0.0028817650219529287 0.030753126827460363 0 0.0025869568702666522 0.030500786200920647 0 0.0030325133692823735 0.030266525847701752 0 0.0011473775188562275 0.030248028680206641 0 0.00134632831540689 0.029172179165487529 0 0.0026288350771494396 0.029946632091513856 0 0.0030325133692823735 0.030266525847701752 0 0.0025334588625781688 0.029970328132512266 0 0.0034571414517247838 0.029854588961593147 0 0.0017439513603157279 0.029815937970116509 0 0.0030673185991820146 0.029929654739379398 0 0.0011473775188562275 0.030248028680206641 0 0.00038210966355920942 0.030167689883146179 0 0.00134632831540689 0.029172179165487529 0 0.00014871110602448842 0.029871955715331001 0 0.00038210966355920942 0.030167689883146179 0 0.00134632831540689 0.029172179165487529 0 0.0011473775188562275 0.030248028680206641 0 0.00038210966355920942 0.030167689883146179 0 -0.00029894685746994186 0.030524778550874297 0 0.0017439513603157279 0.029815937970116509 0 0.0011027154565302893 0.032438590215752482 0 0.001923094757147855 0.040100900725233146 0 0.0021101421234462868 0.039998209743436784 0 0.0022378811957518316 0.04046216703141655 0 0.00014871110602448842 0.029871955715331001 0 -3.54103794997752e-06 0.03008729516647491 0 0.00038210966355920942 0.030167689883146179 0 0.0015523407404425661 0.036852367159294117 0 0.00091993926100753789 0.03477154545828124 0 0.0020519315677551423 0.036942884158219787 0 0.0012809997921442967 0.037335297093700814 0 0.0016856983436040422 0.037440889093797489 0 0.0015523407404425661 0.036852367159294117 0 0.0017260280703209627 0.037792142405984101 0 0.00091993926100753789 0.03477154545828124 0 0.0011027154565302893 0.032438590215752482 0 6.9732211323405636e-06 0.030089010414669631 0 0.00038210966355920942 0.030167689883146179 0 -0.00029894685746994186 0.030524778550874297 0 0.0011699474236307517 0.035395208591443517 0 0.0012152724859308993 0.035405224425513665 0 0.0011293613117056654 0.035516330390011182 0 0.0017260280703209627 0.037792142405984101 0 0.00091993926100753789 0.03477154545828124 0 0.00091993926100753789 0.03477154545828124 0 -0.00024338146547152781 0.032527915619873803 0 0.0025334588625781688 0.029970328132512266 0 0.001927075155361288 0.030334788124310633 0 0.0015112914682988475 0.030122228792912754 0 0.001927075155361288 0.030334788124310633 0 0.0015694320581846252 0.030605224036671499 0 0.0015112914682988475 0.030122228792912754 0 0.0019355644042570043 0.030700152494658052 0 0.001927075155361288 0.030334788124310633 0 0.0015694320581846252 0.030605224036671499 0 0.0019355644042570043 0.030700152494658052 0 0.0022431836759912232 0.030411060950263274 0 0.001927075155361288 0.030334788124310633 0 0.00091389515434202242 0.035797073332772156 0 0.0011226231905639462 0.035508169350021122 0 0.00099412876152710173 0.035537255924538845 0 0.00096539462601974706 0.030878924597386517 0 0.0015694320581846252 0.030605224036671499 0 0.0015112914682988475 0.030122228792912754 0 0.00042314758343239416 0.034385708891138254 0 0.0011027154565302893 0.032438590215752482 0 0.0011027154565302893 0.032438590215752482 0 0.00083380946471437812 0.034285100578155044 0 0.0011293613117056654 0.035516330390011182 0 0.00099412876152710173 0.035537255924538845 0 0.00096177001878101063 0.035502353606381695 0 0.0023154641846206631 0.040637695220653795 0 0.0017260280703209627 0.037792142405984101 0 0.0012682920858760802 0.041284680553622756 0 0.0017312856642497788 0.041350938643066062 0 0.0014470856316448344 0.04152445393648007 0 0.0028781902619122346 0.040202982774797898 0 0.0021101421234462868 0.039998209743436784 0 0.0022378811957518316 0.04046216703141655 0 0.0011699474236307517 0.035395208591443517 0 0.0011293613117056654 0.035516330390011182 0 0.00096177001878101063 0.035502353606381695 0 0.0017260280703209627 0.037792142405984101 0 0.0011814252990149936 0.038526663144388532 0 0.0027008931963660742 0.040657705188621406 0 0.0022378811957518316 0.04046216703141655 0 0.002392639596734217 0.040988125299246565 0 0.001923094757147855 0.040100900725233146 0 0.0019303040967433966 0.040480126581056736 0 0.0016626654660418772 0.04051775506150438 0 0.0015523407404425661 0.036852367159294117 0 0.0014912207103657544 0.040724448899198504 0 0.001923094757147855 0.040100900725233146 0 0.0022378811957518316 0.04046216703141655 0 0.0019303040967433966 0.040480126581056736 0 0.0022378811957518316 0.04046216703141655 0 0.0019303040967433966 0.040480126581056736 0 0.0019032491239418833 0.040823974079581826 0 0.0019303040967433966 0.040480126581056736 0 0.0019032491239418833 0.040823974079581826 0 0.0016626654660418772 0.04051775506150438 0 0.0019032491239418833 0.040823974079581826 0 0.0021229571973424379 0.041349875195069087 0 0.0017070304694085923 0.041252401672787715 0 0.0019032491239418833 0.040823974079581826 0 0.002392639596734217 0.040988125299246565 0 0.0021229571973424379 0.041349875195069087 0 0.0022378811957518316 0.04046216703141655 0 0.0019032491239418833 0.040823974079581826 0 0.002392639596734217 0.040988125299246565 0 0.002609357336952198 0.04159956415509676 0 0.002392639596734217 0.040988125299246565 0 0.0021229571973424379 0.041349875195069087 0 0.002609357336952198 0.04159956415509676 0 0.0021229571973424379 0.041349875195069087 0 0.0022622686166083165 0.04177838510567624 0 0.0021229571973424379 0.041349875195069087 0 0.0019486313234907439 0.041722939858109223 0 0.0022622686166083165 0.04177838510567624 0 0.0021229571973424379 0.041349875195069087 0 0.0017070304694085923 0.041252401672787715 0 0.0019486313234907439 0.041722939858109223 0 0.0017070304694085923 0.041252401672787715 0 0.0019486313234907439 0.041722939858109223 0 0.001666633864542903 0.041632110023836599 0 0.0019486313234907439 0.041722939858109223 0 0.001757368053059021 0.041926918158591647 0 0.001666633864542903 0.041632110023836599 0 0.0019486313234907439 0.041722939858109223 0 0.0019673500343914867 0.042079391772227553 0 0.0021977702699302573 0.042123679236840489 0 0.0019486313234907439 0.041722939858109223 0 0.001757368053059021 0.041926918158591647 0 0.0019673500343914867 0.042079391772227553 0 0.0024441444300835136 0.04244026067839389 0 0.0021977702699302573 0.042123679236840489 0 0.0025014646143553783 0.042104110512285423 0 0.0021977702699302573 0.042123679236840489 0 0.0025014646143553783 0.042104110512285423 0 0.0022622686166083165 0.04177838510567624 0 0.002609357336952198 0.04159956415509676 0 0.0025014646143553783 0.042104110512285423 0 0.0022622686166083165 0.04177838510567624 0 0.0019486313234907439 0.041722939858109223 0 0.0021977702699302573 0.042123679236840489 0 0.0022622686166083165 0.04177838510567624 0 0.0011735460243142161 0.041632203130004465 0 0.0014154520634026065 0.041457194463065894 0 0.0011505815500153613 0.041338132128914594 0 0.0011735460243142161 0.041632203130004465 0 0.0011505815500153613 0.041338132128914594 0 0.00088089884035159102 0.041398146594890266 0 0.0011735460243142161 0.041632203130004465 0 0.0014942483859183211 0.041773218396416609 0 0.0014154520634026065 0.041457194463065894 0 0.001757368053059021 0.041926918158591647 0 0.0014942483859183211 0.041773218396416609 0 0.001666633864542903 0.041632110023836599 0 0.0016066183936496922 0.042055325456312222 0 0.001757368053059021 0.041926918158591647 0 0.0014942483859183211 0.041773218396416609 0 0.0014942483859183211 0.041773218396416609 0 0.001666633864542903 0.041632110023836599 0 0.0014154520634026065 0.041457194463065894 0 0.0014154520634026065 0.041457194463065894 0 0.0014220587398498102 0.041164667745400285 0 0.0011505815500153613 0.041338132128914594 0 0.0017070304694085923 0.041252401672787715 0 0.0014154520634026065 0.041457194463065894 0 0.0014220587398498102 0.041164667745400285 0 0.0017070304694085923 0.041252401672787715 0 0.001666633864542903 0.041632110023836599 0 0.0014154520634026065 0.041457194463065894 0 0.0014220587398498102 0.041164667745400285 0 0.0011505815500153613 0.041338132128914594 0 0.0011147197227754917 0.041061762341421462 0 0.0011505815500153613 0.041338132128914594 0 0.0011147197227754917 0.041061762341421462 0 0.00082097149344208882 0.041100173752793276 0 0.0011147197227754917 0.041061762341421462 0 0.0014512146277962624 0.040831042536134177 0 0.00082910023248031846 0.040719125427758414 0 0.0014512146277962624 0.040831042536134177 0 0.0013486275284156453 0.040371545572701062 0 0.00082910023248031846 0.040719125427758414 0 0.0014220587398498102 0.041164667745400285 0 0.0011147197227754917 0.041061762341421462 0 0.0014512146277962624 0.040831042536134177 0 0.0019032491239418833 0.040823974079581826 0 0.0017070304694085923 0.041252401672787715 0 0.0014512146277962624 0.040831042536134177 0 0.0019032491239418833 0.040823974079581826 0 0.0014512146277962624 0.040831042536134177 0 0.0016626654660418772 0.04051775506150438 0 0.0017070304694085923 0.041252401672787715 0 0.0014220587398498102 0.041164667745400285 0 0.0014512146277962624 0.040831042536134177 0 0.0015630004127132871 0.040684873142960397 0 0.0014912207103657544 0.040724448899198504 0 0.0021797758598778726 0.039828396692232038 0 0.0018362037405183678 0.040379359681076657 0 0.0013486275284156453 0.040371545572701062 0 0.0015523407404425661 0.036852367159294117 0 0.0013635440690297524 0.034493260896954002 0 0.0014512146277962624 0.040831042536134177 0 0.0018362037405183678 0.040379359681076657 0 0.0013486275284156453 0.040371545572701062 0 0.0013635440690297524 0.034493260896954002 0 0.0016920686651178585 0.034627277133769716 0 0.00134632831540689 0.029172179165487529 0 0.002571243121062963 0.028464099229895522 0 0.0026288350771494396 0.029946632091513856 0 0.0035180068033100818 0.028851925460873475 0 0.002571243121062963 0.028464099229895522 0 0.0026288350771494396 0.029946632091513856 0 0.0016920686651178585 0.034627277133769716 0 0.0021007687915783032 0.034358734797584577 0 0.00082910023248031846 0.040719125427758414 0 0.00082097149344208882 0.041100173752793276 0 0.00044326933453238041 0.040911696292775641 0 0.0035180068033100818 0.028851925460873475 0 0.002571243121062963 0.028464099229895522 0 0.0037530703923541963 0.027821701512284119 0 0.0011147197227754917 0.041061762341421462 0 0.00082910023248031846 0.040719125427758414 0 0.00082097149344208882 0.041100173752793276 0 0.0011505815500153613 0.041338132128914594 0 0.00082097149344208882 0.041100173752793276 0 0.00088089884035159102 0.041398146594890266 0 0.00082097149344208882 0.041100173752793276 0 0.00061490027773074014 0.041193087895634729 0 0.00088089884035159102 0.041398146594890266 0 0.00061490027773074014 0.041193087895634729 0 0.00034201343267834731 0.041150580378777557 0 0.00044326933453238041 0.040911696292775641 0 0.00082097149344208882 0.041100173752793276 0 0.00061490027773074014 0.041193087895634729 0 0.00044326933453238041 0.040911696292775641 0 0.00062663966103821225 0.041429627599218047 0 0.00061490027773074014 0.041193087895634729 0 0.00088089884035159102 0.041398146594890266 0 0.00062663966103821225 0.041429627599218047 0 0.00061490027773074014 0.041193087895634729 0 0.00034201343267834731 0.041150580378777557 0 0.00086355874305319368 0.041629070991903237 0 0.00062663966103821225 0.041429627599218047 0 0.00088089884035159102 0.041398146594890266 0 0.00086355874305319368 0.041629070991903237 0 0.0011735460243142161 0.041632203130004465 0 0.00088089884035159102 0.041398146594890266 0 0.00015873784420461867 0.041074435907253161 0 0.00018102040788326124 0.040964935168544034 0 0.000157816465611545 0.041059955360385217 0 0.00015873784420461867 0.041074435907253161 0 0.00034201343267834731 0.041150580378777557 0 0.000157816465611545 0.041059955360385217 0 0.00037367205014393119 0.041325359976194659 0 0.00015873784420461867 0.041074435907253161 0 0.00034201343267834731 0.041150580378777557 0 0.00037367205014393119 0.041325359976194659 0 0.00062663966103821225 0.041429627599218047 0 0.00034201343267834731 0.041150580378777557 0 0.0037530703923541963 0.027821701512284119 0 0.0048100350608384851 0.027218799105122045 0 0.0047569059261321298 0.028169001306130776 0 0.00034201343267834731 0.041150580378777557 0 0.00044326933453238041 0.040911696292775641 0 0.000157816465611545 0.041059955360385217 0 0.0021007687915783032 0.034358734797584577 0 0.0024997109426279241 0.034148756583411113 0 0.0048100350608384851 0.027218799105122045 0 0.0050841072259560664 0.027694521197530544 0 0.0047569059261321298 0.028169001306130776 0 0.0053492653474947437 0.028181023402077999 0 0.0050841072259560664 0.027694521197530544 0 0.0047569059261321298 0.028169001306130776 0 0.0035180068033100818 0.028851925460873475 0 0.0037530703923541963 0.027821701512284119 0 0.0042987103004974514 0.028828966024321084 0 0.0037530703923541963 0.027821701512284119 0 0.0047569059261321298 0.028169001306130776 0 0.0042987103004974514 0.028828966024321084 0 0.0035180068033100818 0.028851925460873475 0 0.0042987103004974514 0.028828966024321084 0 0.0041593380263966768 0.029595072547182862 0 0.005202772383337502 0.029378634382319288 0 0.0042987103004974514 0.028828966024321084 0 0.0041593380263966768 0.029595072547182862 0 0.0053492653474947437 0.028181023402077999 0 0.005202772383337502 0.029378634382319288 0 0.0047569059261321298 0.028169001306130776 0 0.005202772383337502 0.029378634382319288 0 0.0047569059261321298 0.028169001306130776 0 0.0042987103004974514 0.028828966024321084 0 0.005202772383337502 0.029378634382319288 0 0.0043372322273143938 0.029986061365305208 0 0.0041593380263966768 0.029595072547182862 0 0.006951706431523319 0.02730320194787085 0 0.0060690711173413984 0.028174045226998456 0 0.005202772383337502 0.029378634382319288 0 0.0044270472214022211 0.030193023032594205 0 0.0043372322273143938 0.029986061365305208 0 0.0088090569777429985 0.025419766412219359 0 0.0085788740961505062 0.026345543151107882 0 0.0075254118876714217 0.026386324469514187 0 0.0085788740961505062 0.026345543151107882 0 0.0075254118876714217 0.026386324469514187 0 0.0080577119058419175 0.027106677508602614 0 0.0090322856372359473 0.026843279400304718 0 0.0085788740961505062 0.026345543151107882 0 0.0080577119058419175 0.027106677508602614 0 0.0043372322273143938 0.029986061365305208 0 0.0040931688460524689 0.030133338514080763 0 0.0041144336635898998 0.029922927739965164 0 0.0041429623850799419 0.030439110798604851 0 0.0043372322273143938 0.029986061365305208 0 0.0040931688460524689 0.030133338514080763 0 0.0041937689507141112 0.030321307026984753 0 0.0044270472214022211 0.030193023032594205 0 0.0043372322273143938 0.029986061365305208 0 0.0040722301865091263 0.030520257918480512 0 0.0043570056799324157 0.030007418521135684 0 0.0043372322273143938 0.029986061365305208 0 0.0041144336635898998 0.029922927739965164 0 0.0041593380263966768 0.029595072547182862 0 0.0041144336635898998 0.029922927739965164 0 0.0041593380263966768 0.029595072547182862 0 0.0038797743781364938 0.02997810686140278 0 0.0041059635769365027 0.029616475994114065 0 0.0030673185991820146 0.029929654739379398 0 0.0035180068033100818 0.028851925460873475 0 0.0041593380263966768 0.029595072547182862 0 0.0026288350771494396 0.029946632091513856 0 0.0041593380263966768 0.029595072547182862 0 0.0038797743781364938 0.02997810686140278 0 0.0034571414517247838 0.029854588961593147 0 0.0038797743781364938 0.02997810686140278 0 0.0034571414517247838 0.029854588961593147 0 0.003443075635134902 0.030272115163473137 0 0.003443075635134902 0.030272115163473137 0 0.0037765273230566158 0.030462931114330315 0 0.0032925603106607952 0.030674746529849552 0 0.0030325133692823735 0.030266525847701752 0 0.0034571414517247838 0.029854588961593147 0 0.003443075635134902 0.030272115163473137 0 0.0030325133692823735 0.030266525847701752 0 0.003443075635134902 0.030272115163473137 0 0.0032925603106607952 0.030674746529849552 0 0.0038797743781364938 0.02997810686140278 0 0.003443075635134902 0.030272115163473137 0 0.0037765273230566158 0.030462931114330315 0 0.0040931688460524689 0.030133338514080763 0 0.0041144336635898998 0.029922927739965164 0 0.0038797743781364938 0.02997810686140278 0 0.0040931688460524689 0.030133338514080763 0 0.0038797743781364938 0.02997810686140278 0 0.0037765273230566158 0.030462931114330315 0 0.0041429623850799419 0.030439110798604851 0 0.0040931688460524689 0.030133338514080763 0 0.0037765273230566158 0.030462931114330315 0 0.0040722301865091263 0.030520257918480512 0 0.0046478611448508298 0.029845895110241102 0 0.0041429623850799419 0.030439110798604851 0 0.0037765273230566158 0.030462931114330315 0 0.0039577355515126389 0.030891121052987906 0 0.0037765273230566158 0.030462931114330315 0 0.0039577355515126389 0.030891121052987906 0 0.0036252945711112835 0.030850813971093072 0 0.0039577355515126389 0.030891121052987906 0 0.0036252945711112835 0.030850813971093072 0 0.0037446049525716898 0.031241246371104446 0 0.0037765273230566158 0.030462931114330315 0 0.0032925603106607952 0.030674746529849552 0 0.0036252945711112835 0.030850813971093072 0 0.0030796695228332339 0.031091140592404139 0 0.0032925603106607952 0.030674746529849552 0 0.0034369195667161212 0.031152156745270391 0 0.0032925603106607952 0.030674746529849552 0 0.0036252945711112835 0.030850813971093072 0 0.0034369195667161212 0.031152156745270391 0 0.0032401544492618329 0.031443911321009557 0 0.0036455166843483737 0.03166825890133701 0 0.0030458027683205177 0.031894720567372054 0 0.0032401544492618329 0.031443911321009557 0 0.0030796695228332339 0.031091140592404139 0 0.0034369195667161212 0.031152156745270391 0 0.0036252945711112835 0.030850813971093072 0 0.0034369195667161212 0.031152156745270391 0 0.0037446049525716898 0.031241246371104446 0 0.0034369195667161212 0.031152156745270391 0 0.0037446049525716898 0.031241246371104446 0 0.0036455166843483737 0.03166825890133701 0 0.0032401544492618329 0.031443911321009557 0 0.0034369195667161212 0.031152156745270391 0 0.0036455166843483737 0.03166825890133701 0 0.0060140824707413465 0.027707640274642002 0 0.0062822452642068271 0.028557888805619453 0 0.0058257110419180644 0.029013205886296328 0 0.0060140824707413465 0.027707640274642002 0 0.0058257110419180644 0.029013205886296328 0 0.0049374024347894532 0.029284828158865406 0 0.0046478611448508298 0.029845895110241102 0 0.0043739598920124537 0.030364466428726911 0 0.0040426511840468311 0.030870161937753347 0 0.0037446049525716898 0.031241246371104446 0 0.0036455166843483737 0.03166825890133701 0 0.0060140824707413465 0.027707640274642002 0 0.0062822452642068271 0.028557888805619453 0 0.0068773579844345987 0.028266321219779175 0 0.0046478611448508298 0.029845895110241102 0 0.0035400364214365713 0.031321654719622637 0 0.0062822452642068271 0.028557888805619453 0 0.0058257110419180644 0.029013205886296328 0 0.0065045518565896394 0.029142152845487396 0 0.0062822452642068271 0.028557888805619453 0 0.0065045518565896394 0.029142152845487396 0 0.0068773579844345987 0.028266321219779175 0 0.0065045518565896394 0.029142152845487396 0 0.0068773579844345987 0.028266321219779175 0 0.0074439998649768633 0.02896671243610157 0 0.0068773579844345987 0.028266321219779175 0 0.0074439998649768633 0.02896671243610157 0 0.0077602361808303075 0.027989534708463347 0 0.0074439998649768633 0.02896671243610157 0 0.0082889942459852071 0.028846079853681209 0 0.0077602361808303075 0.027989534708463347 0 0.0082889942459852071 0.028846079853681209 0 0.0077602361808303075 0.027989534708463347 0 0.0086843232418510937 0.02776496610423285 0 0.0077602361808303075 0.027989534708463347 0 0.0086843232418510937 0.02776496610423285 0 0.0080577119058419175 0.027106677508602614 0 0.0090322856372359473 0.026843279400304718 0 0.0086843232418510937 0.02776496610423285 0 0.0080577119058419175 0.027106677508602614 0 0.0060140824707413465 0.027707640274642002 0 0.0068773579844345987 0.028266321219779175 0 0.0072455993697057219 0.027475893919807266 0 0.0075254118876714217 0.026386324469514187 0 0.0060140824707413465 0.027707640274642002 0 0.0072455993697057219 0.027475893919807266 0 0.0060690711173413984 0.028174045226998456 0 0.0046478611448508298 0.029845895110241102 0 0.0041937689507141112 0.030321307026984753 0 0.0044270472214022211 0.030193023032594205 0 0.0040139454711356926 0.030568368511222556 0 0.0075254118876714217 0.026386324469514187 0 0.0080577119058419175 0.027106677508602614 0 0.0072455993697057219 0.027475893919807266 0 0.0068773579844345987 0.028266321219779175 0 0.0077602361808303075 0.027989534708463347 0 0.0072455993697057219 0.027475893919807266 0 0.0077602361808303075 0.027989534708463347 0 0.0080577119058419175 0.027106677508602614 0 0.0072455993697057219 0.027475893919807266 0 0.0074792611416784312 0.031464881450786859 0 0.0067880305965359522 0.030125534752663947 0 0.0062691324157619537 0.031218411366506962 0 0.0074792611416784312 0.031464881450786859 0 0.0077235922929545326 0.029916969398894089 0 0.0067880305965359522 0.030125534752663947 0 0.0088253979111274517 0.031106601464906247 0 0.0074792611416784312 0.031464881450786859 0 0.0077235922929545326 0.029916969398894089 0 0.0088253979111274517 0.031106601464906247 0 0.0087886460207483863 0.029728542777501976 0 0.0077235922929545326 0.029916969398894089 0 0.0087886460207483863 0.029728542777501976 0 0.0082889942459852071 0.028846079853681209 0 0.0077235922929545326 0.029916969398894089 0 0.0074439998649768633 0.02896671243610157 0 0.0082889942459852071 0.028846079853681209 0 0.0077235922929545326 0.029916969398894089 0 0.0074439998649768633 0.02896671243610157 0 0.0077235922929545326 0.029916969398894089 0 0.0067880305965359522 0.030125534752663947 0 0.0065045518565896394 0.029142152845487396 0 0.0074439998649768633 0.02896671243610157 0 0.0067880305965359522 0.030125534752663947 0 0.0058257110419180644 0.029013205886296328 0 0.0065045518565896394 0.029142152845487396 0 0.0055932924201845657 0.030224680293696477 0 0.0065045518565896394 0.029142152845487396 0 0.0067880305965359522 0.030125534752663947 0 0.0055932924201845657 0.030224680293696477 0 0.0058257110419180644 0.029013205886296328 0 0.0055932924201845657 0.030224680293696477 0 0.0049374024347894532 0.029284828158865406 0 0.0055932924201845657 0.030224680293696477 0 0.0049374024347894532 0.029284828158865406 0 0.0038779493249715747 0.031072489039657775 0 0.0036455166843483737 0.03166825890133701 0 0.0032765661374734908 0.032489405948852808 0 0.0030458027683205177 0.031894720567372054 0 0.0043739598920124537 0.030364466428726911 0 0.0035690276056564705 0.031835564574155775 0 0.0055932924201845657 0.030224680293696477 0 0.0050616373100213158 0.031783430911944119 0 0.0038779493249715747 0.031072489039657775 0 0.0050616373100213158 0.031783430911944119 0 0.0040678382494778176 0.032645114041758717 0 0.0038779493249715747 0.031072489039657775 0 0.0055932924201845657 0.030224680293696477 0 0.0050616373100213158 0.031783430911944119 0 0.0062691324157619537 0.031218411366506962 0 0.0067880305965359522 0.030125534752663947 0 0.0055932924201845657 0.030224680293696477 0 0.0062691324157619537 0.031218411366506962 0 0.0050616373100213158 0.031783430911944119 0 0.0062691324157619537 0.031218411366506962 0 0.0060352244008739508 0.032695751890207236 0 0.0050616373100213158 0.031783430911944119 0 0.0060352244008739508 0.032695751890207236 0 0.0048023774967391637 0.032988454423036086 0 0.0060352244008739508 0.032695751890207236 0 0.0048023774967391637 0.032988454423036086 0 0.0049256761791797296 0.034044020159040719 0 0.0048023774967391637 0.032988454423036086 0 0.0037997512608352489 0.033970117842569439 0 0.0040678382494778176 0.032645114041758717 0 0.0050616373100213158 0.031783430911944119 0 0.0048023774967391637 0.032988454423036086 0 0.0040678382494778176 0.032645114041758717 0 0.0048023774967391637 0.032988454423036086 0 0.0049256761791797296 0.034044020159040719 0 0.0037997512608352489 0.033970117842569439 0 0.0060352244008739508 0.032695751890207236 0 0.0049256761791797296 0.034044020159040719 0 0.0059602848364502335 0.034541369231274092 0 0.0060352244008739508 0.032695751890207236 0 0.0078764809473829706 0.032883151199382399 0 0.0059602848364502335 0.034541369231274092 0 0.007801248974956005 0.032983468638378685 0 0.0061842182523796129 0.034247733886604549 0 0.0078764809473829706 0.032883151199382399 0 0.0077036676872027478 0.034768823662530479 0 0.0063824792729226618 0.034011769965693335 0 0.0074792611416784312 0.031464881450786859 0 0.0060352244008739508 0.032695751890207236 0 0.0078764809473829706 0.032883151199382399 0 0.0074792611416784312 0.031464881450786859 0 0.0062691324157619537 0.031218411366506962 0 0.0060352244008739508 0.032695751890207236 0 0.0088253979111274517 0.031106601464906247 0 0.0074792611416784312 0.031464881450786859 0 0.0087528879592940253 0.032273638751274168 0 0.0074792611416784312 0.031464881450786859 0 0.0087528879592940253 0.032273638751274168 0 0.0078764809473829706 0.032883151199382399 0 0.0089785391093538825 0.033400900292725924 0 0.0087528879592940253 0.032273638751274168 0 0.0078764809473829706 0.032883151199382399 0 0.0089785391093538825 0.033400900292725924 0 0.0078764809473829706 0.032883151199382399 0 0.0077036676872027478 0.034768823662530479 0 0.0040011734260356376 0.019229145235206867 0 0.002590713169967685 0.02049746432945335 0 -0.00095586236942263585 0.0050452125982218769 0 -0.0011070661874074011 0.0062990444845306779 0 -0.0024986151787080219 0.0061883969329253365 0 0.002590713169967685 0.02049746432945335 0 0.0010627884739601334 0.021953213791681175 0 -0.0024986151787080219 0.0061883969329253365 0 -0.0017917716981524316 0.0080426325670368264 0 -0.0042275537637042736 0.0075376394607639405 0 -0.0011070661874074011 0.0062990444845306779 0 -0.0024986151787080219 0.0061883969329253365 0 -0.0017917716981524316 0.0080426325670368264 0 -0.0017917716981524316 0.0080426325670368264 0 -0.0031369506182108244 0.0097066661189138259 0 -0.0042275537637042736 0.0075376394607639405 0 -0.0017917716981524316 0.0080426325670368264 0 -0.0031369506182108244 0.0097066661189138259 0 -0.00091263927187683553 0.0096934159070600646 0 -0.0031369506182108244 0.0097066661189138259 0 -0.0042275537637042736 0.0075376394607639405 0 -0.0051360995214548948 0.010602584792234655 0 -0.0063664281028675586 0.0092727444404636528 0 -0.0042275537637042736 0.0075376394607639405 0 -0.0051360995214548948 0.010602584792234655 0 0.0049246761444318859 0.038026774315430042 0 0.0063940593769228893 0.036330492140392939 0 0.0046700651458106155 0.035338400658973861 0 -0.00073801923343679921 0.02365351273820946 0 0.0010627884739601334 0.021953213791681175 0 0.0063940593769228893 0.036330492140392939 0 0.0063824792729226618 0.034011769965693335 0 0.0046700651458106155 0.035338400658973861 0 0.0077036676872027478 0.034768823662530479 0 0.0063940593769228893 0.036330492140392939 0 0.0063824792729226618 0.034011769965693335 0 0.0061842182523796129 0.034247733886604549 0 0.0044138063333296314 0.035585907798777225 0 0.0049256761791797296 0.034044020159040719 0 0.0041655113238314358 0.035784402047037145 0 0.0037997512608352489 0.033970117842569439 0 0.0049256761791797296 0.034044020159040719 0 0.0059602848364502335 0.034541369231274092 0 0.0041655113238314358 0.035784402047037145 0 0.0030902794111960018 0.034876248677295996 0 0.0041655113238314358 0.035784402047037145 0 0.0037997512608352489 0.033970117842569439 0 0.0030902794111960018 0.034876248677295996 0 0.0019592607104459161 0.035559486962557153 0 0.0021237672986621418 0.03417242059858943 0 0.0030902794111960018 0.034876248677295996 0 0.0028849496676938095 0.036860473921940355 0 0.0019592607104459161 0.035559486962557153 0 0.0044138063333296314 0.035585907798777225 0 0.0029424730477172309 0.036768815015158954 0 0.0030902794111960018 0.034876248677295996 0 0.0041655113238314358 0.035784402047037145 0 0.0028849496676938095 0.036860473921940355 0 0.0049246761444318859 0.038026774315430042 0 0.0028849496676938095 0.036860473921940355 0 0.0026507926532335952 0.038423675707478261 0 0.0049246761444318859 0.038026774315430042 0 0.0046700651458106155 0.035338400658973861 0 0.0028849496676938095 0.036860473921940355 0 -0.0063664281028675586 0.0092727444404636528 0 -0.0086296660648489797 0.011290025581669071 0 -0.0051360995214548948 0.010602584792234655 0 0.0049246761444318859 0.038026774315430042 0 0.0026507926532335952 0.038423675707478261 0 0.0034565367660172796 0.039663072927404647 0 -0.00073801923343679921 0.02365351273820946 0 -0.0025338403404541157 0.025551615704089363 0 0.0011580813141926901 0.039590312520969333 0 0.00067892150842589619 0.038695941842353622 0 0.0005683294299501817 0.040502548446826041 0 0.0014403756535010745 0.038438745381495172 0 0.0011580813141926901 0.039590312520969333 0 0.0018474069110575959 0.039737639740289037 0 0.0014403756535010745 0.038438745381495172 0 0.0011580813141926901 0.039590312520969333 0 0.00067892150842589619 0.038695941842353622 0 0.0026507926532335952 0.038423675707478261 0 0.0018474069110575959 0.039737639740289037 0 0.0034565367660172796 0.039663072927404647 0 0.0014403756535010745 0.038438745381495172 0 0.0026507926532335952 0.038423675707478261 0 0.0018474069110575959 0.039737639740289037 0 0.0014403756535010745 0.038438745381495172 0 0.0026507926532335952 0.038423675707478261 0 0.0017198413911620727 0.036984390051065991 0 0.0028849496676938095 0.036860473921940355 0 0.0026507926532335952 0.038423675707478261 0 0.0017198413911620727 0.036984390051065991 0 0.0014403756535010745 0.038438745381495172 0 0.0017198413911620727 0.036984390051065991 0 0.00080547407154103658 0.0375377207745052 0 0.0014403756535010745 0.038438745381495172 0 0.00080547407154103658 0.0375377207745052 0 0.00067892150842589619 0.038695941842353622 0 0.0017198413911620727 0.036984390051065991 0 0.00080547407154103658 0.0375377207745052 0 0.00062201214958930461 0.036042054074358253 0 0.0017198413911620727 0.036984390051065991 0 0.00062201214958930461 0.036042054074358253 0 0.0019592607104459161 0.035559486962557153 0 0.0028849496676938095 0.036860473921940355 0 0.0017198413911620727 0.036984390051065991 0 0.0019592607104459161 0.035559486962557153 0 0.00062201214958930461 0.036042054074358253 0 0.0019592607104459161 0.035559486962557153 0 0.0012280637778408613 0.034801645431591463 0 0.0012280637778408613 0.034801645431591463 0 0.00097886284664760689 0.033853850020054255 0 0.0021237672986621418 0.03417242059858943 0 0.0012280637778408613 0.034801645431591463 0 0.00097886284664760689 0.033853850020054255 0 -2.203824122639225e-05 0.034686200367444103 0 0.00097886284664760689 0.033853850020054255 0 0.00084343346302530201 0.032962374380393233 0 0.0019053866607484939 0.033148033114741113 0 0.00097886284664760689 0.033853850020054255 0 0.0021237672986621418 0.03417242059858943 0 0.0019053866607484939 0.033148033114741113 0 0.0021237672986621418 0.03417242059858943 0 0.0025182488392990025 0.033508005999988141 0 0.0019053866607484939 0.033148033114741113 0 0.0019592607104459161 0.035559486962557153 0 0.0012280637778408613 0.034801645431591463 0 0.0021237672986621418 0.03417242059858943 0 0.0030902794111960018 0.034876248677295996 0 0.0021237672986621418 0.03417242059858943 0 0.0028828211503239879 0.033963316005673379 0 0.0021237672986621418 0.03417242059858943 0 0.0028828211503239879 0.033963316005673379 0 0.0025182488392990025 0.033508005999988141 0 0.0030902794111960018 0.034876248677295996 0 0.0028828211503239879 0.033963316005673379 0 0.0037997512608352489 0.033970117842569439 0 0.0028828211503239879 0.033963316005673379 0 0.0037997512608352489 0.033970117842569439 0 0.0029631663360630963 0.033247141595703737 0 0.0040678382494778176 0.032645114041758717 0 0.0029631663360630963 0.033247141595703737 0 0.0038779493249715747 0.031072489039657775 0 0.0029631663360630963 0.033247141595703737 0 0.002696166593093241 0.033054455382826059 0 0.0032765661374734908 0.032489405948852808 0 0.0037997512608352489 0.033970117842569439 0 0.0040678382494778176 0.032645114041758717 0 0.0029631663360630963 0.033247141595703737 0 0.0025182488392990025 0.033508005999988141 0 0.002696166593093241 0.033054455382826059 0 0.0019053866607484939 0.033148033114741113 0 0.0028828211503239879 0.033963316005673379 0 0.0025182488392990025 0.033508005999988141 0 0.0029631663360630963 0.033247141595703737 0 0.0025182488392990025 0.033508005999988141 0 0.0029631663360630963 0.033247141595703737 0 0.002696166593093241 0.033054455382826059 0 0.002696166593093241 0.033054455382826059 0 0.0026664248749945414 0.032359713339836491 0 0.0019898137390788316 0.032235813496574769 0 0.0026333721541097468 0.033041564781557328 0 0.002026356935643305 0.032328453783707474 0 0.0029836839504310923 0.033099248774611546 0 0.0035690276056564705 0.031835564574155775 0 0.002696166593093241 0.033054455382826059 0 0.0026664248749945414 0.032359713339836491 0 0.0032765661374734908 0.032489405948852808 0 0.0026664248749945414 0.032359713339836491 0 0.0032765661374734908 0.032489405948852808 0 0.0030458027683205177 0.031894720567372054 0 0.0028586479969275476 0.031465164836451773 0 0.0030458027683205177 0.031894720567372054 0 0.0025889842857857084 0.031838455838409302 0 0.0026664248749945414 0.032359713339836491 0 0.0025889842857857084 0.031838455838409302 0 0.0019898137390788316 0.032235813496574769 0 0.0021306524427762404 0.031701178565453667 0 0.0025889842857857084 0.031838455838409302 0 0.0019898137390788316 0.032235813496574769 0 0.0026664248749945414 0.032359713339836491 0 0.0030458027683205177 0.031894720567372054 0 0.0025889842857857084 0.031838455838409302 0 0.0014462345262774505 0.031507829877027382 0 0.0017059728628151069 0.031494859651242248 0 0.0019898137390788316 0.032235813496574769 0 0.0010859499102428534 0.031902562430788248 0 0.002026356935643305 0.032328453783707474 0 0.0017059728628151069 0.031494859651242248 0 0.0021306524427762404 0.031701178565453667 0 0.0019898137390788316 0.032235813496574769 0 0.0013006444705258656 0.031694765064418366 0 0.0019639642082919535 0.032483224716522076 0 0.0013265760700220503 0.032333612427054258 0 0.0013006444705258656 0.031694765064418366 0 0.0013265760700220503 0.032333612427054258 0 0.0007252497020015673 0.032309514426087704 0 0.0013265760700220503 0.032333612427054258 0 0.00084343346302530201 0.032962374380393233 0 0.0007252497020015673 0.032309514426087704 0 0.0013265760700220503 0.032333612427054258 0 0.00084343346302530201 0.032962374380393233 0 0.0019053866607484939 0.033148033114741113 0 0.0019639642082919535 0.032483224716522076 0 0.0013265760700220503 0.032333612427054258 0 0.0019053866607484939 0.033148033114741113 0 0.002696166593093241 0.033054455382826059 0 0.0019639642082919535 0.032483224716522076 0 0.0019053866607484939 0.033148033114741113 0 -0.0001303282993496561 0.033471629055464067 0 0.00014929124583582204 0.03275384433536848 0 -0.00087913853348404656 0.033139951866281485 0 0.00084343346302530201 0.032962374380393233 0 -0.0001303282993496561 0.033471629055464067 0 0.00014929124583582204 0.03275384433536848 0 0.00076966249817274346 0.033012500267053768 0 -0.00017545484071792159 0.033465085809173789 0 0.00084343346302530201 0.032962374380393233 0 0.00014929124583582204 0.03275384433536848 0 0.0007252497020015673 0.032309514426087704 0 -2.9620028351033744e-05 0.031791404142794223 0 0.00014929124583582204 0.03275384433536848 0 0.0007252497020015673 0.032309514426087704 0 -0.0002589528974371057 0.034169010863319332 0 -0.00043498640628415747 0.032518436820008323 0 0.00014929124583582204 0.03275384433536848 0 -0.00046568286600051271 0.032412051221203393 0 -0.00087913853348404656 0.033139951866281485 0 -0.00086467014012164877 0.032739451432494918 0 -0.00059509574460607127 0.032738493190515784 0 -0.00075325038770984829 0.032940077931706023 0 -2.9620028351033744e-05 0.031791404142794223 0 0.00014929124583582204 0.03275384433536848 0 -0.00046568286600051271 0.032412051221203393 0 -0.00086467014012164877 0.032739451432494918 0 -0.00075325038770984829 0.032940077931706023 0 -0.0009872647487397621 0.032948939294642807 0 -0.0011717997911927793 0.032738231160497996 0 -0.00086467014012164877 0.032739451432494918 0 -0.0009872647487397621 0.032948939294642807 0 -0.00075325038770984829 0.032940077931706023 0 -0.0009872647487397621 0.032948939294642807 0 -0.00087913853348404656 0.033139951866281485 0 -0.00043498640628415747 0.032518436820008323 0 -0.00088915805633471481 0.033122138203424377 0 -0.00010317455715429752 0.042070912832751467 0 0.00012055230785846098 0.042018343505444346 0 6.4121223343073262e-05 0.042248679575712655 0 -9.6859697080336669e-06 0.038916596952447424 0 -0.00063110752741500978 0.037419979507408517 0 -0.0011717997911927793 0.032738231160497996 0 -0.0009872647487397621 0.032948939294642807 0 -0.0014025878026864959 0.03325224548881664 0 -0.0014025878026864959 0.03325224548881664 0 -0.0011993265485571942 0.03352766141577173 0 -0.00087913853348404656 0.033139951866281485 0 -0.0001303282993496561 0.033471629055464067 0 -0.00087913853348404656 0.033139951866281485 0 -0.00097380977802543852 0.03379487340461898 0 -0.0009872647487397621 0.032948939294642807 0 -0.0014025878026864959 0.03325224548881664 0 -0.00087913853348404656 0.033139951866281485 0 -0.0011993265485571942 0.03352766141577173 0 -0.00087913853348404656 0.033139951866281485 0 -0.00097380977802543852 0.03379487340461898 0 -0.0012712915456358906 0.033844379157719838 0 -0.0011315094403420917 0.034658842215625645 0 -0.00063410483011341662 0.034196061519206102 0 -0.0014025878026864959 0.03325224548881664 0 -0.0011993265485571942 0.03352766141577173 0 -0.0016568705901836883 0.034078882153541205 0 -0.0012712915456358906 0.033844379157719838 0 -0.0031561502339447446 0.034497357337842371 0 -0.0021785402541791964 0.035202699902387224 0 -0.0011724316569016087 0.033481228860815976 0 -0.0013388677705103297 0.038429342930795578 0 -0.0011993265485571942 0.03352766141577173 0 -0.00097380977802543852 0.03379487340461898 0 -0.0016568705901836883 0.034078882153541205 0 -0.00063110752741500978 0.037419979507408517 0 -0.0013388677705103297 0.038429342930795578 0 -0.0031561502339447446 0.034497357337842371 0 -0.0021785402541791964 0.035202699902387224 0 -0.0036023744748261833 0.036182173124655152 0 -0.0021785402541791964 0.035202699902387224 0 -0.0011315094403420917 0.034658842215625645 0 -0.0017417260483194703 0.03687739353800417 0 -0.0012712915456358906 0.033844379157719838 0 -0.0021785402541791964 0.035202699902387224 0 -0.0011315094403420917 0.034658842215625645 0 -0.0011315094403420917 0.034658842215625645 0 -0.0006784974611855905 0.034859938976665825 0 -0.00089371294840580209 0.035851364298282389 0 -0.0006784974611855905 0.034859938976665825 0 -0.00063410483011341662 0.034196061519206102 0 -2.203824122639225e-05 0.034686200367444103 0 -0.0011315094403420917 0.034658842215625645 0 -0.0006784974611855905 0.034859938976665825 0 -0.00063410483011341662 0.034196061519206102 0 -0.00017545484071792159 0.033465085809173789 0 -0.0011724316569016087 0.033481228860815976 0 -0.00024090063944808075 0.033434903249099264 0 -0.00063410483011341662 0.034196061519206102 0 -2.203824122639225e-05 0.034686200367444103 0 -0.00024090063944808075 0.033434903249099264 0 -0.0012712915456358906 0.033844379157719838 0 -0.00063410483011341662 0.034196061519206102 0 0.00097886284664760689 0.033853850020054255 0 0.00084343346302530201 0.032962374380393233 0 -0.00024090063944808075 0.033434903249099264 0 0.00097886284664760689 0.033853850020054255 0 -0.00024090063944808075 0.033434903249099264 0 -2.203824122639225e-05 0.034686200367444103 0 0.00062201214958930461 0.036042054074358253 0 -2.203824122639225e-05 0.034686200367444103 0 -0.00089371294840580209 0.035851364298282389 0 0.00062201214958930461 0.036042054074358253 0 0.0012280637778408613 0.034801645431591463 0 -2.203824122639225e-05 0.034686200367444103 0 -0.0006784974611855905 0.034859938976665825 0 -2.203824122639225e-05 0.034686200367444103 0 -0.00089371294840580209 0.035851364298282389 0 -0.00033693181855399184 0.036778845156760671 0 0.00018301299159454191 0.039009112503173987 0 0.00028991160472130776 0.037719738342036173 0 0.00086122111894904052 0.040329039251907214 0 -0.00078678634162894045 0.039186391910094411 0 0.00062201214958930461 0.036042054074358253 0 -0.00089371294840580209 0.035851364298282389 0 -0.00052358737725403655 0.037711624469914162 0 0.00080547407154103658 0.0375377207745052 0 -0.00052358737725403655 0.037711624469914162 0 0.00067892150842589619 0.038695941842353622 0 0.00080547407154103658 0.0375377207745052 0 0.00062201214958930461 0.036042054074358253 0 -0.00052358737725403655 0.037711624469914162 0 0.00086122111894904052 0.040329039251907214 0 -0.00038350894495157588 0.040639216657239206 0 -0.00078678634162894045 0.039186391910094411 0 0.00086122111894904052 0.040329039251907214 0 0.0003999809340536198 0.040856950341145469 0 -0.00038350894495157588 0.040639216657239206 0 0.0003999809340536198 0.040856950341145469 0 -9.5221516314026935e-05 0.041165218141298095 0 0.00020675393805720576 0.041262607822747786 0 0.00086122111894904052 0.040329039251907214 0 0.0003999809340536198 0.040856950341145469 0 0.0005683294299501817 0.040502548446826041 0 0.00018301299159454191 0.039009112503173987 0 0.00056381526159981165 0.040422041354423378 0 -0.00052358737725403655 0.037711624469914162 0 0.00067892150842589619 0.038695941842353622 0 0.0005683294299501817 0.040502548446826041 0 -0.00072248105876040222 0.041132727981965114 0 -0.00038350894495157588 0.040639216657239206 0 -0.00068899669508495909 0.040682145262955723 0 -0.00072248105876040222 0.041132727981965114 0 -0.00038350894495157588 0.040639216657239206 0 -0.00042478922666468736 0.04150346602423749 0 -0.00072248105876040222 0.041132727981965114 0 -0.00068899669508495909 0.040682145262955723 0 -0.00098532792042142791 0.040869897630648667 0 -0.00072248105876040222 0.041132727981965114 0 -0.00098532792042142791 0.040869897630648667 0 -0.001259527949460146 0.041203992728469196 0 -9.5221516314026935e-05 0.041165218141298095 0 -0.00038350894495157588 0.040639216657239206 0 -0.00042478922666468736 0.04150346602423749 0 0.0003999809340536198 0.040856950341145469 0 -9.5221516314026935e-05 0.041165218141298095 0 -0.00038350894495157588 0.040639216657239206 0 -0.00038350894495157588 0.040639216657239206 0 -0.0021487649882032372 0.040328560810622152 0 -0.00078678634162894045 0.039186391910094411 0 -0.00047850241542289065 0.040680820385022569 0 -0.0016083998175689385 0.040473442034555766 0 -0.0021487649882032372 0.040328560810622152 0 -0.0025351747896583806 0.038841341788150845 0 -0.00078678634162894045 0.039186391910094411 0 -0.00068899669508495909 0.040682145262955723 0 -0.00098532792042142791 0.040869897630648667 0 -0.0012639264817740866 0.040478767870525727 0 -0.0021487649882032372 0.040328560810622152 0 -0.0025351747896583806 0.038841341788150845 0 -0.0038036561581258825 0.039877670016040534 0 -0.0016083998175689385 0.040473442034555766 0 -0.0022210499489626742 0.043056535966106722 0 -0.0025351747896583806 0.038841341788150845 0 -0.00078678634162894045 0.039186391910094411 0 -0.0017417260483194703 0.03687739353800417 0 -0.0025351747896583806 0.038841341788150845 0 -0.0017417260483194703 0.03687739353800417 0 -0.0039542474210073229 0.037954421443524254 0 0.00028991160472130776 0.037719738342036173 0 -0.00078678634162894045 0.039186391910094411 0 -0.0017417260483194703 0.03687739353800417 0 -0.0011315094403420917 0.034658842215625645 0 0.00028991160472130776 0.037719738342036173 0 -0.0017417260483194703 0.03687739353800417 0 -0.001085325220062325 0.034775200350298949 0 -0.00033693181855399184 0.036778845156760671 0 -0.0021785402541791964 0.035202699902387224 0 -0.0017417260483194703 0.03687739353800417 0 -0.0036023744748261833 0.036182173124655152 0 -0.0017417260483194703 0.03687739353800417 0 -0.0036023744748261833 0.036182173124655152 0 -0.0039542474210073229 0.037954421443524254 0 -0.00020757888329597831 0.049876142137395343 0 -0.00032351950797518403 0.049737800111159323 0 -0.0002916349171293972 0.049992590045417451 0 -0.0014771413263426577 0.045543244114049274 0 -0.00057926700499759604 0.046372093334858061 0 -0.0022891509995899965 0.038988599177175301 0 -0.0014771413263426577 0.045543244114049274 0 -0.00020757888329597831 0.049876142137395343 0 -0.00017219277115894483 0.049739390902944783 0 -0.00032351950797518403 0.049737800111159323 0 -0.0013127849319825749 0.043098273253887702 0 -0.0017405069864193572 0.044824758291105007 0 -0.0018853540657477114 0.041754292536736612 0 -0.00020757888329597831 0.049876142137395343 0 -0.00017219277115894483 0.049739390902944783 0 -4.6321138127547302e-05 0.049960514796350934 0 -0.00017219277115894483 0.049739390902944783 0 -5.2559350862992702e-05 0.049758859609194822 0 -4.6321138127547302e-05 0.049960514796350934 0 -0.00017219277115894483 0.049739390902944783 0 -0.00029295921599638237 0.049530894785260092 0 -5.2559350862992702e-05 0.049758859609194822 0 4.2842963852091076e-06 0.047321657791651206 0 -0.00010381486715555357 0.050219038058945072 0 -0.0014771413263426577 0.045543244114049274 0 -0.0022210499489626742 0.043056535966106722 0 -0.00030618317728554244 0.049573687400353381 0 -0.0003075824444004292 0.049556951411694229 0 -0.00031968194950920557 0.049519393305874293 0 -0.0025351747896583806 0.038841341788150845 0 -0.0039542474210073229 0.037954421443524254 0 -0.0038036561581258825 0.039877670016040534 0 -0.00017219277115894483 0.049739390902944783 0 -0.00032351950797518403 0.049737800111159323 0 -0.00029231380377353074 0.049559280590281973 0 -0.00048782940805772493 0.049734595805811625 0 4.2842963852091076e-06 0.047321657791651206 0 -0.0014771413263426577 0.045543244114049274 0 -0.00085948084770370154 0.050387645573597005 0 -0.00029231380377353074 0.049559280590281973 0 -0.0003075824444004292 0.049556951411694229 0 -0.00029295921599638237 0.049530894785260092 0 -0.00030618317728554244 0.049573687400353381 0 -0.00029231380377353074 0.049559280590281973 0 -0.0003075824444004292 0.049556951411694229 0 -0.00017219277115894483 0.049739390902944783 0 -0.00029231380377353074 0.049559280590281973 0 -0.00029295921599638237 0.049530894785260092 0 -0.0003075824444004292 0.049556951411694229 0 -0.00031968194950920557 0.049519393305874293 0 -0.00030639791624374773 0.0495216425599233 0 -0.0022210499489626742 0.043056535966106722 0 -0.001141150458164851 0.041418190415889171 0 -0.00098532792042142791 0.040869897630648667 0 -0.0012639264817740866 0.040478767870525727 0 -0.001259527949460146 0.041203992728469196 0 4.2842963852091076e-06 0.047321657791651206 0 -0.00079123660987817635 0.045840048640371403 0 -0.0010934677045353915 0.04217643829883766 0 -0.0010994807142764428 0.042175079623432338 0 -0.0010820495160427034 0.042193834276080762 0 -0.0022210499489626742 0.043056535966106722 0 4.2842963852091076e-06 0.047321657791651206 0 -0.00025922520185719776 0.050006969168813448 0 -0.00019598106255403757 0.049998240217985178 0 -0.00026611896891465806 0.049942931219838234 0 -0.00025922520185719776 0.050006969168813448 0 -0.00019598106255403757 0.049998240217985178 0 -0.00013362322183884916 0.050048983685000756 0 -0.00019598106255403757 0.049998240217985178 0 -0.00026611896891465806 0.049942931219838234 0 -0.00019357975810142282 0.049971533493114458 0 -0.00026611896891465806 0.049942931219838234 0 -0.00019357975810142282 0.049971533493114458 0 -0.0002549908546164203 0.049930011614016952 0 -0.0011806148345579227 0.042203960631185429 0 -0.0010820495160427034 0.042193834276080762 0 -0.00097767259355614929 0.042393619161409095 0 -0.00072248105876040222 0.041132727981965114 0 -0.001259527949460146 0.041203992728469196 0 -0.00097767259355614929 0.042393619161409095 0 -0.0010994807142764428 0.042175079623432338 0 -0.0011806148345579227 0.042203960631185429 0 -0.0010820495160427034 0.042193834276080762 0 -0.00012272383416037246 0.049967370737748908 0 -9.8450846150934483e-05 0.050004798264631493 0 -1.0451848802995345e-07 0.049999981232562961 0 -0.00012272383416037246 0.049967370737748908 0 -1.0451848802995345e-07 0.049999981232562961 0 2.8707564464160272e-08 0.049999908141089573 0 -0.00019598106255403757 0.049998240217985178 0 -0.00019357975810142282 0.049971533493114458 0 -9.8450846150934483e-05 0.050004798264631493 0 -0.00012272383416037246 0.049967370737748908 0 -0.00019357975810142282 0.049971533493114458 0 -9.8450846150934483e-05 0.050004798264631493 0 -0.00012272383416037246 0.049967370737748908 0 -0.00019357975810142282 0.049971533493114458 0 -0.0002549908546164203 0.049930011614016952 0 -0.00019598106255403757 0.049998240217985178 0 -9.8450846150934483e-05 0.050004798264631493 0 -0.00013362322183884916 0.050048983685000756 0 -9.8450846150934483e-05 0.050004798264631493 0 -1.0451848802995345e-07 0.049999981232562961 0 -2.6076825429654437e-09 0.05000016510302123 0 -1.6787459830052428e-07 0.049999746482463622 0 -0.00010381486715555357 0.050219038058945072 0 7.4975222903619082e-08 0.049999754600904854 0 -5.2559350862992702e-05 0.049758859609194822 0 -7.8724334811714361e-06 0.049945931492850267 0 -9.8450846150934483e-05 0.050004798264631493 0 -2.6076825429654437e-09 0.05000016510302123 0 -0.00013362322183884916 0.050048983685000756 0 -5.2559350862992702e-05 0.049758859609194822 0 -7.8724334811714361e-06 0.049945931492850267 0 -4.6321138127547302e-05 0.049960514796350934 0 7.4975222903619082e-08 0.049999754600904854 0 -7.8724334811714361e-06 0.049945931492850267 0 -1.5834725607920067e-08 0.049999980805388894 0 -7.8724334811714361e-06 0.049945931492850267 0 -1.451482460619973e-05 0.049979519144941843 0 -1.5834725607920067e-08 0.049999980805388894 0 -1.451482460619973e-05 0.049979519144941843 0 -1.5834725607920067e-08 0.049999980805388894 0 -1.2148053752404259e-08 0.049999975215478595 0 -1.451482460619973e-05 0.049979519144941843 0 -1.2148053752404259e-08 0.049999975215478595 0 -1.414261920473984e-05 0.049943479770180578 0 -1.451482460619973e-05 0.049979519144941843 0 -1.414261920473984e-05 0.049943479770180578 0 -4.6321138127547302e-05 0.049960514796350934 0 -7.8724334811714361e-06 0.049945931492850267 0 -1.451482460619973e-05 0.049979519144941843 0 -4.6321138127547302e-05 0.049960514796350934 0 -0.00020757888329597831 0.049876142137395343 0 -4.6321138127547302e-05 0.049960514796350934 0 -0.0002916349171293972 0.049992590045417451 0 -7.3196975514056221e-05 0.050919762963627394 0 -0.00057926700499759604 0.046372093334858061 0 -1.414261920473984e-05 0.049943479770180578 0 -4.6321138127547302e-05 0.049960514796350934 0 1.7861189292085655e-05 0.049922401706338826 0 -0.00088567717074630324 0.041368686212908783 0 -0.0013127849319825749 0.043098273253887702 0 -0.0018853540657477114 0.041754292536736612 0 -0.0013388677705103297 0.038429342930795578 0 -0.0022891509995899965 0.038988599177175301 0 -0.0013388677705103297 0.038429342930795578 0 -0.00057926700499759604 0.046372093334858061 0 -0.00057926700499759604 0.046372093334858061 0 2.2271738322576648e-05 0.045986640572229752 0 1.0443739213083861e-06 0.042500095091967095 0 -9.687893122500038e-05 0.042553495451330622 0 -9.698207592395888e-05 0.042298994583237874 0 -1.414261920473984e-05 0.049943479770180578 0 1.7861189292085655e-05 0.049922401706338826 0 4.0376288274700207e-05 0.049885139191676753 0 -1.414261920473984e-05 0.049943479770180578 0 4.0376288274700207e-05 0.049885139191676753 0 7.3642904874060166e-06 0.049881759321809736 0 6.4121223343073262e-05 0.042248679575712655 0 1.0443739213083861e-06 0.042500095091967095 0 -9.698207592395888e-05 0.042298994583237874 0 5.0202555133600999e-05 0.04630475718975214 0 2.2271738322576648e-05 0.045986640572229752 0 -0.00010317455715429752 0.042070912832751467 0 6.4121223343073262e-05 0.042248679575712655 0 -9.698207592395888e-05 0.042298994583237874 0 6.6057112398526692e-05 0.049794926072781541 0 4.0376288274700207e-05 0.049885139191676753 0 7.3642904874060166e-06 0.049881759321809736 0 2.3012343178622499e-05 0.049810860966518482 0 6.6057112398526692e-05 0.049794926072781541 0 7.3642904874060166e-06 0.049881759321809736 0 2.3012343178622499e-05 0.049810860966518482 0 7.3642904874060166e-06 0.049881759321809736 0 -2.2826553671911664e-05 0.049870694159500621 0 7.3642904874060166e-06 0.049881759321809736 0 -2.2826553671911664e-05 0.049870694159500621 0 -1.4670207617049575e-05 0.049945965832983837 0 -8.3386312173233163e-05 0.050228347165006258 0 2.6208145375359659e-07 0.04999968476637804 0 -1.0105062740147699e-09 0.049999986106327846 0 1.3327610696423486e-06 0.049991668456141121 0 4.3194764333627452e-10 0.05000000261244323 0 -2.2826553671911664e-05 0.049870694159500621 0 -4.9921949275647989e-08 0.049999872985015126 0 -1.4670207617049575e-05 0.049945965832983837 0 -1.2148053752404259e-08 0.049999975215478595 0 -4.9921949275647989e-08 0.049999872985015126 0 -1.4670207617049575e-05 0.049945965832983837 0 -1.2148053752404259e-08 0.049999975215478595 0 -1.414261920473984e-05 0.049943479770180578 0 -1.4670207617049575e-05 0.049945965832983837 0 -1.414261920473984e-05 0.049943479770180578 0 7.3642904874060166e-06 0.049881759321809736 0 -1.4670207617049575e-05 0.049945965832983837 0 -1.8564845052380438e-05 0.049966183787578153 0 -2.641132434757121e-05 0.049948015611527216 0 -3.6340198935300492e-05 0.049965508400600073 0 -1.8564845052380438e-05 0.049966183787578153 0 -1.582792983529919e-05 0.049980516176634189 0 -3.6340198935300492e-05 0.049965508400600073 0 -1.582792983529919e-05 0.049980516176634189 0 -2.3058149472424737e-08 0.049999971225306555 0 1.0581648299141018e-10 0.049999967679986448 0 -1.582792983529919e-05 0.049980516176634189 0 -3.6340198935300492e-05 0.049965508400600073 0 1.0581648299141018e-10 0.049999967679986448 0 -1.582792983529919e-05 0.049980516176634189 0 -2.3058149472424737e-08 0.049999971225306555 0 -8.8468720930859902e-06 0.049990501414330847 0 -1.8564845052380438e-05 0.049966183787578153 0 -1.582792983529919e-05 0.049980516176634189 0 -8.8468720930859902e-06 0.049990501414330847 0 -1.1048335106440896e-05 0.049958384921294494 0 -2.3603880283075804e-05 0.049996024661853024 0 -1.8564845052380438e-05 0.049966183787578153 0 -1.976131151142626e-06 0.049939774926602405 0 -2.5512972676691133e-05 0.049942462697572007 0 0.00018165637298914292 0.04868880293507135 0 0.00055071216358939612 0.048410823992132958 0 0.00014991274008510836 0.048773907732343268 0 -2.5512972676691133e-05 0.049942462697572007 0 -1.9086087693502789e-05 0.049940961413652792 0 -2.376198985322031e-05 0.049950967295912044 0 0.00038770787281535243 0.048263428810373162 0 0.00027877977687661983 0.0477506333738539 0 1.2939288018174134e-05 0.049414575709558789 0 0.00038770787281535243 0.048263428810373162 0 -1.8564845052380438e-05 0.049966183787578153 0 -2.5512972676691133e-05 0.049942462697572007 0 -2.376198985322031e-05 0.049950967295912044 0 0.0010310697507445819 0.046753204799330733 0 0.00094896751710732126 0.046148593961294247 0 0.00017869022756284738 0.047288571218996024 0 0.0010310697507445819 0.046753204799330733 0 0.00093513620570885917 0.047363139083892544 0 0.00017869022756284738 0.047288571218996024 0 0.0010310697507445819 0.046753204799330733 0 0.0013490050580052839 0.046957260992306044 0 0.00093513620570885917 0.047363139083892544 0 0.0010310697507445819 0.046753204799330733 0 0.0011893739219741397 0.046320231905279667 0 0.00094896751710732126 0.046148593961294247 0 0.0010310697507445819 0.046753204799330733 0 0.0011893739219741397 0.046320231905279667 0 0.0015028863348109153 0.046433865275433014 0 -1.9086087693502789e-05 0.049940961413652792 0 -2.641132434757121e-05 0.049948015611527216 0 -1.8279060847236401e-05 0.049924011828197716 0 0.00038770787281535243 0.048263428810373162 0 -0.00056057110755323698 0.047676167322360088 0 0.0010188100877759516 0.046075510411724842 0 0.001277591945051452 0.045827177189909689 0 0.0013943322138678126 0.046112408064886701 0 0.0011893739219741397 0.046320231905279667 0 0.0010188100877759516 0.046075510411724842 0 0.0013943322138678126 0.046112408064886701 0 0.00064171546997760409 0.04767115666611968 0 0.00087669342436344391 0.046715977389312074 0 0.0011893739219741397 0.046320231905279667 0 0.0010188100877759516 0.046075510411724842 0 0.00094896751710732126 0.046148593961294247 0 0.00064171546997760409 0.04767115666611968 0 0.00038770787281535243 0.048263428810373162 0 6.7354604158830161e-05 0.047332657902723466 0 0.00028020882526123727 0.047142220416413284 0 0.0001958332711507556 0.046846863757184588 0 6.7354604158830161e-05 0.047332657902723466 0 1.1843999648748302e-05 0.047382324101374496 0 0.0001958332711507556 0.046846863757184588 0 -1.9086087693502789e-05 0.049940961413652792 0 -2.376198985322031e-05 0.049950967295912044 0 -2.641132434757121e-05 0.049948015611527216 0 -1.8564845052380438e-05 0.049966183787578153 0 -2.376198985322031e-05 0.049950967295912044 0 -2.641132434757121e-05 0.049948015611527216 0 -0.00056057110755323698 0.047676167322360088 0 0.00027323894736028161 0.050274448317419736 0 -2.641132434757121e-05 0.049948015611527216 0 -1.8279060847236401e-05 0.049924011828197716 0 -4.1840800238552973e-05 0.049932677244477634 0 1.1843999648748302e-05 0.047382324101374496 0 -0.00018074968737612798 0.046520129693647945 0 0.0001958332711507556 0.046846863757184588 0 -0.0017392899023548369 0.044218289713806869 0 -0.001741806770375804 0.043276110614465874 0 -0.00018610272134050594 0.04444078034035269 0 -0.00056057110755323698 0.047676167322360088 0 8.1453553635325268e-05 0.044737324952269536 0 -0.00018074968737612798 0.046520129693647945 0 0.0001958332711507556 0.046846863757184588 0 0.00064388509170244877 0.046618567345289429 0 -0.001741806770375804 0.043276110614465874 0 -0.001116114261275428 0.043270149668459469 0 -0.00061524850760127686 0.044067820124103867 0 -0.0018995698992792941 0.043122645231168932 0 8.1453553635325268e-05 0.044737324952269536 0 -0.0017392899023548369 0.044218289713806869 0 -0.001741806770375804 0.043276110614465874 0 -0.0019962347066167611 0.042882180603950569 0 -0.00056057110755323698 0.047676167322360088 0 -0.00099908654046641202 0.046172965485569942 0 -0.001741806770375804 0.043276110614465874 0 -0.0019962347066167611 0.042882180603950569 0 -0.0014785745296014936 0.042774352659080785 0 -0.001116114261275428 0.043270149668459469 0 -0.0014785745296014936 0.042774352659080785 0 -0.00097979737972809545 0.042869937012762628 0 -0.001741806770375804 0.043276110614465874 0 -0.001116114261275428 0.043270149668459469 0 -0.0014785745296014936 0.042774352659080785 0 0.00011338505892892546 0.049929567456710448 0 -1.1367184277006148e-05 0.049841042177308885 0 -4.1840800238552973e-05 0.049932677244477634 0 0.00011338505892892546 0.049929567456710448 0 0.00010091262045220631 0.049774119822301219 0 -1.1367184277006148e-05 0.049841042177308885 0 -1.1367184277006148e-05 0.049841042177308885 0 -0.00010291382699186665 0.049909591834313823 0 -4.8856042322595055e-05 0.049718209240747893 0 -1.1367184277006148e-05 0.049841042177308885 0 -0.00010291382699186665 0.049909591834313823 0 -4.1840800238552973e-05 0.049932677244477634 0 -2.641132434757121e-05 0.049948015611527216 0 -4.1840800238552973e-05 0.049932677244477634 0 -3.6340198935300492e-05 0.049965508400600073 0 -0.00010291382699186665 0.049909591834313823 0 -4.1840800238552973e-05 0.049932677244477634 0 -3.6340198935300492e-05 0.049965508400600073 0 -0.00010291382699186665 0.049909591834313823 0 -3.6340198935300492e-05 0.049965508400600073 0 1.0581648299141018e-10 0.049999967679986448 0 -0.00010291382699186665 0.049909591834313823 0 1.0581648299141018e-10 0.049999967679986448 0 -2.4594007329560073e-07 0.049999720376839897 0 -2.4594007329560073e-07 0.049999720376839897 0 -0.00027343740844491289 0.04963980518648442 0 -1.0232066332435164e-07 0.049999317687535884 0 -0.00010291382699186665 0.049909591834313823 0 -2.4594007329560073e-07 0.049999720376839897 0 -0.00027343740844491289 0.04963980518648442 0 -0.00010291382699186665 0.049909591834313823 0 -0.00027343740844491289 0.04963980518648442 0 -4.8856042322595055e-05 0.049718209240747893 0 -0.00027343740844491289 0.04963980518648442 0 7.8817879726625844e-05 0.049487608515526568 0 -4.8856042322595055e-05 0.049718209240747893 0 -0.00027343740844491289 0.04963980518648442 0 3.2726306173293205e-05 0.048599827296549589 0 -0.0004257369727114464 0.048736186121033087 0 -0.00028925091921767882 0.050152777965982949 0 -0.00065423853894466875 0.045917728473200269 0 -0.00027343740844491289 0.04963980518648442 0 -0.00015574619404357224 0.049495421248025306 0 -0.0004257369727114464 0.048736186121033087 0 -0.00015574619404357224 0.049495421248025306 0 -0.00020020796027403481 0.04956696943147812 0 -0.0004257369727114464 0.048736186121033087 0 -0.00015574619404357224 0.049495421248025306 0 -1.0232066332435164e-07 0.049999317687535884 0 -7.4419137895813509e-05 0.049769473855132751 0 -0.00027343740844491289 0.04963980518648442 0 -0.00015574619404357224 0.049495421248025306 0 -1.0232066332435164e-07 0.049999317687535884 0 -1.0232066332435164e-07 0.049999317687535884 0 -7.4419137895813509e-05 0.049769473855132751 0 2.8707564464160272e-08 0.049999908141089573 0 -7.4419137895813509e-05 0.049769473855132751 0 -0.0001941483803700511 0.049856515976078819 0 2.8707564464160272e-08 0.049999908141089573 0 -0.00015574619404357224 0.049495421248025306 0 -7.4419137895813509e-05 0.049769473855132751 0 -0.00020020796027403481 0.04956696943147812 0 -0.00020020796027403481 0.04956696943147812 0 -0.0001941483803700511 0.049856515976078819 0 -0.00045434309723644672 0.049828298307211701 0 -7.4419137895813509e-05 0.049769473855132751 0 -0.00020020796027403481 0.04956696943147812 0 -0.0001941483803700511 0.049856515976078819 0 -0.00012272383416037246 0.049967370737748908 0 -0.0001941483803700511 0.049856515976078819 0 -0.0002549908546164203 0.049930011614016952 0 -0.00012272383416037246 0.049967370737748908 0 -0.0001941483803700511 0.049856515976078819 0 2.8707564464160272e-08 0.049999908141089573 0 -0.0011806148345579227 0.042203960631185429 0 -0.00097767259355614929 0.042393619161409095 0 -0.0010664690562655185 0.042765416519210481 0 -0.001141150458164851 0.041418190415889171 0 -0.0010271700646444009 0.042409336274245882 0 -0.00026611896891465806 0.049942931219838234 0 -0.0002549908546164203 0.049930011614016952 0 -0.00045434309723644672 0.049828298307211701 0 -0.00079123660987817635 0.045840048640371403 0 -0.00084525915878472246 0.046428969010969781 0 -0.0011806148345579227 0.042203960631185429 0 -0.001561310240074057 0.042800285444365413 0 -0.0010664690562655185 0.042765416519210481 0 -0.0001941483803700511 0.049856515976078819 0 -0.0002549908546164203 0.049930011614016952 0 -0.00045434309723644672 0.049828298307211701 0 -0.001561310240074057 0.042800285444365413 0 -0.00099609866456186751 0.043655536890670629 0 -0.0010664690562655185 0.042765416519210481 0 -0.001561310240074057 0.042800285444365413 0 -0.0010026746234931296 0.044926145252692 0 -0.00099609866456186751 0.043655536890670629 0 -0.00020020796027403481 0.04956696943147812 0 -0.00045434309723644672 0.049828298307211701 0 -0.0004257369727114464 0.048736186121033087 0 -0.00084525915878472246 0.046428969010969781 0 -0.00059848466702463359 0.048292009805257517 0 -0.001561310240074057 0.042800285444365413 0 -0.0010026746234931296 0.044926145252692 0 -0.0004257369727114464 0.048736186121033087 0 -0.0010026746234931296 0.044926145252692 0 -0.00099609866456186751 0.043655536890670629 0 -0.0010127160434496251 0.043974705327133143 0 -0.00099609866456186751 0.043655536890670629 0 -0.00090859531660966697 0.043445257725510195 0 -0.0010127160434496251 0.043974705327133143 0 -0.00090859531660966697 0.043445257725510195 0 -0.0010127160434496251 0.043974705327133143 0 -0.0006656330762176265 0.043459983066157865 0 -0.00099609866456186751 0.043655536890670629 0 -0.00090859531660966697 0.043445257725510195 0 -0.0010664690562655185 0.042765416519210481 0 -0.00090859531660966697 0.043445257725510195 0 -0.0010664690562655185 0.042765416519210481 0 -0.00074340285818887413 0.04293500145330123 0 -0.00097767259355614929 0.042393619161409095 0 -0.0010664690562655185 0.042765416519210481 0 -0.00074340285818887413 0.04293500145330123 0 -0.00090859531660966697 0.043445257725510195 0 -0.0006656330762176265 0.043459983066157865 0 -0.00074340285818887413 0.04293500145330123 0 -0.0010127160434496251 0.043974705327133143 0 -0.0010640131134644815 0.044167551243924838 0 -0.0006656330762176265 0.043459983066157865 0 -0.0021117846192247078 0.041954107288216851 0 -0.0016650926218942184 0.042292191129238495 0 -0.0010190223711967481 0.041571734860233994 0 -0.0016650926218942184 0.042292191129238495 0 -0.0011548101841507565 0.042183916469646469 0 -0.0010190223711967481 0.041571734860233994 0 -0.00065423853894466875 0.045917728473200269 0 -0.00099034585288006031 0.042146425862267821 0 -0.0010026746234931296 0.044926145252692 0 3.2726306173293205e-05 0.048599827296549589 0 -0.0004257369727114464 0.048736186121033087 0 -0.00086545406440431433 0.045269270050025567 0 -0.00065423853894466875 0.045917728473200269 0 -0.0010026746234931296 0.044926145252692 0 -0.0010127160434496251 0.043974705327133143 0 -0.0010640131134644815 0.044167551243924838 0 -0.0019962347066167611 0.042882180603950569 0 -0.0021117846192247078 0.041954107288216851 0 -0.0016650926218942184 0.042292191129238495 0 -0.00099908654046641202 0.046172965485569942 0 -0.00065423853894466875 0.045917728473200269 0 0.00010091262045220631 0.049774119822301219 0 7.8817879726625844e-05 0.049487608515526568 0 -4.8856042322595055e-05 0.049718209240747893 0 0.00010091262045220631 0.049774119822301219 0 -1.1367184277006148e-05 0.049841042177308885 0 -4.8856042322595055e-05 0.049718209240747893 0 -0.0016650926218942184 0.042292191129238495 0 -0.0014785745296014936 0.042774352659080785 0 -0.0011548101841507565 0.042183916469646469 0 -0.0019962347066167611 0.042882180603950569 0 -0.0016650926218942184 0.042292191129238495 0 -0.0014785745296014936 0.042774352659080785 0 -0.0014785745296014936 0.042774352659080785 0 -0.00097979737972809545 0.042869937012762628 0 -0.0011548101841507565 0.042183916469646469 0 -0.0003267218159810498 0.042738077298589701 0 -0.0011527370110284382 0.042169659802500412 0 -0.00067665060466960344 0.042431167406803083 0 -0.0011548101841507565 0.042183916469646469 0 -0.00048472417455216847 0.04185479510202475 0 -0.00097979737972809545 0.042869937012762628 0 -0.00030707671255329299 0.042809799695972262 0 -0.0011548101841507565 0.042183916469646469 0 -0.00067665060466960344 0.042431167406803083 0 -0.00020144904371096077 0.042253204189234082 0 -0.00048472417455216847 0.04185479510202475 0 -0.00020144904371096077 0.042253204189234082 0 -0.00048472417455216847 0.04185479510202475 0 0.00011669770818702092 0.041777653786780708 0 -0.00048472417455216847 0.04185479510202475 0 -0.00022700354538237038 0.041242963495457169 0 0.00011669770818702092 0.041777653786780708 0 -0.00048472417455216847 0.04185479510202475 0 -0.0010190223711967481 0.041571734860233994 0 -0.00022700354538237038 0.041242963495457169 0 -0.0011548101841507565 0.042183916469646469 0 -0.00048472417455216847 0.04185479510202475 0 -0.0010190223711967481 0.041571734860233994 0 -0.0006656330762176265 0.043459983066157865 0 -0.00042480783494932314 0.042402096166016458 0 -0.00074340285818887413 0.04293500145330123 0 -0.0006656330762176265 0.043459983066157865 0 -0.00042480783494932314 0.042402096166016458 0 0.00016952889896325923 0.042191106957361432 0 -0.00097767259355614929 0.042393619161409095 0 -0.00042480783494932314 0.042402096166016458 0 -0.00074340285818887413 0.04293500145330123 0 -0.00099034585288006031 0.042146425862267821 0 -5.9556085852095056e-05 0.041760346092600181 0 -0.00042480783494932314 0.042402096166016458 0 0.00016952889896325923 0.042191106957361432 0 -0.00010698745914357018 0.041692457521496584 0 -0.00042480783494932314 0.042402096166016458 0 -0.00010698745914357018 0.041692457521496584 0 -0.00042478922666468736 0.04150346602423749 0 0.00016952889896325923 0.042191106957361432 0 -0.00010698745914357018 0.041692457521496584 0 0.00020675393805720576 0.041262607822747786 0 -9.5221516314026935e-05 0.041165218141298095 0 -0.00010698745914357018 0.041692457521496584 0 0.00020675393805720576 0.041262607822747786 0 -9.5221516314026935e-05 0.041165218141298095 0 -0.00010698745914357018 0.041692457521496584 0 -0.00042478922666468736 0.04150346602423749 0 -0.00072248105876040222 0.041132727981965114 0 -0.00097767259355614929 0.042393619161409095 0 -0.00042478922666468736 0.04150346602423749 0 -0.00097767259355614929 0.042393619161409095 0 -0.00042480783494932314 0.042402096166016458 0 -0.00042478922666468736 0.04150346602423749 0 0.0003999809340536198 0.040856950341145469 0 0.0005683294299501817 0.040502548446826041 0 0.00041976487837765196 0.0410302038680753 0 0.00058952977401956165 0.040881794875507034 0 0.0005683294299501817 0.040502548446826041 0 0.00041976487837765196 0.0410302038680753 0 0.00058952977401956165 0.040881794875507034 0 0.0005683294299501817 0.040502548446826041 0 0.0011331418295798827 0.040626596671224958 0 0.00016952889896325923 0.042191106957361432 0 0.00041976487837765196 0.0410302038680753 0 0.00020675393805720576 0.041262607822747786 0 0.00016952889896325923 0.042191106957361432 0 0.00058952977401956165 0.040881794875507034 0 0.00041976487837765196 0.0410302038680753 0 0.0003999809340536198 0.040856950341145469 0 0.00041976487837765196 0.0410302038680753 0 0.00020675393805720576 0.041262607822747786 0 -5.9556085852095056e-05 0.041760346092600181 0 0.00053541220226993754 0.040995252582082364 0 -0.00022700354538237038 0.041242963495457169 0 0.00058952977401956165 0.040881794875507034 0 0.00057613297265308506 0.041343800625839373 0 0.00058952977401956165 0.040881794875507034 0 0.00057613297265308506 0.041343800625839373 0 0.0011331418295798827 0.040626596671224958 0 0.00057613297265308506 0.041343800625839373 0 0.00011669770818702092 0.041777653786780708 0 0.00080269831938064977 0.041787469099718276 0 0.0019978541997856215 0.044080083099828582 0 -0.002599079885780333 0.032868702049561563 0 -0.00022700354538237038 0.041242963495457169 0 0.00057613297265308506 0.041343800625839373 0 0.00011669770818702092 0.041777653786780708 0 -0.00020144904371096077 0.042253204189234082 0 0.00029245103199228588 0.042291749342905784 0 -0.00020934496905717162 0.042757769071001331 0 -0.00020144904371096077 0.042253204189234082 0 0.00011669770818702092 0.041777653786780708 0 0.00029245103199228588 0.042291749342905784 0 0.00011669770818702092 0.041777653786780708 0 0.00029245103199228588 0.042291749342905784 0 0.00080269831938064977 0.041787469099718276 0 -0.0031179953410231469 0.039851977316368241 0 -0.0018332873828322323 0.040494724448149243 0 -0.0013850640032501667 0.038221100601020061 0 -0.0017173874038461266 0.041817971811728902 0 -0.002599079885780333 0.032868702049561563 0 -0.0031179953410231469 0.039851977316368241 0 -0.0018332873828322323 0.040494724448149243 0 -0.0027166875577477184 0.041452858737492507 0 -0.0018332873828322323 0.040494724448149243 0 -0.0027166875577477184 0.041452858737492507 0 -0.0012320172306333622 0.042060749769787631 0 -0.00027855719926911686 0.043870645837583586 0 -0.00033582158554228716 0.043829944585271709 0 1.5459779774066856e-05 0.043864053627188891 0 0.001559067036549295 0.045925032946067507 0 0.0022167529054179912 0.04576333579967716 0 0.0018416429428041278 0.045675655626662343 0 -0.0023700238947104947 0.043240039315551586 0 -0.0019830094461059798 0.043521952156968045 0 -0.00046456339455839662 0.043371935124709771 0 -0.0027166875577477184 0.041452858737492507 0 -0.0023700238947104947 0.043240039315551586 0 -0.0012320172306333622 0.042060749769787631 0 -0.0014549975025404907 0.043557632539973586 0 -2.5856196132399551e-05 0.04443161891799375 0 -0.00027855719926911686 0.043870645837583586 0 1.5459779774066856e-05 0.043864053627188891 0 8.737605499710752e-05 0.044132180513136297 0 -0.0014549975025404907 0.043557632539973586 0 -0.001003210435355621 0.042651093626615566 0 -2.5856196132399551e-05 0.04443161891799375 0 0.0013187409798703148 0.044878538512395115 0 -0.0017173874038461266 0.041817971811728902 0 -0.001003210435355621 0.042651093626615566 0 -0.0031179953410231469 0.039851977316368241 0 -0.0027166875577477184 0.041452858737492507 0 -0.0048281800602181443 0.041419886307068818 0 -0.0027166875577477184 0.041452858737492507 0 -0.0023700238947104947 0.043240039315551586 0 -0.0048281800602181443 0.041419886307068818 0 -0.00030707671255329299 0.042809799695972262 0 0.00045028549047825071 0.043387033264173307 0 -0.00041290913508841819 0.043542332876153444 0 0.00045028549047825071 0.043387033264173307 0 -0.00041290913508841819 0.043542332876153444 0 -0.00035533679349611217 0.044103598939423727 0 -0.00067665060466960344 0.042431167406803083 0 -0.00020144904371096077 0.042253204189234082 0 -0.00020934496905717162 0.042757769071001331 0 -0.0003267218159810498 0.042738077298589701 0 -0.001003210435355621 0.042651093626615566 0 -0.001116114261275428 0.043270149668459469 0 -0.00073877169213814491 0.043306565059724536 0 -0.00061524850760127686 0.044067820124103867 0 -0.001116114261275428 0.043270149668459469 0 -0.00097979737972809545 0.042869937012762628 0 -0.00073877169213814491 0.043306565059724536 0 -0.00097979737972809545 0.042869937012762628 0 -0.00030707671255329299 0.042809799695972262 0 -0.00073877169213814491 0.043306565059724536 0 -0.00030707671255329299 0.042809799695972262 0 -0.00073877169213814491 0.043306565059724536 0 -0.00041290913508841819 0.043542332876153444 0 -0.00073877169213814491 0.043306565059724536 0 -0.00041290913508841819 0.043542332876153444 0 -0.00061524850760127686 0.044067820124103867 0 -0.00041290913508841819 0.043542332876153444 0 -0.00061524850760127686 0.044067820124103867 0 -0.00035533679349611217 0.044103598939423727 0 8.1453553635325268e-05 0.044737324952269536 0 0.0009533383590110342 0.04484361094120743 0 0.00075299252437102161 0.044809246106393009 0 0.00080712430665458941 0.044817531395475126 0 0.00078712658432931624 0.044834736327354067 0 0.0009533383590110342 0.04484361094120743 0 0.0011695827227575718 0.045515472483218952 0 8.1453553635325268e-05 0.044737324952269536 0 0.0011695827227575718 0.045515472483218952 0 0.00028020882526123727 0.047142220416413284 0 0.0001958332711507556 0.046846863757184588 0 0.00076376611905127853 0.046706216078745262 0 0.0001958332711507556 0.046846863757184588 0 0.00064388509170244877 0.046618567345289429 0 0.00076376611905127853 0.046706216078745262 0 0.00087669342436344391 0.046715977389312074 0 0.0011695827227575718 0.045515472483218952 0 0.0013187409798703148 0.044878538512395115 0 0.0009533383590110342 0.04484361094120743 0 1.5459779774066856e-05 0.043864053627188891 0 8.737605499710752e-05 0.044132180513136297 0 0.00035703535039639556 0.04391234063369142 0 -0.001003210435355621 0.042651093626615566 0 0.0009533383590110342 0.04484361094120743 0 0.0025667385929875326 0.045788502574596164 0 0.0026002949723832945 0.045757967133055459 0 0.002298098147562671 0.045511773997311829 0 0.0022167529054179912 0.04576333579967716 0 0.0025667385929875326 0.045788502574596164 0 0.002298098147562671 0.045511773997311829 0 0.0011695827227575718 0.045515472483218952 0 0.0025059302722867352 0.045750664804287924 0 0.0023913058225624928 0.045920137907441587 0 0.0021743921878074326 0.045980606175113327 0 0.0018391932673976162 0.045891450815053088 0 0.0017966408926714812 0.045399265694171714 0 0.0023913058225624928 0.045920137907441587 0 0.0018391932673976162 0.045891450815053088 0 0.0021743921878074326 0.045980606175113327 0 0.0018391932673976162 0.045891450815053088 0 0.001867298457223201 0.046199548299694256 0 0.0023913058225624928 0.045920137907441587 0 0.0021743921878074326 0.045980606175113327 0 0.0023798161412583187 0.045763258034987341 0 0.001277591945051452 0.045827177189909689 0 0.0017966408926714812 0.045399265694171714 0 0.0016008911561340765 0.045864262246435299 0 0.0017966408926714812 0.045399265694171714 0 0.0016008911561340765 0.045864262246435299 0 0.0018391932673976162 0.045891450815053088 0 0.0018391932673976162 0.045891450815053088 0 0.0016591870340168778 0.046108598125159633 0 0.001867298457223201 0.046199548299694256 0 0.0016008911561340765 0.045864262246435299 0 0.0018391932673976162 0.045891450815053088 0 0.0016591870340168778 0.046108598125159633 0 0.0016591870340168778 0.046108598125159633 0 0.0013943322138678126 0.046112408064886701 0 0.0015028863348109153 0.046433865275433014 0 0.001277591945051452 0.045827177189909689 0 0.0016008911561340765 0.045864262246435299 0 0.0013943322138678126 0.046112408064886701 0 0.0016008911561340765 0.045864262246435299 0 0.0016591870340168778 0.046108598125159633 0 0.0013943322138678126 0.046112408064886701 0 0.0011893739219741397 0.046320231905279667 0 0.0013943322138678126 0.046112408064886701 0 0.0015028863348109153 0.046433865275433014 0 0.0016591870340168778 0.046108598125159633 0 0.0015028863348109153 0.046433865275433014 0 0.001867298457223201 0.046199548299694256 0 0.0015028863348109153 0.046433865275433014 0 0.001867298457223201 0.046199548299694256 0 0.0018119752410974866 0.046683939578582176 0 0.0015028863348109153 0.046433865275433014 0 0.0018119752410974866 0.046683939578582176 0 0.0013490050580052839 0.046957260992306044 0 0.0010310697507445819 0.046753204799330733 0 0.0015028863348109153 0.046433865275433014 0 0.0013490050580052839 0.046957260992306044 0 0.0021743921878074326 0.045980606175113327 0 0.002197151834767199 0.046076420473780334 0 0.0023798161412583187 0.045763258034987341 0 0.0021743921878074326 0.045980606175113327 0 0.001867298457223201 0.046199548299694256 0 0.002197151834767199 0.046076420473780334 0 0.001867298457223201 0.046199548299694256 0 0.0018119752410974866 0.046683939578582176 0 0.002197151834767199 0.046076420473780334 0 0.0018119752410974866 0.046683939578582176 0 0.002197151834767199 0.046076420473780334 0 0.0022744388649749334 0.046821254224262338 0 0.002449196398218723 0.04545680242890783 0 0.0027066041491324178 0.045831104239286269 0 0.0024019965279010336 0.045551683116922495 0 0.0017673636405597215 0.044674993882381123 0 0.0021929115944988933 0.04406324049998709 0 0.002197151834767199 0.046076420473780334 0 0.0024019965279010336 0.045551683116922495 0 0.0022744388649749334 0.046821254224262338 0 0.002197151834767199 0.046076420473780334 0 0.0024019965279010336 0.045551683116922495 0 0.0023798161412583187 0.045763258034987341 0 0.0024019965279010336 0.045551683116922495 0 0.0017673636405597215 0.044674993882381123 0 0.0020135872303471141 0.045247915984553501 0 0.0024019965279010336 0.045551683116922495 0 0.0020135872303471141 0.045247915984553501 0 0.0023798161412583187 0.045763258034987341 0 0.0017673636405597215 0.044674993882381123 0 0.001305356257297788 0.044579864426103732 0 0.0015710337335799707 0.044943458241790558 0 0.001305356257297788 0.044579864426103732 0 0.0015710337335799707 0.044943458241790558 0 0.0011615899987829105 0.044777994049619456 0 0.0015710337335799707 0.044943458241790558 0 0.0017366691820775797 0.045228300620133187 0 0.0013827127447396405 0.045036939751213853 0 0.0015710337335799707 0.044943458241790558 0 0.0013827127447396405 0.045036939751213853 0 0.0011615899987829105 0.044777994049619456 0 0.0017673636405597215 0.044674993882381123 0 0.0015710337335799707 0.044943458241790558 0 0.0020135872303471141 0.045247915984553501 0 0.0015710337335799707 0.044943458241790558 0 0.0020135872303471141 0.045247915984553501 0 0.0017366691820775797 0.045228300620133187 0 0.0017366691820775797 0.045228300620133187 0 0.001587529554429485 0.04535050775751464 0 0.0019565756265361692 0.045438342380488723 0 0.0020135872303471141 0.045247915984553501 0 0.0017366691820775797 0.045228300620133187 0 0.0019565756265361692 0.045438342380488723 0 0.0013827127447396405 0.045036939751213853 0 0.001587529554429485 0.04535050775751464 0 0.0010970350753673073 0.045006925402935744 0 0.0013827127447396405 0.045036939751213853 0 0.0010970350753673073 0.045006925402935744 0 0.0011615899987829105 0.044777994049619456 0 0.0017366691820775797 0.045228300620133187 0 0.0013827127447396405 0.045036939751213853 0 0.001587529554429485 0.04535050775751464 0 0.001559067036549295 0.045925032946067507 0 0.001587529554429485 0.04535050775751464 0 0.0010970350753673073 0.045006925402935744 0 0.001559067036549295 0.045925032946067507 0 0.001587529554429485 0.04535050775751464 0 0.0018416429428041278 0.045675655626662343 0 0.001587529554429485 0.04535050775751464 0 0.0018416429428041278 0.045675655626662343 0 0.0019565756265361692 0.045438342380488723 0 0.002298098147562671 0.045511773997311829 0 0.0020135872303471141 0.045247915984553501 0 0.0019565756265361692 0.045438342380488723 0 0.0025059302722867352 0.045750664804287924 0 0.0019838851577083897 0.045290295683968772 0 0.0018416429428041278 0.045675655626662343 0 0.0020818656018865502 0.045604168996393635 0 0.0019565756265361692 0.045438342380488723 0 0.002298098147562671 0.045511773997311829 0 0.0020818656018865502 0.045604168996393635 0 0.0019565756265361692 0.045438342380488723 0 0.0022167529054179912 0.04576333579967716 0 0.0018416429428041278 0.045675655626662343 0 0.0020818656018865502 0.045604168996393635 0 0.0023913058225624928 0.045920137907441587 0 0.0020135872303471141 0.045247915984553501 0 0.0023798161412583187 0.045763258034987341 0 0.0022167529054179912 0.04576333579967716 0 0.002298098147562671 0.045511773997311829 0 0.0020818656018865502 0.045604168996393635 0 -0.0054467352157909644 0.036947657547207059 0 -0.0052046985778788166 0.03114025196519422 0 0.00037120947345714339 0.044507637168956331 0 0.0003729211519583616 0.044155376378569984 0 0.00062397708114954006 0.042910857820671854 0 0.00033442316033056201 0.044484567648707785 0 0.0003729211519583616 0.044155376378569984 0 0.00024892420411780114 0.044740625730703469 0 0.00033442316033056201 0.044484567648707785 0 0.00024892420411780114 0.044740625730703469 0 0.00036589086685945716 0.044536664469940576 0 0.00033442316033056201 0.044484567648707785 0 0.00037120947345714339 0.044507637168956331 0 0.00027846078995187731 0.044386640425881342 0 0.00033442316033056201 0.044484567648707785 0 0.00037120947345714339 0.044507637168956331 0 0.0003729211519583616 0.044155376378569984 0 0.0003729211519583616 0.044155376378569984 0 0.00024892420411780114 0.044740625730703469 0 -0.00046456339455839662 0.043371935124709771 0 -0.0019830094461059798 0.043521952156968045 0 0.00024892420411780114 0.044740625730703469 0 -0.00046456339455839662 0.043371935124709771 0 -2.5856196132399551e-05 0.04443161891799375 0 0.00015640110066707789 0.044819888062429633 0 0.001559067036549295 0.045925032946067507 0 0.0010970350753673073 0.045006925402935744 0 0.00024892420411780114 0.044740625730703469 0 0.0010970350753673073 0.045006925402935744 0 0.00024892420411780114 0.044740625730703469 0 0.00070123983548699511 0.044484328187250906 0 0.00069632470277309027 0.044591390078798622 0 0.0015927208606571711 0.043341652207212998 0 0.00024892420411780114 0.044740625730703469 0 0.00070123983548699511 0.044484328187250906 0 0.00036589086685945716 0.044536664469940576 0 0.00070123983548699511 0.044484328187250906 0 0.00054356632613141559 0.04384871730547215 0 0.0015676720755850647 0.043271537080479976 0 0.001305356257297788 0.044579864426103732 0 0.00070123983548699511 0.044484328187250906 0 0.001319755748375609 0.044097213882563567 0 0.001305356257297788 0.044579864426103732 0 0.00070123983548699511 0.044484328187250906 0 0.0011615899987829105 0.044777994049619456 0 0.0010970350753673073 0.045006925402935744 0 0.00070123983548699511 0.044484328187250906 0 0.0011615899987829105 0.044777994049619456 0 0.00070123983548699511 0.044484328187250906 0 0.00054356632613141559 0.04384871730547215 0 0.0002848437859666698 0.044299255214774756 0 0.00054356632613141559 0.04384871730547215 0 0.0002848437859666698 0.044299255214774756 0 1.9035014179331572e-06 0.043757932243885481 0 0.00070123983548699511 0.044484328187250906 0 0.0002848437859666698 0.044299255214774756 0 0.00036589086685945716 0.044536664469940576 0 0.00033442316033056201 0.044484567648707785 0 0.00027846078995187731 0.044386640425881342 0 0.0002848437859666698 0.044299255214774756 0 0.00033442316033056201 0.044484567648707785 0 0.0002848437859666698 0.044299255214774756 0 0.00036589086685945716 0.044536664469940576 0 0.00037120947345714339 0.044507637168956331 0 0.00027846078995187731 0.044386640425881342 0 6.4461152180848142e-05 0.044112439964571322 0 0.00027846078995187731 0.044386640425881342 0 0.0002848437859666698 0.044299255214774756 0 6.4461152180848142e-05 0.044112439964571322 0 0.0002848437859666698 0.044299255214774756 0 6.4461152180848142e-05 0.044112439964571322 0 1.9035014179331572e-06 0.043757932243885481 0 6.4461152180848142e-05 0.044112439964571322 0 1.9035014179331572e-06 0.043757932243885481 0 -0.00040111139002938325 0.043944954100222672 0 1.9035014179331572e-06 0.043757932243885481 0 -0.00040111139002938325 0.043944954100222672 0 -0.00057583887512014319 0.043546804419484685 0 -0.00040111139002938325 0.043944954100222672 0 -0.00075681849875503177 0.043874221658768926 0 -0.00057583887512014319 0.043546804419484685 0 -0.00040111139002938325 0.043944954100222672 0 -0.00075681849875503177 0.043874221658768926 0 -0.00072145584382053663 0.04406574401876872 0 -0.0054467352157909644 0.036947657547207059 0 0.0002177539496760025 0.045785811834144763 0 0.00037120947345714339 0.044507637168956331 0 6.4461152180848142e-05 0.044112439964571322 0 -0.00040111139002938325 0.043944954100222672 0 -0.00096080025391697224 0.043614599818965594 0 -0.00075681849875503177 0.043874221658768926 0 -0.0010562769613148978 0.044025501262227436 0 -0.0043647812986863507 0.026272653183276297 0 -0.0038046488354937244 0.024750164112730424 0 -0.0037272696933125776 0.025179067322840858 0 -0.0043647812986863507 0.026272653183276297 0 -0.0037272696933125776 0.025179067322840858 0 -0.0033215261174128889 0.026028936079641476 0 -0.0027827249169222125 0.036054217003521266 0 -0.0034815593775393162 0.028584513491674002 0 -0.00096080025391697224 0.043614599818965594 0 -0.00075681849875503177 0.043874221658768926 0 -0.00057583887512014319 0.043546804419484685 0 -0.00075681849875503177 0.043874221658768926 0 -0.0010562769613148978 0.044025501262227436 0 -0.00072145584382053663 0.04406574401876872 0 -0.0034815593775393162 0.028584513491674002 0 -0.004459436390534202 0.033087120858426716 0 -0.006453890456014761 0.021891608308532436 0 -0.0081724351639814383 0.022163549855443585 0 -0.0075552514871157139 0.020575252008129097 0 -0.0054467352157909644 0.036947657547207059 0 -0.004459436390534202 0.033087120858426716 0 -0.00040376826989309067 0.044047074669144148 0 -0.00040111139002938325 0.043944954100222672 0 -0.00072145584382053663 0.04406574401876872 0 -0.0081724351639814383 0.022163549855443585 0 -0.0092250264101952015 0.02085836989981904 0 -0.0075552514871157139 0.020575252008129097 0 -0.0098781469806464503 0.022463009848553112 0 -0.0081724351639814383 0.022163549855443585 0 -0.0092250264101952015 0.02085836989981904 0 -0.0092250264101952015 0.02085836989981904 0 -0.0086827389440920812 0.019289444124702203 0 -0.011005748494477545 0.020106119856947494 0 -0.0092250264101952015 0.02085836989981904 0 -0.0075552514871157139 0.020575252008129097 0 -0.0086827389440920812 0.019289444124702203 0 -0.006453890456014761 0.021891608308532436 0 -0.0075552514871157139 0.020575252008129097 0 -0.0058610200514094485 0.020127238635941382 0 -0.0075552514871157139 0.020575252008129097 0 -0.0072159618384349073 0.019131139984000189 0 -0.0086827389440920812 0.019289444124702203 0 -0.0075552514871157139 0.020575252008129097 0 -0.0072159618384349073 0.019131139984000189 0 -0.0058610200514094485 0.020127238635941382 0 -0.0072159618384349073 0.019131139984000189 0 -0.0078016109741169968 0.017890238837157391 0 -0.0086827389440920812 0.019289444124702203 0 -0.0072159618384349073 0.019131139984000189 0 -0.0078016109741169968 0.017890238837157391 0 -0.0061601579313170455 0.017791220511079484 0 -0.0078016109741169968 0.017890238837157391 0 -0.0086827389440920812 0.019289444124702203 0 -0.0096943391989916007 0.017411454027830377 0 -0.0086827389440920812 0.019289444124702203 0 -0.011005748494477545 0.020106119856947494 0 -0.0096943391989916007 0.017411454027830377 0 -0.011005748494477545 0.020106119856947494 0 -0.012079795809012783 0.017825818626752778 0 -0.0096943391989916007 0.017411454027830377 0 -0.0052046985778788166 0.03114025196519422 0 -0.0069559819619003406 0.02796519136245788 0 -0.0098781469806464503 0.022463009848553112 0 -0.0092250264101952015 0.02085836989981904 0 -0.011005748494477545 0.020106119856947494 0 0.0003729211519583616 0.044155376378569984 0 0.00062397708114954006 0.042910857820671854 0 -0.00046456339455839662 0.043371935124709771 0 -0.0023700238947104947 0.043240039315551586 0 -0.00046456339455839662 0.043371935124709771 0 -0.0012320172306333622 0.042060749769787631 0 0.00062397708114954006 0.042910857820671854 0 -0.00046456339455839662 0.043371935124709771 0 -0.0012320172306333622 0.042060749769787631 0 0.00062397708114954006 0.042910857820671854 0 -0.0012320172306333622 0.042060749769787631 0 -0.00029912003263519527 0.040494312006558272 0 -0.0018332873828322323 0.040494724448149243 0 -0.0012320172306333622 0.042060749769787631 0 -0.00029912003263519527 0.040494312006558272 0 -0.012079795809012783 0.017825818626752778 0 -0.011043532255011531 0.015837422873968447 0 -0.013131621320529568 0.015666357949750132 0 -0.0018332873828322323 0.040494724448149243 0 -0.00029912003263519527 0.040494312006558272 0 -0.0013850640032501667 0.038221100601020061 0 -0.0069559819619003406 0.02796519136245788 0 -0.002599079885780333 0.032868702049561563 0 -0.012079795809012783 0.017825818626752778 0 -0.011043532255011531 0.015837422873968447 0 -0.0096943391989916007 0.017411454027830377 0 -0.011043532255011531 0.015837422873968447 0 -0.0092593580796336995 0.01457303473109435 0 -0.0096943391989916007 0.017411454027830377 0 -0.011043532255011531 0.015837422873968447 0 -0.010923160775250788 0.013478821259485584 0 -0.0092593580796336995 0.01457303473109435 0 0.00057613297265308506 0.041343800625839373 0 0.00090618232201725407 0.04193834691480932 0 0.0019636487219660014 0.04109900273231492 0 -0.002599079885780333 0.032868702049561563 0 -0.0049275849972820994 0.02673355370196984 0 -0.011043532255011531 0.015837422873968447 0 -0.013131621320529568 0.015666357949750132 0 -0.010923160775250788 0.013478821259485584 0 0.00057613297265308506 0.041343800625839373 0 0.0019636487219660014 0.04109900273231492 0 0.0011331418295798827 0.040626596671224958 0 0.0019636487219660014 0.04109900273231492 0 0.0018474069110575959 0.039737639740289037 0 0.0034565367660172796 0.039663072927404647 0 0.0019636487219660014 0.04109900273231492 0 0.0018474069110575959 0.039737639740289037 0 0.0011331418295798827 0.040626596671224958 0 0.0011580813141926901 0.039590312520969333 0 0.0018474069110575959 0.039737639740289037 0 0.0011331418295798827 0.040626596671224958 0 0.0011580813141926901 0.039590312520969333 0 0.0005683294299501817 0.040502548446826041 0 0.0011331418295798827 0.040626596671224958 0 -0.0086296660648489797 0.011290025581669071 0 -0.0075546309179617454 0.013409769738528626 0 -0.0051360995214548948 0.010602584792234655 0 -0.0049275849972820994 0.02673355370196984 0 -0.0025338403404541157 0.025551615704089363 0 -0.0086296660648489797 0.011290025581669071 0 -0.0075546309179617454 0.013409769738528626 0 -0.0092593580796336995 0.01457303473109435 0 -0.010923160775250788 0.013478821259485584 0 -0.0086296660648489797 0.011290025581669071 0 -0.0092593580796336995 0.01457303473109435 0 -0.0075546309179617454 0.013409769738528626 0 -0.0092593580796336995 0.01457303473109435 0 -0.0076747379043287708 0.016084394056708615 0 -0.0075546309179617454 0.013409769738528626 0 -0.0076747379043287708 0.016084394056708615 0 -0.0053288057640986488 0.015206136979338026 0 -0.0092593580796336995 0.01457303473109435 0 -0.0096943391989916007 0.017411454027830377 0 -0.0076747379043287708 0.016084394056708615 0 -0.0078016109741169968 0.017890238837157391 0 -0.0096943391989916007 0.017411454027830377 0 -0.0076747379043287708 0.016084394056708615 0 -0.0078016109741169968 0.017890238837157391 0 -0.0076747379043287708 0.016084394056708615 0 -0.0061601579313170455 0.017791220511079484 0 -0.0053288057640986488 0.015206136979338026 0 -0.0033904053636000563 0.011964736919491792 0 -0.0029222046529321648 0.015912203330001845 0 -0.0046779843655892373 0.016937241707003177 0 -0.0053288057640986488 0.015206136979338026 0 -0.0061601579313170455 0.017791220511079484 0 -0.0076747379043287708 0.016084394056708615 0 -0.0053288057640986488 0.015206136979338026 0 -0.0061601579313170455 0.017791220511079484 0 -0.0046779843655892373 0.016937241707003177 0 -0.0029222046529321648 0.015912203330001845 0 -0.004310939982611884 0.018870889938628357 0 -0.0046779843655892373 0.016937241707003177 0 -0.0053288057640986488 0.015206136979338026 0 -0.0029222046529321648 0.015912203330001845 0 -0.0075546309179617454 0.013409769738528626 0 -0.0053288057640986488 0.015206136979338026 0 -0.0053267329113747741 0.012830174158009336 0 -0.0075546309179617454 0.013409769738528626 0 -0.0053267329113747741 0.012830174158009336 0 -0.0051360995214548948 0.010602584792234655 0 -0.0053288057640986488 0.015206136979338026 0 -0.0053267329113747741 0.012830174158009336 0 -0.0033904053636000563 0.011964736919491792 0 -0.0031369506182108244 0.0097066661189138259 0 -0.0051360995214548948 0.010602584792234655 0 -0.0033904053636000563 0.011964736919491792 0 -0.0053267329113747741 0.012830174158009336 0 -0.0051360995214548948 0.010602584792234655 0 -0.0033904053636000563 0.011964736919491792 0 -0.001840182283149917 0.011659627353614298 0 -0.00097005506730431527 0.0098754619307239791 0 -0.0031369506182108244 0.0097066661189138259 0 -0.0033904053636000563 0.011964736919491792 0 -0.00091263927187683553 0.0096934159070600646 0 -0.0019120745689798929 0.010380116163900948 0 -0.00091263927187683553 0.0096934159070600646 0 -0.0010711712971816102 0.010668274035886207 0 -0.0033904053636000563 0.011964736919491792 0 -0.0017127057209103647 0.012937804979050492 0 -0.00091263927187683553 0.0096934159070600646 0 -0.0033904053636000563 0.011964736919491792 0 -0.0017127057209103647 0.012937804979050492 0 -0.0029222046529321648 0.015912203330001845 0 -0.0019120745689798929 0.010380116163900948 0 -0.0016143243340424878 0.012332507930107671 0 -0.0010711712971816102 0.010668274035886207 0 -0.001840182283149917 0.011659627353614298 0 -0.0031509549722076825 0.014195295622261531 0 -0.0019120745689798929 0.010380116163900948 0 -0.0033264719784011055 0.012184248059119544 0 -0.0016143243340424878 0.012332507930107671 0 -0.0033264719784011055 0.012184248059119544 0 -0.0016143243340424878 0.012332507930107671 0 -0.0027460151468293947 0.014005720375281715 0 -0.0016143243340424878 0.012332507930107671 0 -0.0014500811038108681 0.014537288461986412 0 -0.00036261087642532497 0.013620364288844578 0 -0.0016143243340424878 0.012332507930107671 0 -0.0014500811038108681 0.014537288461986412 0 -0.0027460151468293947 0.014005720375281715 0 -0.0014500811038108681 0.014537288461986412 0 -0.0027460151468293947 0.014005720375281715 0 -0.0023444648500360048 0.015962899793050541 0 -0.0014500811038108681 0.014537288461986412 0 -0.0023444648500360048 0.015962899793050541 0 -0.00054843535585756239 0.015685830693397136 0 -0.0015227853018613877 0.020220653195911036 0 -0.00037084670234535406 0.017671990348916426 0 -0.0035992292760661086 0.015042283548641368 0 -0.0027460151468293947 0.014005720375281715 0 -0.0023444648500360048 0.015962899793050541 0 -0.0035992292760661086 0.015042283548641368 0 -0.0041598007267575161 0.016285785594979986 0 -0.0023444648500360048 0.015962899793050541 0 -0.0033264719784011055 0.012184248059119544 0 -0.0027460151468293947 0.014005720375281715 0 -0.0047079078198548072 0.014326193945484468 0 -0.0031509549722076825 0.014195295622261531 0 -0.0045857453501214002 0.016007035414573344 0 -0.0035992292760661086 0.015042283548641368 0 -0.0027460151468293947 0.014005720375281715 0 -0.0047079078198548072 0.014326193945484468 0 -0.004310939982611884 0.018870889938628357 0 -0.0061601579313170455 0.017791220511079484 0 -0.0058610200514094485 0.020127238635941382 0 -0.0046779843655892373 0.016937241707003177 0 -0.004310939982611884 0.018870889938628357 0 -0.0061601579313170455 0.017791220511079484 0 -0.0072159618384349073 0.019131139984000189 0 -0.0061601579313170455 0.017791220511079484 0 -0.0058610200514094485 0.020127238635941382 0 -0.004310939982611884 0.018870889938628357 0 -0.0058610200514094485 0.020127238635941382 0 -0.0058539201334921864 0.021793149048497048 0 -0.0045857453501214002 0.016007035414573344 0 -0.0046647461240441465 0.022440345108550041 0 -0.0034815593775393162 0.028584513491674002 0 -0.0050468343203271867 0.019031404784592535 0 -0.0035992292760661086 0.015042283548641368 0 -0.0047079078198548072 0.014326193945484468 0 -0.0041598007267575161 0.016285785594979986 0 -0.0047079078198548072 0.014326193945484468 0 -0.0041598007267575161 0.016285785594979986 0 -0.0060471277736225933 0.01660338390157395 0 -0.0020893907084968168 0.024451856687369284 0 -0.0030389293571040175 0.025186269054724195 0 -0.0026284965488224091 0.025605939796451999 0 -0.0020893907084968168 0.024451856687369284 0 -0.0034411915131205874 0.024669422063791052 0 -0.0030389293571040175 0.025186269054724195 0 -0.0031152261229739952 0.020256465217625159 0 -0.0046647461240441465 0.022440345108550041 0 -0.0064852394718925861 0.021892944979155438 0 -0.0058610200514094485 0.020127238635941382 0 -0.0058539201334921864 0.021793149048497048 0 -0.0034815593775393162 0.028584513491674002 0 -0.0046647461240441465 0.022440345108550041 0 -0.0034411915131205874 0.024669422063791052 0 -0.0030389293571040175 0.025186269054724195 0 -0.0037272696933125776 0.025179067322840858 0 -0.0046647461240441465 0.022440345108550041 0 -0.0046003459280506264 0.024391164816543732 0 -0.0038046488354937244 0.024750164112730424 0 -0.0034494577185473795 0.024696740360020366 0 -0.0037272696933125776 0.025179067322840858 0 -0.0030389293571040175 0.025186269054724195 0 -0.0037272696933125776 0.025179067322840858 0 -0.0033215261174128889 0.026028936079641476 0 -0.0030389293571040175 0.025186269054724195 0 -0.0033215261174128889 0.026028936079641476 0 -0.0026284965488224091 0.025605939796451999 0 -0.0033215261174128889 0.026028936079641476 0 -0.0026284965488224091 0.025605939796451999 0 -0.0025668367987945759 0.026607761472395887 0 -0.0020893907084968168 0.024451856687369284 0 -0.001952467859864153 0.025958236766317117 0 -0.0010818812927879192 0.025626703932173291 0 -0.0020893907084968168 0.024451856687369284 0 -0.0026284965488224091 0.025605939796451999 0 -0.001952467859864153 0.025958236766317117 0 -0.0026284965488224091 0.025605939796451999 0 -0.001952467859864153 0.025958236766317117 0 -0.0025668367987945759 0.026607761472395887 0 -0.001952467859864153 0.025958236766317117 0 -0.0010818812927879192 0.025626703932173291 0 -0.0015119015937098408 0.026807921111026582 0 -0.0010818812927879192 0.025626703932173291 0 -0.00064100883464236974 0.02661717365899861 0 0.0003813819215192263 0.025614029113183317 0 -0.0010818812927879192 0.025626703932173291 0 -0.00076435605443527432 0.024222129927519744 0 0.0003813819215192263 0.025614029113183317 0 -0.00076435605443527432 0.024222129927519744 0 0.0005920062227629633 0.023978930538087331 0 0.0003813819215192263 0.025614029113183317 0 -0.0020893907084968168 0.024451856687369284 0 -0.0010818812927879192 0.025626703932173291 0 -0.00076435605443527432 0.024222129927519744 0 -0.0031152261229739952 0.020256465217625159 0 -0.0015227853018613877 0.020220653195911036 0 -0.0013986844103053896 0.022792756899506796 0 -0.0017958757306293822 0.024748323662583702 0 -0.00103371356783786 0.027763903511838581 0 9.1205289534229916e-05 0.027162479378674911 0 -0.00022273873008524464 0.028351110963387778 0 -0.0013986844103053896 0.022792756899506796 0 -0.0011719903930895034 0.021454616213130641 0 -0.00103371356783786 0.027763903511838581 0 9.1205289534229916e-05 0.027162479378674911 0 -0.00064100883464236974 0.02661717365899861 0 9.1205289534229916e-05 0.027162479378674911 0 -0.00064100883464236974 0.02661717365899861 0 0.0003813819215192263 0.025614029113183317 0 -0.0010818812927879192 0.025626703932173291 0 -0.00064100883464236974 0.02661717365899861 0 -0.0015119015937098408 0.026807921111026582 0 -0.00103371356783786 0.027763903511838581 0 -0.00064100883464236974 0.02661717365899861 0 -0.0015119015937098408 0.026807921111026582 0 -0.001952467859864153 0.025958236766317117 0 -0.0015119015937098408 0.026807921111026582 0 -0.0025668367987945759 0.026607761472395887 0 -0.0015119015937098408 0.026807921111026582 0 -0.0025668367987945759 0.026607761472395887 0 -0.0024504812814014842 0.027908025455054209 0 -0.0043647812986863507 0.026272653183276297 0 -0.0033215261174128889 0.026028936079641476 0 -0.0035367313736047565 0.027222026893204184 0 -0.0033215261174128889 0.026028936079641476 0 -0.0025668367987945759 0.026607761472395887 0 -0.0035367313736047565 0.027222026893204184 0 -0.0025668367987945759 0.026607761472395887 0 -0.0035367313736047565 0.027222026893204184 0 -0.0024504812814014842 0.027908025455054209 0 -0.0024504812814014842 0.027908025455054209 0 -0.0036606810165459081 0.028521752005514434 0 -0.0027869691808654262 0.028719594338045818 0 -0.0035367313736047565 0.027222026893204184 0 -0.0024504812814014842 0.027908025455054209 0 -0.0036606810165459081 0.028521752005514434 0 -0.00103371356783786 0.027763903511838581 0 -0.0015119015937098408 0.026807921111026582 0 -0.0024504812814014842 0.027908025455054209 0 -0.00103371356783786 0.027763903511838581 0 -0.0024504812814014842 0.027908025455054209 0 -0.0019850426036039635 0.028644825950363634 0 -0.0019850426036039635 0.028644825950363634 0 -0.0025081621695526653 0.029338992584228753 0 -0.0013880670235088518 0.029347780501633336 0 -0.0024504812814014842 0.027908025455054209 0 -0.0019850426036039635 0.028644825950363634 0 -0.0027869691808654262 0.028719594338045818 0 -0.0019850426036039635 0.028644825950363634 0 -0.0025081621695526653 0.029338992584228753 0 -0.0027869691808654262 0.028719594338045818 0 -0.0025081621695526653 0.029338992584228753 0 -0.0033467800158570459 0.029187881332679903 0 -0.0037882981748376199 0.030018536184419197 0 -0.0036606810165459081 0.028521752005514434 0 -0.0027869691808654262 0.028719594338045818 0 -0.0033467800158570459 0.029187881332679903 0 -0.0025081621695526653 0.029338992584228753 0 -0.0027869691808654262 0.028719594338045818 0 -0.0033467800158570459 0.029187881332679903 0 -0.0033467800158570459 0.029187881332679903 0 -0.0037882981748376199 0.030018536184419197 0 -0.0038678755553884004 0.029336437080743804 0 -0.0036606810165459081 0.028521752005514434 0 -0.0033467800158570459 0.029187881332679903 0 -0.0038678755553884004 0.029336437080743804 0 -0.0025081621695526653 0.029338992584228753 0 -0.0027844132795524514 0.030155179248165437 0 -0.0035430432166423465 0.03011778999519139 0 -0.0026979714105059599 0.029373171203261498 0 -0.0031936334232873604 0.030563852573895288 0 -0.0025081621695526653 0.029338992584228753 0 -0.003790586307788934 0.030326846268683604 0 -0.0037882981748376199 0.030018536184419197 0 -0.0027844132795524514 0.030155179248165437 0 -0.0031397828782575694 0.03051323316431194 0 -0.0035430432166423465 0.03011778999519139 0 -0.0025081621695526653 0.029338992584228753 0 -0.0022265865448477412 0.030075555375382389 0 -0.0013880670235088518 0.029347780501633336 0 -0.0022265865448477412 0.030075555375382389 0 -0.0013880670235088518 0.029347780501633336 0 -0.0017358338595435696 0.030651489232472681 0 -0.0025081621695526653 0.029338992584228753 0 -0.0027844132795524514 0.030155179248165437 0 -0.0022265865448477412 0.030075555375382389 0 -0.0027844132795524514 0.030155179248165437 0 -0.0022265865448477412 0.030075555375382389 0 -0.0026669391317037895 0.030837395296882647 0 -0.0011529465338365021 0.028638465043773882 0 -0.00038027945129448444 0.029243176247811812 0 -0.001332420207522284 0.029454857356441141 0 -0.0013634375185257186 0.029206493899953993 0 -0.00084893991251513761 0.028985404358515654 0 -0.00103371356783786 0.027763903511838581 0 -0.0019850426036039635 0.028644825950363634 0 -0.0013880670235088518 0.029347780501633336 0 -0.0010145121645178331 0.027758013423160366 0 -0.0013634375185257186 0.029206493899953993 0 -0.00103371356783786 0.027763903511838581 0 -0.0011529465338365021 0.028638465043773882 0 -0.00022273873008524464 0.028351110963387778 0 -0.0011529465338365021 0.028638465043773882 0 -0.00022273873008524464 0.028351110963387778 0 -0.00038027945129448444 0.029243176247811812 0 -0.0017958757306293822 0.024748323662583702 0 -0.0012417685363280897 0.025345009161632459 0 -0.0012417685363280897 0.025345009161632459 0 -0.00027367356175318997 0.025135262527280954 0 -0.00019751802380767807 0.026592270968051373 0 -5.252303121660503e-05 0.026450754246951352 0 -0.00018913614164820877 0.026415532513601046 0 -0.00060314046598095733 0.023266966079214326 0 -0.00057867916231710411 0.024060413048359899 0 -0.00010208507820405359 0.023813791638415158 0 -0.00019751802380767807 0.026592270968051373 0 -5.252303121660503e-05 0.026450754246951352 0 3.886738838006054e-05 0.026540261754577799 0 -5.252303121660503e-05 0.026450754246951352 0 1.9080060533863892e-05 0.026339920579896009 0 3.886738838006054e-05 0.026540261754577799 0 -0.0012417685363280897 0.025345009161632459 0 -0.00084893991251513761 0.028985404358515654 0 -5.252303121660503e-05 0.026450754246951352 0 2.3373522681435881e-05 0.026332191061448358 0 1.9080060533863892e-05 0.026339920579896009 0 -5.252303121660503e-05 0.026450754246951352 0 2.3373522681435881e-05 0.026332191061448358 0 -0.00018913614164820877 0.026415532513601046 0 2.3373522681435881e-05 0.026332191061448358 0 6.5452293560898486e-05 0.026422863168307983 0 1.9080060533863892e-05 0.026339920579896009 0 2.3373522681435881e-05 0.026332191061448358 0 -0.00018913614164820877 0.026415532513601046 0 -5.0215792613786778e-05 0.025761324700023135 0 -0.00057867916231710411 0.024060413048359899 0 -5.0215792613786778e-05 0.025761324700023135 0 2.4243387077741758e-05 0.024607636462157009 0 -0.00057867916231710411 0.024060413048359899 0 -0.00010208507820405359 0.023813791638415158 0 2.4243387077741758e-05 0.024607636462157009 0 -0.00027367356175318997 0.025135262527280954 0 -0.00015508356824398727 0.025699761889351622 0 -5.0215792613786778e-05 0.025761324700023135 0 2.4243387077741758e-05 0.024607636462157009 0 0.00010592996387556729 0.024546964718324179 0 -5.0215792613786778e-05 0.025761324700023135 0 6.5452293560898486e-05 0.026422863168307983 0 6.249391043282406e-05 0.026891511839883513 0 2.3373522681435881e-05 0.026332191061448358 0 -5.0215792613786778e-05 0.025761324700023135 0 6.5452293560898486e-05 0.026422863168307983 0 -5.0215792613786778e-05 0.025761324700023135 0 6.249391043282406e-05 0.026891511839883513 0 8.1329664523530439e-07 0.027204512631677089 0 -5.0215792613786778e-05 0.025761324700023135 0 8.1329664523530439e-07 0.027204512631677089 0 9.3093474185735889e-07 0.024424966607626289 0 -2.5022047250277497e-06 0.029978901445845477 0 -1.5686317707210443e-05 0.028155270259919415 0 -0.00061630310151172547 0.027655733666836248 0 -1.3251771641954751e-06 0.02998180181065661 0 -0.00060142374179135687 0.031543709995609168 0 -2.5022047250277497e-06 0.029978901445845477 0 -0.00061630310151172547 0.027655733666836248 0 -0.0019396244468977357 0.027905413551288869 0 4.5443224089160601e-09 0.02998846140641679 0 -3.6921368228962491e-06 0.031459291160638669 0 -9.211602838364454e-09 0.031491711949321925 0 8.1329664523530439e-07 0.027204512631677089 0 -2.5022047250277497e-06 0.029978901445845477 0 -1.5686317707210443e-05 0.028155270259919415 0 6.249391043282406e-05 0.026891511839883513 0 8.1329664523530439e-07 0.027204512631677089 0 -1.5686317707210443e-05 0.028155270259919415 0 -1.5686317707210443e-05 0.028155270259919415 0 0.00023217534914607584 0.027066939009162169 0 -0.00061630310151172547 0.027655733666836248 0 -6.7932272830873195e-05 0.027921296904849933 0 5.5019754644071187e-05 0.02678940012772886 0 6.249391043282406e-05 0.026891511839883513 0 -1.5686317707210443e-05 0.028155270259919415 0 -0.00021167894101191759 0.026630485972354415 0 6.5452293560898486e-05 0.026422863168307983 0 6.249391043282406e-05 0.026891511839883513 0 -0.00021167894101191759 0.026630485972354415 0 0.00023217534914607584 0.027066939009162169 0 -0.00059871778201599484 0.026926606715717918 0 -0.0004373930045855141 0.026312342698669045 0 -0.00059871778201599484 0.026926606715717918 0 -0.00061630310151172547 0.027655733666836248 0 -0.0013228910241721303 0.026819220179100545 0 0.00023217534914607584 0.027066939009162169 0 -0.00059871778201599484 0.026926606715717918 0 -0.00061630310151172547 0.027655733666836248 0 -0.00061630310151172547 0.027655733666836248 0 -0.0013228910241721303 0.026819220179100545 0 -0.0019396244468977357 0.027905413551288869 0 -0.00059871778201599484 0.026926606715717918 0 -0.0013228910241721303 0.026819220179100545 0 -0.0011460370128363591 0.026351522126895729 0 -0.0019733933508541629 0.02655361588379114 0 -0.0012387045900716714 0.029373092941540391 0 -0.00049114071354065131 0.026769901446910899 0 -0.0015309694301384263 0.029279848927492625 0 -0.0011460370128363591 0.026351522126895729 0 -0.0004373930045855141 0.026312342698669045 0 -0.0016625006187843481 0.025562939840029993 0 -0.0013228910241721303 0.026819220179100545 0 -0.0011460370128363591 0.026351522126895729 0 -0.0016703817593914918 0.026162130204246337 0 -0.0004373930045855141 0.026312342698669045 0 0.00048145460355988586 0.025934035816370053 0 -0.0016625006187843481 0.025562939840029993 0 -0.00059871778201599484 0.026926606715717918 0 -0.0011460370128363591 0.026351522126895729 0 -0.0004373930045855141 0.026312342698669045 0 -0.0011460370128363591 0.026351522126895729 0 -0.0016625006187843481 0.025562939840029993 0 -0.0016703817593914918 0.026162130204246337 0 5.4715025764419841e-05 0.026348004838605759 0 1.9080060533863892e-05 0.026339920579896009 0 3.886738838006054e-05 0.026540261754577799 0 6.5452293560898486e-05 0.026422863168307983 0 -0.00021167894101191759 0.026630485972354415 0 1.9080060533863892e-05 0.026339920579896009 0 -0.00021167894101191759 0.026630485972354415 0 -5.815078303259317e-05 0.026325272822794631 0 1.9080060533863892e-05 0.026339920579896009 0 5.5019754644071187e-05 0.02678940012772886 0 -0.00049114071354065131 0.026769901446910899 0 0.00023217534914607584 0.027066939009162169 0 -0.0004373930045855141 0.026312342698669045 0 0.00048145460355988586 0.025934035816370053 0 -0.00049114071354065131 0.026769901446910899 0 -0.00034951416430976798 0.026745249311892528 0 -0.0022265865448477412 0.030075555375382389 0 -0.0017358338595435696 0.030651489232472681 0 -0.0026669391317037895 0.030837395296882647 0 -0.0011055158751162239 0.028984050579359346 0 -0.0010222305350001952 0.02862209941002427 0 -0.0013820703839754129 0.028704801097389803 0 -0.00084893991251513761 0.028985404358515654 0 -0.0021861404804854692 0.029814545787864966 0 -0.00049114071354065131 0.026769901446910899 0 -0.00084893991251513761 0.028985404358515654 0 -0.0021861404804854692 0.029814545787864966 0 -0.0020564367364852157 0.030580636662371971 0 -0.0011055158751162239 0.028984050579359346 0 -0.0013820703839754129 0.028704801097389803 0 -0.0017445988731229455 0.028887688954474525 0 -0.0031397828782575694 0.03051323316431194 0 -0.0035511570334020208 0.03102393696728116 0 -0.0035430432166423465 0.03011778999519139 0 -0.0013820703839754129 0.028704801097389803 0 -0.0017437805471466024 0.028792223868941123 0 -0.0017445988731229455 0.028887688954474525 0 -0.0026669391317037895 0.030837395296882647 0 -0.0031397828782575694 0.03051323316431194 0 -0.0035511570334020208 0.03102393696728116 0 -0.0027844132795524514 0.030155179248165437 0 -0.0026669391317037895 0.030837395296882647 0 -0.0031397828782575694 0.03051323316431194 0 -0.0025487889637811883 0.03127590078469137 0 -0.002467281020328452 0.031373862724620456 0 -0.0024673243466976384 0.031091604029681086 0 -0.0025487889637811883 0.03127590078469137 0 -0.0026710140055438 0.031239212823328723 0 -0.0024673243466976384 0.031091604029681086 0 -0.0020564367364852157 0.030580636662371971 0 -0.0031936334232873604 0.030563852573895288 0 -0.0025487889637811883 0.03127590078469137 0 -0.0026710140055438 0.031239212823328723 0 -0.0025759599838585156 0.031399986266913642 0 -0.0033824631656189904 0.032060216254658616 0 -0.0015216244461838976 0.031800384232536241 0 -0.0020306451714093817 0.032770454026499238 0 -0.0020203632207128125 0.03283243962603135 0 -0.0019953170905290156 0.032825206571215085 0 -0.0010350426287710458 0.032713832755521269 0 -0.00098615637122530871 0.031678337880097315 0 -0.0010350426287710458 0.032713832755521269 0 -0.0015216244461838976 0.031800384232536241 0 -0.0011038372188615477 0.032093544460737811 0 -0.0012723295632926627 0.032130047888051752 0 -0.0013148463980775826 0.032053985652814226 0 -0.00098615637122530871 0.031678337880097315 0 -0.0015309694301384263 0.029279848927492625 0 -0.0015216244461838976 0.031800384232536241 0 -0.0020564367364852157 0.030580636662371971 0 -0.0014168309490201795 0.030837815409798436 0 -0.001353899628026096 0.030850253087787955 0 -0.0013057145171132894 0.030810573763361833 0 -0.0013977610273138126 0.030871130397621405 0 -0.001353899628026096 0.030850253087787955 0 -0.0013066607204684261 0.030884887079852867 0 -0.0014168309490201795 0.030837815409798436 0 -0.0013977610273138126 0.030871130397621405 0 -0.001353899628026096 0.030850253087787955 0 -0.0015216244461838976 0.031800384232536241 0 -0.00098615637122530871 0.031678337880097315 0 -0.0020564367364852157 0.030580636662371971 0 -0.0015309694301384263 0.029279848927492625 0 -0.001353899628026096 0.030850253087787955 0 -0.0013057145171132894 0.030810573763361833 0 -0.0013066607204684261 0.030884887079852867 0 -0.0025487889637811883 0.03127590078469137 0 -0.0025759599838585156 0.031399986266913642 0 -0.002467281020328452 0.031373862724620456 0 -0.0011093624180419218 0.033926650344370771 0 -0.0010201551676145191 0.033951108558802345 0 -0.00094202703534810423 0.033906445139035915 0 -0.0019873840297512098 0.03540544477589426 0 -0.0020218311604809401 0.034818023893143688 0 -0.0013232107302619876 0.034958658853234806 0 -0.0026204571295353474 0.035219259032684337 0 -0.0019873840297512098 0.03540544477589426 0 -0.0020218311604809401 0.034818023893143688 0 -0.0033824631656189904 0.032060216254658616 0 -0.001666903048037449 0.034307985685996398 0 -0.0020306451714093817 0.032770454026499238 0 -0.0020203632207128125 0.03283243962603135 0 -0.0020942426388805466 0.032824979363918726 0 -0.0010350426287710458 0.032713832755521269 0 -0.001666903048037449 0.034307985685996398 0 -0.001666903048037449 0.034307985685996398 0 -0.00038452879087601499 0.034861032264353893 0 -0.0010350426287710458 0.032713832755521269 0 -0.00038452879087601499 0.034861032264353893 0 4.6886616965780519e-05 0.034281849123335643 0 0.00013830777886482379 0.034170413093340971 0 0.0002188752579100757 0.034145220818953805 0 0.00013830777886482379 0.034170413093340971 0 0.00024136345089961674 0.034160838438103636 0 0.0002188752579100757 0.034145220818953805 0 -3.890857102951306e-06 0.034171832816787782 0 -0.00016145474578291053 0.034145995068855385 0 -0.00016197465258953171 0.033703690779105198 0 -4.6737931684039851e-05 0.03427767908604773 0 -3.890857102951306e-06 0.034171832816787782 0 -0.00016145474578291053 0.034145995068855385 0 -0.0015309694301384263 0.029279848927492625 0 -0.0012387045900716714 0.029373092941540391 0 -0.0011621691898320771 0.030439109159515716 0 -0.0016153484728230446 0.030354450696166532 0 -0.0016032582248342194 0.029653480477747584 0 -0.00098615637122530871 0.031678337880097315 0 -0.0012387045900716714 0.029373092941540391 0 4.6886616965780519e-05 0.034281849123335643 0 0.00013830777886482379 0.034170413093340971 0 -3.890857102951306e-06 0.034171832816787782 0 4.6886616965780519e-05 0.034281849123335643 0 -4.6737931684039851e-05 0.03427767908604773 0 -3.890857102951306e-06 0.034171832816787782 0 -0.0013228910241721303 0.026819220179100545 0 -0.0017133437263575631 0.026046172655873289 0 -0.0019396244468977357 0.027905413551288869 0 0.00013830777886482379 0.034170413093340971 0 -3.890857102951306e-06 0.034171832816787782 0 -0.00016197465258953171 0.033703690779105198 0 0.00013830777886482379 0.034170413093340971 0 -0.00045808759766028447 0.03361761184773137 0 0.00010224367111038291 0.03385156483059628 0 -0.0012387045900716714 0.029373092941540391 0 -0.00060142374179135687 0.031543709995609168 0 0.00040294894347153991 0.034869449024505624 0 -0.00060142374179135687 0.031543709995609168 0 -0.00045808759766028447 0.03361761184773137 0 0.00010224367111038291 0.03385156483059628 0 0.00017651680952108739 0.033388506957099433 0 0.00022119989276119437 0.034127578973278998 0 0.00010224367111038291 0.03385156483059628 0 0.00024136345089961674 0.034160838438103636 0 0.00013830777886482379 0.034170413093340971 0 0.00010224367111038291 0.03385156483059628 0 0.00024136345089961674 0.034160838438103636 0 0.00022119989276119437 0.034127578973278998 0 0.00010224367111038291 0.03385156483059628 0 0.00017651680952108739 0.033388506957099433 0 0.00022119989276119437 0.034127578973278998 0 0.00017651680952108739 0.033388506957099433 0 2.0980225787600283e-06 0.034092918072802229 0 -0.00060142374179135687 0.031543709995609168 0 -1.5687175327812648e-07 0.031498006822762235 0 0.00017651680952108739 0.033388506957099433 0 2.0980225787600283e-06 0.034092918072802229 0 -2.1060907717174896e-06 0.031500153615146152 0 -0.00045808759766028447 0.03361761184773137 0 0.00017651680952108739 0.033388506957099433 0 -2.1060907717174896e-06 0.031500153615146152 0 -1.102171600089306e-06 0.036692499157729895 0 -0.00016264906427932493 0.038665179938933154 0 0.00010691146166139507 0.037968774146907663 0 -2.1467373645535455e-06 0.03668560172709838 0 0.00021144775680209606 0.034750125594931021 0 -0.00020109780809994911 0.034655875033546675 0 -2.1467373645535455e-06 0.03668560172709838 0 -0.0012298723975749683 0.033571613718305617 0 -0.00020109780809994911 0.034655875033546675 0 -7.5693487364812683e-07 0.036686320073684726 0 -0.00046864044618929139 0.037838129051962988 0 2.0980225787600283e-06 0.034092918072802229 0 -2.1467373645535455e-06 0.03668560172709838 0 0.00021144775680209606 0.034750125594931021 0 0.00022119989276119437 0.034127578973278998 0 2.0980225787600283e-06 0.034092918072802229 0 0.00021144775680209606 0.034750125594931021 0 0.00017454784147720077 0.034336788732159285 0 -0.00020109780809994911 0.034655875033546675 0 0.00011770611834636101 0.034077283387155363 0 0.00021144775680209606 0.034750125594931021 0 0.00017454784147720077 0.034336788732159285 0 -0.00020109780809994911 0.034655875033546675 0 0.00022119989276119437 0.034127578973278998 0 0.00021144775680209606 0.034750125594931021 0 0.00017454784147720077 0.034336788732159285 0 0.00022119989276119437 0.034127578973278998 0 0.00017454784147720077 0.034336788732159285 0 0.00024136345089961674 0.034160838438103636 0 0.00017454784147720077 0.034336788732159285 0 0.00024136345089961674 0.034160838438103636 0 0.00011770611834636101 0.034077283387155363 0 -0.0012298723975749683 0.033571613718305617 0 -0.00020109780809994911 0.034655875033546675 0 0.00068035710109681682 0.032279585932628446 0 4.4372584995804641e-05 0.033985516048635388 0 -2.5689692285920597e-05 0.034687047230040166 0 -0.00046864044618929139 0.037838129051962988 0 -2.5689692285920597e-05 0.034687047230040166 0 0.0003370016470931381 0.037393680576090951 0 0.00012442820679339268 0.038027368474139824 0 -0.00042067059569182865 0.037923093893490328 0 -0.00046864044618929139 0.037838129051962988 0 -0.00021048620713786542 0.040604529916410573 0 0.0003370016470931381 0.037393680576090951 0 0.00012442820679339268 0.038027368474139824 0 0.00054321806062097378 0.038219570015980524 0 0.00012442820679339268 0.038027368474139824 0 -0.00042067059569182865 0.037923093893490328 0 -0.00050930867532095593 0.038147542631429138 0 -0.00013921354217992491 0.037783941693459555 0 -0.00052105514979040326 0.036492751247997765 0 0.00012442820679339268 0.038027368474139824 0 -0.00055651742344334861 0.038172112185411361 0 -0.0007913249182032201 0.038771744530933655 0 0.00024136345089961674 0.034160838438103636 0 0.00011770611834636101 0.034077283387155363 0 0.0002188752579100757 0.034145220818953805 0 -0.00049998573595491235 0.0352255763233357 0 -0.00048548271567988978 0.035191272229624253 0 -0.00042835802995729662 0.035179988158255085 0 -2.5689692285920597e-05 0.034687047230040166 0 -0.00038452879087601499 0.034861032264353893 0 -2.5689692285920597e-05 0.034687047230040166 0 -0.00052105514979040326 0.036492751247997765 0 -0.00052105514979040326 0.036492751247997765 0 -0.00038452879087601499 0.034861032264353893 0 -0.00062178881841857365 0.035536376437598799 0 -0.00078372150104758886 0.035569011802576864 0 -0.00072184731398665695 0.035791564050589142 0 -0.001666903048037449 0.034307985685996398 0 -0.00045569427481640458 0.037195686426336153 0 -0.0010246301003637764 0.035728592102063556 0 -0.00078372150104758886 0.035569011802576864 0 -0.00072184731398665695 0.035791564050589142 0 -0.00052105514979040326 0.036492751247997765 0 -0.00045569427481640458 0.037195686426336153 0 -0.00045569427481640458 0.037195686426336153 0 -0.0010877365467431089 0.038420435089916986 0 -0.0019873840297512098 0.03540544477589426 0 -0.0013232107302619876 0.034958658853234806 0 -0.0016238765334969276 0.035713587219485268 0 0.00010977294857406027 0.039711588244247087 0 0.00080798229449962516 0.040501697874704409 0 0.001748987991167043 0.040039324155222232 0 -0.00045569427481640458 0.037195686426336153 0 0.00037589858499550294 0.041412018566950919 0 0.00012442820679339268 0.038027368474139824 0 -0.0007913249182032201 0.038771744530933655 0 0.00073990081698141377 0.039078987088680545 0 0.00080798229449962516 0.040501697874704409 0 0.00082686445470488981 0.041376469707284494 0 0.001999540124134609 0.041124302587161023 0 0.00082686445470488981 0.041376469707284494 0 0.0009348049845993167 0.042421815179423242 0 0.0014935443101736839 0.041772174127413589 0 0.00082686445470488981 0.041376469707284494 0 0.0014935443101736839 0.041772174127413589 0 0.001999540124134609 0.041124302587161023 0 0.00012542526524194302 0.041146521466280082 0 -0.0005263312987809557 0.041356212567799727 0 -1.7549534363566407e-05 0.042225635237780133 0 0.00082686445470488981 0.041376469707284494 0 0.00012542526524194302 0.041146521466280082 0 -1.7549534363566407e-05 0.042225635237780133 0 0.00080798229449962516 0.040501697874704409 0 0.00012542526524194302 0.041146521466280082 0 -0.00020547904670669762 0.040534228947832561 0 0.00012542526524194302 0.041146521466280082 0 -0.00020547904670669762 0.040534228947832561 0 -0.0005263312987809557 0.041356212567799727 0 0.00010977294857406027 0.039711588244247087 0 0.00080798229449962516 0.040501697874704409 0 -0.00020547904670669762 0.040534228947832561 0 0.00080798229449962516 0.040501697874704409 0 0.00082686445470488981 0.041376469707284494 0 0.00012542526524194302 0.041146521466280082 0 -0.0045847823219183747 0.030898057464005788 0 -0.0044730007366122248 0.029253052985294875 0 -0.0054914213119141549 0.029298563550215633 0 -0.0026204571295353474 0.035219259032684337 0 -0.0019873840297512098 0.03540544477589426 0 -0.001923262662741743 0.036473130298615319 0 -0.0019873840297512098 0.03540544477589426 0 -0.0016238765334969276 0.035713587219485268 0 -0.001923262662741743 0.036473130298615319 0 -0.0033824631656189904 0.032060216254658616 0 -0.0022624041888085612 0.036326813520414142 0 -0.0010877365467431089 0.038420435089916986 0 -0.0022624041888085612 0.036326813520414142 0 -0.0045847823219183747 0.030898057464005788 0 -0.0037882981748376199 0.030018536184419197 0 -0.0044730007366122248 0.029253052985294875 0 -0.0033824631656189904 0.032060216254658616 0 -0.0031936334232873604 0.030563852573895288 0 -0.0045847823219183747 0.030898057464005788 0 -0.003789427484853539 0.030318432743720803 0 -0.0037882981748376199 0.030018536184419197 0 -0.0031936334232873604 0.030563852573895288 0 -0.003291092005610975 0.030344203459839361 0 -0.0036606810165459081 0.028521752005514434 0 -0.0044730007366122248 0.029253052985294875 0 -0.0049266992948265005 0.027779945608757371 0 -0.0036606810165459081 0.028521752005514434 0 -0.0038678755553884004 0.029336437080743804 0 -0.0044730007366122248 0.029253052985294875 0 -0.0037882981748376199 0.030018536184419197 0 -0.0038678755553884004 0.029336437080743804 0 -0.0044730007366122248 0.029253052985294875 0 -0.0044730007366122248 0.029253052985294875 0 -0.0054914213119141549 0.029298563550215633 0 -0.0049266992948265005 0.027779945608757371 0 -0.0022624041888085612 0.036326813520414142 0 0.00078495330876417267 0.043641706746519966 0 -0.0022624041888085612 0.036326813520414142 0 -0.0028513511747283457 0.034811266140782192 0 -0.00046334470357048516 0.041386499611603025 0 -0.00082916267678055926 0.042622521670944935 0 -1.7549534363566407e-05 0.042225635237780133 0 -0.00082916267678055926 0.042622521670944935 0 -1.7549534363566407e-05 0.042225635237780133 0 6.9812291316297123e-05 0.042839596051869773 0 -0.0035367313736047565 0.027222026893204184 0 -0.0036606810165459081 0.028521752005514434 0 -0.0049266992948265005 0.027779945608757371 0 -0.0043647812986863507 0.026272653183276297 0 -0.0035367313736047565 0.027222026893204184 0 -0.0049266992948265005 0.027779945608757371 0 -0.0027827249169222125 0.036054217003521266 0 -0.0028513511747283457 0.034811266140782192 0 -0.00082916267678055926 0.042622521670944935 0 -0.00057583887512014319 0.043546804419484685 0 -0.00026196823503089515 0.043250993447600167 0 -0.00082916267678055926 0.042622521670944935 0 -0.00026196823503089515 0.043250993447600167 0 6.9812291316297123e-05 0.042839596051869773 0 -0.00096080025391697224 0.043614599818965594 0 -0.00082916267678055926 0.042622521670944935 0 -0.00057583887512014319 0.043546804419484685 0 1.9035014179331572e-06 0.043757932243885481 0 -0.00057583887512014319 0.043546804419484685 0 -0.00026196823503089515 0.043250993447600167 0 1.9035014179331572e-06 0.043757932243885481 0 -0.00026196823503089515 0.043250993447600167 0 0.00042094905354040621 0.043269482335176128 0 -0.00026196823503089515 0.043250993447600167 0 0.00042094905354040621 0.043269482335176128 0 6.9812291316297123e-05 0.042839596051869773 0 0.00054356632613141559 0.04384871730547215 0 1.9035014179331572e-06 0.043757932243885481 0 0.00042094905354040621 0.043269482335176128 0 0.00054356632613141559 0.04384871730547215 0 0.00042094905354040621 0.043269482335176128 0 0.0015676720755850647 0.043271537080479976 0 0.00042094905354040621 0.043269482335176128 0 0.0009348049845993167 0.042421815179423242 0 0.0015676720755850647 0.043271537080479976 0 0.00042094905354040621 0.043269482335176128 0 0.0009348049845993167 0.042421815179423242 0 6.9812291316297123e-05 0.042839596051869773 0 0.00082686445470488981 0.041376469707284494 0 0.0009348049845993167 0.042421815179423242 0 -1.7549534363566407e-05 0.042225635237780133 0 0.0009348049845993167 0.042421815179423242 0 -1.7549534363566407e-05 0.042225635237780133 0 6.9812291316297123e-05 0.042839596051869773 0 0.0026274858668296915 0.047861226978820191 0 0.0033065362318688844 0.048066508530240012 0 0.0031013012056994227 0.047036578793977497 0 0.0014821497744396991 0.044372184069454208 0 0.0027066041491324178 0.045831104239286269 0 0.0009348049845993167 0.042421815179423242 0 0.0022462231611669256 0.042211666705497392 0 0.0015676720755850647 0.043271537080479976 0 0.0009348049845993167 0.042421815179423242 0 0.0022462231611669256 0.042211666705497392 0 0.0014935443101736839 0.041772174127413589 0 0.0014821497744396991 0.044372184069454208 0 0.0015927208606571711 0.043341652207212998 0 0.0019568935946488652 0.043103815549167084 0 0.001319755748375609 0.044097213882563567 0 0.0021929115944988933 0.04406324049998709 0 0.0017673636405597215 0.044674993882381123 0 0.001319755748375609 0.044097213882563567 0 0.0021929115944988933 0.04406324049998709 0 0.0017673636405597215 0.044674993882381123 0 0.001305356257297788 0.044579864426103732 0 0.001319755748375609 0.044097213882563567 0 0.0026274858668296915 0.047861226978820191 0 0.0031013012056994227 0.047036578793977497 0 0.0022744388649749334 0.046821254224262338 0 0.0024019965279010336 0.045551683116922495 0 0.0031013012056994227 0.047036578793977497 0 0.0022744388649749334 0.046821254224262338 0 0.0026274858668296915 0.047861226978820191 0 0.0022744388649749334 0.046821254224262338 0 0.0021027355519086348 0.047694771319719095 0 0.0018119752410974866 0.046683939578582176 0 0.0022744388649749334 0.046821254224262338 0 0.0019127015936696527 0.047181934704846204 0 0.0022744388649749334 0.046821254224262338 0 0.0019127015936696527 0.047181934704846204 0 0.0021027355519086348 0.047694771319719095 0 0.0018119752410974866 0.046683939578582176 0 0.0019127015936696527 0.047181934704846204 0 0.0014588796447033373 0.047558606045414703 0 0.0018119752410974866 0.046683939578582176 0 0.0013490050580052839 0.046957260992306044 0 0.0014588796447033373 0.047558606045414703 0 0.0019127015936696527 0.047181934704846204 0 0.0014588796447033373 0.047558606045414703 0 0.0021027355519086348 0.047694771319719095 0 0.0014588796447033373 0.047558606045414703 0 0.0021027355519086348 0.047694771319719095 0 0.0013448053867432393 0.048469166546576972 0 0.0021027355519086348 0.047694771319719095 0 0.002027451357345555 0.04858465562592295 0 0.0013448053867432393 0.048469166546576972 0 0.0026274858668296915 0.047861226978820191 0 0.0021027355519086348 0.047694771319719095 0 0.002027451357345555 0.04858465562592295 0 0.0026274858668296915 0.047861226978820191 0 0.002027451357345555 0.04858465562592295 0 0.0026676360609505676 0.048986255438948544 0 0.002027451357345555 0.04858465562592295 0 0.0013448053867432393 0.048469166546576972 0 0.0012804590224356615 0.049463899811322404 0 0.002027451357345555 0.04858465562592295 0 0.0012804590224356615 0.049463899811322404 0 0.0020890745786839512 0.049762650788966703 0 0.002027451357345555 0.04858465562592295 0 0.0026676360609505676 0.048986255438948544 0 0.0020890745786839512 0.049762650788966703 0 -0.00030543671233655624 0.043113259333198893 0 -0.00032984073989381535 0.043475140702793937 0 -5.2059186333743591e-05 0.042992709475674594 0 0.0010649663814074504 0.046517593082572119 0 0.0010447896051074984 0.046306311005624719 0 -0.00030543671233655624 0.043113259333198893 0 -0.00054015787098527521 0.043265039206579779 0 -0.00032984073989381535 0.043475140702793937 0 -0.00030543671233655624 0.043113259333198893 0 -0.00054015787098527521 0.043265039206579779 0 -0.00080671039515049054 0.043016477963067984 0 -0.00054015787098527521 0.043265039206579779 0 -0.00032984073989381535 0.043475140702793937 0 -0.00071040485142706339 0.043464994912797601 0 0.0014821497744396991 0.044372184069454208 0 0.0010649663814074504 0.046517593082572119 0 0.0026274858668296915 0.047861226978820191 0 0.0033065362318688844 0.048066508530240012 0 0.0026676360609505676 0.048986255438948544 0 -0.00058751423852396016 0.043920705977604432 0 -0.00032984073989381535 0.043475140702793937 0 -0.00071040485142706339 0.043464994912797601 0 0.0022462231611669256 0.042211666705497392 0 0.0014935443101736839 0.041772174127413589 0 0.001999540124134609 0.041124302587161023 0 0.0014821497744396991 0.044372184069454208 0 0.00058065046402172387 0.042064990939858347 0 0.00080798229449962516 0.040501697874704409 0 0.001999540124134609 0.041124302587161023 0 0.001748987991167043 0.040039324155222232 0 -0.00054015787098527521 0.043265039206579779 0 -0.00071040485142706339 0.043464994912797601 0 -0.00080671039515049054 0.043016477963067984 0 0.00058065046402172387 0.042064990939858347 0 0.00037589858499550294 0.041412018566950919 0 -0.00096122892465446514 0.043001693649166353 0 -0.00062951008687396701 0.042747289467103405 0 -0.0010774768062638625 0.042553049823723113 0 0.00037589858499550294 0.041412018566950919 0 -0.00021048620713786542 0.040604529916410573 0 -0.00030543671233655624 0.043113259333198893 0 -0.00096122892465446514 0.043001693649166353 0 -0.00062951008687396701 0.042747289467103405 0 -0.00078296076428650623 0.043362806394859635 0 0.00037589858499550294 0.041412018566950919 0 -0.00030543671233655624 0.043113259333198893 0 -0.00062951008687396701 0.042747289467103405 0 -0.00029505124271238123 0.042785416777200692 0 -0.00062951008687396701 0.042747289467103405 0 -0.00042785155881145602 0.04250591879127022 0 -0.00077842349224841649 0.042291805228892851 0 -0.00029505124271238123 0.042785416777200692 0 -0.00042785155881145602 0.04250591879127022 0 -0.00012568016324530603 0.042497870415675675 0 -0.00062951008687396701 0.042747289467103405 0 -0.00029505124271238123 0.042785416777200692 0 -0.00042785155881145602 0.04250591879127022 0 -0.00042785155881145602 0.04250591879127022 0 -0.00077842349224841649 0.042291805228892851 0 -0.0004018186414888839 0.042265911312128861 0 -0.00042785155881145602 0.04250591879127022 0 -0.0004018186414888839 0.042265911312128861 0 -0.00012568016324530603 0.042497870415675675 0 -0.00062951008687396701 0.042747289467103405 0 -0.0010774768062638625 0.042553049823723113 0 -0.00077842349224841649 0.042291805228892851 0 -0.0012022978170229343 0.042093286537292496 0 -0.0010774768062638625 0.042553049823723113 0 -0.00077842349224841649 0.042291805228892851 0 0.00012442820679339268 0.038027368474139824 0 0.00073990081698141377 0.039078987088680545 0 0.00054321806062097378 0.038219570015980524 0 -0.0012022978170229343 0.042093286537292496 0 -0.00077842349224841649 0.042291805228892851 0 -0.00075502259168140845 0.041713876062811642 0 -0.00016264906427932493 0.038665179938933154 0 0.00010251332430133057 0.038352720394211004 0 0.00010691146166139507 0.037968774146907663 0 -0.00046864044618929139 0.037838129051962988 0 -0.00038642880230957166 0.040409215834983983 0 -0.00077842349224841649 0.042291805228892851 0 -0.0004018186414888839 0.042265911312128861 0 -0.00075502259168140845 0.041713876062811642 0 -0.0004018186414888839 0.042265911312128861 0 -0.00075502259168140845 0.041713876062811642 0 -3.1094981747822879e-05 0.042157680637751674 0 0.00010251332430133057 0.038352720394211004 0 1.0910277825739514e-06 0.038832452133178312 0 -1.0955610795971117e-06 0.040976115027366491 0 -0.00075502259168140845 0.041713876062811642 0 -2.7111493195042087e-08 0.040983608333675592 0 -3.1094981747822879e-05 0.042157680637751674 0 -0.00038642880230957166 0.040409215834983983 0 4.9615093477337031e-07 0.040976748051594236 0 0.00010251332430133057 0.038352720394211004 0 1.0910277825739514e-06 0.038832452133178312 0 0.00010691146166139507 0.037968774146907663 0 -1.102171600089306e-06 0.036692499157729895 0 1.0910277825739514e-06 0.038832452133178312 0 0.00010691146166139507 0.037968774146907663 0 -1.0622152777386792e-06 0.043066252837691971 0 0.00015053412436815964 0.046142550781226727 0 0.0002003696119819075 0.04218669846969654 0 1.0825202410054931e-07 0.043063329740492352 0 -1.5406516220966785e-05 0.042178888985087544 0 0.0002003696119819075 0.04218669846969654 0 1.0825202410054931e-07 0.043063329740492352 0 -2.7111493195042087e-08 0.040983608333675592 0 0.0002003696119819075 0.04218669846969654 0 -2.7111493195042087e-08 0.040983608333675592 0 -3.1094981747822879e-05 0.042157680637751674 0 0.0002003696119819075 0.04218669846969654 0 -3.1094981747822879e-05 0.042157680637751674 0 0.00017335380250750764 0.042412391175228416 0 -0.0004018186414888839 0.042265911312128861 0 -3.1094981747822879e-05 0.042157680637751674 0 -0.00012568016324530603 0.042497870415675675 0 0.0002003696119819075 0.04218669846969654 0 0.00017335380250750764 0.042412391175228416 0 -1.5406516220966785e-05 0.042178888985087544 0 0.00089504315168159924 0.04645533951863795 0 0.00015053412436815964 0.046142550781226727 0 -3.1094981747822879e-05 0.042157680637751674 0 0.00017335380250750764 0.042412391175228416 0 -0.00012568016324530603 0.042497870415675675 0 0.00017335380250750764 0.042412391175228416 0 -0.00012568016324530603 0.042497870415675675 0 -5.2059186333743591e-05 0.042992709475674594 0 0.00089504315168159924 0.04645533951863795 0 0.0010447896051074984 0.046306311005624719 0 -0.00029505124271238123 0.042785416777200692 0 -0.00012568016324530603 0.042497870415675675 0 -5.2059186333743591e-05 0.042992709475674594 0 -0.00030543671233655624 0.043113259333198893 0 -0.00029505124271238123 0.042785416777200692 0 -5.2059186333743591e-05 0.042992709475674594 0 0.0012804590224356615 0.049463899811322404 0 0.0015930418045793046 0.05036729383769107 0 0.0020890745786839512 0.049762650788966703 0 0.0012804590224356615 0.049463899811322404 0 0.00082202054837947705 0.050195322090893335 0 0.00035005246873292514 0.049529274716077695 0 0.0012804590224356615 0.049463899811322404 0 0.0015930418045793046 0.05036729383769107 0 0.00082202054837947705 0.050195322090893335 0 -0.00037081318241529793 0.049336222847676255 0 0.000204410393873151 0.049504837095349988 0 0.00035005246873292514 0.049529274716077695 0 0.00027596442822748387 0.050396258133442298 0 0.00024934059942306259 0.04924914640287742 0 -0.00037081318241529793 0.049336222847676255 0 0.00051417844660917391 0.04833455678223806 0 0.000204410393873151 0.049504837095349988 0 0.0015930418045793046 0.05036729383769107 0 0.00082202054837947705 0.050195322090893335 0 0.0012004406633053242 0.050881065036536596 0 0.00027596442822748387 0.050396258133442298 0 0.00015053412436815964 0.046142550781226727 0 -0.00037081318241529793 0.049336222847676255 0 -0.001596409805419508 0.047657853091883425 0 -0.0003134933980547333 0.048014424248083443 0 -0.001596409805419508 0.047657853091883425 0 -0.0003134933980547333 0.048014424248083443 0 2.1056014802046191e-06 0.046396788360878891 0 -8.9254149798131428e-05 0.046735468577714684 0 0.00030653530871702431 0.048469961754735072 0 -0.00037081318241529793 0.049336222847676255 0 -0.0003134933980547333 0.048014424248083443 0 0.00051417844660917391 0.04833455678223806 0 -0.0003134933980547333 0.048014424248083443 0 2.1056014802046191e-06 0.046396788360878891 0 0.00051417844660917391 0.04833455678223806 0 0.00015053412436815964 0.046142550781226727 0 -5.5965324968311242e-07 0.045137320546937136 0 -0.001596409805419508 0.047657853091883425 0 2.1056014802046191e-06 0.046396788360878891 0 -3.025880213588927e-06 0.045145654193074494 0 -4.4740432434531642e-08 0.043074820216076844 0 2.1200093188433943e-06 0.043968113734696522 0 4.9188916492405859e-08 0.045131613604723973 0 2.1056014802046191e-06 0.046396788360878891 0 1.7691017732691865e-06 0.049995652610343076 0 2.805074127471898e-05 0.048799628307154543 0 2.1056014802046191e-06 0.046396788360878891 0 -3.025880213588927e-06 0.045145654193074494 0 1.7691017732691865e-06 0.049995652610343076 0 1.7691017732691865e-06 0.049995652610343076 0 2.805074127471898e-05 0.048799628307154543 0 4.2923550305462592e-05 0.049665612297892209 0 1.7691017732691865e-06 0.049995652610343076 0 4.2923550305462592e-05 0.049665612297892209 0 -7.8964839822569367e-07 0.05000073385031778 0 0.00030653530871702431 0.048469961754735072 0 0.00023680879943150553 0.049473844733433338 0 0.00051417844660917391 0.04833455678223806 0 0.00046577176951670673 0.049337112761720432 0 0.000204410393873151 0.049504837095349988 0 0.000204410393873151 0.049504837095349988 0 0.00015621438545464423 0.049738707369067492 0 0.00035005246873292514 0.049529274716077695 0 0.00046577176951670673 0.049337112761720432 0 0.000204410393873151 0.049504837095349988 0 0.00015621438545464423 0.049738707369067492 0 0.00046577176951670673 0.049337112761720432 0 1.5995123162701253e-06 0.049999954712563709 0 0.00015621438545464423 0.049738707369067492 0 0.00023680879943150553 0.049473844733433338 0 8.1697704473567379e-08 0.049999747432907339 0 1.5995123162701253e-06 0.049999954712563709 0 -1.7749941558960919e-06 0.049998128396286 0 0.00015621438545464423 0.049738707369067492 0 -1.7749941558960919e-06 0.049998128396286 0 9.5797258040881798e-05 0.049302888688413579 0 0.00015621438545464423 0.049738707369067492 0 -2.1506407027463452e-09 0.050000013199520549 0 5.219061330404013e-07 0.049995957638847087 0 2.6090805346274133e-09 0.049999976890678678 0 -4.002933273730744e-08 0.049999492845882114 0 -0.00011343148293304667 0.049312890272878572 0 -1.7749941558960919e-06 0.049998128396286 0 9.5797258040881798e-05 0.049302888688413579 0 -0.00037058727874710533 0.048436208782039296 0 9.5797258040881798e-05 0.049302888688413579 0 0.00015621438545464423 0.049738707369067492 0 0.00035005246873292514 0.049529274716077695 0 0.0012804590224356615 0.049463899811322404 0 0.00035005246873292514 0.049529274716077695 0 0.0008880569176727823 0.048965294759978767 0 0.0013448053867432393 0.048469166546576972 0 0.0008880569176727823 0.048965294759978767 0 0.00059304573854083217 0.048422201831435953 0 0.0013448053867432393 0.048469166546576972 0 0.0012804590224356615 0.049463899811322404 0 0.0008880569176727823 0.048965294759978767 0 9.5797258040881798e-05 0.049302888688413579 0 0.00035005246873292514 0.049529274716077695 0 0.00059304573854083217 0.048422201831435953 0 0.00035005246873292514 0.049529274716077695 0 0.0008880569176727823 0.048965294759978767 0 0.00059304573854083217 0.048422201831435953 0 0.0014588796447033373 0.047558606045414703 0 0.0013448053867432393 0.048469166546576972 0 0.00059304573854083217 0.048422201831435953 0 0.0014588796447033373 0.047558606045414703 0 0.00059304573854083217 0.048422201831435953 0 0.00093513620570885917 0.047363139083892544 0 0.0013490050580052839 0.046957260992306044 0 0.0014588796447033373 0.047558606045414703 0 0.00093513620570885917 0.047363139083892544 0 0.00059304573854083217 0.048422201831435953 0 0.00093513620570885917 0.047363139083892544 0 0.00017869022756284738 0.047288571218996024 0 9.5797258040881798e-05 0.049302888688413579 0 0.00059304573854083217 0.048422201831435953 0 -0.00037058727874710533 0.048436208782039296 0 0.00059304573854083217 0.048422201831435953 0 0.00017869022756284738 0.047288571218996024 0 -0.00037058727874710533 0.048436208782039296 0 0.00027877977687661983 0.0477506333738539 0 -0.00011343148293304667 0.049312890272878572 0 0.00014991274008510836 0.048773907732343268 0 -0.00019093397552815057 0.048971886785332985 0 -0.00025594294562090661 0.049140115112554783 0 -1.976131151142626e-06 0.049939774926602405 0 -2.5512972676691133e-05 0.049942462697572007 0 7.6456072976794236e-06 0.049909453133887699 0 0.00018165637298914292 0.04868880293507135 0 0.00014991274008510836 0.048773907732343268 0 -0.00019093397552815057 0.048971886785332985 0 1.2939288018174134e-05 0.049414575709558789 0 -8.0591924745938178e-06 0.049706219888932215 0 -2.3603880283075804e-05 0.049996024661853024 0 -8.0591924745938178e-06 0.049706219888932215 0 -2.3058149472424737e-08 0.049999971225306555 0 -3.7200157718721802e-06 0.04999519470109251 0 8.3845025106929081e-09 0.050000002456169847 0 -2.3058149472424737e-08 0.049999971225306555 0 -8.8468720930859902e-06 0.049990501414330847 0 -3.7200157718721802e-06 0.04999519470109251 0 -8.0591924745938178e-06 0.049706219888932215 0 -0.00011343148293304667 0.049312890272878572 0 1.3276396897280947e-05 0.049981114604462584 0 9.8141366783135843e-06 0.049994360774733855 0 5.3878169270145272e-09 0.049999971548832151 0 9.8141366783135843e-06 0.049994360774733855 0 5.3878169270145272e-09 0.049999971548832151 0 -3.9891310402222113e-09 0.050000021115527329 0 -8.0591924745938178e-06 0.049706219888932215 0 -1.0957702073269854e-07 0.050000088144551279 0 -0.00011343148293304667 0.049312890272878572 0 -2.460368157958462e-07 0.050000054862713965 0 0.0091145755253697891 0.014520925013119855 0 0.0098393524725547063 0.014203319408452462 0 0.0087584968571882554 0.013923329771760719 0 0.0081878092261912436 0.0010249107990861974 0 0.0081733056501826773 0.0010437980840094468 0 0.0082194549135124195 0.0010795692929449281 0 0.0081878092261912436 0.0010249107990861974 0 0.0081607970360181008 0.00104623905088578 0 0.0082194549135124195 0.0010795692929449281 0 0.0081878092261912436 0.0010249107990861974 0 0.0081371886681631221 0.00098783010177754416 0 0.0081733056501826773 0.0010437980840094468 0 0.0091145755253697891 0.014520925013119855 0 0.0098393524725547063 0.014203319408452462 0 0.0094845889655110482 0.014904768527191954 0 0.0098393524725547063 0.014203319408452462 0 0.010179911140066542 0.01461808695700108 0 0.0094845889655110482 0.014904768527191954 0 0.0082090835572351632 0.0082747801434276697 0 0.0050106299051119602 0.0089505894001374771 0 0.0081878092261912436 0.0010249107990861974 0 0.0080703814326034129 0.00087083794522549148 0 0.0080075932960939431 0.00057028890767588211 0 0.0081878092261912436 0.0010249107990861974 0 0.0081607970360181008 0.00104623905088578 0 0.0078747003985010725 0.0012983157891799533 0 0.0080799904364179317 0.0010293884668993428 0 0.0081523823224616612 0.00080758423687372026 0 0.0080703814326034129 0.00087083794522549148 0 0.0080170286520800035 0.00088666236862415743 0 0.0079502637010342939 0.0007156186409959525 0 0.0080703814326034129 0.00087083794522549148 0 0.0080170286520800035 0.00088666236862415743 0 0.0081056659020317997 0.00099557147397031243 0 0.0081878092261912436 0.0010249107990861974 0 0.0080703814326034129 0.00087083794522549148 0 0.0081371886681631221 0.00098783010177754416 0 0.0081056659020317997 0.00099557147397031243 0 0.0081371886681631221 0.00098783010177754416 0 0.0081733056501826773 0.0010437980840094468 0 0.0080703814326034129 0.00087083794522549148 0 0.0081056659020317997 0.00099557147397031243 0 0.0081371886681631221 0.00098783010177754416 0 0.0081056659020317997 0.00099557147397031243 0 0.0081603444771385317 0.0011019248950576315 0 0.0079825091515344348 0.0010054211045954686 0 0.0083200500390010427 0.0011236731912866542 0 0.0079825091515344348 0.0010054211045954686 0 0.008202147511512322 0.0012435409709680336 0 0.0081056659020317997 0.00099557147397031243 0 0.0081603444771385317 0.0011019248950576315 0 0.0081733056501826773 0.0010437980840094468 0 0.008136787994620814 0.00073352482455001468 0 0.0080501598590948936 0.0010795709313592813 0 0.0080170286520800035 0.00088666236862415743 0 0.0081056659020317997 0.00099557147397031243 0 0.0079825091515344348 0.0010054211045954686 0 0.0083200500390010427 0.0011236731912866542 0 0.0085895821745750715 0.0012280734647585323 0 0.0085186024111516788 0.0012985344940007518 0 0.008136787994620814 0.00073352482455001468 0 0.0084976490759950569 0.0068243911137200091 0 0.0082090835572351632 0.0082747801434276697 0 0.0084976490759950569 0.0068243911137200091 0 0.0081603444771385317 0.0011019248950576315 0 0.0082194549135124195 0.0010795692929449281 0 0.0083077037763740914 0.0011430483309296381 0 0.0081607970360181008 0.00104623905088578 0 0.0082194549135124195 0.0010795692929449281 0 0.0083077037763740914 0.0011430483309296381 0 0.0081603444771385317 0.0011019248950576315 0 0.0081733056501826773 0.0010437980840094468 0 0.0082194549135124195 0.0010795692929449281 0 0.0086785644304821757 0.012774972822428642 0 0.0083587307263675806 0.013505471959561643 0 0.0087584968571882554 0.013923329771760719 0 0.0084976490759950569 0.0068243911137200091 0 0.0078394769590452735 0.0065068367259137512 0 0.0086785644304821757 0.012774972822428642 0 0.0083587307263675806 0.013505471959561643 0 0.0078841951313436669 0.013437774070996935 0 0.0086785644304821757 0.012774972822428642 0 0.0078841951313436669 0.013437774070996935 0 0.0074618563095373135 0.013158670711144184 0 0.0086785644304821757 0.012774972822428642 0 0.0070590268598684329 0.012626214518961808 0 0.0074618563095373135 0.013158670711144184 0 0.0082155942378875062 0.011820140756048411 0 0.0067116381477150986 0.011799211198704683 0 0.0076078177206748924 0.011537062063861986 0 0.0084976490759950569 0.0068243911137200091 0 0.0069322228386262978 0.012739302699452639 0 0.0078841951313436669 0.013437774070996935 0 0.0074618563095373135 0.013158670711144184 0 0.0074241952630892715 0.013789487334575898 0 0.0074618563095373135 0.013158670711144184 0 0.0074241952630892715 0.013789487334575898 0 0.0068446615467306514 0.013449933094153066 0 0.0070590268598684329 0.012626214518961808 0 0.0074618563095373135 0.013158670711144184 0 0.0068446615467306514 0.013449933094153066 0 0.0074241952630892715 0.013789487334575898 0 0.0068645661059992449 0.014128318850571097 0 0.0068446615467306514 0.013449933094153066 0 0.0078841951313436669 0.013437774070996935 0 0.0074241952630892715 0.013789487334575898 0 0.0080549429141346628 0.014015809782548799 0 0.0074241952630892715 0.013789487334575898 0 0.007593513375565371 0.014624542865964534 0 0.0080549429141346628 0.014015809782548799 0 0.007593513375565371 0.014624542865964534 0 0.0080549429141346628 0.014015809782548799 0 0.0084126751481895176 0.014666486492463455 0 0.007593513375565371 0.014624542865964534 0 0.0068645661059992449 0.014128318850571097 0 0.0065889034751232794 0.014881293358414805 0 0.0074241952630892715 0.013789487334575898 0 0.007593513375565371 0.014624542865964534 0 0.0068645661059992449 0.014128318850571097 0 0.0098393524725547063 0.014203319408452462 0 0.0086785644304821757 0.012774972822428642 0 0.0087584968571882554 0.013923329771760719 0 0.0083587307263675806 0.013505471959561643 0 0.0087584968571882554 0.013923329771760719 0 0.0080549429141346628 0.014015809782548799 0 0.0083587307263675806 0.013505471959561643 0 0.0078841951313436669 0.013437774070996935 0 0.0080549429141346628 0.014015809782548799 0 0.0087584968571882554 0.013923329771760719 0 0.0080549429141346628 0.014015809782548799 0 0.0084126751481895176 0.014666486492463455 0 0.0091145755253697891 0.014520925013119855 0 0.0087584968571882554 0.013923329771760719 0 0.0084126751481895176 0.014666486492463455 0 0.0091145755253697891 0.014520925013119855 0 0.0084126751481895176 0.014666486492463455 0 0.0089501173416406312 0.01506985971836248 0 0.0089501173416406312 0.01506985971836248 0 0.0081518927280296166 0.015484315573868819 0 0.0093601221858079613 0.016100294353196317 0 0.0084126751481895176 0.014666486492463455 0 0.0089501173416406312 0.01506985971836248 0 0.0081518927280296166 0.015484315573868819 0 0.007593513375565371 0.014624542865964534 0 0.0084126751481895176 0.014666486492463455 0 0.0081518927280296166 0.015484315573868819 0 0.007593513375565371 0.014624542865964534 0 0.0073035864095347533 0.01535225887616367 0 0.0065889034751232794 0.014881293358414805 0 0.007593513375565371 0.014624542865964534 0 0.0081518927280296166 0.015484315573868819 0 0.0073035864095347533 0.01535225887616367 0 0.0081518927280296166 0.015484315573868819 0 0.0073035864095347533 0.01535225887616367 0 0.0073494029382757172 0.016115821091562475 0 0.0073035864095347533 0.01535225887616367 0 0.0073494029382757172 0.016115821091562475 0 0.0067053261466165047 0.015711893825790225 0 0.0081518927280296166 0.015484315573868819 0 0.0073494029382757172 0.016115821091562475 0 0.008171372336116622 0.016484291182638212 0 0.0073494029382757172 0.016115821091562475 0 0.008171372336116622 0.016484291182638212 0 0.007413149384247945 0.017031554018144407 0 0.0073494029382757172 0.016115821091562475 0 0.0064277758700538781 0.016520598816459675 0 0.007413149384247945 0.017031554018144407 0 0.008171372336116622 0.016484291182638212 0 0.0093601221858079613 0.016100294353196317 0 0.0085299573964653617 0.017552132050108561 0 0.0081518927280296166 0.015484315573868819 0 0.008171372336116622 0.016484291182638212 0 0.0093601221858079613 0.016100294353196317 0 0.0052044121711865921 0.012753874271497604 0 0.005072694648395909 0.013266129940421201 0 0.0011643178951129128 0.0085826636828729898 0 0.0010337739543710802 0.0085151543171997947 0 0.0010766169346218385 0.0084296284631898647 0 0.0011643178951129128 0.0085826636828729898 0 0.0010587343989489112 0.0086167544950464803 0 0.0010337739543710802 0.0085151543171997947 0 0.0089501173416406312 0.01506985971836248 0 0.0093601221858079613 0.016100294353196317 0 0.0094845889655110482 0.014904768527191954 0 0.0050106299051119602 0.0089505894001374771 0 0.0052044121711865921 0.012753874271497604 0 0.0010950377536238618 0.0087359355455972638 0 0.0011643178951129128 0.0085826636828729898 0 0.0010587343989489112 0.0086167544950464803 0 0.010179911140066542 0.01461808695700108 0 0.0093601221858079613 0.016100294353196317 0 0.0094845889655110482 0.014904768527191954 0 0.0091145755253697891 0.014520925013119855 0 0.0089501173416406312 0.01506985971836248 0 0.0094845889655110482 0.014904768527191954 0 0.0080703814326034129 0.00087083794522549148 0 0.0080075932960939431 0.00057028890767588211 0 0.0079502637010342939 0.0007156186409959525 0 0.0081607970360181008 0.00104623905088578 0 0.0080696985393818466 0.0011302211660747926 0 0.0078747003985010725 0.0012983157891799533 0 0.0050106299051119602 0.0089505894001374771 0 0.0043363117374232004 0.0042765548877660977 0 0.0010950377536238618 0.0087359355455972638 0 0.0010587343989489112 0.0086167544950464803 0 0.00095778848376643164 0.0085943909917357928 0 0.0080696985393818466 0.0011302211660747926 0 0.0078646745259771337 0.0013041580237038173 0 0.0078747003985010725 0.0012983157891799533 0 0.00095778848376643164 0.0085943909917357928 0 0.00096058708883355168 0.0085127882402386643 0 0.00090812843548231808 0.0084654066189494611 0 0.00095778848376643164 0.0085943909917357928 0 0.0010030689727877405 0.0085590062830459036 0 0.00096058708883355168 0.0085127882402386643 0 0.0010587343989489112 0.0086167544950464803 0 0.00095778848376643164 0.0085943909917357928 0 0.0010030689727877405 0.0085590062830459036 0 0.0010587343989489112 0.0086167544950464803 0 0.0010030689727877405 0.0085590062830459036 0 0.0010337739543710802 0.0085151543171997947 0 0.0010030689727877405 0.0085590062830459036 0 0.0010337739543710802 0.0085151543171997947 0 0.00096058708883355168 0.0085127882402386643 0 0.0010337739543710802 0.0085151543171997947 0 0.00096058708883355168 0.0085127882402386643 0 0.0009715523352602449 0.0084701454745622091 0 0.0010337739543710802 0.0085151543171997947 0 0.0009715523352602449 0.0084701454745622091 0 0.0009764198998374853 0.0084152965802952 0 0.0009715523352602449 0.0084701454745622091 0 0.00093953010215513412 0.0084597684846644643 0 0.00094676347224539761 0.0084277376692666033 0 0.00096058708883355168 0.0085127882402386643 0 0.0009715523352602449 0.0084701454745622091 0 0.00093953010215513412 0.0084597684846644643 0 0.00096058708883355168 0.0085127882402386643 0 0.00093953010215513412 0.0084597684846644643 0 0.00090812843548231808 0.0084654066189494611 0 0.00093953010215513412 0.0084597684846644643 0 0.00090812843548231808 0.0084654066189494611 0 0.00091704664530073334 0.0084189375485230044 0 0.00095778848376643164 0.0085943909917357928 0 0.00090812843548231808 0.0084654066189494611 0 0.00081490165105871089 0.0083911296394170512 0 0.0078646745259771337 0.0013041580237038173 0 0.0077872603137901595 0.0013204780215529195 0 0.0077116627618720249 0.0013339024526219624 0 0.0043363117374232004 0.0042765548877660977 0 0.0027101496042880235 0.0064760465779646753 0 0.0081523823224616612 0.00080758423687372026 0 0.0062541154796255521 0.0018129644300500379 0 0.0078747003985010725 0.0012983157891799533 0 0.0077872603137901595 0.0013204780215529195 0 0.0077008729071777228 0.0013427205450064392 0 0.0080075932960939431 0.00057028890767588211 0 0.0078296111061018116 0.00043937026728466279 0 0.0077280448702281958 0.00031228571271307105 0 0.0078646745259771337 0.0013041580237038173 0 0.0078747003985010725 0.0012983157891799533 0 0.0077872603137901595 0.0013204780215529195 0 0.0078296111061018116 0.00043937026728466279 0 0.0077572826405303569 0.00042728380904451187 0 0.0078049961574709215 0.00051057661890070163 0 0.0078296111061018116 0.00043937026728466279 0 0.0078867857095174538 0.00052443394168790499 0 0.0078049961574709215 0.00051057661890070163 0 0.0078296111061018116 0.00043937026728466279 0 0.0077652691823846941 0.00038678184359526081 0 0.0077572826405303569 0.00042728380904451187 0 0.0077872603137901595 0.0013204780215529195 0 0.0077008729071777228 0.0013427205450064392 0 0.0077116627618720249 0.0013339024526219624 0 0.0078296111061018116 0.00043937026728466279 0 0.0077280448702281958 0.00031228571271307105 0 0.0077652691823846941 0.00038678184359526081 0 0.0077280448702281958 0.00031228571271307105 0 0.0076980694457648409 0.00034233881011826948 0 0.0077372445801880338 0.00036713153263601399 0 0.0067114039897743887 0.00025389394800084058 0 0.0069178685572502787 7.8781974785171476e-05 0 0.006859256661726809 0.00050036042556264419 0 0.0077280448702281958 0.00031228571271307105 0 0.0077372445801880338 0.00036713153263601399 0 0.0077652691823846941 0.00038678184359526081 0 0.0060694614093385066 0.0017120790149827308 0 0.006107721900752529 0.0016769470546977099 0 0.0061028552975272675 0.0017499774013185838 0 0.0068082839524743121 0.00085946724464325015 0 0.0056644142570824842 0.0020260060347538095 0 0.0062541154796255521 0.0018129644300500379 0 0.0068082839524743121 0.00085946724464325015 0 0.0076980694457648409 0.00034233881011826948 0 0.0077372445801880338 0.00036713153263601399 0 0.0077572826405303569 0.00042728380904451187 0 0.0077372445801880338 0.00036713153263601399 0 0.0077652691823846941 0.00038678184359526081 0 0.0077572826405303569 0.00042728380904451187 0 0.0068082839524743121 0.00085946724464325015 0 0.007409079712583787 -0.00020271591404623951 0 0.0077008166706944298 0.00044112583445789742 0 0.0076654591695582723 0.00052747680375807944 0 0.0076307273499255316 0.00050474058017916268 0 0.0077008166706944298 0.00044112583445789742 0 0.0077069332377634817 0.00052972961426629587 0 0.0076654591695582723 0.00052747680375807944 0 0.0076980694457648409 0.00034233881011826948 0 0.0077572826405303569 0.00042728380904451187 0 0.0077069332377634817 0.00052972961426629587 0 0.0068082839524743121 0.00085946724464325015 0 0.0076170336189933891 0.00036375447165486684 0 0.0077572826405303569 0.00042728380904451187 0 0.0077069332377634817 0.00052972961426629587 0 0.0078049961574709215 0.00051057661890070163 0 0.0077069332377634817 0.00052972961426629587 0 0.0077588379875237765 0.00059643317001730931 0 0.0078049961574709215 0.00051057661890070163 0 0.0076654591695582723 0.00052747680375807944 0 0.0076659210756804246 0.00061276894262545293 0 0.0076286588247588992 0.0005343721528147258 0 0.0077069332377634817 0.00052972961426629587 0 0.0076654591695582723 0.00052747680375807944 0 0.0076659210756804246 0.00061276894262545293 0 0.0076659210756804246 0.00061276894262545293 0 0.0077588379875237765 0.00059643317001730931 0 0.0078090698331242702 0.00068861719839329819 0 0.0077069332377634817 0.00052972961426629587 0 0.0076659210756804246 0.00061276894262545293 0 0.0077588379875237765 0.00059643317001730931 0 0.0077588379875237765 0.00059643317001730931 0 0.0078543207495696803 0.00059249332663599314 0 0.0078090698331242702 0.00068861719839329819 0 0.0079502637010342939 0.0007156186409959525 0 0.0078543207495696803 0.00059249332663599314 0 0.0078090698331242702 0.00068861719839329819 0 0.0080075932960939431 0.00057028890767588211 0 0.0079502637010342939 0.0007156186409959525 0 0.0079253071986938473 0.00058581354680042202 0 0.0079502637010342939 0.0007156186409959525 0 0.0079253071986938473 0.00058581354680042202 0 0.0078543207495696803 0.00059249332663599314 0 0.0079253071986938473 0.00058581354680042202 0 0.0078867857095174538 0.00052443394168790499 0 0.0078543207495696803 0.00059249332663599314 0 0.0080075932960939431 0.00057028890767588211 0 0.0079253071986938473 0.00058581354680042202 0 0.0078867857095174538 0.00052443394168790499 0 0.0080075932960939431 0.00057028890767588211 0 0.0078296111061018116 0.00043937026728466279 0 0.0078867857095174538 0.00052443394168790499 0 0.0078867857095174538 0.00052443394168790499 0 0.0078049961574709215 0.00051057661890070163 0 0.0078543207495696803 0.00059249332663599314 0 0.0077588379875237765 0.00059643317001730931 0 0.0078049961574709215 0.00051057661890070163 0 0.0078543207495696803 0.00059249332663599314 0 0.0068740227766922821 -0.00074033873090928535 0 0.0070098548389468714 -0.00059029515769211968 0 0.0067401993934601903 -0.00061673828179762173 0 0.0067491076799278986 -0.00089523369385402637 0 0.0067401993934601903 -0.00061673828179762173 0 0.006476776933549447 -0.00066750427450406442 0 0.0067491076799278986 -0.00089523369385402637 0 0.0068740227766922821 -0.00074033873090928535 0 0.0067401993934601903 -0.00061673828179762173 0 0.0067491076799278986 -0.00089523369385402637 0 0.0067218015145489984 -0.0011543989969511244 0 0.0064883548297283034 -0.0009497192517214846 0 0.0067491076799278986 -0.00089523369385402637 0 0.0067218015145489984 -0.0011543989969511244 0 0.0069656679787793154 -0.0011368047166323959 0 0.0069656679787793154 -0.0011368047166323959 0 0.0070170056586611974 -0.00086604736117541856 0 0.0071977630633311349 -0.0010751227908685262 0 0.0067491076799278986 -0.00089523369385402637 0 0.0069656679787793154 -0.0011368047166323959 0 0.0070170056586611974 -0.00086604736117541856 0 0.0070170056586611974 -0.00086604736117541856 0 0.0071491759555391485 -0.00072201646439582856 0 0.0070098548389468714 -0.00059029515769211968 0 0.0067491076799278986 -0.00089523369385402637 0 0.0070170056586611974 -0.00086604736117541856 0 0.0068740227766922821 -0.00074033873090928535 0 0.0070170056586611974 -0.00086604736117541856 0 0.0068740227766922821 -0.00074033873090928535 0 0.0070098548389468714 -0.00059029515769211968 0 0.007409079712583787 -0.00020271591404623951 0 0.0064470528361095453 -0.00024591984745813003 0 0.0073861542717441053 -0.0010144855848245502 0 0.0075814973820978616 -0.00072721501653103232 0 0.0075586112298956362 -0.0015178875338455191 0 0.0073694296612913613 -0.00074764561784812348 0 0.0072659760281896342 -0.00086570515468505267 0 0.0073861542717441053 -0.0010144855848245502 0 0.0071491759555391485 -0.00072201646439582856 0 0.0073694296612913613 -0.00074764561784812348 0 0.0072635160749043902 -0.00060087427840374694 0 0.0071491759555391485 -0.00072201646439582856 0 0.0072635160749043902 -0.00060087427840374694 0 0.0070098548389468714 -0.00059029515769211968 0 0.0071491759555391485 -0.00072201646439582856 0 0.0073694296612913613 -0.00074764561784812348 0 0.0072659760281896342 -0.00086570515468505267 0 0.0070170056586611974 -0.00086604736117541856 0 0.0071491759555391485 -0.00072201646439582856 0 0.0072659760281896342 -0.00086570515468505267 0 0.0071977630633311349 -0.0010751227908685262 0 0.0073861542717441053 -0.0010144855848245502 0 0.0073403810421750395 -0.0012697927223661646 0 0.0070170056586611974 -0.00086604736117541856 0 0.0072659760281896342 -0.00086570515468505267 0 0.0071977630633311349 -0.0010751227908685262 0 0.0072659760281896342 -0.00086570515468505267 0 0.0071977630633311349 -0.0010751227908685262 0 0.0073861542717441053 -0.0010144855848245502 0 0.0073694296612913613 -0.00074764561784812348 0 0.0075947355620148904 -0.00059575915247595966 0 0.0072635160749043902 -0.00060087427840374694 0 0.0073861542717441053 -0.0010144855848245502 0 0.0075814973820978616 -0.00072721501653103232 0 0.0075947355620148904 -0.00059575915247595966 0 0.0073694296612913613 -0.00074764561784812348 0 0.0073861542717441053 -0.0010144855848245502 0 0.0075947355620148904 -0.00059575915247595966 0 0.0076654591695582723 0.00052747680375807944 0 0.0076307273499255316 0.00050474058017916268 0 0.0076286588247588992 0.0005343721528147258 0 0.007409079712583787 -0.00020271591404623951 0 0.0075050633832650726 -3.5365560618452273e-05 0 0.0076659210756804246 0.00061276894262545293 0 0.0076286588247588992 0.0005343721528147258 0 0.0075079572013407531 0.00065420297261345624 0 0.0075947355620148904 -0.00059575915247595966 0 0.0071467580720617676 -9.682277397215453e-05 0 0.0075079572013407531 0.00065420297261345624 0 0.0075947355620148904 -0.00059575915247595966 0 0.0071574023925574702 -0.00040525028655560082 0 0.0072635160749043902 -0.00060087427840374694 0 0.0075947355620148904 -0.00059575915247595966 0 0.0071574023925574702 -0.00040525028655560082 0 0.0071467580720617676 -9.682277397215453e-05 0 0.0071574023925574702 -0.00040525028655560082 0 0.0072635160749043902 -0.00060087427840374694 0 0.0070098548389468714 -0.00059029515769211968 0 0.0070098548389468714 -0.00059029515769211968 0 0.0069560673022657591 -0.00039317085194179151 0 0.0067401993934601903 -0.00061673828179762173 0 0.0071574023925574702 -0.00040525028655560082 0 0.0070098548389468714 -0.00059029515769211968 0 0.0069560673022657591 -0.00039317085194179151 0 0.0069560673022657591 -0.00039317085194179151 0 0.0071467580720617676 -9.682277397215453e-05 0 0.0067402046540699931 -0.00024282188592570541 0 0.0071574023925574702 -0.00040525028655560082 0 0.0069560673022657591 -0.00039317085194179151 0 0.0071467580720617676 -9.682277397215453e-05 0 0.0067402046540699931 -0.00024282188592570541 0 0.0067401993934601903 -0.00061673828179762173 0 0.0064992373468249834 -0.00040604553154771546 0 0.0069560673022657591 -0.00039317085194179151 0 0.0067402046540699931 -0.00024282188592570541 0 0.0067401993934601903 -0.00061673828179762173 0 0.0071467580720617676 -9.682277397215453e-05 0 0.00679121447016349 0.00026627015265424817 0 0.0075079572013407531 0.00065420297261345624 0 0.0071467580720617676 -9.682277397215453e-05 0 0.0067402046540699931 -0.00024282188592570541 0 0.00679121447016349 0.00026627015265424817 0 0.0075050633832650726 -3.5365560618452273e-05 0 0.007543528316513377 0.00063673682317391146 0 0.0075079572013407531 0.00065420297261345624 0 0.0070374085165558851 0.00080824176998187439 0 0.0074141587874842329 0.0011660851241098423 0 0.0075079572013407531 0.00065420297261345624 0 0.0077684695223019318 0.0010773497092624418 0 0.0074141587874842329 0.0011660851241098423 0 0.00679121447016349 0.00026627015265424817 0 0.0075079572013407531 0.00065420297261345624 0 0.0070374085165558851 0.00080824176998187439 0 0.0070374085165558851 0.00080824176998187439 0 0.006841420538619792 0.0011703766436178427 0 0.0066303398665087396 0.00065370927828514551 0 0.00679121447016349 0.00026627015265424817 0 0.0070374085165558851 0.00080824176998187439 0 0.0066303398665087396 0.00065370927828514551 0 0.0079045997920840754 0.00081603659063201098 0 0.007772739457367255 0.00079091879644742412 0 0.0079825091515344348 0.0010054211045954686 0 0.0080170286520800035 0.00088666236862415743 0 0.0079045997920840754 0.00081603659063201098 0 0.0079825091515344348 0.0010054211045954686 0 0.0080170286520800035 0.00088666236862415743 0 0.0079502637010342939 0.0007156186409959525 0 0.0079045997920840754 0.00081603659063201098 0 0.0079502637010342939 0.0007156186409959525 0 0.0079045997920840754 0.00081603659063201098 0 0.0078090698331242702 0.00068861719839329819 0 0.0079045997920840754 0.00081603659063201098 0 0.0078090698331242702 0.00068861719839329819 0 0.007772739457367255 0.00079091879644742412 0 0.0076659210756804246 0.00061276894262545293 0 0.0078090698331242702 0.00068861719839329819 0 0.007772739457367255 0.00079091879644742412 0 0.0076659210756804246 0.00061276894262545293 0 0.0075079572013407531 0.00065420297261345624 0 0.007772739457367255 0.00079091879644742412 0 0.0075079572013407531 0.00065420297261345624 0 0.007772739457367255 0.00079091879644742412 0 0.0077684695223019318 0.0010773497092624418 0 0.0077684695223019318 0.0010773497092624418 0 0.0079825091515344348 0.0010054211045954686 0 0.0080041202444717883 0.0013026680554052402 0 0.007772739457367255 0.00079091879644742412 0 0.0077684695223019318 0.0010773497092624418 0 0.0079825091515344348 0.0010054211045954686 0 0.0077684695223019318 0.0010773497092624418 0 0.0080041202444717883 0.0013026680554052402 0 0.0078324708652492657 0.0015707359879524303 0 0.0079825091515344348 0.0010054211045954686 0 0.0080041202444717883 0.0013026680554052402 0 0.008202147511512322 0.0012435409709680336 0 0.0077684695223019318 0.0010773497092624418 0 0.0078324708652492657 0.0015707359879524303 0 0.0074141587874842329 0.0011660851241098423 0 0.0075614623558298462 0.0020313084859973712 0 0.0072433682540070333 0.0018748279816643773 0 0.007490532788679281 0.0020588821454221042 0 0.0076203462799753633 0.0019341516121823212 0 0.008054402282420093 0.00099465532112638796 0 0.0080041202444717883 0.0013026680554052402 0 0.0078324708652492657 0.0015707359879524303 0 0.0082391793283090754 0.0014303371071301891 0 0.0075614623558298462 0.0020313084859973712 0 0.0075789221833551246 0.0021268001574208674 0 0.0075747286323907554 0.0021978350326072849 0 0.006841420538619792 0.0011703766436178427 0 0.0074141587874842329 0.0011660851241098423 0 0.0072951319994154036 0.0015010925905181937 0 0.006841420538619792 0.0011703766436178427 0 0.0072951319994154036 0.0015010925905181937 0 0.0069778124043695976 0.0016381132512134366 0 0.0070374085165558851 0.00080824176998187439 0 0.006841420538619792 0.0011703766436178427 0 0.0074141587874842329 0.0011660851241098423 0 0.006841420538619792 0.0011703766436178427 0 0.0069778124043695976 0.0016381132512134366 0 0.0066746924976727236 0.0014577143329638788 0 0.0078324708652492657 0.0015707359879524303 0 0.0074141587874842329 0.0011660851241098423 0 0.0072951319994154036 0.0015010925905181937 0 0.0078324708652492657 0.0015707359879524303 0 0.0072951319994154036 0.0015010925905181937 0 0.0072433682540070333 0.0018748279816643773 0 0.0076203462799753633 0.0019341516121823212 0 0.0072776626028315779 0.001839624370842114 0 0.0072951319994154036 0.0015010925905181937 0 0.0072433682540070333 0.0018748279816643773 0 0.0069778124043695976 0.0016381132512134366 0 0.0072433682540070333 0.0018748279816643773 0 0.0069778124043695976 0.0016381132512134366 0 0.0070303606229405518 0.0019797574155974843 0 0.0069778124043695976 0.0016381132512134366 0 0.0070303606229405518 0.0019797574155974843 0 0.006742594461269273 0.0017969611503232425 0 0.0070743519798266898 0.0019950839075497774 0 0.0076673889012466665 0.0021702019917124423 0 0.0072433682540070333 0.0018748279816643773 0 0.0070303606229405518 0.0019797574155974843 0 0.0073696265857881946 0.0020556759683773239 0 0.0070303606229405518 0.0019797574155974843 0 0.0073660379098786765 0.0024381454139749425 0 0.0079528870866939372 0.0022669073572321018 0 0.0070649364955250021 0.0024622361446196735 0 0.0070303606229405518 0.0019797574155974843 0 0.0067582997132742016 0.0021625419296068733 0 0.0070649364955250021 0.0024622361446196735 0 0.0070303606229405518 0.0019797574155974843 0 0.0073660379098786765 0.0024381454139749425 0 0.0070649364955250021 0.0024622361446196735 0 0.0073660379098786765 0.0024381454139749425 0 0.0073762641489095145 0.0027091653297199717 0 0.0072433682540070333 0.0018748279816643773 0 0.0073696265857881946 0.0020556759683773239 0 0.007490532788679281 0.0020588821454221042 0 0.0073660379098786765 0.0024381454139749425 0 0.0079528870866939372 0.0022669073572321018 0 0.0076816999473844141 0.0026513350960683186 0 0.0079528870866939372 0.0022669073572321018 0 0.0080022694826184116 0.0028513599023963694 0 0.0076816999473844141 0.0026513350960683186 0 0.0080022694826184116 0.0028513599023963694 0 0.0083634435529511934 0.0028009641857774993 0 0.0082627415322441486 0.0031506617509993754 0 0.0079528870866939372 0.0022669073572321018 0 0.0080022694826184116 0.0028513599023963694 0 0.0083634435529511934 0.0028009641857774993 0 0.0080022694826184116 0.0028513599023963694 0 0.0079711592842345164 0.0032297307674243108 0 0.0082627415322441486 0.0031506617509993754 0 0.0081804922513327178 0.0035203659991975421 0 0.0079711592842345164 0.0032297307674243108 0 0.0082627415322441486 0.0031506617509993754 0 0.007706246503861155 0.0032926461233218881 0 0.0079711592842345164 0.0032297307674243108 0 0.0077089164323780992 0.0029634319703068682 0 0.0080022694826184116 0.0028513599023963694 0 0.0079711592842345164 0.0032297307674243108 0 0.0077089164323780992 0.0029634319703068682 0 0.0080022694826184116 0.0028513599023963694 0 0.0077089164323780992 0.0029634319703068682 0 0.0076816999473844141 0.0026513350960683186 0 0.0073660379098786765 0.0024381454139749425 0 0.0076816999473844141 0.0026513350960683186 0 0.0073762641489095145 0.0027091653297199717 0 0.0077089164323780992 0.0029634319703068682 0 0.0076816999473844141 0.0026513350960683186 0 0.0073762641489095145 0.0027091653297199717 0 0.0077089164323780992 0.0029634319703068682 0 0.0073762641489095145 0.0027091653297199717 0 0.0075146654082773696 0.0031165531078970487 0 0.0073762641489095145 0.0027091653297199717 0 0.0075146654082773696 0.0031165531078970487 0 0.0070988780921806341 0.0029376969646451702 0 0.007706246503861155 0.0032926461233218881 0 0.0077089164323780992 0.0029634319703068682 0 0.0075146654082773696 0.0031165531078970487 0 0.0070909289827199556 0.0033167241471968411 0 0.0070988780921806341 0.0029376969646451702 0 0.0072623784287411926 0.00317332362154994 0 0.0075146654082773696 0.0031165531078970487 0 0.0070988780921806341 0.0029376969646451702 0 0.0072623784287411926 0.00317332362154994 0 0.0070649364955250021 0.0024622361446196735 0 0.0070988780921806341 0.0029376969646451702 0 0.0067571293671555774 0.0026177598765322195 0 0.0070649364955250021 0.0024622361446196735 0 0.0073762641489095145 0.0027091653297199717 0 0.0070988780921806341 0.0029376969646451702 0 0.007577313789799406 0.0021084778126342118 0 0.0075427651858049156 0.002126925422279359 0 0.0075946173079993453 0.0021183247048075205 0 0.0080161567343788546 0.0022127036002600529 0 0.0089907297787819116 0.0039879475111231624 0 0.0075614623558298462 0.0020313084859973712 0 0.007577313789799406 0.0021084778126342118 0 0.0075789221833551246 0.0021268001574208674 0 0.007577313789799406 0.0021084778126342118 0 0.0075946173079993453 0.0021183247048075205 0 0.0075789221833551246 0.0021268001574208674 0 0.0079528870866939372 0.0022669073572321018 0 0.0087281279838081292 0.0025266694321703156 0 0.0083634435529511934 0.0028009641857774993 0 0.0076673889012466665 0.0021702019917124423 0 0.0080161567343788546 0.0022127036002600529 0 0.007577313789799406 0.0021084778126342118 0 0.007490532788679281 0.0020588821454221042 0 0.0075427651858049156 0.002126925422279359 0 0.0073696265857881946 0.0020556759683773239 0 0.007490532788679281 0.0020588821454221042 0 0.0075427651858049156 0.002126925422279359 0 0.0075614623558298462 0.0020313084859973712 0 0.007577313789799406 0.0021084778126342118 0 0.007490532788679281 0.0020588821454221042 0 0.0087281279838081292 0.0025266694321703156 0 0.0087100555941533059 0.0029072784619087045 0 0.0083634435529511934 0.0028009641857774993 0 0.0087100555941533059 0.0029072784619087045 0 0.0083634435529511934 0.0028009641857774993 0 0.0085368980463880889 0.003112463291720689 0 0.0087281279838081292 0.0025266694321703156 0 0.0087100555941533059 0.0029072784619087045 0 0.0090737197921913655 0.0030173542014101102 0 0.0083634435529511934 0.0028009641857774993 0 0.0082627415322441486 0.0031506617509993754 0 0.0085368980463880889 0.003112463291720689 0 0.008474654911901516 0.0034137564851767408 0 0.0082627415322441486 0.0031506617509993754 0 0.0085368980463880889 0.003112463291720689 0 0.0087125626388305216 0.0037051504280095058 0 0.0087038446678631594 0.003227078313344484 0 0.0090737197921913655 0.0030173542014101102 0 0.0087100555941533059 0.0029072784619087045 0 0.0087038446678631594 0.003227078313344484 0 0.0090737197921913655 0.0030173542014101102 0 0.0087100555941533059 0.0029072784619087045 0 0.0085368980463880889 0.003112463291720689 0 0.0087038446678631594 0.003227078313344484 0 0.008474654911901516 0.0034137564851767408 0 0.0085368980463880889 0.003112463291720689 0 0.0087038446678631594 0.003227078313344484 0 0.0090624813155056709 0.0032051442406927999 0 0.0089907297787819116 0.0039879475111231624 0 0.0092569044480813011 0.003489921533447727 0 0.0087125626388305216 0.0037051504280095058 0 0.0095469025325721733 0.0028762297000021909 0 0.0087125626388305216 0.0037051504280095058 0 0.0090737197921913655 0.0030173542014101102 0 0.009645171653798211 0.0027458024998853856 0 0.0087281279838081292 0.0025266694321703156 0 0.0090737197921913655 0.0030173542014101102 0 0.009645171653798211 0.0027458024998853856 0 0.0092569044480813011 0.003489921533447727 0 0.0098924048181432394 0.0029775312135594477 0 0.0095469025325721733 0.0028762297000021909 0 0.0072181652369987751 0.0055128727994591328 0 0.0079494775279658238 0.0053954061627372483 0 0.0070743047311958461 0.0062550173622480726 0 0.0086726821829787772 0.0042960204622475009 0 0.0082624073788208387 0.0056870566161817335 0 0.0066703174622129617 0.0056793167039920975 0 0.0072181652369987751 0.0055128727994591328 0 0.0070743047311958461 0.0062550173622480726 0 0.0088925929722671361 0.0065579158861778543 0 0.0096221330363386488 0.006740028158679085 0 0.0084996038343286701 0.0073811831259598922 0 0.0082624073788208387 0.0056870566161817335 0 0.0089907297787819116 0.0039879475111231624 0 0.0081874040423187203 0.0073553724303157264 0 0.0071677357650795481 0.0082025817654442813 0 0.0068875126151971633 0.007030294594926976 0 0.0066703174622129617 0.0056793167039920975 0 0.0070743047311958461 0.0062550173622480726 0 0.0058802649312674265 0.0060325455814094755 0 0.0082624073788208387 0.0056870566161817335 0 0.006287158232354542 0.0066229326250316408 0 0.0088925929722671361 0.0065579158861778543 0 0.0074525789424014924 0.0078092979699058811 0 0.0084996038343286701 0.0073811831259598922 0 0.0082624073788208387 0.0056870566161817335 0 0.0072643617179225742 0.0081725614951234943 0 0.0074525789424014924 0.0078092979699058811 0 0.0084996038343286701 0.0073811831259598922 0 0.0080436156248958248 0.0084186293247135516 0 0.0096221330363386488 0.006740028158679085 0 0.0084996038343286701 0.0073811831259598922 0 0.0080436156248958248 0.0084186293247135516 0 0.0075946173079993453 0.0021183247048075205 0 0.0075789221833551246 0.0021268001574208674 0 0.0075168080561502509 0.0021449910892291555 0 0.0089907297787819116 0.0039879475111231624 0 0.0075874518961614248 0.005235060616233596 0 0.0075789221833551246 0.0021268001574208674 0 0.0075747286323907554 0.0021978350326072849 0 0.0075168080561502509 0.0021449910892291555 0 0.0080436156248958248 0.0084186293247135516 0 0.0065330929106775784 0.0099319601710893858 0 0.0069896164753438204 0.0088721703458909361 0 0.0075747286323907554 0.0021978350326072849 0 0.0075168080561502509 0.0021449910892291555 0 0.0073622222507444546 0.0023691626290243627 0 0.0075874518961614248 0.005235060616233596 0 0.0078202468997457652 0.0071150553754378114 0 0.0074525789424014924 0.0078092979699058811 0 0.0080436156248958248 0.0084186293247135516 0 0.0069896164753438204 0.0088721703458909361 0 0.0083200500390010427 0.0011236731912866542 0 0.0084230291701390923 0.0013193164795446979 0 0.0085186024111516788 0.0012985344940007518 0 0.0083200500390010427 0.0011236731912866542 0 0.0084230291701390923 0.0013193164795446979 0 0.008202147511512322 0.0012435409709680336 0 0.0082391793283090754 0.0014303371071301891 0 0.0084230291701390923 0.0013193164795446979 0 0.0086120141405818199 0.0013963360998464169 0 0.008054402282420093 0.00099465532112638796 0 0.0078202468997457652 0.0071150553754378114 0 0.0084230291701390923 0.0013193164795446979 0 0.0085186024111516788 0.0012985344940007518 0 0.0085690430292746245 0.001349341351867176 0 0.0082391793283090754 0.0014303371071301891 0 0.0084230291701390923 0.0013193164795446979 0 0.008202147511512322 0.0012435409709680336 0 0.0080041202444717883 0.0013026680554052402 0 0.0082391793283090754 0.0014303371071301891 0 0.008202147511512322 0.0012435409709680336 0 0.0067116381477150986 0.011799211198704683 0 0.0076078177206748924 0.011537062063861986 0 0.0077887203113299651 0.011331700481423701 0 0.0065330929106775784 0.0099319601710893858 0 0.0064194292006179285 0.0094155276013226496 0 0.0050912488984443871 0.0093449536501123646 0 0.0067116381477150986 0.011799211198704683 0 0.0077887203113299651 0.011331700481423701 0 0.0062460495228177024 0.011570561590095873 0 0.0079198804005895171 0.011148126123538918 0 0.0062460495228177024 0.011570561590095873 0 0.0065860783056365963 0.010694259497103172 0 0.0078202468997457652 0.0071150553754378114 0 0.0062747735801691427 0.012668386517707426 0 0.0078202468997457652 0.0071150553754378114 0 0.0058485827515074315 0.010407260387540878 0 0.0077887203113299651 0.011331700481423701 0 0.0080808283738036529 0.010986935066781963 0 0.0062460495228177024 0.011570561590095873 0 0.0085895821745750715 0.0012280734647585323 0 0.0086690604102344429 0.0013445276245856524 0 0.0085972424821856332 0.0013300310999074655 0 0.0082155942378875062 0.011820140756048411 0 0.0076078177206748924 0.011537062063861986 0 0.0077839938018409004 0.011340713456171825 0 0.0070075896482772113 0.008104341552604713 0 0.0078394769590452735 0.0065068367259137512 0 0.0086253777069608944 0.001352056898183393 0 0.0086690604102344429 0.0013445276245856524 0 0.0085972424821856332 0.0013300310999074655 0 0.0086168634159926177 0.0013732358273828541 0 0.0086690604102344429 0.0013445276245856524 0 0.0086120141405818199 0.0013963360998464169 0 0.0086253777069608944 0.001352056898183393 0 0.0086168634159926177 0.0013732358273828541 0 0.0086690604102344429 0.0013445276245856524 0 0.0078394769590452735 0.0065068367259137512 0 0.0078202468997457652 0.0071150553754378114 0 0.0086253777069608944 0.001352056898183393 0 0.0086168634159926177 0.0013732358273828541 0 0.0085972424821856332 0.0013300310999074655 0 0.0086168634159926177 0.0013732358273828541 0 0.0085912437925372859 0.0013670066447191115 0 0.0086120141405818199 0.0013963360998464169 0 0.0084230291701390923 0.0013193164795446979 0 0.0085690430292746245 0.001349341351867176 0 0.0086120141405818199 0.0013963360998464169 0 0.0085895821745750715 0.0012280734647585323 0 0.0085186024111516788 0.0012985344940007518 0 0.0085972424821856332 0.0013300310999074655 0 0.0085186024111516788 0.0012985344940007518 0 0.0085972424821856332 0.0013300310999074655 0 0.0085690430292746245 0.001349341351867176 0 0.0085972424821856332 0.0013300310999074655 0 0.0085912437925372859 0.0013670066447191115 0 0.0085690430292746245 0.001349341351867176 0 0.0086168634159926177 0.0013732358273828541 0 0.0085972424821856332 0.0013300310999074655 0 0.0085912437925372859 0.0013670066447191115 0 0.0085912437925372859 0.0013670066447191115 0 0.0085690430292746245 0.001349341351867176 0 0.0086120141405818199 0.0013963360998464169 0 0.0074525789424014924 0.0078092979699058811 0 0.0061767631042690119 0.009013919245361093 0 0.0069896164753438204 0.0088721703458909361 0 0.0072643617179225742 0.0081725614951234943 0 0.0062877626403634599 0.0088839643860234106 0 0.0061767631042690119 0.009013919245361093 0 0.0064194292006179285 0.0094155276013226496 0 0.0069896164753438204 0.0088721703458909361 0 0.0065330929106775784 0.0099319601710893858 0 0.0064194292006179285 0.0094155276013226496 0 0.0069896164753438204 0.0088721703458909361 0 0.0061767631042690119 0.009013919245361093 0 0.0064194292006179285 0.0094155276013226496 0 0.0050912488984443871 0.0093449536501123646 0 0.0061767631042690119 0.009013919245361093 0 0.0051578387056270955 0.0085750402070810493 0 0.0050912488984443871 0.0093449536501123646 0 0.0051578387056270955 0.0085750402070810493 0 0.0060419930392862468 0.0078737637471134759 0 0.0046978931070379331 0.0077198953736289837 0 0.0061767631042690119 0.009013919245361093 0 0.0051578387056270955 0.0085750402070810493 0 0.0060419930392862468 0.0078737637471134759 0 0.0071677357650795481 0.0082025817654442813 0 0.0060419930392862468 0.0078737637471134759 0 0.0068875126151971633 0.007030294594926976 0 0.0071677357650795481 0.0082025817654442813 0 0.0061767631042690119 0.009013919245361093 0 0.0060419930392862468 0.0078737637471134759 0 0.0052024356115854585 0.0063345755374052716 0 0.006287158232354542 0.0066229326250316408 0 0.0055825454662989148 0.0066773466915048263 0 0.0060419930392862468 0.0078737637471134759 0 0.0068875126151971633 0.007030294594926976 0 0.0055825454662989148 0.0066773466915048263 0 0.0060419930392862468 0.0078737637471134759 0 0.0046978931070379331 0.0077198953736289837 0 0.0041056750226101009 0.0062734273030763017 0 0.0055825454662989148 0.0066773466915048263 0 0.0046978931070379331 0.0077198953736289837 0 0.0051578387056270955 0.0085750402070810493 0 0.0046978931070379331 0.0077198953736289837 0 0.0038664396314072877 0.0089117001817172244 0 0.0046978931070379331 0.0077198953736289837 0 0.0035337911583057163 0.0074718110927295212 0 0.0038664396314072877 0.0089117001817172244 0 0.0041056750226101009 0.0062734273030763017 0 0.0046978931070379331 0.0077198953736289837 0 0.0035337911583057163 0.0074718110927295212 0 0.0035337911583057163 0.0074718110927295212 0 0.0026787758268742657 0.0071699161194244765 0 0.0027945816908939614 0.0085995531104366627 0 0.0017447907422496207 0.0071925700222385622 0 0.0026787758268742657 0.0071699161194244765 0 0.0019172833319338702 0.0087299752481288934 0 0.0026787758268742657 0.0071699161194244765 0 0.0027945816908939614 0.0085995531104366627 0 0.0019172833319338702 0.0087299752481288934 0 0.0037305359259651042 0.0095387980059738059 0 0.0019172833319338702 0.0087299752481288934 0 0.0022912169156145833 0.010385158853788309 0 0.0032251192986376405 0.0090779452586774619 0 0.0019858439016740117 0.0087162123543904641 0 0.0035337911583057163 0.0074718110927295212 0 0.0027945816908939614 0.0085995531104366627 0 0.0038664396314072877 0.0089117001817172244 0 0.0032251192986376405 0.0090779452586774619 0 0.004535429293165835 0.0094969030902733575 0 0.0037305359259651042 0.0095387980059738059 0 0.003560592474247155 0.01181293581256351 0 0.0045938844111117309 0.010954038777471307 0 0.0037305359259651042 0.0095387980059738059 0 0.0045938844111117309 0.010954038777471307 0 0.0052372460158286553 0.010164942914042531 0 0.0037305359259651042 0.0095387980059738059 0 0.003560592474247155 0.01181293581256351 0 0.0022912169156145833 0.010385158853788309 0 0.0036784632333105426 0.012107105713509649 0 0.0017908668597695248 0.011775371426393811 0 0.0021594327585789897 0.012908416346093042 0 0.003560592474247155 0.01181293581256351 0 0.0022912169156145833 0.010385158853788309 0 0.0017908668597695248 0.011775371426393811 0 0.0035795724143215342 0.01195777020887618 0 0.0018987913492807518 0.011784508328348422 0 0.0035795724143215342 0.01195777020887618 0 0.0052853084638129506 0.012046293336332543 0 0.003560592474247155 0.01181293581256351 0 0.0045938844111117309 0.010954038777471307 0 0.0052185166954952173 0.011804896691726081 0 0.0045938844111117309 0.010954038777471307 0 0.0055774186115917466 0.01105099102568525 0 0.0052185166954952173 0.011804896691726081 0 0.0055774186115917466 0.01105099102568525 0 0.0062460495228177024 0.011570561590095873 0 0.0065860783056365963 0.010694259497103172 0 0.0067116381477150986 0.011799211198704683 0 0.0052185166954952173 0.011804896691726081 0 0.0062460495228177024 0.011570561590095873 0 0.0055774186115917466 0.01105099102568525 0 0.0052185166954952173 0.011804896691726081 0 0.0062460495228177024 0.011570561590095873 0 0.0055774186115917466 0.01105099102568525 0 0.0065860783056365963 0.010694259497103172 0 0.0052372460158286553 0.010164942914042531 0 0.0051578387056270955 0.0085750402070810493 0 0.0050912488984443871 0.0093449536501123646 0 0.0038664396314072877 0.0089117001817172244 0 0.0058485827515074315 0.010407260387540878 0 0.004535429293165835 0.0094969030902733575 0 0.0045938844111117309 0.010954038777471307 0 0.0055774186115917466 0.01105099102568525 0 0.0052372460158286553 0.010164942914042531 0 -0.00058161870163275938 0.010025733124687412 0 -0.00091263927187683553 0.0096934159070600646 0 -0.0010711712971816102 0.010668274035886207 0 -0.00058161870163275938 0.010025733124687412 0 -0.00091263927187683553 0.0096934159070600646 0 -0.00022912693197666841 0.0094574380669948492 0 0.000739475854428949 0.0089947911349124669 0 -0.00022912693197666841 0.0094574380669948492 0 -9.5394967380715398e-05 0.0095993895631120395 0 -0.00058161870163275938 0.010025733124687412 0 -9.5394967380715398e-05 0.0095993895631120395 0 -0.00026865761761024035 0.010477692270265244 0 -0.00058161870163275938 0.010025733124687412 0 -0.00022912693197666841 0.0094574380669948492 0 -9.5394967380715398e-05 0.0095993895631120395 0 -9.5394967380715398e-05 0.0095993895631120395 0 0.00099350463853330336 0.0085636777324156754 0 0.00085985292958503344 0.010219435227435498 0 0.00047573744077758614 0.0071645015350216661 0 -9.5394967380715398e-05 0.0095993895631120395 0 0.00099350463853330336 0.0085636777324156754 0 0.0017447907422496207 0.0071925700222385622 0 0.00047573744077758614 0.0071645015350216661 0 0.00099350463853330336 0.0085636777324156754 0 0.00061257616797685778 0.0080802144960844275 0 -2.4672597307175184e-05 0.0094762721095763228 0 0.0017447907422496207 0.0071925700222385622 0 0.00099350463853330336 0.0085636777324156754 0 0.0019172833319338702 0.0087299752481288934 0 0.00099350463853330336 0.0085636777324156754 0 0.0019172833319338702 0.0087299752481288934 0 0.00085985292958503344 0.010219435227435498 0 0.0019172833319338702 0.0087299752481288934 0 0.0022912169156145833 0.010385158853788309 0 0.00085985292958503344 0.010219435227435498 0 0.0022912169156145833 0.010385158853788309 0 0.0017908668597695248 0.011775371426393811 0 0.00085985292958503344 0.010219435227435498 0 0.0017908668597695248 0.011775371426393811 0 8.9367222926238526e-07 0.011666717167237399 0 0.00092313803476821304 0.01278588881430176 0 0.0017908668597695248 0.011775371426393811 0 0.00085985292958503344 0.010219435227435498 0 8.9367222926238526e-07 0.011666717167237399 0 -9.5394967380715398e-05 0.0095993895631120395 0 0.00085985292958503344 0.010219435227435498 0 -0.00026865761761024035 0.010477692270265244 0 0.00085985292958503344 0.010219435227435498 0 -0.00026865761761024035 0.010477692270265244 0 8.9367222926238526e-07 0.011666717167237399 0 -0.00026865761761024035 0.010477692270265244 0 8.9367222926238526e-07 0.011666717167237399 0 -0.0012608752092521732 0.011003956394143501 0 -0.00079574142427188443 0.011463897048126555 0 -0.0011124023595497586 0.01266526097874536 0 8.9367222926238526e-07 0.011666717167237399 0 -0.0012608752092521732 0.011003956394143501 0 -0.0017570017792986551 0.012691609287063688 0 -0.0016143243340424878 0.012332507930107671 0 -0.00031517020301423664 0.011621001947337523 0 -0.00036261087642532497 0.013620364288844578 0 -0.0016143243340424878 0.012332507930107671 0 -0.00031517020301423664 0.011621001947337523 0 -0.0010711712971816102 0.010668274035886207 0 -0.00060683936251137852 0.010127127689894551 0 -0.00079574142427188443 0.011463897048126555 0 -0.00058161870163275938 0.010025733124687412 0 -0.00031517020301423664 0.011621001947337523 0 -0.0010711712971816102 0.010668274035886207 0 -0.00058161870163275938 0.010025733124687412 0 -0.00026865761761024035 0.010477692270265244 0 -0.0012608752092521732 0.011003956394143501 0 -0.0014500811038108681 0.014537288461986412 0 -0.00054843535585756239 0.015685830693397136 0 -0.00036261087642532497 0.013620364288844578 0 -0.00037084670234535406 0.017671990348916426 0 -0.0011124023595497586 0.01266526097874536 0 -0.002186518916220642 0.014548205981077023 0 -0.0012728578553003664 0.013567222360828553 0 -0.0017570017792986551 0.012691609287063688 0 -0.00037084670234535406 0.017671990348916426 0 -0.00088604941504848449 0.017330626562104268 0 -0.002186518916220642 0.014548205981077023 0 -0.0018936055177403259 0.014506843305298838 0 -0.0014642904970665191 0.014109115862676408 0 -0.0018936055177403259 0.014506843305298838 0 -0.0013340530969100082 0.014568686546845198 0 -0.0014642904970665191 0.014109115862676408 0 -0.002186518916220642 0.014548205981077023 0 -0.0014642904970665191 0.014109115862676408 0 -0.0012728578553003664 0.013567222360828553 0 -0.0012728578553003664 0.013567222360828553 0 -0.0017570017792986551 0.012691609287063688 0 -0.00035442682465688523 0.012902335591835958 0 8.9367222926238526e-07 0.011666717167237399 0 -0.0017570017792986551 0.012691609287063688 0 -0.00035442682465688523 0.012902335591835958 0 -0.0012728578553003664 0.013567222360828553 0 -0.00035442682465688523 0.012902335591835958 0 -0.00037725270387434841 0.013726698786436096 0 -0.00035442682465688523 0.012902335591835958 0 -0.00037725270387434841 0.013726698786436096 0 0.0004225204088904707 0.013663386411259934 0 -0.0014642904970665191 0.014109115862676408 0 -0.0012728578553003664 0.013567222360828553 0 -0.00071924419176201107 0.014389471986974154 0 -0.0012728578553003664 0.013567222360828553 0 -0.00037725270387434841 0.013726698786436096 0 -0.00071924419176201107 0.014389471986974154 0 -0.0013340530969100082 0.014568686546845198 0 -0.00071924419176201107 0.014389471986974154 0 -0.0014069488830860271 0.01520812088176806 0 -0.0013340530969100082 0.014568686546845198 0 -0.0014642904970665191 0.014109115862676408 0 -0.00071924419176201107 0.014389471986974154 0 -0.00071924419176201107 0.014389471986974154 0 4.1904595833970525e-05 0.014368333194481287 0 -0.00018974092710128242 0.015372447130520762 0 -0.00037725270387434841 0.013726698786436096 0 -0.00071924419176201107 0.014389471986974154 0 4.1904595833970525e-05 0.014368333194481287 0 4.1904595833970525e-05 0.014368333194481287 0 0.0004225204088904707 0.013663386411259934 0 0.00087493767700748024 0.014786262492412001 0 0.0004225204088904707 0.013663386411259934 0 0.001588772130753512 0.01380330432881733 0 0.00087493767700748024 0.014786262492412001 0 -0.00037725270387434841 0.013726698786436096 0 4.1904595833970525e-05 0.014368333194481287 0 0.0004225204088904707 0.013663386411259934 0 -0.00035442682465688523 0.012902335591835958 0 0.0004225204088904707 0.013663386411259934 0 0.00092313803476821304 0.01278588881430176 0 8.9367222926238526e-07 0.011666717167237399 0 -0.00035442682465688523 0.012902335591835958 0 0.00092313803476821304 0.01278588881430176 0 0.0004225204088904707 0.013663386411259934 0 0.00092313803476821304 0.01278588881430176 0 0.001588772130753512 0.01380330432881733 0 0.00092313803476821304 0.01278588881430176 0 0.0021594327585789897 0.012908416346093042 0 0.001588772130753512 0.01380330432881733 0 0.0017908668597695248 0.011775371426393811 0 0.00092313803476821304 0.01278588881430176 0 0.0021594327585789897 0.012908416346093042 0 0.0021594327585789897 0.012908416346093042 0 0.001588772130753512 0.01380330432881733 0 0.0029073777238070413 0.013784471226968426 0 0.002143771085334781 0.014662357653068562 0 0.001588772130753512 0.01380330432881733 0 0.0029073777238070413 0.013784471226968426 0 0.002143771085334781 0.014662357653068562 0 0.001588772130753512 0.01380330432881733 0 0.00087493767700748024 0.014786262492412001 0 0.002143771085334781 0.014662357653068562 0 0.0017490972182633154 0.015605310121942769 0 0.0030654883919014829 0.015198527204989399 0 0.002143771085334781 0.014662357653068562 0 0.0017490972182633154 0.015605310121942769 0 0.00087493767700748024 0.014786262492412001 0 0.0017490972182633154 0.015605310121942769 0 0.0016911497638130745 0.016684710355785108 0 0.0028059683299774705 0.016327743591850904 0 0.0016911497638130745 0.016684710355785108 0 0.0028059683299774705 0.016327743591850904 0 0.0024489419677748317 0.017480519188365011 0 0.0016911497638130745 0.016684710355785108 0 0.00055972962514088331 0.017147120097808301 0 0.0014627953962212141 0.017691743590077059 0 0.0017490972182633154 0.015605310121942769 0 0.0016911497638130745 0.016684710355785108 0 0.00077410060582836328 0.016010029459565669 0 0.0016911497638130745 0.016684710355785108 0 0.00055972962514088331 0.017147120097808301 0 0.00077410060582836328 0.016010029459565669 0 0.00055972962514088331 0.017147120097808301 0 0.00077410060582836328 0.016010029459565669 0 -0.00015941676687012917 0.01648080211321239 0 0.00077410060582836328 0.016010029459565669 0 -0.00018974092710128242 0.015372447130520762 0 -0.00015941676687012917 0.01648080211321239 0 0.00077410060582836328 0.016010029459565669 0 0.00087493767700748024 0.014786262492412001 0 -0.00018974092710128242 0.015372447130520762 0 0.0017490972182633154 0.015605310121942769 0 0.00077410060582836328 0.016010029459565669 0 0.00087493767700748024 0.014786262492412001 0 4.1904595833970525e-05 0.014368333194481287 0 0.00087493767700748024 0.014786262492412001 0 -0.00018974092710128242 0.015372447130520762 0 -0.00071924419176201107 0.014389471986974154 0 -0.00018974092710128242 0.015372447130520762 0 -0.0014069488830860271 0.01520812088176806 0 -0.00018974092710128242 0.015372447130520762 0 -0.0010471581307641095 0.016311472275887792 0 -0.0014069488830860271 0.01520812088176806 0 0.00055972962514088331 0.017147120097808301 0 -0.00015941676687012917 0.01648080211321239 0 -0.00091377065407662874 0.017590318056027916 0 -0.00018974092710128242 0.015372447130520762 0 -0.00015941676687012917 0.01648080211321239 0 -0.0010471581307641095 0.016311472275887792 0 -0.00015941676687012917 0.01648080211321239 0 -0.0010471581307641095 0.016311472275887792 0 -0.00091377065407662874 0.017590318056027916 0 -0.0010471581307641095 0.016311472275887792 0 -0.0025852333817982616 0.016582375615009432 0 -0.00091377065407662874 0.017590318056027916 0 -0.00037084670234535406 0.017671990348916426 0 -0.0011719903930895034 0.021454616213130641 0 -0.0010471581307641095 0.016311472275887792 0 -0.0025852333817982616 0.016582375615009432 0 -0.0014069488830860271 0.01520812088176806 0 -0.0022111110511207569 0.014555616813838721 0 -0.0025852333817982616 0.016582375615009432 0 -0.0014069488830860271 0.01520812088176806 0 -0.0022111110511207569 0.014555616813838721 0 -0.0018936055177403259 0.014506843305298838 0 -0.0014069488830860271 0.01520812088176806 0 -0.0018936055177403259 0.014506843305298838 0 -0.0013340530969100082 0.014568686546845198 0 -0.0014069488830860271 0.01520812088176806 0 0.0053536913233535434 0.013680441110172135 0 0.0056236029607674492 0.01465094323587653 0 0.0062250166935141956 0.013991857834911949 0 0.0053536913233535434 0.013680441110172135 0 0.0056236029607674492 0.01465094323587653 0 0.0046438169431201656 0.014453437566576466 0 0.0056236029607674492 0.01465094323587653 0 0.0062250166935141956 0.013991857834911949 0 0.0065889034751232794 0.014881293358414805 0 0.0068645661059992449 0.014128318850571097 0 0.0062250166935141956 0.013991857834911949 0 0.0065889034751232794 0.014881293358414805 0 0.0068645661059992449 0.014128318850571097 0 0.0062250166935141956 0.013991857834911949 0 0.0068446615467306514 0.013449933094153066 0 0.0053536913233535434 0.013680441110172135 0 0.0062250166935141956 0.013991857834911949 0 0.0061706521323982022 0.013187861843954277 0 0.0062250166935141956 0.013991857834911949 0 0.0061706521323982022 0.013187861843954277 0 0.0068446615467306514 0.013449933094153066 0 0.0069322228386262978 0.012739302699452639 0 0.0052853084638129506 0.012046293336332543 0 0.0070590268598684329 0.012626214518961808 0 0.0054112591014191845 0.01239643848506803 0 0.0061706521323982022 0.013187861843954277 0 0.0070590268598684329 0.012626214518961808 0 0.0061706521323982022 0.013187861843954277 0 0.0068446615467306514 0.013449933094153066 0 0.0054112591014191845 0.01239643848506803 0 0.0053536913233535434 0.013680441110172135 0 0.0061706521323982022 0.013187861843954277 0 0.0054112591014191845 0.01239643848506803 0 0.0053536913233535434 0.013680441110172135 0 0.0041267613617410456 0.013381987864350197 0 0.0036784632333105426 0.012107105713509649 0 0.0054112591014191845 0.01239643848506803 0 0.0041267613617410456 0.013381987864350197 0 0.0036784632333105426 0.012107105713509649 0 0.0021594327585789897 0.012908416346093042 0 0.0029073777238070413 0.013784471226968426 0 0.0036784632333105426 0.012107105713509649 0 0.0041267613617410456 0.013381987864350197 0 0.0029073777238070413 0.013784471226968426 0 0.002143771085334781 0.014662357653068562 0 0.0029073777238070413 0.013784471226968426 0 0.0030654883919014829 0.015198527204989399 0 0.0041267613617410456 0.013381987864350197 0 0.0029073777238070413 0.013784471226968426 0 0.0037534346011917118 0.014406825206668333 0 0.0029073777238070413 0.013784471226968426 0 0.0037534346011917118 0.014406825206668333 0 0.0030654883919014829 0.015198527204989399 0 0.0053536913233535434 0.013680441110172135 0 0.0041267613617410456 0.013381987864350197 0 0.0046438169431201656 0.014453437566576466 0 0.0041267613617410456 0.013381987864350197 0 0.0037534346011917118 0.014406825206668333 0 0.0046438169431201656 0.014453437566576466 0 0.0037534346011917118 0.014406825206668333 0 0.0046438169431201656 0.014453437566576466 0 0.0042195509007041726 0.015262540171895281 0 0.0046438169431201656 0.014453437566576466 0 0.0042195509007041726 0.015262540171895281 0 0.0050652625489177689 0.015211089099979026 0 0.0037534346011917118 0.014406825206668333 0 0.0042195509007041726 0.015262540171895281 0 0.0030654883919014829 0.015198527204989399 0 0.0042195509007041726 0.015262540171895281 0 0.0030654883919014829 0.015198527204989399 0 0.0039267780062492109 0.016263709287501378 0 0.0042195509007041726 0.015262540171895281 0 0.0039267780062492109 0.016263709287501378 0 0.0049502420429857613 0.016026569085436673 0 0.0042195509007041726 0.015262540171895281 0 0.0049502420429857613 0.016026569085436673 0 0.0050652625489177689 0.015211089099979026 0 0.0017490972182633154 0.015605310121942769 0 0.0030654883919014829 0.015198527204989399 0 0.0028059683299774705 0.016327743591850904 0 0.0030654883919014829 0.015198527204989399 0 0.0028059683299774705 0.016327743591850904 0 0.0039267780062492109 0.016263709287501378 0 0.0028059683299774705 0.016327743591850904 0 0.0034811859976975547 0.016927359168358743 0 0.0039267780062492109 0.016263709287501378 0 0.0028059683299774705 0.016327743591850904 0 0.0034811859976975547 0.016927359168358743 0 0.0024489419677748317 0.017480519188365011 0 0.0039267780062492109 0.016263709287501378 0 0.0045940520430981791 0.016669468732948611 0 0.0049502420429857613 0.016026569085436673 0 0.0039267780062492109 0.016263709287501378 0 0.0045940520430981791 0.016669468732948611 0 0.0042299398322007695 0.017288959223459268 0 0.0034811859976975547 0.016927359168358743 0 0.0039267780062492109 0.016263709287501378 0 0.0042299398322007695 0.017288959223459268 0 0.0045940520430981791 0.016669468732948611 0 0.0051345172423588785 0.017001423432122749 0 0.0042299398322007695 0.017288959223459268 0 0.0051345172423588785 0.017001423432122749 0 0.0056658396604614908 0.016455792690478688 0 0.0049502420429857613 0.016026569085436673 0 0.0045940520430981791 0.016669468732948611 0 0.0051345172423588785 0.017001423432122749 0 0.0049502420429857613 0.016026569085436673 0 0.0051345172423588785 0.017001423432122749 0 0.0056658396604614908 0.016455792690478688 0 0.0058016561957552953 0.017349113634436548 0 0.0056658396604614908 0.016455792690478688 0 0.0049502420429857613 0.016026569085436673 0 0.0058630352799998141 0.015654528719488268 0 0.0049502420429857613 0.016026569085436673 0 0.0058630352799998141 0.015654528719488268 0 0.0050652625489177689 0.015211089099979026 0 0.0056236029607674492 0.01465094323587653 0 0.0058630352799998141 0.015654528719488268 0 0.0050652625489177689 0.015211089099979026 0 0.0056236029607674492 0.01465094323587653 0 0.0046438169431201656 0.014453437566576466 0 0.0050652625489177689 0.015211089099979026 0 0.0056236029607674492 0.01465094323587653 0 0.0058630352799998141 0.015654528719488268 0 0.0065889034751232794 0.014881293358414805 0 0.0058630352799998141 0.015654528719488268 0 0.0065889034751232794 0.014881293358414805 0 0.0067053261466165047 0.015711893825790225 0 0.0073035864095347533 0.01535225887616367 0 0.0065889034751232794 0.014881293358414805 0 0.0067053261466165047 0.015711893825790225 0 0.0073494029382757172 0.016115821091562475 0 0.0067053261466165047 0.015711893825790225 0 0.0064277758700538781 0.016520598816459675 0 0.0056658396604614908 0.016455792690478688 0 0.0058630352799998141 0.015654528719488268 0 0.0064277758700538781 0.016520598816459675 0 0.0058630352799998141 0.015654528719488268 0 0.0067053261466165047 0.015711893825790225 0 0.0064277758700538781 0.016520598816459675 0 0.0056658396604614908 0.016455792690478688 0 0.0064277758700538781 0.016520598816459675 0 0.0058016561957552953 0.017349113634436548 0 0.0064277758700538781 0.016520598816459675 0 0.0066360558154067656 0.017563365078125545 0 0.007413149384247945 0.017031554018144407 0 0.0064277758700538781 0.016520598816459675 0 0.0066360558154067656 0.017563365078125545 0 0.0058016561957552953 0.017349113634436548 0 0.0066360558154067656 0.017563365078125545 0 0.0061274081643085407 0.018281153844571896 0 0.0058016561957552953 0.017349113634436548 0 0.0067872618399167587 0.018572174210154949 0 0.0061274081643085407 0.018281153844571896 0 0.006137149165201243 0.019366212899551521 0 0.0066360558154067656 0.017563365078125545 0 0.0067872618399167587 0.018572174210154949 0 0.0061274081643085407 0.018281153844571896 0 0.0061274081643085407 0.018281153844571896 0 0.0054068143044032242 0.018924148155483045 0 0.006137149165201243 0.019366212899551521 0 0.0067872618399167587 0.018572174210154949 0 0.006137149165201243 0.019366212899551521 0 0.0076814597612200643 0.018949519322499594 0 0.0054228919314994097 0.018311661264268631 0 0.0048249082033639213 0.017890544236075907 0 0.0047163800514880144 0.018886630392615112 0 0.0054068143044032242 0.018924148155483045 0 0.0054228919314994097 0.018311661264268631 0 0.0047163800514880144 0.018886630392615112 0 0.0061274081643085407 0.018281153844571896 0 0.0054068143044032242 0.018924148155483045 0 0.0054228919314994097 0.018311661264268631 0 0.0061274081643085407 0.018281153844571896 0 0.0054228919314994097 0.018311661264268631 0 0.0058016561957552953 0.017349113634436548 0 0.0054228919314994097 0.018311661264268631 0 0.0058016561957552953 0.017349113634436548 0 0.0048249082033639213 0.017890544236075907 0 0.0051345172423588785 0.017001423432122749 0 0.0058016561957552953 0.017349113634436548 0 0.0048249082033639213 0.017890544236075907 0 0.0051345172423588785 0.017001423432122749 0 0.0042299398322007695 0.017288959223459268 0 0.0048249082033639213 0.017890544236075907 0 0.0042299398322007695 0.017288959223459268 0 0.0034234498662597448 0.017762908444693078 0 0.0041787972845357185 0.018440530005329699 0 0.0042299398322007695 0.017288959223459268 0 0.0048249082033639213 0.017890544236075907 0 0.0041787972845357185 0.018440530005329699 0 0.0034811859976975547 0.016927359168358743 0 0.0042299398322007695 0.017288959223459268 0 0.0034234498662597448 0.017762908444693078 0 0.0034811859976975547 0.016927359168358743 0 0.0034234498662597448 0.017762908444693078 0 0.0024489419677748317 0.017480519188365011 0 0.0034234498662597448 0.017762908444693078 0 0.0029953488121666188 0.018618968348959451 0 0.0041787972845357185 0.018440530005329699 0 0.0034234498662597448 0.017762908444693078 0 0.0029953488121666188 0.018618968348959451 0 0.0024489419677748317 0.017480519188365011 0 0.0029953488121666188 0.018618968348959451 0 0.0025510662545238393 0.019456680419382161 0 0.001959420603457608 0.018603952705083016 0 0.0029953488121666188 0.018618968348959451 0 0.0041787972845357185 0.018440530005329699 0 0.0036891821405505695 0.020003995102668509 0 0.0025510662545238393 0.019456680419382161 0 0.0036891821405505695 0.020003995102668509 0 0.0024842436377977722 0.020299421603658909 0 0.0029953488121666188 0.018618968348959451 0 0.0025510662545238393 0.019456680419382161 0 0.0036891821405505695 0.020003995102668509 0 0.0041787972845357185 0.018440530005329699 0 0.0047163800514880144 0.018886630392615112 0 0.0038248244491780733 0.019184185092227635 0 0.0048249082033639213 0.017890544236075907 0 0.0041787972845357185 0.018440530005329699 0 0.0047163800514880144 0.018886630392615112 0 0.0041851479767541768 0.018503347115138988 0 0.00353616694556701 0.019911910954070026 0 0.0018640960171948104 0.013826469812178981 0 0.0020632023407095544 0.017499900768448099 0 0.0046901897645934016 0.019694361304064868 0 0.0038248244491780733 0.019184185092227635 0 0.0034402212510724179 0.019973694985478914 0 0.0047163800514880144 0.018886630392615112 0 0.0046901897645934016 0.019694361304064868 0 0.0038248244491780733 0.019184185092227635 0 -0.00040629377307151978 0.0084882394305284721 0 -0.0022099233137934798 0.008724310675272736 0 -0.001192614083742724 0.0091481032899368344 0 0.0036891821405505695 0.020003995102668509 0 0.0027413527071203608 0.020880787602390403 0 0.0024842436377977722 0.020299421603658909 0 0.0036891821405505695 0.020003995102668509 0 0.0030658339229634262 0.021407808463790947 0 0.0027413527071203608 0.020880787602390403 0 0.00353616694556701 0.019911910954070026 0 0.0020632023407095544 0.017499900768448099 0 0.0030658339229634262 0.021407808463790947 0 0.0027413527071203608 0.020880787602390403 0 0.0027240210642390772 0.02148255591851107 0 0.0020632023407095544 0.017499900768448099 0 -0.00080986579298909333 0.016527191794018826 0 -0.0022099233137934798 0.008724310675272736 0 -0.0020742331846079084 0.0098059566125212362 0 -0.003295328689350624 0.010881586116387601 0 0.0030100893885469521 0.021412234960626046 0 0.0027240210642390772 0.02148255591851107 0 0.0019790722127714737 0.02314418746158917 0 0.0020632023407095544 0.017499900768448099 0 0.0020934232306564905 0.0179682445682952 0 -0.0022099233137934798 0.008724310675272736 0 -0.0020742331846079084 0.0098059566125212362 0 -0.001192614083742724 0.0091481032899368344 0 -0.0020742331846079084 0.0098059566125212362 0 -0.001192614083742724 0.0091481032899368344 0 -0.0016184289574695063 0.010483735701703949 0 -0.00040629377307151978 0.0084882394305284721 0 -0.001192614083742724 0.0091481032899368344 0 -0.00022313256140955219 0.0092165519410061687 0 -0.001192614083742724 0.0091481032899368344 0 -0.00022313256140955219 0.0092165519410061687 0 -0.0016184289574695063 0.010483735701703949 0 -0.00022313256140955219 0.0092165519410061687 0 -4.4413851431174781e-05 0.0087310068119023972 0 -5.9699381383443759e-05 0.0086732187373044691 0 -0.00040629377307151978 0.0084882394305284721 0 -0.00022313256140955219 0.0092165519410061687 0 -4.4413851431174781e-05 0.0087310068119023972 0 -5.9699381383443759e-05 0.0086732187373044691 0 6.6290734880740805e-05 0.0085756151277304026 0 0.00017738975112114772 0.0084970362190935865 0 -4.4413851431174781e-05 0.0087310068119023972 0 -5.9699381383443759e-05 0.0086732187373044691 0 6.6290734880740805e-05 0.0085756151277304026 0 6.6290734880740805e-05 0.0085756151277304026 0 5.2771120066733269e-05 0.0084709470402700038 0 0.00018763129580788812 0.0084532991243345158 0 -4.4413851431174781e-05 0.0087310068119023972 0 6.6290734880740805e-05 0.0085756151277304026 0 5.2771120066733269e-05 0.0084709470402700038 0 0.0018640960171948104 0.013826469812178981 0 0.0034098621606869399 0.014140787330427295 0 0.0054068143044032242 0.018924148155483045 0 0.0046901897645934016 0.019694361304064868 0 0.006137149165201243 0.019366212899551521 0 -0.00040629377307151978 0.0084882394305284721 0 -4.4413851431174781e-05 0.0087310068119023972 0 5.2771120066733269e-05 0.0084709470402700038 0 0.0054068143044032242 0.018924148155483045 0 0.0047163800514880144 0.018886630392615112 0 0.0046901897645934016 0.019694361304064868 0 -0.0029303211271718534 0.018660767411531914 0 -0.00067522206048636533 0.018990811406588311 0 -0.0011921417293564683 0.020510026099310248 0 -0.0029303211271718534 0.018660767411531914 0 -0.0032296447438931392 0.020798717958056448 0 -0.0011921417293564683 0.020510026099310248 0 -0.0029303211271718534 0.018660767411531914 0 -0.0025852333817982616 0.016582375615009432 0 -0.00091377065407662874 0.017590318056027916 0 -0.0029303211271718534 0.018660767411531914 0 -0.00091377065407662874 0.017590318056027916 0 -0.00067522206048636533 0.018990811406588311 0 -0.00091377065407662874 0.017590318056027916 0 -0.00067522206048636533 0.018990811406588311 0 0.00064160769059528721 0.018566638069853786 0 -0.00067522206048636533 0.018990811406588311 0 0.00051504953867625731 0.02015479713435684 0 -0.0011921417293564683 0.020510026099310248 0 0.00064160769059528721 0.018566638069853786 0 0.0017049696143449644 0.019799153270800757 0 0.00051504953867625731 0.02015479713435684 0 -0.00067522206048636533 0.018990811406588311 0 0.00064160769059528721 0.018566638069853786 0 0.00051504953867625731 0.02015479713435684 0 0.00055972962514088331 0.017147120097808301 0 0.00064160769059528721 0.018566638069853786 0 0.0014627953962212141 0.017691743590077059 0 0.00055972962514088331 0.017147120097808301 0 -0.00091377065407662874 0.017590318056027916 0 0.00064160769059528721 0.018566638069853786 0 0.00064160769059528721 0.018566638069853786 0 0.0014627953962212141 0.017691743590077059 0 0.001959420603457608 0.018603952705083016 0 0.0016911497638130745 0.016684710355785108 0 0.0014627953962212141 0.017691743590077059 0 0.0024489419677748317 0.017480519188365011 0 0.0014627953962212141 0.017691743590077059 0 0.0024489419677748317 0.017480519188365011 0 0.001959420603457608 0.018603952705083016 0 0.0029953488121666188 0.018618968348959451 0 0.0024489419677748317 0.017480519188365011 0 0.001959420603457608 0.018603952705083016 0 0.0025510662545238393 0.019456680419382161 0 0.001959420603457608 0.018603952705083016 0 0.0017049696143449644 0.019799153270800757 0 0.00064160769059528721 0.018566638069853786 0 0.001959420603457608 0.018603952705083016 0 0.0017049696143449644 0.019799153270800757 0 0.0025510662545238393 0.019456680419382161 0 0.0017049696143449644 0.019799153270800757 0 0.0024842436377977722 0.020299421603658909 0 0.0017049696143449644 0.019799153270800757 0 0.001806757561257929 0.02121385539842216 0 0.00051504953867625731 0.02015479713435684 0 0.0017049696143449644 0.019799153270800757 0 0.0024842436377977722 0.020299421603658909 0 0.001806757561257929 0.02121385539842216 0 0.0027413527071203608 0.020880787602390403 0 0.0027240210642390772 0.02148255591851107 0 0.001806757561257929 0.02121385539842216 0 0.0027413527071203608 0.020880787602390403 0 0.0024842436377977722 0.020299421603658909 0 0.001806757561257929 0.02121385539842216 0 0.0027240210642390772 0.02148255591851107 0 0.001806757561257929 0.02121385539842216 0 0.0019790722127714737 0.02314418746158917 0 0.001806757561257929 0.02121385539842216 0 0.00062720360823990387 0.022037839025036036 0 0.0019790722127714737 0.02314418746158917 0 0.00062720360823990387 0.022037839025036036 0 0.00051504953867625731 0.02015479713435684 0 -0.0011921417293564683 0.020510026099310248 0 0.001806757561257929 0.02121385539842216 0 0.00062720360823990387 0.022037839025036036 0 0.00051504953867625731 0.02015479713435684 0 0.00062720360823990387 0.022037839025036036 0 -6.7539551773871499e-05 0.022930680415313324 0 0.00041995263737999521 0.023309492317864583 0 0.00062381610262084023 0.0221598831690932 0 -0.00082103693967848946 0.022445165897280274 0 0.00062720360823990387 0.022037839025036036 0 -0.0011921417293564683 0.020510026099310248 0 -0.0014361836612318689 0.02245303614156801 0 -0.0032296447438931392 0.020798717958056448 0 -0.0034778404434247338 0.022934922075587363 0 -0.0014361836612318689 0.02245303614156801 0 -0.0012417685363280897 0.025345009161632459 0 -0.00082103693967848946 0.022445165897280274 0 -0.0032296447438931392 0.020798717958056448 0 -0.0011921417293564683 0.020510026099310248 0 -0.0014361836612318689 0.02245303614156801 0 -0.00010208507820405359 0.023813791638415158 0 0.00015163363865077956 0.023670273790587004 0 0.00021236202417630192 0.024222539995122312 0 -0.00010208507820405359 0.023813791638415158 0 0.00021236202417630192 0.024222539995122312 0 2.4243387077741758e-05 0.024607636462157009 0 -0.00060314046598095733 0.023266966079214326 0 -6.7539551773871499e-05 0.022930680415313324 0 -0.00010208507820405359 0.023813791638415158 0 -6.7539551773871499e-05 0.022930680415313324 0 -0.00010208507820405359 0.023813791638415158 0 0.00015163363865077956 0.023670273790587004 0 -6.7539551773871499e-05 0.022930680415313324 0 0.00015163363865077956 0.023670273790587004 0 0.00041995263737999521 0.023309492317864583 0 0.00015163363865077956 0.023670273790587004 0 0.00027669817089223827 0.023958720123616228 0 0.00041995263737999521 0.023309492317864583 0 0.00015163363865077956 0.023670273790587004 0 0.00027669817089223827 0.023958720123616228 0 0.00021236202417630192 0.024222539995122312 0 0.00027669817089223827 0.023958720123616228 0 0.00016750537553694678 0.024009493155253657 0 0.00021236202417630192 0.024222539995122312 0 0.00052357429822220058 0.023985341638938576 0 0.00097360914555092749 0.023410597286911618 0 0.0010616529417034851 0.024468822827042831 0 0.00027669817089223827 0.023958720123616228 0 0.00021114424219247709 0.02399646399569455 0 0.00016750537553694678 0.024009493155253657 0 0.00027669817089223827 0.023958720123616228 0 0.00021114424219247709 0.02399646399569455 0 0.00052357429822220058 0.023985341638938576 0 0.00021114424219247709 0.02399646399569455 0 0.00052357429822220058 0.023985341638938576 0 0.00013505077422980779 0.023990288025301201 0 0.0014975509151480841 0.023887200069510391 0 -0.00093982103165084435 0.019369848255247617 0 0.00027669817089223827 0.023958720123616228 0 0.00052357429822220058 0.023985341638938576 0 0.00041995263737999521 0.023309492317864583 0 0.00062720360823990387 0.022037839025036036 0 0.00041995263737999521 0.023309492317864583 0 0.00097360914555092749 0.023410597286911618 0 0.00052357429822220058 0.023985341638938576 0 0.00041995263737999521 0.023309492317864583 0 0.00097360914555092749 0.023410597286911618 0 0.00097360914555092749 0.023410597286911618 0 0.0019790722127714737 0.02314418746158917 0 0.0010616529417034851 0.024468822827042831 0 0.00062720360823990387 0.022037839025036036 0 0.00097360914555092749 0.023410597286911618 0 0.0019790722127714737 0.02314418746158917 0 -0.00080986579298909333 0.016527191794018826 0 -0.00093982103165084435 0.019369848255247617 0 -0.003295328689350624 0.010881586116387601 0 -0.0042826905829992752 0.013201775979823907 0 -0.0028305473136394869 0.012473654621575835 0 1.8417247377057461e-05 0.019365391415128486 0 0.00011613186193893482 0.019551468420321683 0 -0.00017437813469434727 0.01964245772593801 0 -0.0042826905829992752 0.013201775979823907 0 -0.0028305473136394869 0.012473654621575835 0 -0.00246431482880564 0.014841007100180633 0 1.8417247377057461e-05 0.019365391415128486 0 0.00011613186193893482 0.019551468420321683 0 4.0834494427309711e-05 0.019278511257354115 0 -0.00093982103165084435 0.019369848255247617 0 -0.0014632031256123831 0.016486148781791079 0 1.2268067269287571e-06 0.019175020267370235 0 0.00011613186193893482 0.019551468420321683 0 4.0834494427309711e-05 0.019278511257354115 0 1.2268067269287571e-06 0.019175020267370235 0 0.00011613186193893482 0.019551468420321683 0 -1.2566085370041184e-06 0.021643545966969255 0 0.00011613186193893482 0.019551468420321683 0 -1.2566085370041184e-06 0.021643545966969255 0 -0.00017437813469434727 0.01964245772593801 0 1.0832359059752873e-07 0.021645950935528641 0 -0.00021037934764645916 0.021857786359407647 0 -9.703505414869367e-07 0.021651221265497862 0 -0.00029933431686323823 0.023627134627328437 0 0.00028426822378300337 0.02375791194879175 0 0.00021114424219247709 0.02399646399569455 0 0.00013505077422980779 0.023990288025301201 0 -0.00029933431686323823 0.023627134627328437 0 -0.00029933431686323823 0.023627134627328437 0 0.00016750537553694678 0.024009493155253657 0 0.00028426822378300337 0.02375791194879175 0 -0.00093982103165084435 0.019369848255247617 0 -0.00021037934764645916 0.021857786359407647 0 0.00021114424219247709 0.02399646399569455 0 -0.00029933431686323823 0.023627134627328437 0 0.00016750537553694678 0.024009493155253657 0 0.00016750537553694678 0.024009493155253657 0 0.00021236202417630192 0.024222539995122312 0 0.00028426822378300337 0.02375791194879175 0 -9.703505414869367e-07 0.021651221265497862 0 0.00028426822378300337 0.02375791194879175 0 9.3093474185735889e-07 0.024424966607626289 0 -5.0215792613786778e-05 0.025761324700023135 0 9.3093474185735889e-07 0.024424966607626289 0 0.00010592996387556729 0.024546964718324179 0 0.00028426822378300337 0.02375791194879175 0 9.3093474185735889e-07 0.024424966607626289 0 0.00010592996387556729 0.024546964718324179 0 0.00021236202417630192 0.024222539995122312 0 2.4243387077741758e-05 0.024607636462157009 0 0.00010592996387556729 0.024546964718324179 0 0.00021236202417630192 0.024222539995122312 0 0.00028426822378300337 0.02375791194879175 0 0.00010592996387556729 0.024546964718324179 0 7.3160712534877845e-05 0.010515611416694957 0 -7.0538437837440506e-05 0.01189197866185639 0 -0.0004752696633499312 0.0088872165637262617 0 -0.00014142472062022985 0.0088850494059967491 0 -0.00095303136393448554 0.0097475695888822912 0 -5.9699381383443759e-05 0.0086732187373044691 0 -0.0004752696633499312 0.0088872165637262617 0 -0.00014142472062022985 0.0088850494059967491 0 -0.00020039994899136981 0.0093037435029085739 0 7.3160712534877845e-05 0.010515611416694957 0 -0.00022313256140955219 0.0092165519410061687 0 -5.9699381383443759e-05 0.0086732187373044691 0 -0.0004752696633499312 0.0088872165637262617 0 -0.00022313256140955219 0.0092165519410061687 0 0.00076278386011303131 0.012134948160432393 0 -0.0005735240229138046 0.011147441596732484 0 -0.0005735240229138046 0.011147441596732484 0 -0.0016184289574695063 0.010483735701703949 0 -0.0010712954642380225 0.01262178474335989 0 -0.00022313256140955219 0.0092165519410061687 0 -0.0005735240229138046 0.011147441596732484 0 -0.0016184289574695063 0.010483735701703949 0 -0.003295328689350624 0.010881586116387601 0 -0.0016184289574695063 0.010483735701703949 0 -0.0028305473136394869 0.012473654621575835 0 -0.0020742331846079084 0.0098059566125212362 0 -0.003295328689350624 0.010881586116387601 0 -0.0016184289574695063 0.010483735701703949 0 -0.0028305473136394869 0.012473654621575835 0 -0.0010712954642380225 0.01262178474335989 0 -0.00246431482880564 0.014841007100180633 0 -0.0016184289574695063 0.010483735701703949 0 -0.0028305473136394869 0.012473654621575835 0 -0.0010712954642380225 0.01262178474335989 0 0.00076278386011303131 0.012134948160432393 0 -0.0005735240229138046 0.011147441596732484 0 -0.0010712954642380225 0.01262178474335989 0 0.00076278386011303131 0.012134948160432393 0 -0.0010712954642380225 0.01262178474335989 0 -5.0102366819622131e-05 0.014399205401682059 0 -0.0010712954642380225 0.01262178474335989 0 -5.0102366819622131e-05 0.014399205401682059 0 -0.00246431482880564 0.014841007100180633 0 -0.0014632031256123831 0.016486148781791079 0 3.4316662659685156e-07 0.016704462497251341 0 1.2268067269287571e-06 0.019175020267370235 0 4.0834494427309711e-05 0.019278511257354115 0 -1.2448367226006384e-06 0.016706098979719822 0 -5.0102366819622131e-05 0.014399205401682059 0 -0.00246431482880564 0.014841007100180633 0 -3.804764913042552e-06 0.016699675898730327 0 -5.0102366819622131e-05 0.014399205401682059 0 -3.804764913042552e-06 0.016699675898730327 0 2.1923436515246558e-06 0.014868249726185622 0 -5.0102366819622131e-05 0.014399205401682059 0 2.1923436515246558e-06 0.014868249726185622 0 0.00071402074695483587 0.014074154995990969 0 0.00076278386011303131 0.012134948160432393 0 -5.0102366819622131e-05 0.014399205401682059 0 0.00071402074695483587 0.014074154995990969 0 -0.00014142472062022985 0.0088850494059967491 0 -0.00095303136393448554 0.0097475695888822912 0 0.00017240516511476524 0.010165262955369776 0 2.1923436515246558e-06 0.014868249726185622 0 0.00071402074695483587 0.014074154995990969 0 -7.7571033114449772e-07 0.013037228269700272 0 -7.0538437837440506e-05 0.01189197866185639 0 3.4350626982828384e-09 0.013033392623554902 0 -0.00095303136393448554 0.0097475695888822912 0 -3.0194311601008522e-06 0.013028005422933588 0 0.00017240516511476524 0.010165262955369776 0 1.7786942513276031e-06 0.010116615169785244 0 0.00017240516511476524 0.010165262955369776 0 0.00033406507159010215 0.0087425493639326241 0 1.7786942513276031e-06 0.010116615169785244 0 0.00041055660450900895 0.0077866251340632164 0 0.00033406507159010215 0.0087425493639326241 0 -3.0194311601008522e-06 0.013028005422933588 0 1.7786942513276031e-06 0.010116615169785244 0 0.00017240516511476524 0.010165262955369776 0 -0.00014142472062022985 0.0088850494059967491 0 0.00017240516511476524 0.010165262955369776 0 0.00033406507159010215 0.0087425493639326241 0 3.4672203971794731e-07 0.007199206026856593 0 0.00041055660450900895 0.0077866251340632164 0 0.00015315331895156639 0.0062091418950477968 0 1.7786942513276031e-06 0.010116615169785244 0 3.4672203971794731e-07 0.007199206026856593 0 0.00041055660450900895 0.0077866251340632164 0 0.00041055660450900895 0.0077866251340632164 0 0.00015315331895156639 0.0062091418950477968 0 0.00039220198606782988 0.0076226824658173079 0 0.00015315331895156639 0.0062091418950477968 0 0.00039220198606782988 0.0076226824658173079 0 3.9133882824650107e-05 0.006890866851531628 0 0.00041055660450900895 0.0077866251340632164 0 0.00039220198606782988 0.0076226824658173079 0 0.0004135842579564104 0.008191070972125054 0 0.00039220198606782988 0.0076226824658173079 0 0.0004135842579564104 0.008191070972125054 0 0.00037138457957411385 0.0081086452625502379 0 0.00039220198606782988 0.0076226824658173079 0 8.702870854615993e-05 0.0078016988375995897 0 3.9133882824650107e-05 0.006890866851531628 0 0.00039220198606782988 0.0076226824658173079 0 0.00037138457957411385 0.0081086452625502379 0 8.702870854615993e-05 0.0078016988375995897 0 -0.00014142472062022985 0.0088850494059967491 0 0.00033406507159010215 0.0087425493639326241 0 0.00019682320642162965 0.0085174121670571114 0 0.00041055660450900895 0.0077866251340632164 0 0.00033406507159010215 0.0087425493639326241 0 0.0004135842579564104 0.008191070972125054 0 0.00033406507159010215 0.0087425493639326241 0 0.0004135842579564104 0.008191070972125054 0 0.00019682320642162965 0.0085174121670571114 0 0.0004135842579564104 0.008191070972125054 0 0.00028232516956864303 0.0084197177142961224 0 0.00037138457957411385 0.0081086452625502379 0 0.0004135842579564104 0.008191070972125054 0 0.00019682320642162965 0.0085174121670571114 0 0.00028232516956864303 0.0084197177142961224 0 -5.9699381383443759e-05 0.0086732187373044691 0 0.00019682320642162965 0.0085174121670571114 0 0.00028232516956864303 0.0084197177142961224 0 -5.9699381383443759e-05 0.0086732187373044691 0 -0.00014142472062022985 0.0088850494059967491 0 0.00019682320642162965 0.0085174121670571114 0 0.00017738975112114772 0.0084970362190935865 0 0.00034070720222569202 0.0084387839484105793 0 0.00028232516956864303 0.0084197177142961224 0 -5.9699381383443759e-05 0.0086732187373044691 0 0.00017738975112114772 0.0084970362190935865 0 0.00028232516956864303 0.0084197177142961224 0 0.0034098621606869399 0.014140787330427295 0 0.0021432690587539229 0.010835413378155925 0 5.2771120066733269e-05 0.0084709470402700038 0 0.00018763129580788812 0.0084532991243345158 0 0.00024183177471263939 0.0083948335289671799 0 6.6290734880740805e-05 0.0085756151277304026 0 0.00017738975112114772 0.0084970362190935865 0 0.00018763129580788812 0.0084532991243345158 0 0.00017738975112114772 0.0084970362190935865 0 0.00018763129580788812 0.0084532991243345158 0 0.00034070720222569202 0.0084387839484105793 0 0.0010973401613337472 0.0087391142319318913 0 0.0021432690587539229 0.010835413378155925 0 0.00018763129580788812 0.0084532991243345158 0 0.00034070720222569202 0.0084387839484105793 0 0.00026426190168268138 0.0083228691813373983 0 0.00034070720222569202 0.0084387839484105793 0 0.00026426190168268138 0.0083228691813373983 0 0.00050614273532069388 0.0082712178130203394 0 0.00034070720222569202 0.0084387839484105793 0 0.00056415741363994394 0.0084811211075746899 0 0.00050614273532069388 0.0082712178130203394 0 0.00034070720222569202 0.0084387839484105793 0 0.00028232516956864303 0.0084197177142961224 0 0.00056415741363994394 0.0084811211075746899 0 0.00025939362366568351 0.0084596663702945617 0 0.00060045078566024572 0.0082472449816373972 0 0.00028232516956864303 0.0084197177142961224 0 0.00037138457957411385 0.0081086452625502379 0 0.0003809217495977137 0.0082407540525852307 0 0.00037138457957411385 0.0081086452625502379 0 0.00027215326157932018 0.0082115645559174624 0 0.0003809217495977137 0.0082407540525852307 0 0.00037138457957411385 0.0081086452625502379 0 9.1913908167788949e-05 0.0081901290768992604 0 8.702870854615993e-05 0.0078016988375995897 0 0.00037138457957411385 0.0081086452625502379 0 9.1913908167788949e-05 0.0081901290768992604 0 0.00027215326157932018 0.0082115645559174624 0 0.00019882320485542553 0.008326069126593335 0 0.0003809217495977137 0.0082407540525852307 0 0.00012488758268879314 0.0085739947732718508 0 9.1913908167788949e-05 0.0081901290768992604 0 0.00027215326157932018 0.0082115645559174624 0 0.00019882320485542553 0.008326069126593335 0 9.1913908167788949e-05 0.0081901290768992604 0 0.00019882320485542553 0.008326069126593335 0 6.5549144857049497e-05 0.0084007103329981399 0 0.00027215326157932018 0.0082115645559174624 0 0.00019882320485542553 0.008326069126593335 0 0.0003809217495977137 0.0082407540525852307 0 0.00093624991936568373 0.0082608026037549517 0 0.00070028246152035805 0.008184683845085583 0 0.00060045078566024572 0.0082472449816373972 0 1.5918345905930427e-07 0.0089100517272484754 0 0.00056415741363994394 0.0084811211075746899 0 0.00090626468856341532 0.0082660356906641783 0 0.00050614273532069388 0.0082712178130203394 0 0.00090626468856341532 0.0082660356906641783 0 0.0010872696844832278 0.0083360373988508596 0 0.0011968177249405089 0.0082425434603597102 0 0.00090626468856341532 0.0082660356906641783 0 0.00097445105873028115 0.0083500074067041213 0 0.0010872696844832278 0.0083360373988508596 0 0.00056415741363994394 0.0084811211075746899 0 0.00090626468856341532 0.0082660356906641783 0 0.00096868507875618674 0.0082947839472283773 0 0.00019882320485542553 0.008326069126593335 0 6.5549144857049497e-05 0.0084007103329981399 0 0.00012488758268879314 0.0085739947732718508 0 6.5549144857049497e-05 0.0084007103329981399 0 0.00012488758268879314 0.0085739947732718508 0 -1.6993592928473167e-05 0.0085179652574139692 0 0.00090626468856341532 0.0082660356906641783 0 0.00093845275452191532 0.0083025353508738246 0 0.00097445105873028115 0.0083500074067041213 0 0.00090626468856341532 0.0082660356906641783 0 0.00093845275452191532 0.0083025353508738246 0 0.00096868507875618674 0.0082947839472283773 0 0.00093845275452191532 0.0083025353508738246 0 0.00096868507875618674 0.0082947839472283773 0 0.00094086338764725588 0.0083422825429690598 0 0.00096868507875618674 0.0082947839472283773 0 0.00094086338764725588 0.0083422825429690598 0 0.00090673632837822077 0.0083711940501267831 0 0.00094086338764725588 0.0083422825429690598 0 0.00093011815431952912 0.0083852613442113467 0 0.00090673632837822077 0.0083711940501267831 0 0.00094086338764725588 0.0083422825429690598 0 0.0009764198998374853 0.0084152965802952 0 0.00093011815431952912 0.0083852613442113467 0 0.00094086338764725588 0.0083422825429690598 0 0.00097445105873028115 0.0083500074067041213 0 0.0009764198998374853 0.0084152965802952 0 0.00093845275452191532 0.0083025353508738246 0 0.00094086338764725588 0.0083422825429690598 0 0.00097445105873028115 0.0083500074067041213 0 0.0010337739543710802 0.0085151543171997947 0 0.0009764198998374853 0.0084152965802952 0 0.0010766169346218385 0.0084296284631898647 0 0.00097445105873028115 0.0083500074067041213 0 0.0009764198998374853 0.0084152965802952 0 0.0010766169346218385 0.0084296284631898647 0 0.0009764198998374853 0.0084152965802952 0 0.00094676347224539761 0.0084277376692666033 0 0.00093011815431952912 0.0083852613442113467 0 0.0009715523352602449 0.0084701454745622091 0 0.0009764198998374853 0.0084152965802952 0 0.00094676347224539761 0.0084277376692666033 0 0.00093953010215513412 0.0084597684846644643 0 0.00094676347224539761 0.0084277376692666033 0 0.00091704664530073334 0.0084189375485230044 0 0.00094676347224539761 0.0084277376692666033 0 0.00091704664530073334 0.0084189375485230044 0 0.00093011815431952912 0.0083852613442113467 0 0.00091704664530073334 0.0084189375485230044 0 0.00093011815431952912 0.0083852613442113467 0 0.00090673632837822077 0.0083711940501267831 0 0.0010872696844832278 0.0083360373988508596 0 0.0010766169346218385 0.0084296284631898647 0 0.0012757403411254422 0.0084233508050108007 0 0.0011643178951129128 0.0085826636828729898 0 0.0010766169346218385 0.0084296284631898647 0 0.0012757403411254422 0.0084233508050108007 0 0.00097445105873028115 0.0083500074067041213 0 0.0010872696844832278 0.0083360373988508596 0 0.0010766169346218385 0.0084296284631898647 0 0.008171372336116622 0.016484291182638212 0 0.0085299573964653617 0.017552132050108561 0 0.007413149384247945 0.017031554018144407 0 0.0085299573964653617 0.017552132050108561 0 0.007413149384247945 0.017031554018144407 0 0.0073858478378305845 0.017950334566007045 0 0.0066360558154067656 0.017563365078125545 0 0.007413149384247945 0.017031554018144407 0 0.0073858478378305845 0.017950334566007045 0 0.0066360558154067656 0.017563365078125545 0 0.0067872618399167587 0.018572174210154949 0 0.0073858478378305845 0.017950334566007045 0 0.0085299573964653617 0.017552132050108561 0 0.0073858478378305845 0.017950334566007045 0 0.0076814597612200643 0.018949519322499594 0 0.0067872618399167587 0.018572174210154949 0 0.0073858478378305845 0.017950334566007045 0 0.0076814597612200643 0.018949519322499594 0 0.0021432690587539229 0.010835413378155925 0 0.00070028246152035805 0.008184683845085583 0 0.005072694648395909 0.013266129940421201 0 0.0021432690587539229 0.010835413378155925 0 0.0012757403411254422 0.0084233508050108007 0 0.0014108857215031452 0.0082270183066400198 0 0.0011968177249405089 0.0082425434603597102 0 0.0010872696844832278 0.0083360373988508596 0 0.0012757403411254422 0.0084233508050108007 0 0.0011968177249405089 0.0082425434603597102 0 0.0070430765429791561 -0.0019215411226080233 0 0.0072967762740276535 -0.0015671067066822162 0 0.0073267790759352271 -0.0017892842688257131 0 0.0070430765429791561 -0.0019215411226080233 0 0.0072511920420574852 -0.001511931581312501 0 0.0075586112298956362 -0.0015178875338455191 0 0.0070430765429791561 -0.0019215411226080233 0 0.0070341959933581536 -0.0015865181342967945 0 0.0072511920420574852 -0.001511931581312501 0 0.0070430765429791561 -0.0019215411226080233 0 0.0073267790759352271 -0.0017892842688257131 0 0.0071182185040085657 -0.0021066724437950267 0 0.0071588926452808956 -0.0021046921582317021 0 0.0064470528361095453 -0.00024591984745813003 0 0.0024595779469061508 0.0024866033020307199 0 0.0021638499733911986 -0.0010103250826418379 0 0.0070430765429791561 -0.0019215411226080233 0 0.0066579537995202741 -0.0019033499971858245 0 0.0071182185040085657 -0.0021066724437950267 0 0.0066579537995202741 -0.0019033499971858245 0 0.0068895755757191288 -0.0017477841736624898 0 0.0067864441812552192 -0.0014665253512748889 0 0.0066579537995202741 -0.0019033499971858245 0 0.0067864441812552192 -0.0014665253512748889 0 0.0064217999997335387 -0.0015173334742287585 0 0.0070430765429791561 -0.0019215411226080233 0 0.0066579537995202741 -0.0019033499971858245 0 0.0068895755757191288 -0.0017477841736624898 0 0.0070430765429791561 -0.0019215411226080233 0 0.0068895755757191288 -0.0017477841736624898 0 0.0070341959933581536 -0.0015865181342967945 0 0.0070341959933581536 -0.0015865181342967945 0 0.0067864441812552192 -0.0014665253512748889 0 0.0071085651267663568 -0.0013338735948903307 0 0.0068895755757191288 -0.0017477841736624898 0 0.0070341959933581536 -0.0015865181342967945 0 0.0067864441812552192 -0.0014665253512748889 0 0.0067218015145489984 -0.0011543989969511244 0 0.0069656679787793154 -0.0011368047166323959 0 0.0067864441812552192 -0.0014665253512748889 0 0.0067218015145489984 -0.0011543989969511244 0 0.0067864441812552192 -0.0014665253512748889 0 0.0064714135789607661 -0.0012564008764633697 0 0.0069656679787793154 -0.0011368047166323959 0 0.0067864441812552192 -0.0014665253512748889 0 0.0071085651267663568 -0.0013338735948903307 0 0.0073861542717441053 -0.0010144855848245502 0 0.0073403810421750395 -0.0012697927223661646 0 0.0075586112298956362 -0.0015178875338455191 0 0.0071977630633311349 -0.0010751227908685262 0 0.0071085651267663568 -0.0013338735948903307 0 0.0073403810421750395 -0.0012697927223661646 0 0.0069656679787793154 -0.0011368047166323959 0 0.0071977630633311349 -0.0010751227908685262 0 0.0071085651267663568 -0.0013338735948903307 0 0.0071085651267663568 -0.0013338735948903307 0 0.0072511920420574852 -0.001511931581312501 0 0.0073403810421750395 -0.0012697927223661646 0 0.0070341959933581536 -0.0015865181342967945 0 0.0071085651267663568 -0.0013338735948903307 0 0.0072511920420574852 -0.001511931581312501 0 0.0072511920420574852 -0.001511931581312501 0 0.0073403810421750395 -0.0012697927223661646 0 0.0075586112298956362 -0.0015178875338455191 0 0.0056644142570824842 0.0020260060347538095 0 0.0064470528361095453 -0.00024591984745813003 0 0.0067114039897743887 0.00025389394800084058 0 0.006706926413914573 0.00033629452752294774 0 0.006859256661726809 0.00050036042556264419 0 0.0056644142570824842 0.0020260060347538095 0 0.001950961668647537 0.0062474627903842429 0 0.0038944748592162188 0.0046728203530137262 0 0.003855754425236022 0.0053788366594232327 0 0.0033979750270389875 0.0048049900062195382 0 0.0062541154796255521 0.0018129644300500379 0 0.0056644142570824842 0.0020260060347538095 0 0.0037351781955761313 0.0044972238528299176 0 0.0038944748592162188 0.0046728203530137262 0 0.0033979750270389875 0.0048049900062195382 0 0.0062541154796255521 0.0018129644300500379 0 0.0027101496042880235 0.0064760465779646753 0 0.001950961668647537 0.0062474627903842429 0 0.0027101496042880235 0.0064760465779646753 0 -0.0002822789338873847 0.0087033801898234713 0 -0.00018661463649786102 0.0088258321524136343 0 -0.00019279230714695496 0.008693715884733973 0 0.0043033740146455656 0.0029189622752963944 0 0.004302507554025458 0.0026616070690396337 0 0.0040553592403039743 0.002660784064510644 0 1.5918345905930427e-07 0.0089100517272484754 0 0.0027101496042880235 0.0064760465779646753 0 0.00012488758268879314 0.0085739947732718508 0 -0.00018661463649786102 0.0088258321524136343 0 -8.7671569593438667e-05 0.0086508191392011859 0 0.00096868507875618674 0.0082947839472283773 0 0.00081490165105871089 0.0083911296394170512 0 0.00090673632837822077 0.0083711940501267831 0 0.00088705711432766996 0.0084113966627518289 0 0.00081490165105871089 0.0083911296394170512 0 0.00090673632837822077 0.0083711940501267831 0 0.00090812843548231808 0.0084654066189494611 0 0.00088705711432766996 0.0084113966627518289 0 0.00081490165105871089 0.0083911296394170512 0 0.00091704664530073334 0.0084189375485230044 0 0.00088705711432766996 0.0084113966627518289 0 0.00090673632837822077 0.0083711940501267831 0 0.00090812843548231808 0.0084654066189494611 0 0.00091704664530073334 0.0084189375485230044 0 0.00088705711432766996 0.0084113966627518289 0 -0.00018661463649786102 0.0088258321524136343 0 -0.00019279230714695496 0.008693715884733973 0 -8.7671569593438667e-05 0.0086508191392011859 0 -0.00020861841313546102 0.0085955807920763214 0 -0.00015300556640858968 0.0085134203256729268 0 -0.0003594761607304968 0.0083799342127849012 0 -8.7671569593438667e-05 0.0086508191392011859 0 -0.00015300556640858968 0.0085134203256729268 0 -1.6993592928473167e-05 0.0085179652574139692 0 0.00012488758268879314 0.0085739947732718508 0 -8.7671569593438667e-05 0.0086508191392011859 0 -1.6993592928473167e-05 0.0085179652574139692 0 -8.7671569593438667e-05 0.0086508191392011859 0 -0.00020861841313546102 0.0085955807920763214 0 -0.00015300556640858968 0.0085134203256729268 0 -0.00019279230714695496 0.008693715884733973 0 -8.7671569593438667e-05 0.0086508191392011859 0 -0.00020861841313546102 0.0085955807920763214 0 -0.00015300556640858968 0.0085134203256729268 0 -1.6993592928473167e-05 0.0085179652574139692 0 -8.7407326320961353e-05 0.0083785509161443863 0 -0.00048324575374725985 0.0072920065616974743 0 -0.00035398022210072848 0.0074818026935776589 0 -0.0005333972404233155 0.0077135799432328286 0 -0.0002822789338873847 0.0087033801898234713 0 -0.00020861841313546102 0.0085955807920763214 0 -0.0003594761607304968 0.0083799342127849012 0 0.001950961668647537 0.0062474627903842429 0 -0.00068285132198469514 0.008423931747394163 0 0.0064470528361095453 -0.00024591984745813003 0 0.0024595779469061508 0.0024866033020307199 0 0.001950961668647537 0.0062474627903842429 0 0.0024595779469061508 0.0024866033020307199 0 0.004302507554025458 0.0026616070690396337 0 0.0040553592403039743 0.002660784064510644 0 0.0040756472477229437 0.0023933194289035907 0 -0.0002822789338873847 0.0087033801898234713 0 -0.00019279230714695496 0.008693715884733973 0 -0.00020861841313546102 0.0085955807920763214 0 -0.00019149346827347324 -4.8949375053459225e-05 0 -0.00036367571040039128 0.00061010045029842293 0 -1.2582136416748211e-05 0.00033180166145964048 0 0.0024595779469061508 0.0024866033020307199 0 -0.00080666115207824244 0.0045151478076514819 0 -0.00035398022210072848 0.0074818026935776589 0 -0.0005333972404233155 0.0077135799432328286 0 -0.00051180227909053324 0.0078394049012361963 0 9.1913908167788949e-05 0.0081901290768992604 0 6.5549144857049497e-05 0.0084007103329981399 0 -8.7407326320961353e-05 0.0083785509161443863 0 6.5549144857049497e-05 0.0084007103329981399 0 -1.6993592928473167e-05 0.0085179652574139692 0 -8.7407326320961353e-05 0.0083785509161443863 0 -0.00015300556640858968 0.0085134203256729268 0 -0.0003594761607304968 0.0083799342127849012 0 -8.7407326320961353e-05 0.0083785509161443863 0 -0.0003594761607304968 0.0083799342127849012 0 -8.7407326320961353e-05 0.0083785509161443863 0 -0.00018297747063121246 0.0081231161352127625 0 9.1913908167788949e-05 0.0081901290768992604 0 -8.7407326320961353e-05 0.0083785509161443863 0 -0.00018297747063121246 0.0081231161352127625 0 9.1913908167788949e-05 0.0081901290768992604 0 -0.00018297747063121246 0.0081231161352127625 0 8.702870854615993e-05 0.0078016988375995897 0 -0.00018297747063121246 0.0081231161352127625 0 -0.00054782613959122428 0.007772536614286194 0 8.702870854615993e-05 0.0078016988375995897 0 -0.00068285132198469514 0.008423931747394163 0 -0.00047740610199612117 0.0076201917990077733 0 -0.00080666115207824244 0.0045151478076514819 0 -0.00068576139726296082 0.0043534896449304201 0 -0.00051180227909053324 0.0078394049012361963 0 -0.00054782613959122428 0.007772536614286194 0 -0.00094442941693260855 0.0073952978424073222 0 -0.0003594761607304968 0.0083799342127849012 0 -0.00018297747063121246 0.0081231161352127625 0 -0.00054782613959122428 0.007772536614286194 0 -0.0005333972404233155 0.0077135799432328286 0 -0.00051180227909053324 0.0078394049012361963 0 -0.00054782613959122428 0.007772536614286194 0 7.4674162702027439e-05 0.00074485503106949745 0 8.6073173082202e-05 0.00027162989657822292 0 0.00055409865204715416 0.00076738077293963159 0 7.4674162702027439e-05 0.00074485503106949745 0 0.00055409865204715416 0.00076738077293963159 0 0.00029183634253190834 0.0014754023863780431 0 -0.00036367571040039128 0.00061010045029842293 0 7.4674162702027439e-05 0.00074485503106949745 0 -0.00017127508473036563 0.0010961468539360541 0 -0.00036367571040039128 0.00061010045029842293 0 7.4674162702027439e-05 0.00074485503106949745 0 -1.2582136416748211e-05 0.00033180166145964048 0 7.4674162702027439e-05 0.00074485503106949745 0 8.6073173082202e-05 0.00027162989657822292 0 -1.2582136416748211e-05 0.00033180166145964048 0 -0.00019149346827347324 -4.8949375053459225e-05 0 7.085020910616778e-05 0.00028731777418682217 0 -1.2582136416748211e-05 0.00033180166145964048 0 0.0021638499733911986 -0.0010103250826418379 0 0.0012591305046347596 -0.00049008906908919972 0 0.00021002527488112694 -0.0023580951406691679 0 -0.00014679188199964705 -0.0014291506851789968 0 0.00064452300221096333 -0.0012530203259070543 0 0.0021638499733911986 -0.0010103250826418379 0 -0.0001352845295754499 6.8169143550372277e-05 0 0.0036215844571754079 -0.0022893532896701529 0 0.0021638499733911986 -0.0010103250826418379 0 0.00021002527488112694 -0.0023580951406691679 0 -0.001089115410617258 -0.0016171223745184459 0 -0.00014679188199964705 -0.0014291506851789968 0 -0.001089115410617258 -0.0016171223745184459 0 -0.00014679188199964705 -0.0014291506851789968 0 -0.00017983054869950723 -0.00041858208203397453 0 -0.00014679188199964705 -0.0014291506851789968 0 -0.00017983054869950723 -0.00041858208203397453 0 0.00064452300221096333 -0.0012530203259070543 0 0.00029183634253190834 0.0014754023863780431 0 0.0005625527388882684 0.0015800210399278232 0 0.00090564682509359552 0.00095824174988116755 0 0.00055409865204715416 0.00076738077293963159 0 0.00029183634253190834 0.0014754023863780431 0 0.00090564682509359552 0.00095824174988116755 0 -0.0001352845295754499 6.8169143550372277e-05 0 0.0009548671032552587 0.00099192060525898299 0 7.4674162702027439e-05 0.00074485503106949745 0 0.00029183634253190834 0.0014754023863780431 0 -0.00017127508473036563 0.0010961468539360541 0 0.00029183634253190834 0.0014754023863780431 0 -0.00017127508473036563 0.0010961468539360541 0 -0.00065970736897514096 0.0015000086236878422 0 0.00029183634253190834 0.0014754023863780431 0 -8.4597173158818078e-06 0.0026448151025752014 0 0.00012657668821566709 0.0020156693457817113 0 0.00029183634253190834 0.0014754023863780431 0 -8.4597173158818078e-06 0.0026448151025752014 0 -0.00065970736897514096 0.0015000086236878422 0 0.0005625527388882684 0.0015800210399278232 0 0.00012657668821566709 0.0020156693457817113 0 0.0010584148555146671 0.0019055513801801358 0 0.00029183634253190834 0.0014754023863780431 0 0.0005625527388882684 0.0015800210399278232 0 0.00012657668821566709 0.0020156693457817113 0 8.702870854615993e-05 0.0078016988375995897 0 -0.00034874206553871164 0.0075205033172800863 0 3.9133882824650107e-05 0.006890866851531628 0 -0.00054782613959122428 0.007772536614286194 0 8.702870854615993e-05 0.0078016988375995897 0 -0.00034874206553871164 0.0075205033172800863 0 -0.00034874206553871164 0.0075205033172800863 0 -0.00094442941693260855 0.0073952978424073222 0 3.9133882824650107e-05 0.006890866851531628 0 -0.00036367571040039128 0.00061010045029842293 0 -0.00017127508473036563 0.0010961468539360541 0 -0.00065970736897514096 0.0015000086236878422 0 -0.00054782613959122428 0.007772536614286194 0 -0.00034874206553871164 0.0075205033172800863 0 -0.00094442941693260855 0.0073952978424073222 0 -0.00068576139726296082 0.0043534896449304201 0 -0.00057462717965543167 0.0044223345245464072 0 -8.4597173158818078e-06 0.0026448151025752014 0 -0.00065970736897514096 0.0015000086236878422 0 -0.00049484410819673882 0.0044105558488589389 0 -0.00094442941693260855 0.0073952978424073222 0 3.9133882824650107e-05 0.006890866851531628 0 -0.00049484410819673882 0.0044105558488589389 0 0.00015315331895156639 0.0062091418950477968 0 3.9133882824650107e-05 0.006890866851531628 0 -0.00049484410819673882 0.0044105558488589389 0 -8.4597173158818078e-06 0.0026448151025752014 0 -0.00049484410819673882 0.0044105558488589389 0 2.2838468768027126e-06 0.0028142219608564964 0 -0.00049484410819673882 0.0044105558488589389 0 -4.1801463719828698e-07 0.0042825816346821382 0 2.2838468768027126e-06 0.0028142219608564964 0 0.00015315331895156639 0.0062091418950477968 0 -0.00049484410819673882 0.0044105558488589389 0 -4.1801463719828698e-07 0.0042825816346821382 0 3.4672203971794731e-07 0.007199206026856593 0 0.00015315331895156639 0.0062091418950477968 0 -4.1801463719828698e-07 0.0042825816346821382 0 -1.6496372420273668e-06 0.00030125638355218016 0 0.00012657668821566709 0.0020156693457817113 0 3.3756629977242031e-06 -0.0011290036980085784 0 0.00026658139378010623 0.0017127860607800095 0 0.00067950391860576744 0.00044273053876834316 0 -8.4597173158818078e-06 0.0026448151025752014 0 0.00012657668821566709 0.0020156693457817113 0 2.2838468768027126e-06 0.0028142219608564964 0 -1.6496372420273668e-06 0.00030125638355218016 0 0.00012657668821566709 0.0020156693457817113 0 2.2838468768027126e-06 0.0028142219608564964 0 -4.1801463719828698e-07 0.0042825816346821382 0 2.2838468768027126e-06 0.0028142219608564964 0 4.5066240591744389e-08 0.0013655663651403209 0 -1.6496372420273668e-06 0.00030125638355218016 0 2.2838468768027126e-06 0.0028142219608564964 0 4.5066240591744389e-08 0.0013655663651403209 0 -1.6496372420273668e-06 0.00030125638355218016 0 4.5066240591744389e-08 0.0013655663651403209 0 2.6366735864942187e-08 -0.0015516175062149542 0 -1.6496372420273668e-06 0.00030125638355218016 0 2.6366735864942187e-08 -0.0015516175062149542 0 9.1452410733865435e-05 -0.0024757250664270494 0 -1.6496372420273668e-06 0.00030125638355218016 0 9.1452410733865435e-05 -0.0024757250664270494 0 3.3756629977242031e-06 -0.0011290036980085784 0 9.1452410733865435e-05 -0.0024757250664270494 0 0.0001722218263888861 -0.0036381935824918829 0 3.3756629977242031e-06 -0.0011290036980085784 0 2.6366735864942187e-08 -0.0015516175062149542 0 9.1452410733865435e-05 -0.0024757250664270494 0 4.6685455059370431e-07 -0.0044683251361688475 0 9.1452410733865435e-05 -0.0024757250664270494 0 4.6685455059370431e-07 -0.0044683251361688475 0 0.00025073574923102822 -0.0045314296697139909 0 4.6685455059370431e-07 -0.0044683251361688475 0 5.4183446222503475e-07 -0.0073851108383261813 0 0.00023990051207515203 -0.0059350095009658398 0 4.6685455059370431e-07 -0.0044683251361688475 0 0.00025073574923102822 -0.0045314296697139909 0 0.00023990051207515203 -0.0059350095009658398 0 0.00025073574923102822 -0.0045314296697139909 0 0.00023990051207515203 -0.0059350095009658398 0 0.00031786388381821039 -0.005518738038659118 0 0.00025073574923102822 -0.0045314296697139909 0 0.00031786388381821039 -0.005518738038659118 0 0.00036026280360340119 -0.005403477486116341 0 9.1452410733865435e-05 -0.0024757250664270494 0 0.00025073574923102822 -0.0045314296697139909 0 0.0001722218263888861 -0.0036381935824918829 0 0.0025638076383861256 0.0016699517708167249 0 0.0033358644906727247 0.00084531954013341421 0 0.0023200688414557408 0.00040735623672854637 0 0.0025638076383861256 0.0016699517708167249 0 0.0033358644906727247 0.00084531954013341421 0 0.0041651312490056103 0.0012692608643758141 0 0.00025073574923102822 -0.0045314296697139909 0 0.0001722218263888861 -0.0036381935824918829 0 0.00036026280360340119 -0.005403477486116341 0 0.0014234983007850245 -0.0010845494882673096 0 0.0025248101885046335 -0.0012035316604134679 0 0.0041449006482310747 0.00048979188163804756 0 0.0033358644906727247 0.00084531954013341421 0 0.0041651312490056103 0.0012692608643758141 0 0.0041449006482310747 0.00048979188163804756 0 0.0033358644906727247 0.00084531954013341421 0 0.0034964435671442683 8.7773399180620431e-05 0 0.0041449006482310747 0.00048979188163804756 0 0.0034964435671442683 8.7773399180620431e-05 0 0.0043058778234660745 -0.00025089262735976246 0 0.0034964435671442683 8.7773399180620431e-05 0 0.0023200688414557408 0.00040735623672854637 0 0.0029648309458954838 -0.00044298903282361695 0 0.0033358644906727247 0.00084531954013341421 0 0.0034964435671442683 8.7773399180620431e-05 0 0.0023200688414557408 0.00040735623672854637 0 0.0023200688414557408 0.00040735623672854637 0 0.00090564682509359552 0.00095824174988116755 0 0.0012131159421803796 -0.00047962865924853793 0 0.0023200688414557408 0.00040735623672854637 0 0.00090564682509359552 0.00095824174988116755 0 0.0016915605637407699 0.0012489256467444726 0 0.0005625527388882684 0.0015800210399278232 0 0.00090564682509359552 0.00095824174988116755 0 0.0010584148555146671 0.0019055513801801358 0 0.00090564682509359552 0.00095824174988116755 0 0.0010584148555146671 0.0019055513801801358 0 0.0016915605637407699 0.0012489256467444726 0 0.0025638076383861256 0.0016699517708167249 0 0.0023200688414557408 0.00040735623672854637 0 0.0016915605637407699 0.0012489256467444726 0 0.0014234983007850245 -0.0010845494882673096 0 0.00067950391860576744 0.00044273053876834316 0 0.0025638076383861256 0.0016699517708167249 0 0.0010584148555146671 0.0019055513801801358 0 0.0016915605637407699 0.0012489256467444726 0 -0.0021918041055510569 -0.014693010179144027 0 -0.002363701572346397 -0.01138233546721283 0 -0.0049312102907577817 -0.017768628508223409 0 -0.0041910589367333325 -0.017119126869855134 0 -0.0055742858881625921 -0.017924078403773139 0 -0.0042478536995986882 -0.018441106976970833 0 -0.003610672997540513 -0.019067825070116805 0 -0.0031352629517076317 -0.018357287670390604 0 -0.0042478536995986882 -0.018441106976970833 0 -0.0049312102907577817 -0.017768628508223409 0 -0.004839289666875515 -0.019047523651793071 0 -0.0042478536995986882 -0.018441106976970833 0 -0.0049312102907577817 -0.017768628508223409 0 -0.0041910589367333325 -0.017119126869855134 0 -0.0042478536995986882 -0.018441106976970833 0 -0.0041910589367333325 -0.017119126869855134 0 -0.0031352629517076317 -0.018357287670390604 0 -0.0002232307318210592 -0.010326566298015479 0 -5.0059556240518193e-07 -0.010301638484067347 0 -1.7827407774357674e-06 -0.013220489071791229 0 3.6495899744326971e-05 -0.011299838288562814 0 -0.0002232307318210592 -0.010326566298015479 0 -1.7827407774357674e-06 -0.013220489071791229 0 -0.0002232307318210592 -0.010326566298015479 0 -0.00053901053536136302 -0.0074040111253821008 0 -3.8451006286668487e-05 -0.0085578884855601958 0 -0.0002232307318210592 -0.010326566298015479 0 -5.0059556240518193e-07 -0.010301638484067347 0 -3.8451006286668487e-05 -0.0085578884855601958 0 3.6495899744326971e-05 -0.011299838288562814 0 -0.0002232307318210592 -0.010326566298015479 0 -0.00064787456824934482 -0.011078452539724297 0 -0.0049312102907577817 -0.017768628508223409 0 -0.0055742858881625921 -0.017924078403773139 0 -0.0053935760542364796 -0.018634797277091771 0 0.00014803924330545311 -0.0091703404851454506 0 -0.002363701572346397 -0.01138233546721283 0 -0.00053901053536136302 -0.0074040111253821008 0 0.00012685478374074087 -0.0071157644401005169 0 -3.8451006286668487e-05 -0.0085578884855601958 0 -0.00053901053536136302 -0.0074040111253821008 0 -6.0266251026007539e-05 -0.0063595934277854956 0 0.00012685478374074087 -0.0071157644401005169 0 -0.002363701572346397 -0.01138233546721283 0 0.00058993625266094544 -0.0060084848655177492 0 -6.0266251026007539e-05 -0.0063595934277854956 0 0.00012685478374074087 -0.0071157644401005169 0 0.00022403524352890031 -0.0061439524579908486 0 0.00012685478374074087 -0.0071157644401005169 0 -3.8451006286668487e-05 -0.0085578884855601958 0 5.4183446222503475e-07 -0.0073851108383261813 0 -5.0059556240518193e-07 -0.010301638484067347 0 -3.8451006286668487e-05 -0.0085578884855601958 0 5.4183446222503475e-07 -0.0073851108383261813 0 0.00012685478374074087 -0.0071157644401005169 0 5.4183446222503475e-07 -0.0073851108383261813 0 0.00023990051207515203 -0.0059350095009658398 0 0.00012685478374074087 -0.0071157644401005169 0 0.00023990051207515203 -0.0059350095009658398 0 0.00022403524352890031 -0.0061439524579908486 0 0.00022403524352890031 -0.0061439524579908486 0 0.00031786388381821039 -0.005518738038659118 0 0.00023988305664839342 -0.0055431276760363572 0 0.00023990051207515203 -0.0059350095009658398 0 0.00022403524352890031 -0.0061439524579908486 0 0.00031786388381821039 -0.005518738038659118 0 0.0025248101885046335 -0.0012035316604134679 0 0.0013398314118193964 -0.0089049288817461061 0 0.0041651312490056103 0.0012692608643758141 0 0.0047957329733110494 0.00064099104538887001 0 0.0055783600846080498 0.00091854359586688141 0 0.00036026280360340119 -0.005403477486116341 0 0.00023988305664839342 -0.0055431276760363572 0 -9.7308798246396159e-05 -0.0056616473542576507 0 0.00031786388381821039 -0.005518738038659118 0 0.00036026280360340119 -0.005403477486116341 0 0.00023988305664839342 -0.0055431276760363572 0 0.00058993625266094544 -0.0060084848655177492 0 0.00012840686585048809 -0.0057759183312018946 0 -6.0266251026007539e-05 -0.0063595934277854956 0 0.00022403524352890031 -0.0061439524579908486 0 0.00023988305664839342 -0.0055431276760363572 0 0.0041449006482310747 0.00048979188163804756 0 0.0041651312490056103 0.0012692608643758141 0 0.0047957329733110494 0.00064099104538887001 0 0.0041449006482310747 0.00048979188163804756 0 0.0045737961515585433 0.00018495289324558029 0 0.0047957329733110494 0.00064099104538887001 0 0.0041449006482310747 0.00048979188163804756 0 0.0045737961515585433 0.00018495289324558029 0 0.0043058778234660745 -0.00025089262735976246 0 0.0045737961515585433 0.00018495289324558029 0 0.0047957329733110494 0.00064099104538887001 0 0.0050339761207778997 -0.00014782829810044385 0 0.0045737961515585433 0.00018495289324558029 0 0.0050339761207778997 -0.00014782829810044385 0 0.0043058778234660745 -0.00025089262735976246 0 0.0036308338088545783 -0.016044831829705154 0 0.0045802016692022213 -0.015355203530876471 0 0.0045429577896818913 -0.014288515801821989 0 0.0047957329733110494 0.00064099104538887001 0 0.0050339761207778997 -0.00014782829810044385 0 0.0055783600846080498 0.00091854359586688141 0 0.0045802016692022213 -0.015355203530876471 0 0.0054645026565773094 -0.014418130435736615 0 0.0046676497409385937 -0.016683820655502286 0 0.0048872794479992814 -0.0075132473419140984 0 0.0013398314118193964 -0.0089049288817461061 0 0.0036308338088545783 -0.016044831829705154 0 0.0045802016692022213 -0.015355203530876471 0 0.0046676497409385937 -0.016683820655502286 0 -0.00031024043868109767 -0.0060043175982456096 0 -1.1378092785877021e-05 -0.0058284446015556459 0 -9.7308798246396159e-05 -0.0056616473542576507 0 -1.1378092785877021e-05 -0.0058284446015556459 0 0.00023988305664839342 -0.0055431276760363572 0 -9.7308798246396159e-05 -0.0056616473542576507 0 0.0045802016692022213 -0.015355203530876471 0 0.0045429577896818913 -0.014288515801821989 0 0.0054645026565773094 -0.014418130435736615 0 -0.0049312102907577817 -0.017768628508223409 0 -0.0059909077194574712 -0.020063490889974132 0 -0.004839289666875515 -0.019047523651793071 0 -0.0057728099886276444 -0.018474167448375541 0 -0.0015665479824121529 -0.01873063473841732 0 -0.002363701572346397 -0.01138233546721283 0 0.0013398314118193964 -0.0089049288817461061 0 -0.0055742858881625921 -0.017924078403773139 0 -0.0057855355450736751 -0.018523817068370609 0 -0.0053935760542364796 -0.018634797277091771 0 0.0013398314118193964 -0.0089049288817461061 0 -0.0015665479824121529 -0.01873063473841732 0 -0.0015665479824121529 -0.01873063473841732 0 0.00385895500353355 -0.02012081794084469 0 0.0012929274162167058 -0.024029672005189809 0 0.0011643212659115433 -0.023856913927558808 0 0.0012944138357475611 -0.023723690329562258 0 0.0012929274162167058 -0.024029672005189809 0 0.0012944138357475611 -0.023723690329562258 0 0.0015847918133081115 -0.023672575119734827 0 0.0012929274162167058 -0.024029672005189809 0 0.0011643212659115433 -0.023856913927558808 0 0.0010332032292961586 -0.023889915115496065 0 0.0011643212659115433 -0.023856913927558808 0 0.0010578696032417735 -0.023785865389478949 0 0.0012944138357475611 -0.023723690329562258 0 0.0011643212659115433 -0.023856913927558808 0 0.0010578696032417735 -0.023785865389478949 0 0.0010332032292961586 -0.023889915115496065 0 0.0010578696032417735 -0.023785865389478949 0 0.00092864708756693407 -0.023775312069362557 0 0.0010332032292961586 -0.023889915115496065 0 0.00092864708756693407 -0.023775312069362557 0 0.0010332032292961586 -0.023889915115496065 0 0.00092797921008066749 -0.023990029314049557 0 0.0012929274162167058 -0.024029672005189809 0 0.0010332032292961586 -0.023889915115496065 0 0.00092797921008066749 -0.023990029314049557 0 -0.0034653580923093628 -0.020425324612957051 0 -0.0036616405234954942 -0.020202459366469465 0 -0.0031123819086631092 -0.019904540255937103 0 -0.0015665479824121529 -0.01873063473841732 0 -0.0010926664135521885 -0.022724948099064841 0 -0.0059909077194574712 -0.020063490889974132 0 -0.0036616405234954942 -0.020202459366469465 0 -0.0042820672238468591 -0.019465317516319757 0 -0.0059909077194574712 -0.020063490889974132 0 -0.0034543035672646924 -0.02042928001946492 0 -0.0036616405234954942 -0.020202459366469465 0 -0.0010926664135521885 -0.022724948099064841 0 -0.0016867358449088837 -0.022101812697818243 0 -0.0036616405234954942 -0.020202459366469465 0 -0.0034665870286003579 -0.01962502430220801 0 -0.0031123819086631092 -0.019904540255937103 0 -0.0036616405234954942 -0.020202459366469465 0 -0.0042820672238468591 -0.019465317516319757 0 -0.0034665870286003579 -0.01962502430220801 0 -0.0042478536995986882 -0.018441106976970833 0 -0.004839289666875515 -0.019047523651793071 0 -0.0042820672238468591 -0.019465317516319757 0 -0.0059909077194574712 -0.020063490889974132 0 -0.004839289666875515 -0.019047523651793071 0 -0.0042820672238468591 -0.019465317516319757 0 -0.0042478536995986882 -0.018441106976970833 0 -0.0042820672238468591 -0.019465317516319757 0 -0.003610672997540513 -0.019067825070116805 0 -0.0042820672238468591 -0.019465317516319757 0 -0.003610672997540513 -0.019067825070116805 0 -0.0034665870286003579 -0.01962502430220801 0 0.0010537174220147749 -0.023419681306974107 0 0.001266248641138328 -0.023272913029193765 0 0.0010661441708448962 -0.02308405768549272 0 0.0010537174220147749 -0.023419681306974107 0 0.00085622356031402655 -0.023563692492005316 0 0.00080557833028188262 -0.023331755610183039 0 0.0010537174220147749 -0.023419681306974107 0 0.0010661441708448962 -0.02308405768549272 0 0.00080557833028188262 -0.023331755610183039 0 0.0010537174220147749 -0.023419681306974107 0 0.0010594671133083888 -0.023634101233968346 0 0.0013681802473247341 -0.023442356604676678 0 0.0010537174220147749 -0.023419681306974107 0 0.0010594671133083888 -0.023634101233968346 0 0.00085622356031402655 -0.023563692492005316 0 0.0010578696032417735 -0.023785865389478949 0 0.00092864708756693407 -0.023775312069362557 0 0.0010594671133083888 -0.023634101233968346 0 0.00092864708756693407 -0.023775312069362557 0 0.0010594671133083888 -0.023634101233968346 0 0.00085622356031402655 -0.023563692492005316 0 0.0010578696032417735 -0.023785865389478949 0 0.0010594671133083888 -0.023634101233968346 0 0.0012944138357475611 -0.023723690329562258 0 0.0012944138357475611 -0.023723690329562258 0 0.0013681802473247341 -0.023442356604676678 0 0.0015847918133081115 -0.023672575119734827 0 0.0010594671133083888 -0.023634101233968346 0 0.0012944138357475611 -0.023723690329562258 0 0.0013681802473247341 -0.023442356604676678 0 0.0013681802473247341 -0.023442356604676678 0 0.001266248641138328 -0.023272913029193765 0 0.0015623603907843945 -0.023032087230374435 0 0.0010537174220147749 -0.023419681306974107 0 0.0013681802473247341 -0.023442356604676678 0 0.001266248641138328 -0.023272913029193765 0 0.0013681802473247341 -0.023442356604676678 0 0.0020693970724612299 -0.023114209832265215 0 0.0015623603907843945 -0.023032087230374435 0 0.0013681802473247341 -0.023442356604676678 0 0.0015847918133081115 -0.023672575119734827 0 0.0020693970724612299 -0.023114209832265215 0 0.00385895500353355 -0.02012081794084469 0 0.002752605097203533 -0.021217500516035551 0 0.0046676497409385937 -0.016683820655502286 0 0.0036243451267164574 -0.017330745440987387 0 0.0037129532491190437 -0.019271273185771466 0 0.0036308338088545783 -0.016044831829705154 0 0.0046676497409385937 -0.016683820655502286 0 0.0036243451267164574 -0.017330745440987387 0 0.0048872794479992814 -0.0075132473419140984 0 0.0034681358729086002 -0.0098485360313591997 0 0.0043058778234660745 -0.00025089262735976246 0 0.0044767749651561314 -0.0014085709045420988 0 0.0038294855713276689 -0.00067074292660082178 0 0.0050339761207778997 -0.00014782829810044385 0 0.0043058778234660745 -0.00025089262735976246 0 0.0044767749651561314 -0.0014085709045420988 0 0.0036308338088545783 -0.016044831829705154 0 0.0036243451267164574 -0.017330745440987387 0 0.0026074903687669133 -0.018042791248329686 0 0.0036243451267164574 -0.017330745440987387 0 0.0026074903687669133 -0.018042791248329686 0 0.0037129532491190437 -0.019271273185771466 0 0.0025081006461491616 -0.021767332954828217 0 0.0037129532491190437 -0.019271273185771466 0 0.0016599334757870419 -0.020147430544848383 0 0.0025800509847778525 -0.021728965686022648 0 0.002752605097203533 -0.021217500516035551 0 0.0026074903687669133 -0.018042791248329686 0 0.0037129532491190437 -0.019271273185771466 0 0.0016599334757870419 -0.020147430544848383 0 0.0025081006461491616 -0.021767332954828217 0 0.0018985153823099586 -0.022519085030311164 0 0.0020693970724612299 -0.023114209832265215 0 0.0025081006461491616 -0.021767332954828217 0 0.0019464717121835159 -0.022088822147890229 0 0.0022703111635292953 -0.021759646150768346 0 0.0025081006461491616 -0.021767332954828217 0 0.0018985153823099586 -0.022519085030311164 0 0.0019464717121835159 -0.022088822147890229 0 0.0019464717121835159 -0.022088822147890229 0 0.0014864464458320598 -0.022572164975012146 0 0.0016563521451526653 -0.022052024306192904 0 0.0018985153823099586 -0.022519085030311164 0 0.0019464717121835159 -0.022088822147890229 0 0.0014864464458320598 -0.022572164975012146 0 0.0018985153823099586 -0.022519085030311164 0 0.0015623603907843945 -0.023032087230374435 0 0.0014864464458320598 -0.022572164975012146 0 0.0018985153823099586 -0.022519085030311164 0 0.0020693970724612299 -0.023114209832265215 0 0.0015623603907843945 -0.023032087230374435 0 0.001266248641138328 -0.023272913029193765 0 0.0015623603907843945 -0.023032087230374435 0 0.0010661441708448962 -0.02308405768549272 0 0.0015623603907843945 -0.023032087230374435 0 0.0014864464458320598 -0.022572164975012146 0 0.0010661441708448962 -0.02308405768549272 0 0.0014864464458320598 -0.022572164975012146 0 0.001360522005164511 -0.022273777021649836 0 0.0016563521451526653 -0.022052024306192904 0 0.0014864464458320598 -0.022572164975012146 0 0.001360522005164511 -0.022273777021649836 0 0.0010741421637112847 -0.022700977101541286 0 0.0014864464458320598 -0.022572164975012146 0 0.0010741421637112847 -0.022700977101541286 0 0.0010661441708448962 -0.02308405768549272 0 0.0010741421637112847 -0.022700977101541286 0 0.00096495602254562682 -0.022147194781470064 0 0.00065633096580739586 -0.023127323497472152 0 0.0010741421637112847 -0.022700977101541286 0 0.0010661441708448962 -0.02308405768549272 0 0.00065633096580739586 -0.023127323497472152 0 0.001360522005164511 -0.022273777021649836 0 0.0010741421637112847 -0.022700977101541286 0 0.00096495602254562682 -0.022147194781470064 0 0.00062483131726897786 -0.022985766433546776 0 0.00073372292207794548 -0.022993024081749872 0 0.0010661441708448962 -0.02308405768549272 0 0.00065633096580739586 -0.023127323497472152 0 0.00080557833028188262 -0.023331755610183039 0 0.0013532485998102466 -0.0017998922322537932 0 0.0023170173563989665 -0.0009910372503706352 0 0.0023736404057668348 -0.0020955439344185005 0 0.0013532485998102466 -0.0017998922322537932 0 0.0012131159421803796 -0.00047962865924853793 0 0.0023170173563989665 -0.0009910372503706352 0 0.0013532485998102466 -0.0017998922322537932 0 0.00064452300221096333 -0.0012530203259070543 0 0.0012131159421803796 -0.00047962865924853793 0 0.00021002527488112694 -0.0023580951406691679 0 0.0013532485998102466 -0.0017998922322537932 0 0.00064452300221096333 -0.0012530203259070543 0 -0.00017983054869950723 -0.00041858208203397453 0 0.00090564682509359552 0.00095824174988116755 0 0.0012131159421803796 -0.00047962865924853793 0 -0.00017983054869950723 -0.00041858208203397453 0 0.00064452300221096333 -0.0012530203259070543 0 0.0012131159421803796 -0.00047962865924853793 0 0.0023200688414557408 0.00040735623672854637 0 0.0012131159421803796 -0.00047962865924853793 0 0.0023170173563989665 -0.0009910372503706352 0 0.0023170173563989665 -0.0009910372503706352 0 0.0029648309458954838 -0.00044298903282361695 0 0.0034092311680599206 -0.0011545152622321681 0 0.0023200688414557408 0.00040735623672854637 0 0.0023170173563989665 -0.0009910372503706352 0 0.0029648309458954838 -0.00044298903282361695 0 0.0044767749651561314 -0.0014085709045420988 0 0.0038294855713276689 -0.00067074292660082178 0 0.0034092311680599206 -0.0011545152622321681 0 0.0034964435671442683 8.7773399180620431e-05 0 0.0043058778234660745 -0.00025089262735976246 0 0.0038294855713276689 -0.00067074292660082178 0 0.0034964435671442683 8.7773399180620431e-05 0 0.0029648309458954838 -0.00044298903282361695 0 0.0038294855713276689 -0.00067074292660082178 0 0.0029648309458954838 -0.00044298903282361695 0 0.0038294855713276689 -0.00067074292660082178 0 0.0034092311680599206 -0.0011545152622321681 0 0.0044767749651561314 -0.0014085709045420988 0 0.0032522961956556857 -0.0020089122793969499 0 0.0038417068892236169 -0.0027684727892550208 0 0.0034681358729086002 -0.0098485360313591997 0 0.0026373152546103852 -0.011489004820610538 0 0.0044767749651561314 -0.0014085709045420988 0 0.0034092311680599206 -0.0011545152622321681 0 0.0032522961956556857 -0.0020089122793969499 0 0.0023170173563989665 -0.0009910372503706352 0 0.0032522961956556857 -0.0020089122793969499 0 0.0023736404057668348 -0.0020955439344185005 0 0.0023170173563989665 -0.0009910372503706352 0 0.0034092311680599206 -0.0011545152622321681 0 0.0032522961956556857 -0.0020089122793969499 0 0.0023736404057668348 -0.0020955439344185005 0 0.0029969367617633681 -0.0030007968759536985 0 0.0019459309603654001 -0.0026380675717577063 0 0.0029969367617633681 -0.0030007968759536985 0 0.0021727712733658742 -0.0032927258826687669 0 0.0019459309603654001 -0.0026380675717577063 0 0.0032522961956556857 -0.0020089122793969499 0 0.0023736404057668348 -0.0020955439344185005 0 0.0029969367617633681 -0.0030007968759536985 0 0.0032522961956556857 -0.0020089122793969499 0 0.0029969367617633681 -0.0030007968759536985 0 0.0038417068892236169 -0.0027684727892550208 0 0.0016599334757870419 -0.020147430544848383 0 0.0019159845117385876 -0.021495837062068798 0 0.0012158137280046943 -0.021686458634994604 0 0.0026373152546103852 -0.011489004820610538 0 0.0033819726385811441 -0.012818359890516235 0 0.0025081006461491616 -0.021767332954828217 0 0.0016599334757870419 -0.020147430544848383 0 0.0019159845117385876 -0.021495837062068798 0 0.0029969367617633681 -0.0030007968759536985 0 0.0038417068892236169 -0.0027684727892550208 0 0.0031461192832089981 -0.0041586983082011041 0 0.0029969367617633681 -0.0030007968759536985 0 0.0031461192832089981 -0.0041586983082011041 0 0.002699924854682238 -0.0038841053750758702 0 0.0029969367617633681 -0.0030007968759536985 0 0.002699924854682238 -0.0038841053750758702 0 0.0021727712733658742 -0.0032927258826687669 0 0.0027553234485750708 -0.0053481747797735138 0 0.0019409946838135513 -0.0034745571984490563 0 0.0027553234485750708 -0.0053481747797735138 0 0.0047921678032341935 -0.009121028463132624 0 0.0063389923809157676 -0.00967204204381341 0 0.0016458851857506429 -0.007050497401583259 0 0.005617771752757148 -0.010999321765922544 0 0.0033819726385811441 -0.012818359890516235 0 0.0027553234485750708 -0.0053481747797735138 0 0.0054694647171721214 -0.0013662413867275847 0 0.0053199461204703567 -0.0012253301750184029 0 0.0055112293129750802 -0.0011909809870158461 0 0.0054694647171721214 -0.0013662413867275847 0 0.0056717853434639929 -0.0012534056294102528 0 0.0055112293129750802 -0.0011909809870158461 0 0.0054694647171721214 -0.0013662413867275847 0 0.0056717853434639929 -0.0012534056294102528 0 0.0058417690934870932 -0.0013987427839443865 0 0.0054694647171721214 -0.0013662413867275847 0 0.0058417690934870932 -0.0013987427839443865 0 0.0060604061028455176 -0.0016351563083512484 0 0.0027014907107832829 -0.0038579982045441599 0 0.0014716127212783888 -0.003098217898136343 0 0.0021727712733658742 -0.0032927258826687669 0 0.0027553234485750708 -0.0053481747797735138 0 0.0038135025900578904 -0.0021132864901152143 0 0.0056717853434639929 -0.0012534056294102528 0 0.0058417690934870932 -0.0013987427839443865 0 0.0058349914250695363 -0.0012126044857391611 0 0.0058417690934870932 -0.0013987427839443865 0 0.0061239737803791602 -0.0013154729092430214 0 0.0058349914250695363 -0.0012126044857391611 0 0.0058417690934870932 -0.0013987427839443865 0 0.0061239737803791602 -0.0013154729092430214 0 0.0060604061028455176 -0.0016351563083512484 0 0.0013532485998102466 -0.0017998922322537932 0 0.0023736404057668348 -0.0020955439344185005 0 0.0019459309603654001 -0.0026380675717577063 0 0.0014716127212783888 -0.003098217898136343 0 0.0021727712733658742 -0.0032927258826687669 0 0.0019459309603654001 -0.0026380675717577063 0 0.0014716127212783888 -0.003098217898136343 0 0.0019459309603654001 -0.0026380675717577063 0 0.0013462501550681061 -0.0024583732301838019 0 0.0013532485998102466 -0.0017998922322537932 0 0.0019459309603654001 -0.0026380675717577063 0 0.0013462501550681061 -0.0024583732301838019 0 0.00021002527488112694 -0.0023580951406691679 0 0.0013532485998102466 -0.0017998922322537932 0 0.0013462501550681061 -0.0024583732301838019 0 0.00021002527488112694 -0.0023580951406691679 0 0.0014716127212783888 -0.003098217898136343 0 0.0013462501550681061 -0.0024583732301838019 0 0.0036215844571754079 -0.0022893532896701529 0 0.0038135025900578904 -0.0021132864901152143 0 0.0066579537995202741 -0.0019033499971858245 0 0.0060604061028455176 -0.0016351563083512484 0 0.0064217999997335387 -0.0015173334742287585 0 0.0067864441812552192 -0.0014665253512748889 0 0.0064217999997335387 -0.0015173334742287585 0 0.0064714135789607661 -0.0012564008764633697 0 0.0061239737803791602 -0.0013154729092430214 0 0.0060604061028455176 -0.0016351563083512484 0 0.0064217999997335387 -0.0015173334742287585 0 0.0061239737803791602 -0.0013154729092430214 0 0.0064217999997335387 -0.0015173334742287585 0 0.0064714135789607661 -0.0012564008764633697 0 0.0061239737803791602 -0.0013154729092430214 0 0.0064714135789607661 -0.0012564008764633697 0 0.0062574490662501356 -0.0010706361545845141 0 0.0064714135789607661 -0.0012564008764633697 0 0.0064883548297283034 -0.0009497192517214846 0 0.0062574490662501356 -0.0010706361545845141 0 0.0067218015145489984 -0.0011543989969511244 0 0.0064714135789607661 -0.0012564008764633697 0 0.0064883548297283034 -0.0009497192517214846 0 0.0064883548297283034 -0.0009497192517214846 0 0.0062574490662501356 -0.0010706361545845141 0 0.0061826592895688325 -0.00081719594784809661 0 0.0062574490662501356 -0.0010706361545845141 0 0.0061826592895688325 -0.00081719594784809661 0 0.0059897209658246802 -0.0010683442139431778 0 0.0064883548297283034 -0.0009497192517214846 0 0.0061826592895688325 -0.00081719594784809661 0 0.006476776933549447 -0.00066750427450406442 0 0.0067491076799278986 -0.00089523369385402637 0 0.0064883548297283034 -0.0009497192517214846 0 0.006476776933549447 -0.00066750427450406442 0 0.0057062240290271134 -0.0011000623358692746 0 0.0058349914250695363 -0.0012126044857391611 0 0.0059897209658246802 -0.0010683442139431778 0 0.0057062240290271134 -0.0011000623358692746 0 0.0059897209658246802 -0.0010683442139431778 0 0.0058252231365605728 -0.0008632399458533373 0 0.0056717853434639929 -0.0012534056294102528 0 0.0057062240290271134 -0.0011000623358692746 0 0.0058349914250695363 -0.0012126044857391611 0 0.0061239737803791602 -0.0013154729092430214 0 0.0058349914250695363 -0.0012126044857391611 0 0.0059897209658246802 -0.0010683442139431778 0 0.0061239737803791602 -0.0013154729092430214 0 0.0062574490662501356 -0.0010706361545845141 0 0.0059897209658246802 -0.0010683442139431778 0 0.0061826592895688325 -0.00081719594784809661 0 0.0058252231365605728 -0.0008632399458533373 0 0.0059762970996662416 -0.00059145131255430698 0 0.0061826592895688325 -0.00081719594784809661 0 0.0059897209658246802 -0.0010683442139431778 0 0.0058252231365605728 -0.0008632399458533373 0 0.0058252231365605728 -0.0008632399458533373 0 0.0056879586622660388 -0.00063730728430941503 0 0.0054507045232843011 -0.00095715126163643826 0 0.0057062240290271134 -0.0011000623358692746 0 0.0058252231365605728 -0.0008632399458533373 0 0.0054507045232843011 -0.00095715126163643826 0 0.0056879586622660388 -0.00063730728430941503 0 0.0059762970996662416 -0.00059145131255430698 0 0.005863935479206629 -0.00037751194103411578 0 0.0058252231365605728 -0.0008632399458533373 0 0.0056879586622660388 -0.00063730728430941503 0 0.0059762970996662416 -0.00059145131255430698 0 0.0059762970996662416 -0.00059145131255430698 0 0.0061085452798004232 -0.00023773729800942241 0 0.0062679421935804159 -0.00047924434365432189 0 0.0059762970996662416 -0.00059145131255430698 0 0.0061085452798004232 -0.00023773729800942241 0 0.005863935479206629 -0.00037751194103411578 0 0.0061085452798004232 -0.00023773729800942241 0 0.005863935479206629 -0.00037751194103411578 0 0.0058710404139197987 -5.0082193494811556e-05 0 0.005863935479206629 -0.00037751194103411578 0 0.0058710404139197987 -5.0082193494811556e-05 0 0.0055982144751484785 -0.00039605667409994334 0 0.0056879586622660388 -0.00063730728430941503 0 0.005863935479206629 -0.00037751194103411578 0 0.0055982144751484785 -0.00039605667409994334 0 0.0067401993934601903 -0.00061673828179762173 0 0.0064992373468249834 -0.00040604553154771546 0 0.006476776933549447 -0.00066750427450406442 0 0.0064992373468249834 -0.00040604553154771546 0 0.006476776933549447 -0.00066750427450406442 0 0.0062679421935804159 -0.00047924434365432189 0 0.0061826592895688325 -0.00081719594784809661 0 0.0059762970996662416 -0.00059145131255430698 0 0.0062679421935804159 -0.00047924434365432189 0 0.0061826592895688325 -0.00081719594784809661 0 0.006476776933549447 -0.00066750427450406442 0 0.0062679421935804159 -0.00047924434365432189 0 0.0064992373468249834 -0.00040604553154771546 0 0.0062679421935804159 -0.00047924434365432189 0 0.0064001324063114725 -0.00013534228949492648 0 0.0061085452798004232 -0.00023773729800942241 0 0.0062679421935804159 -0.00047924434365432189 0 0.0064001324063114725 -0.00013534228949492648 0 0.0067402046540699931 -0.00024282188592570541 0 0.0064992373468249834 -0.00040604553154771546 0 0.0064001324063114725 -0.00013534228949492648 0 0.00679121447016349 0.00026627015265424817 0 0.0062771117475701761 0.00022119203237068761 0 0.0066303398665087396 0.00065370927828514551 0 0.0067402046540699931 -0.00024282188592570541 0 0.00679121447016349 0.00026627015265424817 0 0.0064001324063114725 -0.00013534228949492648 0 0.00679121447016349 0.00026627015265424817 0 0.0062771117475701761 0.00022119203237068761 0 0.0064001324063114725 -0.00013534228949492648 0 0.0061085452798004232 -0.00023773729800942241 0 0.0062771117475701761 0.00022119203237068761 0 0.0064001324063114725 -0.00013534228949492648 0 0.0061085452798004232 -0.00023773729800942241 0 0.0062771117475701761 0.00022119203237068761 0 0.0058710404139197987 -5.0082193494811556e-05 0 0.0058710404139197987 -5.0082193494811556e-05 0 0.0055449344931386485 -0.00011251407330145619 0 0.0055982144751484785 -0.00039605667409994334 0 0.0058710404139197987 -5.0082193494811556e-05 0 0.0057038278976528183 0.00023780664601983986 0 0.0055449344931386485 -0.00011251407330145619 0 0.0058710404139197987 -5.0082193494811556e-05 0 0.0057038278976528183 0.00023780664601983986 0 0.0059745950132670065 0.00034672288715492129 0 0.0062771117475701761 0.00022119203237068761 0 0.0058710404139197987 -5.0082193494811556e-05 0 0.0059745950132670065 0.00034672288715492129 0 0.0059745950132670065 0.00034672288715492129 0 0.005791309404599293 0.00058594751817662657 0 0.0062298698733783868 0.00074470940159249784 0 0.0062771117475701761 0.00022119203237068761 0 0.0059745950132670065 0.00034672288715492129 0 0.0062298698733783868 0.00074470940159249784 0 0.0057038278976528183 0.00023780664601983986 0 0.0059745950132670065 0.00034672288715492129 0 0.005791309404599293 0.00058594751817662657 0 0.0057038278976528183 0.00023780664601983986 0 0.005791309404599293 0.00058594751817662657 0 0.0054907212086117915 0.000461719485381697 0 0.005791309404599293 0.00058594751817662657 0 0.0054109350396125168 0.00074322496757798986 0 0.0058887702233973221 0.00095831676547345845 0 0.005791309404599293 0.00058594751817662657 0 0.0062298698733783868 0.00074470940159249784 0 0.0058887702233973221 0.00095831676547345845 0 0.0062771117475701761 0.00022119203237068761 0 0.0062298698733783868 0.00074470940159249784 0 0.0066303398665087396 0.00065370927828514551 0 0.006841420538619792 0.0011703766436178427 0 0.0062298698733783868 0.00074470940159249784 0 0.0066303398665087396 0.00065370927828514551 0 0.004852751748712001 -0.009395337358831116 0 0.0058432403695329741 -0.008440974466284638 0 0.0048582482621350688 -0.008445868433683083 0 0.0046020496369998075 0.00031008441134806755 0 0.0052013738554852829 0.00043908997816207568 0 0.0050742252095063245 4.5687425139634426e-05 0 0.0050978046217543781 -0.0038949882947074163 0 0.0053482893071087976 -0.0041260727463624707 0 0.0046020496369998075 0.00031008441134806755 0 0.0052013738554852829 0.00043908997816207568 0 0.0051724627855227094 0.00081572452259560089 0 0.0054109350396125168 0.00074322496757798986 0 0.0052013738554852829 0.00043908997816207568 0 0.0051724627855227094 0.00081572452259560089 0 0.0054109350396125168 0.00074322496757798986 0 0.0054907212086117915 0.000461719485381697 0 0.0052013738554852829 0.00043908997816207568 0 0.005791309404599293 0.00058594751817662657 0 0.0054109350396125168 0.00074322496757798986 0 0.0054907212086117915 0.000461719485381697 0 0.0057038278976528183 0.00023780664601983986 0 0.0054907212086117915 0.000461719485381697 0 0.0054295303876289985 0.00021083784783573636 0 0.0054907212086117915 0.000461719485381697 0 0.0052013738554852829 0.00043908997816207568 0 0.0054295303876289985 0.00021083784783573636 0 0.0052013738554852829 0.00043908997816207568 0 0.0054295303876289985 0.00021083784783573636 0 0.0050742252095063245 4.5687425139634426e-05 0 0.0054295303876289985 0.00021083784783573636 0 0.0055449344931386485 -0.00011251407330145619 0 0.0050742252095063245 4.5687425139634426e-05 0 0.0057038278976528183 0.00023780664601983986 0 0.0054295303876289985 0.00021083784783573636 0 0.0055449344931386485 -0.00011251407330145619 0 0.0055449344931386485 -0.00011251407330145619 0 0.0050742252095063245 4.5687425139634426e-05 0 0.0052009605052134068 -0.00035726541478306179 0 0.0050742252095063245 4.5687425139634426e-05 0 0.0047040292276790928 -0.00023024396988767515 0 0.0052009605052134068 -0.00035726541478306179 0 0.0046020496369998075 0.00031008441134806755 0 0.0050742252095063245 4.5687425139634426e-05 0 0.0047040292276790928 -0.00023024396988767515 0 0.0047040292276790928 -0.00023024396988767515 0 0.0048943735089534441 -0.00050757626235972285 0 0.0046615541749658387 -0.00077828513565699137 0 0.0048943735089534441 -0.00050757626235972285 0 0.0051200365173598847 -0.00071865143199386109 0 0.0052009605052134068 -0.00035726541478306179 0 0.0047040292276790928 -0.00023024396988767515 0 0.0048943735089534441 -0.00050757626235972285 0 0.0052009605052134068 -0.00035726541478306179 0 0.0051200365173598847 -0.00071865143199386109 0 0.0046615541749658387 -0.00077828513565699137 0 0.005121612352714678 -0.00095475090404372712 0 0.0048943735089534441 -0.00050757626235972285 0 0.0051200365173598847 -0.00071865143199386109 0 0.0046615541749658387 -0.00077828513565699137 0 0.0055449344931386485 -0.00011251407330145619 0 0.0055982144751484785 -0.00039605667409994334 0 0.0052009605052134068 -0.00035726541478306179 0 0.0055982144751484785 -0.00039605667409994334 0 0.0052009605052134068 -0.00035726541478306179 0 0.0054047791326259339 -0.00062824866070376457 0 0.0051200365173598847 -0.00071865143199386109 0 0.0054047791326259339 -0.00062824866070376457 0 0.0054507045232843011 -0.00095715126163643826 0 0.0051200365173598847 -0.00071865143199386109 0 0.0052009605052134068 -0.00035726541478306179 0 0.0054047791326259339 -0.00062824866070376457 0 0.0056879586622660388 -0.00063730728430941503 0 0.0055982144751484785 -0.00039605667409994334 0 0.0054047791326259339 -0.00062824866070376457 0 0.0056879586622660388 -0.00063730728430941503 0 0.0054047791326259339 -0.00062824866070376457 0 0.0054507045232843011 -0.00095715126163643826 0 0.0054507045232843011 -0.00095715126163643826 0 0.0052585829361400235 -0.0013646883060155226 0 0.005121612352714678 -0.00095475090404372712 0 0.0051200365173598847 -0.00071865143199386109 0 0.0054507045232843011 -0.00095715126163643826 0 0.005121612352714678 -0.00095475090404372712 0 0.006868491746382671 -0.00066792300818227686 0 0.0047921678032341935 -0.009121028463132624 0 0.0033819726385811441 -0.012818359890516235 0 0.0047921678032341935 -0.009121028463132624 0 0.0054507045232843011 -0.00095715126163643826 0 0.0053199461204703567 -0.0012253301750184029 0 0.0055112293129750802 -0.0011909809870158461 0 0.0057062240290271134 -0.0011000623358692746 0 0.0054507045232843011 -0.00095715126163643826 0 0.0055112293129750802 -0.0011909809870158461 0 0.0056717853434639929 -0.0012534056294102528 0 0.0057062240290271134 -0.0011000623358692746 0 0.0055112293129750802 -0.0011909809870158461 0 0.0024300901658569859 -0.021284895917798603 0 0.002082872970835118 -0.020864792876937762 0 0.0023984331125137337 -0.021106377199807229 0 0.0033474795800197258 -0.011236249297023247 0 0.0047921678032341935 -0.009121028463132624 0 0.0046615541749658387 -0.00077828513565699137 0 0.0052585829361400235 -0.0013646883060155226 0 0.005121612352714678 -0.00095475090404372712 0 0.0021061245195023812 -0.02081728943567078 0 0.002082872970835118 -0.020864792876937762 0 0.0023984331125137337 -0.021106377199807229 0 0.0019159845117385876 -0.021495837062068798 0 0.0012158137280046943 -0.021686458634994604 0 0.0022401756273819464 -0.021910828895589235 0 0.0033819726385811441 -0.012818359890516235 0 0.0026430743457842329 -0.021655064561540243 0 0.0025081006461491616 -0.021767332954828217 0 0.0019159845117385876 -0.021495837062068798 0 0.0022401756273819464 -0.021910828895589235 0 0.0022401756273819464 -0.021910828895589235 0 0.0022703111635292953 -0.021759646150768346 0 0.0022628646824733299 -0.021437207360291675 0 0.0025081006461491616 -0.021767332954828217 0 0.0022401756273819464 -0.021910828895589235 0 0.0022703111635292953 -0.021759646150768346 0 0.0024300901658569859 -0.021284895917798603 0 0.0023984331125137337 -0.021106377199807229 0 0.0022628646824733299 -0.021437207360291675 0 0.0026430743457842329 -0.021655064561540243 0 0.0020974342437720872 -0.021358492172684092 0 0.0019464717121835159 -0.022088822147890229 0 0.0022703111635292953 -0.021759646150768346 0 0.0019149485199329186 -0.021726778971548392 0 0.0019464717121835159 -0.022088822147890229 0 0.0019149485199329186 -0.021726778971548392 0 0.0016563521451526653 -0.022052024306192904 0 0.0019149485199329186 -0.021726778971548392 0 0.0016563521451526653 -0.022052024306192904 0 0.0015698144045360634 -0.021749749185404756 0 0.0019149485199329186 -0.021726778971548392 0 0.0017278142550778515 -0.021585855194653034 0 0.0019048646947549654 -0.021426809467729527 0 0.0019149485199329186 -0.021726778971548392 0 0.0017278142550778515 -0.021585855194653034 0 0.0015698144045360634 -0.021749749185404756 0 0.0022703111635292953 -0.021759646150768346 0 0.0019149485199329186 -0.021726778971548392 0 0.0022628646824733299 -0.021437207360291675 0 0.0019149485199329186 -0.021726778971548392 0 0.0019048646947549654 -0.021426809467729527 0 0.0022628646824733299 -0.021437207360291675 0 0.0019048646947549654 -0.021426809467729527 0 0.0021287996761385954 -0.021159657340695796 0 0.0014975701804991819 -0.021424512091886002 0 0.0015492358296108934 -0.021500713280215713 0 0.0039705908075400795 -0.010388516614380764 0 0.0033069531273294279 -0.016562007561755913 0 0.0040989067079356661 -0.013478640308644938 0 0.0067264030352722761 -0.013498625372340778 0 0.0019048646947549654 -0.021426809467729527 0 0.0021287996761385954 -0.021159657340695796 0 0.0022628646824733299 -0.021437207360291675 0 0.0021287996761385954 -0.021159657340695796 0 0.0014975701804991819 -0.021424512091886002 0 0.0021809566537222104 -0.020836917745447277 0 0.0017278142550778515 -0.021585855194653034 0 0.0019048646947549654 -0.021426809467729527 0 0.0014975701804991819 -0.021424512091886002 0 0.0024300901658569859 -0.021284895917798603 0 0.0021287996761385954 -0.021159657340695796 0 0.0021809566537222104 -0.020836917745447277 0 0.0033474795800197258 -0.011236249297023247 0 0.0039705908075400795 -0.010388516614380764 0 0.0024300901658569859 -0.021284895917798603 0 0.0021287996761385954 -0.021159657340695796 0 0.0022628646824733299 -0.021437207360291675 0 0.0047040292276790928 -0.00023024396988767515 0 0.0046615541749658387 -0.00077828513565699137 0 0.0040566876992419246 -0.00025059433825898471 0 0.00048826389733157738 -0.023531675807978051 0 0.00057241156241627489 -0.023610822983144202 0 0.00065633096580739586 -0.023127323497472152 0 0.00048826389733157738 -0.023531675807978051 0 0.0005741304907494367 -0.023594684523054011 0 0.00057241156241627489 -0.023610822983144202 0 0.00048826389733157738 -0.023531675807978051 0 0.00061126895413364242 -0.023577265249778361 0 0.0005741304907494367 -0.023594684523054011 0 0.001360522005164511 -0.022273777021649836 0 0.00096495602254562682 -0.022147194781470064 0 0.0015698144045360634 -0.021749749185404756 0 0.00096495602254562682 -0.022147194781470064 0 0.0015698144045360634 -0.021749749185404756 0 0.0014778911536666164 -0.021471780423202826 0 0.00062483131726897786 -0.022985766433546776 0 0.0015492358296108934 -0.021500713280215713 0 0.001360522005164511 -0.022273777021649836 0 0.0016563521451526653 -0.022052024306192904 0 0.0015698144045360634 -0.021749749185404756 0 0.0015693659008387847 -0.021635487871725621 0 0.0015492358296108934 -0.021500713280215713 0 0.0017278142550778515 -0.021585855194653034 0 0.0015698144045360634 -0.021749749185404756 0 0.0014975701804991819 -0.021424512091886002 0 0.0033069531273294279 -0.016562007561755913 0 0.0021698181381380002 -0.012891284975671012 0 0.0040989067079356661 -0.013478640308644938 0 0.0015492358296108934 -0.021500713280215713 0 0.0014587671904729034 -0.017899232657785522 0 0.00061126895413364242 -0.023577265249778361 0 0.0005741304907494367 -0.023594684523054011 0 0.00070234531538333452 -0.0234670150926919 0 0.00060549607774582233 -0.023542472699171296 0 0.00053747789822405434 -0.02357688224190178 0 0.00055430368645140063 -0.02363103257104969 0 0.0005741304907494367 -0.023594684523054011 0 0.00060549607774582233 -0.023542472699171296 0 0.00055430368645140063 -0.02363103257104969 0 0.0005741304907494367 -0.023594684523054011 0 0.00055430368645140063 -0.02363103257104969 0 0.00057241156241627489 -0.023610822983144202 0 0.0005741304907494367 -0.023594684523054011 0 0.00060549607774582233 -0.023542472699171296 0 0.00070234531538333452 -0.0234670150926919 0 0.00060549607774582233 -0.023542472699171296 0 0.00063606881427437909 -0.023378133612904899 0 0.00053747789822405434 -0.02357688224190178 0 0.00060549607774582233 -0.023542472699171296 0 0.00070234531538333452 -0.0234670150926919 0 0.00063606881427437909 -0.023378133612904899 0 0.0021698181381380002 -0.012891284975671012 0 0.0040989067079356661 -0.013478640308644938 0 0.0041968351316752119 -0.010986542063801308 0 0.0011797599157048952 -0.0092518320927950648 0 0.0041968351316752119 -0.010986542063801308 0 0.001772129614941876 -0.008621825854720629 0 0.0037837465892469808 -0.010478317689216574 0 0.00179607635607146 -0.0085991546428209296 0 0.0021698181381380002 -0.012891284975671012 0 0.0011797599157048952 -0.0092518320927950648 0 0.0041968351316752119 -0.010986542063801308 0 0.00070234531538333452 -0.0234670150926919 0 0.00076302928314614317 -0.023141475699223948 0 0.00063606881427437909 -0.023378133612904899 0 0.0014587671904729034 -0.017899232657785522 0 0.00071847534639569608 -0.016316061074295736 0 0.00076302928314614317 -0.023141475699223948 0 0.0006007206307595299 -0.023149214914308179 0 0.00063606881427437909 -0.023378133612904899 0 0.0046020496369998075 0.00031008441134806755 0 0.0047040292276790928 -0.00023024396988767515 0 0.0040566876992419246 -0.00025059433825898471 0 0.0050978046217543781 -0.0038949882947074163 0 0.0039705908075400795 -0.010388516614380764 0 0.0039705908075400795 -0.010388516614380764 0 0.0037837465892469808 -0.010478317689216574 0 0.0040989067079356661 -0.013478640308644938 0 0.0067264030352722761 -0.013498625372340778 0 0.0041968351316752119 -0.010986542063801308 0 0.0038478643335850553 -0.01030957675542123 0 0.0028564422641752562 -0.0093883671105947138 0 0.0039469516177896265 -0.0088948996810610699 0 0.0028564422641752562 -0.0093883671105947138 0 0.0039469516177896265 -0.0088948996810610699 0 0.0032522526091919709 -0.0082921236686755266 0 0.004852751748712001 -0.009395337358831116 0 0.0038478643335850553 -0.01030957675542123 0 0.0039469516177896265 -0.0088948996810610699 0 0.004852751748712001 -0.009395337358831116 0 0.0039469516177896265 -0.0088948996810610699 0 0.0048582482621350688 -0.008445868433683083 0 0.0039469516177896265 -0.0088948996810610699 0 0.0042427156477189108 -0.0075749045100742584 0 0.0048582482621350688 -0.008445868433683083 0 0.0042427156477189108 -0.0075749045100742584 0 0.0048582482621350688 -0.008445868433683083 0 0.0053647737815712537 -0.0078807879375958415 0 0.0039469516177896265 -0.0088948996810610699 0 0.0032522526091919709 -0.0082921236686755266 0 0.0042427156477189108 -0.0075749045100742584 0 0.0032522526091919709 -0.0082921236686755266 0 0.0030793263801404168 -0.0074187809008175168 0 0.0042427156477189108 -0.0075749045100742584 0 0.0028564422641752562 -0.0093883671105947138 0 0.0032522526091919709 -0.0082921236686755266 0 0.0024648240194668782 -0.0082441648016326075 0 0.0032522526091919709 -0.0082921236686755266 0 0.0030793263801404168 -0.0074187809008175168 0 0.0024648240194668782 -0.0082441648016326075 0 0.0037511385816638566 -0.006609195257342518 0 0.0030793263801404168 -0.0074187809008175168 0 0.0026533188464943633 -0.0063459358345599737 0 0.0037511385816638566 -0.006609195257342518 0 0.0030793263801404168 -0.0074187809008175168 0 0.0042427156477189108 -0.0075749045100742584 0 0.0037511385816638566 -0.006609195257342518 0 0.0042427156477189108 -0.0075749045100742584 0 0.0051257854436124652 -0.0060544603008082856 0 0.0011797599157048952 -0.0092518320927950648 0 0.0015158685650058668 -0.0080101092123485793 0 0.00082142114188092272 -0.0071898190002872243 0 0.00076302928314614317 -0.023141475699223948 0 0.00068052133679070406 -0.023025437341143016 0 0.0007070238491384542 -0.022669548664241583 0 0.00062849068770623191 -0.022970831663429545 0 0.00068052133679070406 -0.023025437341143016 0 0.0007070238491384542 -0.022669548664241583 0 0.00071847534639569608 -0.016316061074295736 0 0.0036993187571973149 -0.014231236979179246 0 0.00062849068770623191 -0.022970831663429545 0 0.0007070238491384542 -0.022669548664241583 0 0.00051588779896838118 -0.022964864876592862 0 0.0006007206307595299 -0.023149214914308179 0 0.00062849068770623191 -0.022970831663429545 0 0.00068052133679070406 -0.023025437341143016 0 0.00076302928314614317 -0.023141475699223948 0 0.0006007206307595299 -0.023149214914308179 0 0.00068052133679070406 -0.023025437341143016 0 0.0011797599157048952 -0.0092518320927950648 0 0.0015158685650058668 -0.0080101092123485793 0 0.001772129614941876 -0.008621825854720629 0 0.0028564422641752562 -0.0093883671105947138 0 0.001772129614941876 -0.008621825854720629 0 0.0024648240194668782 -0.0082441648016326075 0 0.0019522547718748391 -0.0080789195245171332 0 0.0024648240194668782 -0.0082441648016326075 0 0.0020360496422609474 -0.0074505234637760537 0 0.0015158685650058668 -0.0080101092123485793 0 0.0019522547718748391 -0.0080789195245171332 0 0.0020360496422609474 -0.0074505234637760537 0 0.0019522547718748391 -0.0080789195245171332 0 0.001772129614941876 -0.008621825854720629 0 0.0024648240194668782 -0.0082441648016326075 0 0.0015158685650058668 -0.0080101092123485793 0 0.0019522547718748391 -0.0080789195245171332 0 0.001772129614941876 -0.008621825854720629 0 0.0030793263801404168 -0.0074187809008175168 0 0.0020360496422609474 -0.0074505234637760537 0 0.0026533188464943633 -0.0063459358345599737 0 0.0036993187571973149 -0.014231236979179246 0 0.0054977495536883067 -0.0041016001786106406 0 0.0020360496422609474 -0.0074505234637760537 0 0.00082142114188092272 -0.0071898190002872243 0 0.0026533188464943633 -0.0063459358345599737 0 0.0030793263801404168 -0.0074187809008175168 0 0.0024648240194668782 -0.0082441648016326075 0 0.0020360496422609474 -0.0074505234637760537 0 0.0015158685650058668 -0.0080101092123485793 0 0.0020360496422609474 -0.0074505234637760537 0 0.00082142114188092272 -0.0071898190002872243 0 0.0088907975154470902 -0.0038143513697347477 0 0.0082269489874051069 -0.0054000356107655788 0 0.0071951323102564749 -0.0045609092394659351 0 0.0036993187571973149 -0.014231236979179246 0 0.0058416757214889729 -0.013528001707601298 0 0.0088907975154470902 -0.0038143513697347477 0 0.0082269489874051069 -0.0054000356107655788 0 0.0094961666314405807 -0.0053530644712473001 0 0.0082269489874051069 -0.0054000356107655788 0 0.0071951323102564749 -0.0045609092394659351 0 0.006898617749789256 -0.0057888547474093718 0 0.0082269489874051069 -0.0054000356107655788 0 0.006898617749789256 -0.0057888547474093718 0 0.0078869172826255482 -0.0066278252986208845 0 0.006898617749789256 -0.0057888547474093718 0 0.0065032642274775749 -0.0070811232064519882 0 0.0078869172826255482 -0.0066278252986208845 0 0.0082269489874051069 -0.0054000356107655788 0 0.0089343957111881912 -0.0063764856754120764 0 0.0094961666314405807 -0.0053530644712473001 0 0.0082269489874051069 -0.0054000356107655788 0 0.0089343957111881912 -0.0063764856754120764 0 0.0078869172826255482 -0.0066278252986208845 0 0.0037511385816638566 -0.006609195257342518 0 0.0042058406044295183 -0.0055489988724111133 0 0.0051257854436124652 -0.0060544603008082856 0 0.0071951323102564749 -0.0045609092394659351 0 0.006898617749789256 -0.0057888547474093718 0 0.0053163760343553695 -0.0052990944995906187 0 0.0054977495536883067 -0.0041016001786106406 0 0.0045567317814395204 -0.0056709635322767203 0 0.0037511385816638566 -0.006609195257342518 0 0.0026533188464943633 -0.0063459358345599737 0 0.0042058406044295183 -0.0055489988724111133 0 0.006898617749789256 -0.0057888547474093718 0 0.0053163760343553695 -0.0052990944995906187 0 0.0065032642274775749 -0.0070811232064519882 0 0.0053163760343553695 -0.0052990944995906187 0 0.0033460797231404612 -0.0060711042093289144 0 0.0050113028142275973 -0.007445130997342642 0 0.0042058406044295183 -0.0055489988724111133 0 0.005670696077981336 -0.0047790527069063986 0 0.0051257854436124652 -0.0060544603008082856 0 0.005670696077981336 -0.0047790527069063986 0 0.0051257854436124652 -0.0060544603008082856 0 0.0061514669809910787 -0.0059998908180995967 0 0.0045567317814395204 -0.0056709635322767203 0 0.0046153244525054945 -0.0053061190137715626 0 0.0051257854436124652 -0.0060544603008082856 0 0.0061514669809910787 -0.0059998908180995967 0 0.00558240647638887 -0.006990824684598611 0 0.0061514669809910787 -0.0059998908180995967 0 0.0073225273594354507 -0.006048633350229861 0 0.00637752776812835 -0.0068314019482082107 0 0.005670696077981336 -0.0047790527069063986 0 0.0061514669809910787 -0.0059998908180995967 0 0.0068088583644716144 -0.0051021599202651464 0 0.0068088583644716144 -0.0051021599202651464 0 0.0078158511284544107 -0.0046753303492027606 0 0.0073225273594354507 -0.006048633350229861 0 0.0076346107180900458 -8.7059746927724364e-05 0 0.0065568593343542153 -0.0025203464225584155 0 0.0065749040819111596 0.0031557515367027708 0 0.0067571293671555774 0.0026177598765322195 0 0.0059981794083906557 0.0021189527638533039 0 0.0070988780921806341 0.0029376969646451702 0 0.0065749040819111596 0.0031557515367027708 0 0.0067571293671555774 0.0026177598765322195 0 0.0070909289827199556 0.0033167241471968411 0 0.0070988780921806341 0.0029376969646451702 0 0.0065749040819111596 0.0031557515367027708 0 0.0067571293671555774 0.0026177598765322195 0 0.0067582997132742016 0.0021625419296068733 0 0.0059981794083906557 0.0021189527638533039 0 0.0067582997132742016 0.0021625419296068733 0 0.0059981794083906557 0.0021189527638533039 0 0.0061543813488249199 0.0015013305322334558 0 0.0070649364955250021 0.0024622361446196735 0 0.0067571293671555774 0.0026177598765322195 0 0.0067582997132742016 0.0021625419296068733 0 0.0066169113640077845 0.0020354321845169969 0 0.00637688942930127 0.0018408561889473891 0 0.0070303606229405518 0.0019797574155974843 0 0.0067582997132742016 0.0021625419296068733 0 0.006742594461269273 0.0017969611503232425 0 0.0061514669809910787 -0.0059998908180995967 0 0.0068088583644716144 -0.0051021599202651464 0 0.0073225273594354507 -0.006048633350229861 0 0.0065568593343542153 -0.0025203464225584155 0 0.0056639586647617337 -0.0012105299972631587 0 0.0059981794083906557 0.0021189527638533039 0 0.0061543813488249199 0.0015013305322334558 0 0.0054217411306703347 0.0008415748356995781 0 0.0062192122765517962 0.0018035263240685179 0 0.0062880043843212543 0.0012664769137814245 0 0.0057057981721762947 0.001407794558724631 0 0.0073225273594354507 -0.006048633350229861 0 0.0067862846436040156 -0.0075018704848517619 0 0.00637752776812835 -0.0068314019482082107 0 0.00637688942930127 0.0018408561889473891 0 0.0056639586647617337 -0.0012105299972631587 0 0.0062192122765517962 0.0018035263240685179 0 0.0066746924976727236 0.0014577143329638788 0 0.0062880043843212543 0.0012664769137814245 0 0.0062192122765517962 0.0018035263240685179 0 0.006742594461269273 0.0017969611503232425 0 0.0066746924976727236 0.0014577143329638788 0 0.0067582997132742016 0.0021625419296068733 0 0.0062192122765517962 0.0018035263240685179 0 0.006742594461269273 0.0017969611503232425 0 0.0069778124043695976 0.0016381132512134366 0 0.006742594461269273 0.0017969611503232425 0 0.0066746924976727236 0.0014577143329638788 0 0.006841420538619792 0.0011703766436178427 0 0.0066746924976727236 0.0014577143329638788 0 0.0062880043843212543 0.0012664769137814245 0 0.006841420538619792 0.0011703766436178427 0 0.0062298698733783868 0.00074470940159249784 0 0.0062880043843212543 0.0012664769137814245 0 0.0054109350396125168 0.00074322496757798986 0 0.0057057981721762947 0.001407794558724631 0 0.0058887702233973221 0.00095831676547345845 0 0.0062880043843212543 0.0012664769137814245 0 0.0057057981721762947 0.001407794558724631 0 0.0058887702233973221 0.00095831676547345845 0 0.0062298698733783868 0.00074470940159249784 0 0.0062880043843212543 0.0012664769137814245 0 0.0058887702233973221 0.00095831676547345845 0 0.0054109350396125168 0.00074322496757798986 0 0.0055857323948886638 0.0010964373916404256 0 0.0051724627855227094 0.00081572452259560089 0 0.0057080550830012977 0.0015461110905403174 0 0.0056639586647617337 -0.0012105299972631587 0 0.0056639586647617337 -0.0012105299972631587 0 0.0053482893071087976 -0.0041260727463624707 0 0.0067862846436040156 -0.0075018704848517619 0 0.0059995443217290287 -0.007535446136786134 0 0.0058432403695329741 -0.008440974466284638 0 0.0058432403695329741 -0.008440974466284638 0 0.0048582482621350688 -0.008445868433683083 0 0.0053647737815712537 -0.0078807879375958415 0 0.0059995443217290287 -0.007535446136786134 0 0.0058432403695329741 -0.008440974466284638 0 0.0053647737815712537 -0.0078807879375958415 0 0.0059995443217290287 -0.007535446136786134 0 0.0053647737815712537 -0.0078807879375958415 0 0.00558240647638887 -0.006990824684598611 0 0.0042427156477189108 -0.0075749045100742584 0 0.0051257854436124652 -0.0060544603008082856 0 0.00558240647638887 -0.006990824684598611 0 0.0042427156477189108 -0.0075749045100742584 0 0.0053647737815712537 -0.0078807879375958415 0 0.00558240647638887 -0.006990824684598611 0 0.0061514669809910787 -0.0059998908180995967 0 0.00558240647638887 -0.006990824684598611 0 0.00637752776812835 -0.0068314019482082107 0 0.0067862846436040156 -0.0075018704848517619 0 0.0059995443217290287 -0.007535446136786134 0 0.00637752776812835 -0.0068314019482082107 0 0.0059995443217290287 -0.007535446136786134 0 0.00558240647638887 -0.006990824684598611 0 0.00637752776812835 -0.0068314019482082107 0 0.00094227712947599139 -0.025856631466665281 0 0.00098180654687235989 -0.025412135930277857 0 0.0007271688327627117 -0.025286954115656169 0 0.00094227712947599139 -0.025856631466665281 0 0.00053189739132419032 -0.025417365003875758 0 0.0007271688327627117 -0.025286954115656169 0 0.00053189739132419032 -0.025417365003875758 0 0.00043910072579460979 -0.025097974546531752 0 0.0007271688327627117 -0.025286954115656169 0 0.00043910072579460979 -0.025097974546531752 0 0.0007271688327627117 -0.025286954115656169 0 0.00059942820886685279 -0.024851344601526274 0 0.00043910072579460979 -0.025097974546531752 0 0.00037387357356564923 -0.024766162448946014 0 0.00059942820886685279 -0.024851344601526274 0 0.00067657185947508978 -0.024934452926986331 0 0.0007271688327627117 -0.025286954115656169 0 0.00059942820886685279 -0.024851344601526274 0 0.00037500693417777089 -0.025340278798109517 0 0.00041648116265422013 -0.025854446223213669 0 -0.00042202561029125349 -0.026134146969305352 0 -4.8458408494136021e-05 -0.026319532186589081 0 -0.00010220143435247908 -0.026061485812733393 0 0.00067657185947508978 -0.024934452926986331 0 0.00098180654687235989 -0.025412135930277857 0 0.0007271688327627117 -0.025286954115656169 0 0.00041648116265422013 -0.025854446223213669 0 0.00077614853440154401 -0.026217545431555838 0 -4.8458408494136021e-05 -0.026319532186589081 0 0.00046590939471395198 -0.026496360400152904 0 0.00030755108932331788 -0.026082102632732512 0 -4.8458408494136021e-05 -0.026319532186589081 0 -0.00010220143435247908 -0.026061485812733393 0 0.00030755108932331788 -0.026082102632732512 0 0.00046590939471395198 -0.026496360400152904 0 0.00030755108932331788 -0.026082102632732512 0 0.00080996750285575333 -0.026329738857367061 0 0.0011400508662453791 -0.025975593176741089 0 0.0011025506475590547 -0.026258484928927905 0 0.00096098187922696475 -0.026457379593119119 0 0.00094227712947599139 -0.025856631466665281 0 0.00098180654687235989 -0.025412135930277857 0 0.0011400508662453791 -0.025975593176741089 0 0.00094227712947599139 -0.025856631466665281 0 0.0011400508662453791 -0.025975593176741089 0 0.0011025506475590547 -0.026258484928927905 0 0.00094227712947599139 -0.025856631466665281 0 0.0011025506475590547 -0.026258484928927905 0 0.00098210118322254562 -0.026316556108414057 0 0.0010844271100864003 -0.026510943305398601 0 0.0011292987021234112 -0.026011557800354818 0 0.0011025506475590547 -0.026258484928927905 0 0.0010322193084722365 -0.026438705423538576 0 0.00090416588588012291 -0.026562567966000376 0 0.0011025506475590547 -0.026258484928927905 0 0.00098210118322254562 -0.026316556108414057 0 0.0012569578444559474 -0.026478915901946204 0 0.00098210118322254562 -0.026316556108414057 0 0.0005900906784768855 -0.026149642410852887 0 0.00069314571369386317 -0.026557030426056484 0 0.00094227712947599139 -0.025856631466665281 0 0.00098210118322254562 -0.026316556108414057 0 0.0005900906784768855 -0.026149642410852887 0 0.00053874320580916068 -0.025453407393592368 0 0.00060356343687165874 -0.025938968374572234 0 0.00053189739132419032 -0.025417365003875758 0 0.00061056369416307842 -0.025747933937532292 0 0.00030416902493776509 -0.025442544982605061 0 0.00094227712947599139 -0.025856631466665281 0 0.00053189739132419032 -0.025417365003875758 0 0.0005900906784768855 -0.026149642410852887 0 0.00061056369416307842 -0.025747933937532292 0 0.00039022198925144769 -0.02604889255127003 0 0.00072054272530596114 -0.026255887517024679 0 0.00060356343687165874 -0.025938968374572234 0 0.00070412480599758105 -0.026415088816039864 0 0.00061056369416307842 -0.025747933937532292 0 0.00012618084707655616 -0.025796668859289152 0 0.00039022198925144769 -0.02604889255127003 0 0.00012618084707655616 -0.025796668859289152 0 0.00011257212913842548 -0.0262178941124094 0 0.00039022198925144769 -0.02604889255127003 0 0.00012618084707655616 -0.025796668859289152 0 -0.00016960263851710224 -0.026025899428860039 0 0.00011257212913842548 -0.0262178941124094 0 0.00012618084707655616 -0.025796668859289152 0 -0.0002761824481264534 -0.025740784755223543 0 -0.00016960263851710224 -0.026025899428860039 0 0.00012618084707655616 -0.025796668859289152 0 -0.0002761824481264534 -0.025740784755223543 0 -0.00011814361405964219 -0.025391529554227119 0 0.00012618084707655616 -0.025796668859289152 0 0.00030416902493776509 -0.025442544982605061 0 -0.00011814361405964219 -0.025391529554227119 0 0.00061056369416307842 -0.025747933937532292 0 0.00012618084707655616 -0.025796668859289152 0 0.00030416902493776509 -0.025442544982605061 0 0.0058416757214889729 -0.013528001707601298 0 0.0053295133934012249 -0.015571274441246943 0 0.0089343957111881912 -0.0063764856754120764 0 0.0094961666314405807 -0.0053530644712473001 0 0.010168971422238418 -0.0070231589059175526 0 0.0005335067378451849 -0.022248805975746289 0 0.0018380873223906304 -0.022388384625250515 0 0.0013883896178056925 -0.02073126264782504 0 -0.0002761824481264534 -0.025740784755223543 0 -0.00046448379373150887 -0.026039047087711591 0 -0.00016960263851710224 -0.026025899428860039 0 -0.00086218917887253611 -0.025645958759281533 0 0.0053295133934012249 -0.015571274441246943 0 0.0005335067378451849 -0.022248805975746289 0 0.00073658179874471126 -0.023530810680208642 0 1.3422569426459381e-05 -0.023681770591867497 0 0.0005335067378451849 -0.022248805975746289 0 0.0013734009254492638 -0.023051055541276247 0 0.00073658179874471126 -0.023530810680208642 0 -0.00086218917887253611 -0.025645958759281533 0 0.00020444519344869314 -0.024146040744270708 0 0.0022172495069954726 -0.023726676786296502 0 0.0018380873223906304 -0.022388384625250515 0 0.0019672421557351189 -0.023274680207728222 0 0.0005335067378451849 -0.022248805975746289 0 0.0013734009254492638 -0.023051055541276247 0 0.0018380873223906304 -0.022388384625250515 0 0.0013734009254492638 -0.023051055541276247 0 0.0018380873223906304 -0.022388384625250515 0 0.0019672421557351189 -0.023274680207728222 0 0.0019672421557351189 -0.023274680207728222 0 0.0012407816085357774 -0.023623018948371627 0 0.0012856282298768151 -0.024295878814071779 0 0.0022172495069954726 -0.023726676786296502 0 0.0019672421557351189 -0.023274680207728222 0 0.0014633996095198517 -0.02409820089430648 0 0.0019412282387250336 -0.023318526807365497 0 0.00054782469677945209 -0.023915689470835697 0 0.0036993187571973149 -0.014231236979179246 0 0.00054782469677945209 -0.023915689470835697 0 0.0013734009254492638 -0.023051055541276247 0 0.0019672421557351189 -0.023274680207728222 0 0.0012407816085357774 -0.023623018948371627 0 0.0013734009254492638 -0.023051055541276247 0 0.0012407816085357774 -0.023623018948371627 0 0.00073658179874471126 -0.023530810680208642 0 0.0012407816085357774 -0.023623018948371627 0 0.0008284723797620454 -0.024044346374489337 0 0.0012856282298768151 -0.024295878814071779 0 0.0008284723797620454 -0.024044346374489337 0 0.00073658179874471126 -0.023530810680208642 0 0.00036792781695459104 -0.02428316655267107 0 0.0012407816085357774 -0.023623018948371627 0 0.0008284723797620454 -0.024044346374489337 0 0.00073658179874471126 -0.023530810680208642 0 0.00073658179874471126 -0.023530810680208642 0 0.00036792781695459104 -0.02428316655267107 0 1.3422569426459381e-05 -0.023681770591867497 0 0.00054782469677945209 -0.023915689470835697 0 0.00031646889997443464 -0.023907003719578501 0 0.00036792781695459104 -0.02428316655267107 0 0.00071601403596503624 -0.024447515014866843 0 0.00022654422509572769 -0.024631300218362923 0 0.00071601403596503624 -0.024447515014866843 0 0.00091892325751658551 -0.024426896443262885 0 0.00022401016616767651 -0.024621058210870368 0 0.00071601403596503624 -0.024447515014866843 0 0.00022654422509572769 -0.024631300218362923 0 0.00022401016616767651 -0.024621058210870368 0 0.0008284723797620454 -0.024044346374489337 0 0.00036792781695459104 -0.02428316655267107 0 0.00071601403596503624 -0.024447515014866843 0 0.00042212201052866234 -0.022869540824958283 0 0.00046231022051874954 -0.023139951415049709 0 0.00027104440569282397 -0.023379359332497861 0 0.0008284723797620454 -0.024044346374489337 0 0.00071601403596503624 -0.024447515014866843 0 0.0012856282298768151 -0.024295878814071779 0 0.00042212201052866234 -0.022869540824958283 0 0.00046231022051874954 -0.023139951415049709 0 0.00051588779896838118 -0.022964864876592862 0 0.00070206153997782333 -0.024136200112109787 0 0.00054782469677945209 -0.023915689470835697 0 0.0006007206307595299 -0.023149214914308179 0 0.00062849068770623191 -0.022970831663429545 0 0.00051588779896838118 -0.022964864876592862 0 0.0006007206307595299 -0.023149214914308179 0 0.00046231022051874954 -0.023139951415049709 0 0.00051588779896838118 -0.022964864876592862 0 0.0007070238491384542 -0.022669548664241583 0 0.00042212201052866234 -0.022869540824958283 0 0.00051588779896838118 -0.022964864876592862 0 0.00043910072579460979 -0.025097974546531752 0 0.00030416902493776509 -0.025442544982605061 0 0.0001086024680501396 -0.024775370417917646 0 0.00053189739132419032 -0.025417365003875758 0 0.00043910072579460979 -0.025097974546531752 0 0.00030416902493776509 -0.025442544982605061 0 0.00020444519344869314 -0.024146040744270708 0 -5.8392936927504811e-06 -0.024849369478982215 0 0.00030416902493776509 -0.025442544982605061 0 -0.00011814361405964219 -0.025391529554227119 0 0.0001086024680501396 -0.024775370417917646 0 0.00036792781695459104 -0.02428316655267107 0 1.3422569426459381e-05 -0.023681770591867497 0 0.0001086024680501396 -0.024775370417917646 0 0.00036792781695459104 -0.02428316655267107 0 0.0001086024680501396 -0.024775370417917646 0 0.00022654422509572769 -0.024631300218362923 0 0.00043910072579460979 -0.025097974546531752 0 0.0001086024680501396 -0.024775370417917646 0 0.00037387357356564923 -0.024766162448946014 0 0.00037387357356564923 -0.024766162448946014 0 0.00032655945551172131 -0.024509341868287252 0 0.00059942820886685279 -0.024851344601526274 0 0.00035365570345219642 -0.024469993342505283 0 0.00043886014795044731 -0.025003748352488548 0 0.0001086024680501396 -0.024775370417917646 0 0.00037387357356564923 -0.024766162448946014 0 0.00032655945551172131 -0.024509341868287252 0 0.0001086024680501396 -0.024775370417917646 0 0.00022654422509572769 -0.024631300218362923 0 0.00032655945551172131 -0.024509341868287252 0 0.00022654422509572769 -0.024631300218362923 0 0.00032655945551172131 -0.024509341868287252 0 0.00022401016616767651 -0.024621058210870368 0 0.00031646889997443464 -0.023907003719578501 0 0.00025495110456371777 -0.024017107908750383 0 0.00032655945551172131 -0.024509341868287252 0 0.00022401016616767651 -0.024621058210870368 0 0.00026787465988457014 -0.024007946673429079 0 0.00032655945551172131 -0.024509341868287252 0 0.00056637161622911383 -0.024315742056477147 0 0.00052628174881498135 -0.02447054810368085 0 0.00032655945551172131 -0.024509341868287252 0 0.00026787465988457014 -0.024007946673429079 0 0.00056637161622911383 -0.024315742056477147 0 0.00063606881427437909 -0.023378133612904899 0 0.00049503350725188619 -0.02330981237882036 0 0.00044311321505543247 -0.023560826972030362 0 0.00046231022051874954 -0.023139951415049709 0 0.00049503350725188619 -0.02330981237882036 0 0.00027104440569282397 -0.023379359332497861 0 0.00049503350725188619 -0.02330981237882036 0 0.00027104440569282397 -0.023379359332497861 0 0.00044311321505543247 -0.023560826972030362 0 0.0006007206307595299 -0.023149214914308179 0 0.00063606881427437909 -0.023378133612904899 0 0.00049503350725188619 -0.02330981237882036 0 0.0006007206307595299 -0.023149214914308179 0 0.00046231022051874954 -0.023139951415049709 0 0.00049503350725188619 -0.02330981237882036 0 0.00027104440569282397 -0.023379359332497861 0 0.00044311321505543247 -0.023560826972030362 0 0.00026787465988457014 -0.024007946673429079 0 0.00063606881427437909 -0.023378133612904899 0 0.00044311321505543247 -0.023560826972030362 0 0.00053747789822405434 -0.02357688224190178 0 0.00044311321505543247 -0.023560826972030362 0 0.00053747789822405434 -0.02357688224190178 0 0.00045379981449967898 -0.023726009427554991 0 0.00055430368645140063 -0.02363103257104969 0 0.00045379981449967898 -0.023726009427554991 0 0.00057241156241627489 -0.023610822983144202 0 0.00053747789822405434 -0.02357688224190178 0 0.00055430368645140063 -0.02363103257104969 0 0.00045379981449967898 -0.023726009427554991 0 0.00045379981449967898 -0.023726009427554991 0 0.00034173007407324108 -0.023912437917072427 0 0.00026787465988457014 -0.024007946673429079 0 0.00044311321505543247 -0.023560826972030362 0 0.00045379981449967898 -0.023726009427554991 0 0.00026787465988457014 -0.024007946673429079 0 0.00075401226556830842 -0.023418650913716393 0 0.00057241156241627489 -0.023610822983144202 0 0.00065633096580739586 -0.023127323497472152 0 0.00045379981449967898 -0.023726009427554991 0 0.00034173007407324108 -0.023912437917072427 0 0.00057241156241627489 -0.023610822983144202 0 0.00054198569874805598 -0.023671316050415104 0 0.00055193074256569335 -0.02362399151828894 0 0.00026787465988457014 -0.024007946673429079 0 0.0004100572639401786 -0.024025217731021814 0 0.00056637161622911383 -0.024315742056477147 0 0.00034173007407324108 -0.023912437917072427 0 0.00026787465988457014 -0.024007946673429079 0 0.0004100572639401786 -0.024025217731021814 0 0.00034173007407324108 -0.023912437917072427 0 0.0004100572639401786 -0.024025217731021814 0 0.00043053335403321348 -0.02395207620858928 0 0.0004100572639401786 -0.024025217731021814 0 0.00059654110457525126 -0.0240947309801063 0 0.00043053335403321348 -0.02395207620858928 0 0.00059654110457525126 -0.0240947309801063 0 0.00078142904448287424 -0.024164672389784786 0 0.00066183899465307257 -0.024001543907633566 0 0.00059654110457525126 -0.0240947309801063 0 0.00070941779317202627 -0.024219894241688033 0 0.00078142904448287424 -0.024164672389784786 0 0.00059654110457525126 -0.0240947309801063 0 0.00070941779317202627 -0.024219894241688033 0 0.00056637161622911383 -0.024315742056477147 0 0.0004100572639401786 -0.024025217731021814 0 0.00059654110457525126 -0.0240947309801063 0 0.00056637161622911383 -0.024315742056477147 0 0.00056637161622911383 -0.024315742056477147 0 0.00074482533706227074 -0.0243758950691206 0 0.00061456474377726304 -0.024470249330933214 0 0.00070941779317202627 -0.024219894241688033 0 0.00056637161622911383 -0.024315742056477147 0 0.00074482533706227074 -0.0243758950691206 0 0.00070941779317202627 -0.024219894241688033 0 0.00074482533706227074 -0.0243758950691206 0 0.00079523653565339789 -0.024231472388502848 0 0.0006275697597384447 -0.024596529880620652 0 0.00074482533706227074 -0.0243758950691206 0 0.00061456474377726304 -0.024470249330933214 0 0.00037500693417777089 -0.025340278798109517 0 0.0002480700968376807 -0.025078840091780109 0 -0.00042202561029125349 -0.026134146969305352 0 -0.0001646083202145342 -0.025743143072040505 0 -0.00010220143435247908 -0.026061485812733393 0 0.0006275697597384447 -0.024596529880620652 0 0.00059010474055446133 -0.024578829133471897 0 0.00061456474377726304 -0.024470249330933214 0 0.00032655945551172131 -0.024509341868287252 0 0.00059010474055446133 -0.024578829133471897 0 0.00052628174881498135 -0.02447054810368085 0 0.00037500693417777089 -0.025340278798109517 0 0.00043886014795044731 -0.025003748352488548 0 0.00056637161622911383 -0.024315742056477147 0 0.00052628174881498135 -0.02447054810368085 0 0.00061456474377726304 -0.024470249330933214 0 0.00059010474055446133 -0.024578829133471897 0 0.00052628174881498135 -0.02447054810368085 0 0.00061456474377726304 -0.024470249330933214 0 0.00030755108932331788 -0.026082102632732512 0 0.00030859532646816511 -0.025650760622009525 0 0.00088293956252070754 -0.026025291927047937 0 -0.0001646083202145342 -0.025743143072040505 0 -0.00010220143435247908 -0.026061485812733393 0 0.00030755108932331788 -0.026082102632732512 0 -0.0001646083202145342 -0.025743143072040505 0 0.00030755108932331788 -0.026082102632732512 0 0.00030859532646816511 -0.025650760622009525 0 0.0002480700968376807 -0.025078840091780109 0 0.00043292699663393346 -0.024765584293010866 0 -0.0001646083202145342 -0.025743143072040505 0 0.00030859532646816511 -0.025650760622009525 0 5.1460244664445955e-05 -0.025317661482455539 0 0.00043292699663393346 -0.024765584293010866 0 0.0005696823537829893 -0.02452228994798869 0 0.00030859532646816511 -0.025650760622009525 0 5.1460244664445955e-05 -0.025317661482455539 0 0.00055562944412659995 -0.025323113252477408 0 5.1460244664445955e-05 -0.025317661482455539 0 0.00032506631212654959 -0.024807126598763964 0 0.00055562944412659995 -0.025323113252477408 0 0.00070941779317202627 -0.024219894241688033 0 0.00079523653565339789 -0.024231472388502848 0 0.00078142904448287424 -0.024164672389784786 0 0.00079523653565339789 -0.024231472388502848 0 0.00078142904448287424 -0.024164672389784786 0 0.00079360388630772668 -0.024213393129847945 0 0.00078142904448287424 -0.024164672389784786 0 0.00079360388630772668 -0.024213393129847945 0 0.00081902076985831355 -0.02433860069778843 0 0.00079360388630772668 -0.024213393129847945 0 0.00081902076985831355 -0.02433860069778843 0 0.00070342947180741377 -0.02444595929494002 0 0.00081902076985831355 -0.02433860069778843 0 0.00084006605340858831 -0.024291700115360398 0 0.00083255769202406386 -0.024608039576065457 0 0.00078142904448287424 -0.024164672389784786 0 0.00081902076985831355 -0.02433860069778843 0 0.00084006605340858831 -0.024291700115360398 0 0.00078142904448287424 -0.024164672389784786 0 0.00084006605340858831 -0.024291700115360398 0 0.00066183899465307257 -0.024001543907633566 0 0.00059654110457525126 -0.0240947309801063 0 0.00066183899465307257 -0.024001543907633566 0 0.00043053335403321348 -0.02395207620858928 0 0.00066183899465307257 -0.024001543907633566 0 0.00062057603381647725 -0.023864590227394483 0 0.00061758319508457209 -0.023643166924341204 0 0.00065547776874519208 -0.023957145544929101 0 0.00054336476851084097 -0.023807464845224408 0 0.00066183899465307257 -0.024001543907633566 0 0.00062057603381647725 -0.023864590227394483 0 0.00068455386478788471 -0.024025217284611235 0 0.00084006605340858831 -0.024291700115360398 0 0.00066183899465307257 -0.024001543907633566 0 0.00068455386478788471 -0.024025217284611235 0 0.00084006605340858831 -0.024291700115360398 0 0.00068455386478788471 -0.024025217284611235 0 0.0006492967751897486 -0.023818251827415961 0 0.00062057603381647725 -0.023864590227394483 0 0.00068455386478788471 -0.024025217284611235 0 0.00059263861382579872 -0.023811065880416614 0 0.00068455386478788471 -0.024025217284611235 0 0.00059263861382579872 -0.023811065880416614 0 0.0006492967751897486 -0.023818251827415961 0 0.0006492967751897486 -0.023818251827415961 0 4.1097689077425304e-05 -0.02258365767091906 0 0.00041947174436892634 -0.022545127699981155 0 0.0006571548053393452 -0.023718626644803648 0 0.00040084597102727832 -0.02328716737857351 0 0.00059263861382579872 -0.023811065880416614 0 0.0006492967751897486 -0.023818251827415961 0 0.00060132691021709496 -0.02370921444575582 0 0.0006492967751897486 -0.023818251827415961 0 0.00085803089431715665 -0.024259316700994845 0 0.00067179454394925985 -0.023111827655484925 0 0.00085803089431715665 -0.024259316700994845 0 0.00087379576679788671 -0.025540961460841609 0 0.00090914545479602743 -0.024834033727913023 0 0.00084006605340858831 -0.024291700115360398 0 0.00085803089431715665 -0.024259316700994845 0 0.00090914545479602743 -0.024834033727913023 0 0.00084006605340858831 -0.024291700115360398 0 0.00083255769202406386 -0.024608039576065457 0 0.00090914545479602743 -0.024834033727913023 0 0.00084006605340858831 -0.024291700115360398 0 0.0006492967751897486 -0.023818251827415961 0 0.00085803089431715665 -0.024259316700994845 0 0.00065633096580739586 -0.023127323497472152 0 0.00066570447248335066 -0.023402530926763691 0 0.00080557833028188262 -0.023331755610183039 0 0.00075401226556830842 -0.023418650913716393 0 0.00065633096580739586 -0.023127323497472152 0 0.00066570447248335066 -0.023402530926763691 0 0.00075401226556830842 -0.023418650913716393 0 0.00066570447248335066 -0.023402530926763691 0 0.00067687441598907657 -0.02353405493748436 0 0.00066570447248335066 -0.023402530926763691 0 0.00062145450766281165 -0.023698233422698469 0 0.0006164272673354485 -0.023509174552099801 0 0.00066570447248335066 -0.023402530926763691 0 0.00067687441598907657 -0.02353405493748436 0 0.00062145450766281165 -0.023698233422698469 0 0.00054198569874805598 -0.023671316050415104 0 0.00054336476851084097 -0.023807464845224408 0 0.00075401226556830842 -0.023418650913716393 0 0.00067687441598907657 -0.02353405493748436 0 0.00061758319508457209 -0.023643166924341204 0 0.00067687441598907657 -0.02353405493748436 0 0.00061758319508457209 -0.023643166924341204 0 0.00062145450766281165 -0.023698233422698469 0 0.00062057603381647725 -0.023864590227394483 0 0.00061758319508457209 -0.023643166924341204 0 0.00062145450766281165 -0.023698233422698469 0 0.00062057603381647725 -0.023864590227394483 0 0.00059263861382579872 -0.023811065880416614 0 0.00062145450766281165 -0.023698233422698469 0 0.00059263861382579872 -0.023811065880416614 0 0.00062145450766281165 -0.023698233422698469 0 0.00057533376089297485 -0.023765179519367814 0 0.00059263861382579872 -0.023811065880416614 0 0.00060132691021709496 -0.02370921444575582 0 0.00057533376089297485 -0.023765179519367814 0 0.00060132691021709496 -0.02370921444575582 0 0.00057533376089297485 -0.023765179519367814 0 0.00052530284264885776 -0.023695397317488907 0 0.00057533376089297485 -0.023765179519367814 0 0.00052530284264885776 -0.023695397317488907 0 0.00052413853014076077 -0.023774789781615114 0 0.00052530284264885776 -0.023695397317488907 0 0.00052413853014076077 -0.023774789781615114 0 0.00044652725858890783 -0.023655247496412998 0 0.00063478350757455984 -0.023708489346977588 0 0.00049738974893106126 -0.023582327924520721 0 0.00062145450766281165 -0.023698233422698469 0 0.00057533376089297485 -0.023765179519367814 0 0.00052413853014076077 -0.023774789781615114 0 0.00066570447248335066 -0.023402530926763691 0 0.0006164272673354485 -0.023509174552099801 0 0.00071436619176094753 -0.023479712186858258 0 0.00052413853014076077 -0.023774789781615114 0 0.00033275982615491858 -0.023679170726041858 0 0.00044652725858890783 -0.023655247496412998 0 0.00049738974893106126 -0.023582327924520721 0 0.00083001485106147467 -0.023940061436539029 0 0.0006164272673354485 -0.023509174552099801 0 0.00070172130656791817 -0.023692198779545877 0 0.00071436619176094753 -0.023479712186858258 0 0.00070172130656791817 -0.023692198779545877 0 0.00085622356031402655 -0.023563692492005316 0 0.00071436619176094753 -0.023479712186858258 0 0.00092864708756693407 -0.023775312069362557 0 0.00070172130656791817 -0.023692198779545877 0 0.00085622356031402655 -0.023563692492005316 0 0.00066570447248335066 -0.023402530926763691 0 0.00071436619176094753 -0.023479712186858258 0 0.00080557833028188262 -0.023331755610183039 0 0.00085622356031402655 -0.023563692492005316 0 0.00071436619176094753 -0.023479712186858258 0 0.00080557833028188262 -0.023331755610183039 0 -0.0010926664135521885 -0.022724948099064841 0 -0.00073748390424903029 -0.022087549870771276 0 -0.0034653580923093628 -0.020425324612957051 0 -0.0031123819086631092 -0.019904540255937103 0 -0.0017396849816786182 -0.020675692537502476 0 -0.002656233996909878 -0.019492737169824324 0 -0.0012065626995427087 -0.019731729444171345 0 -0.0017153231914021779 -0.018725187452907594 0 -0.003610672997540513 -0.019067825070116805 0 -0.002656233996909878 -0.019492737169824324 0 -0.0031352629517076317 -0.018357287670390604 0 -0.003610672997540513 -0.019067825070116805 0 -0.0034665870286003579 -0.01962502430220801 0 -0.002656233996909878 -0.019492737169824324 0 -0.0034665870286003579 -0.01962502430220801 0 -0.002656233996909878 -0.019492737169824324 0 -0.0031123819086631092 -0.019904540255937103 0 -0.002656233996909878 -0.019492737169824324 0 -0.0031123819086631092 -0.019904540255937103 0 -0.0017396849816786182 -0.020675692537502476 0 0.00010526228813994028 -0.023468322150989051 0 0.00033275982615491858 -0.023679170726041858 0 0.00031388183658775947 -0.023500082719120845 0 0.00092864708756693407 -0.023775312069362557 0 0.00092797921008066749 -0.023990029314049557 0 0.00070172130656791817 -0.023692198779545877 0 -0.0010926664135521885 -0.022724948099064841 0 0.00083001485106147467 -0.023940061436539029 0 -0.00073748390424903029 -0.022087549870771276 0 -0.00022929544056724883 -0.021664651035238333 0 0.00033275982615491858 -0.023679170726041858 0 0.00031388183658775947 -0.023500082719120845 0 0.00044652725858890783 -0.023655247496412998 0 0.00031388183658775947 -0.023500082719120845 0 0.00044652725858890783 -0.023655247496412998 0 0.00047691861414939036 -0.023552457817037558 0 -0.0026474659639790657 -0.019383306316471029 0 -0.00022929544056724883 -0.021664651035238333 0 -0.002656233996909878 -0.019492737169824324 0 -0.0017396849816786182 -0.020675692537502476 0 -6.1871672952271678e-06 -0.020897152604133915 0 -0.0012065626995427087 -0.019731729444171345 0 -0.00044669977015319952 -0.020190688480421031 0 -0.00075230949571422991 -0.021069762958200674 0 -0.002656233996909878 -0.019492737169824324 0 -0.0012065626995427087 -0.019731729444171345 0 -0.00075230949571422991 -0.021069762958200674 0 -0.0012065626995427087 -0.019731729444171345 0 -0.00044669977015319952 -0.020190688480421031 0 -0.00071969409132300721 -0.018788942178256392 0 -0.00044669977015319952 -0.020190688480421031 0 -0.00017089040741592956 -0.020827539933658656 0 2.2201995289029524e-05 -0.020126437097740653 0 -0.00044669977015319952 -0.020190688480421031 0 2.2201995289029524e-05 -0.020126437097740653 0 -0.00029898031298750279 -0.019292692646390278 0 -0.00044669977015319952 -0.020190688480421031 0 -0.00017089040741592956 -0.020827539933658656 0 -0.00038694539525425703 -0.021457382662627728 0 -0.00044669977015319952 -0.020190688480421031 0 -0.00075230949571422991 -0.021069762958200674 0 -0.00038694539525425703 -0.021457382662627728 0 -0.00022929544056724883 -0.021664651035238333 0 -0.00055721355793644724 -0.021437766147508999 0 0.00052530284264885776 -0.023695397317488907 0 0.00044652725858890783 -0.023655247496412998 0 0.00047691861414939036 -0.023552457817037558 0 0.00040084597102727832 -0.02328716737857351 0 -0.00022929544056724883 -0.021664651035238333 0 0.00060132691021709496 -0.02370921444575582 0 0.00052530284264885776 -0.023695397317488907 0 0.00047691861414939036 -0.023552457817037558 0 4.1097689077425304e-05 -0.02258365767091906 0 -0.00079278303086527033 -0.021164449643252013 0 -0.00038694539525425703 -0.021457382662627728 0 4.1097689077425304e-05 -0.02258365767091906 0 0.00012025846886575721 -0.021545146916580514 0 0.00041947174436892634 -0.022545127699981155 0 4.1097689077425304e-05 -0.02258365767091906 0 -0.00038694539525425703 -0.021457382662627728 0 0.00012025846886575721 -0.021545146916580514 0 0.00012025846886575721 -0.021545146916580514 0 2.2201995289029524e-05 -0.020126437097740653 0 0.00042211441101331726 -0.021509460744487563 0 -0.00017089040741592956 -0.020827539933658656 0 -0.00038694539525425703 -0.021457382662627728 0 0.00012025846886575721 -0.021545146916580514 0 -0.00017089040741592956 -0.020827539933658656 0 0.00012025846886575721 -0.021545146916580514 0 2.2201995289029524e-05 -0.020126437097740653 0 0.00016674235581921889 -0.019403774248395636 0 2.2201995289029524e-05 -0.020126437097740653 0 0.00042211441101331726 -0.021509460744487563 0 0.00016674235581921889 -0.019403774248395636 0 2.2201995289029524e-05 -0.020126437097740653 0 -8.1859387943407071e-05 -0.018196516099058955 0 0.00016674235581921889 -0.019403774248395636 0 -4.547921490310062e-07 -0.016138304315588211 0 7.806897658502984e-07 -0.019054799915570107 0 -4.547921490310062e-07 -0.016138304315588211 0 -8.1859387943407071e-05 -0.018196516099058955 0 -0.00052127935659548928 -0.017203496051369591 0 0.00016674235581921889 -0.019403774248395636 0 -4.547921490310062e-07 -0.016138304315588211 0 -8.1859387943407071e-05 -0.018196516099058955 0 2.2201995289029524e-05 -0.020126437097740653 0 -8.1859387943407071e-05 -0.018196516099058955 0 -0.00029898031298750279 -0.019292692646390278 0 -0.00044669977015319952 -0.020190688480421031 0 -0.00029898031298750279 -0.019292692646390278 0 -0.00071969409132300721 -0.018788942178256392 0 -8.1859387943407071e-05 -0.018196516099058955 0 -0.00029898031298750279 -0.019292692646390278 0 -0.00071969409132300721 -0.018788942178256392 0 -0.00071969409132300721 -0.018788942178256392 0 -0.0017153231914021779 -0.018725187452907594 0 -0.00052127935659548928 -0.017203496051369591 0 -0.0012065626995427087 -0.019731729444171345 0 -0.00071969409132300721 -0.018788942178256392 0 -0.0017153231914021779 -0.018725187452907594 0 -0.0017153231914021779 -0.018725187452907594 0 -0.00052127935659548928 -0.017203496051369591 0 -0.001957780346462532 -0.01760359877061158 0 -8.1859387943407071e-05 -0.018196516099058955 0 -0.00071969409132300721 -0.018788942178256392 0 -0.00052127935659548928 -0.017203496051369591 0 -4.547921490310062e-07 -0.016138304315588211 0 -0.00052127935659548928 -0.017203496051369591 0 -0.000482750506731503 -0.014892108035252011 0 -4.547921490310062e-07 -0.016138304315588211 0 -0.000482750506731503 -0.014892108035252011 0 -1.7827407774357674e-06 -0.013220489071791229 0 -0.00052127935659548928 -0.017203496051369591 0 -0.000482750506731503 -0.014892108035252011 0 -0.001957780346462532 -0.01760359877061158 0 -0.0021918041055510569 -0.014693010179144027 0 -0.00031852272921931423 -0.014463587148649747 0 3.6495899744326971e-05 -0.011299838288562814 0 -0.000482750506731503 -0.014892108035252011 0 -1.7827407774357674e-06 -0.013220489071791229 0 -0.0041910589367333325 -0.017119126869855134 0 -0.000482750506731503 -0.014892108035252011 0 -0.001957780346462532 -0.01760359877061158 0 -0.0041910589367333325 -0.017119126869855134 0 -0.001957780346462532 -0.01760359877061158 0 -0.0031352629517076317 -0.018357287670390604 0 -0.002656233996909878 -0.019492737169824324 0 -0.0017153231914021779 -0.018725187452907594 0 -0.0031352629517076317 -0.018357287670390604 0 -0.0017153231914021779 -0.018725187452907594 0 -0.001957780346462532 -0.01760359877061158 0 -0.0031352629517076317 -0.018357287670390604 0 0.00068566421891574306 -0.024051126013757741 0 0.00067179454394925985 -0.023111827655484925 0 0.00050393815991459263 -0.022546200652727152 0 0.00085803089431715665 -0.024259316700994845 0 0.00068566421891574306 -0.024051126013757741 0 0.00087379576679788671 -0.025540961460841609 0 0.00085803089431715665 -0.024259316700994845 0 0.00068566421891574306 -0.024051126013757741 0 0.00067179454394925985 -0.023111827655484925 0 0.0006492967751897486 -0.023818251827415961 0 0.00067179454394925985 -0.023111827655484925 0 0.00041947174436892634 -0.022545127699981155 0 0.00067179454394925985 -0.023111827655484925 0 0.00041947174436892634 -0.022545127699981155 0 0.00042211441101331726 -0.021509460744487563 0 0.00012025846886575721 -0.021545146916580514 0 0.00041947174436892634 -0.022545127699981155 0 0.00042211441101331726 -0.021509460744487563 0 0.00067179454394925985 -0.023111827655484925 0 0.00042211441101331726 -0.021509460744487563 0 0.00050393815991459263 -0.022546200652727152 0 0.00042211441101331726 -0.021509460744487563 0 0.00030588653668174294 -0.020971244748364724 0 0.00050393815991459263 -0.022546200652727152 0 0.00016674235581921889 -0.019403774248395636 0 0.00042211441101331726 -0.021509460744487563 0 0.00030588653668174294 -0.020971244748364724 0 0.00016674235581921889 -0.019403774248395636 0 7.806897658502984e-07 -0.019054799915570107 0 0.00030588653668174294 -0.020971244748364724 0 7.806897658502984e-07 -0.019054799915570107 0 0.00030588653668174294 -0.020971244748364724 0 6.6260671569285222e-07 -0.021970890394874085 0 0.00030588653668174294 -0.020971244748364724 0 6.6260671569285222e-07 -0.021970890394874085 0 0.00050393815991459263 -0.022546200652727152 0 6.6260671569285222e-07 -0.021970890394874085 0 0.00050393815991459263 -0.022546200652727152 0 0.00043094314228366156 -0.023623512193100243 0 0.00068566421891574306 -0.024051126013757741 0 0.00050393815991459263 -0.022546200652727152 0 0.00043094314228366156 -0.023623512193100243 0 0.00068566421891574306 -0.024051126013757741 0 0.00043094314228366156 -0.023623512193100243 0 0.0005068892381086108 -0.024833269915513063 0 6.6260671569285222e-07 -0.021970890394874085 0 0.00043094314228366156 -0.023623512193100243 0 1.4844835614818435e-06 -0.024888877524849983 0 0.00043094314228366156 -0.023623512193100243 0 1.4844835614818435e-06 -0.024888877524849983 0 0.0005068892381086108 -0.024833269915513063 0 1.4844835614818435e-06 -0.024888877524849983 0 -1.2101550733493548e-06 -0.027799306313110672 0 0.0005068892381086108 -0.024833269915513063 0 1.0084752148504159e-07 -0.027804995302416844 0 0.00035784357155771104 -0.02745275620301901 0 -1.2101550733493548e-06 -0.027799306313110672 0 0.00024867238565272484 -0.025034199582401967 0 0.0005068892381086108 -0.024833269915513063 0 0.00024867238565272484 -0.025034199582401967 0 0.0005068892381086108 -0.024833269915513063 0 0.00050374865796308922 -0.025207339344199026 0 0.00068566421891574306 -0.024051126013757741 0 0.0005068892381086108 -0.024833269915513063 0 0.00050374865796308922 -0.025207339344199026 0 0.00024867238565272484 -0.025034199582401967 0 0.00050374865796308922 -0.025207339344199026 0 0.00092638183474431446 -0.026916807755236794 0 0.00035784357155771104 -0.02745275620301901 0 0.00080904868614716506 -0.026943001321208151 0 0.00050374865796308922 -0.025207339344199026 0 0.00092638183474431446 -0.026916807755236794 0 0.00087379576679788671 -0.025540961460841609 0 0.00068566421891574306 -0.024051126013757741 0 0.00050374865796308922 -0.025207339344199026 0 0.00087379576679788671 -0.025540961460841609 0 -6.3016888297344272e-05 -0.027565472360684243 0 -0.0014283577292518027 -0.029377614238915328 0 -0.0010300988797902263 -0.026777790802111432 0 -6.3016888297344272e-05 -0.027565472360684243 0 0.00018617572882662989 -0.02965083315400836 0 -0.0014283577292518027 -0.029377614238915328 0 0.00092638183474431446 -0.026916807755236794 0 -6.3016888297344272e-05 -0.027565472360684243 0 0.00018617572882662989 -0.02965083315400836 0 0.00038839086135731573 -0.029893951335205227 0 0.00092638183474431446 -0.026916807755236794 0 0.00018617572882662989 -0.02965083315400836 0 0.00018617572882662989 -0.02965083315400836 0 -0.0011854917115487545 -0.031897378035085841 0 -0.0014283577292518027 -0.029377614238915328 0 0.00018617572882662989 -0.02965083315400836 0 -0.0011854917115487545 -0.031897378035085841 0 -0.0013673397523947968 -0.034177250818691537 0 0.00013118807164313312 -0.029944153790845304 0 -0.00056752326571532518 -0.031872111027855692 0 0.00018617572882662989 -0.02965083315400836 0 9.0367871057330713e-05 -0.029787933430290365 0 0.00036674122263630622 -0.029554072943268943 0 0.00038839086135731573 -0.029893951335205227 0 0.00018617572882662989 -0.02965083315400836 0 0.00036674122263630622 -0.029554072943268943 0 -1.0652941710545209e-06 -0.027808697102099648 0 0.00038839086135731573 -0.029893951335205227 0 0.00036674122263630622 -0.029554072943268943 0 -1.0652941710545209e-06 -0.027808697102099648 0 0.00036674122263630622 -0.029554072943268943 0 1.6733701357210213e-06 -0.030017967723365551 0 9.0367871057330713e-05 -0.029787933430290365 0 0.00036674122263630622 -0.029554072943268943 0 1.6733701357210213e-06 -0.030017967723365551 0 9.0367871057330713e-05 -0.029787933430290365 0 1.6733701357210213e-06 -0.030017967723365551 0 -1.6316461778456824e-06 -0.032227245820120522 0 -6.8881213628435749e-06 -0.032238133720885458 0 -0.00044679028725825323 -0.036262135531009619 0 1.602092578730418e-06 -0.038717722987177794 0 -0.0013673397523947968 -0.034177250818691537 0 -6.8881213628435749e-06 -0.032238133720885458 0 -0.001165800788769332 -0.034574440052619802 0 -0.00056752326571532518 -0.031872111027855692 0 -2.0814970935443289e-07 -0.032230550823405223 0 -6.8881213628435749e-06 -0.032238133720885458 0 -0.001165800788769332 -0.034574440052619802 0 -0.00044679028725825323 -0.036262135531009619 0 -0.001165800788769332 -0.034574440052619802 0 -0.00044679028725825323 -0.036262135531009619 0 -0.0010550356081358587 -0.036634072270438883 0 -0.001165800788769332 -0.034574440052619802 0 -0.0022079676496677783 -0.034009653962619624 0 -0.0010550356081358587 -0.036634072270438883 0 -0.0013673397523947968 -0.034177250818691537 0 -0.001165800788769332 -0.034574440052619802 0 -0.0022079676496677783 -0.034009653962619624 0 -0.0011854917115487545 -0.031897378035085841 0 -0.0013673397523947968 -0.034177250818691537 0 -0.0022079676496677783 -0.034009653962619624 0 -0.00044679028725825323 -0.036262135531009619 0 1.602092578730418e-06 -0.038717722987177794 0 -4.1295961983769699e-05 -0.040014429734125181 0 -0.00044679028725825323 -0.036262135531009619 0 -0.0012081435912787316 -0.039390090895125879 0 -4.1295961983769699e-05 -0.040014429734125181 0 -0.0012081435912787316 -0.039390090895125879 0 -0.00069080350989771393 -0.041514885533734593 0 -4.1295961983769699e-05 -0.040014429734125181 0 -0.00044679028725825323 -0.036262135531009619 0 -0.0012081435912787316 -0.039390090895125879 0 -0.0010550356081358587 -0.036634072270438883 0 -0.001085983176393499 -0.038404589588670962 0 -0.0012081435912787316 -0.039390090895125879 0 -0.0010550356081358587 -0.036634072270438883 0 -0.001085983176393499 -0.038404589588670962 0 -0.0016652402388706838 -0.038457914043102066 0 -0.0010525665210217256 -0.038613528625459727 0 -0.001085983176393499 -0.038404589588670962 0 -0.0012081435912787316 -0.039390090895125879 0 -0.0010525665210217256 -0.038613528625459727 0 -0.0012713454157719454 -0.039252649666100821 0 -0.0023597714981732974 -0.041381028615913876 0 -0.0012081435912787316 -0.039390090895125879 0 -0.00069080350989771393 -0.041514885533734593 0 -0.0030715858448233688 -0.042489640649065692 0 -0.0011854917115487545 -0.031897378035085841 0 -0.0022079676496677783 -0.034009653962619624 0 -0.0014283577292518027 -0.029377614238915328 0 -0.0022079676496677783 -0.034009653962619624 0 -0.004352764535909593 -0.028788255077592691 0 -0.0014283577292518027 -0.029377614238915328 0 -0.0021397491877477985 -0.034433222845614751 0 -0.0030914364776837176 -0.032933798236943874 0 -0.0022079676496677783 -0.034009653962619624 0 -0.0010550356081358587 -0.036634072270438883 0 -0.0016652402388706838 -0.038457914043102066 0 -0.001085983176393499 -0.038404589588670962 0 -0.0010550356081358587 -0.036634072270438883 0 -0.0016652402388706838 -0.038457914043102066 0 -0.0014283577292518027 -0.029377614238915328 0 -0.0024353283361783331 -0.02771186704870893 0 -0.0010300988797902263 -0.026777790802111432 0 -0.004352764535909593 -0.028788255077592691 0 -0.0014283577292518027 -0.029377614238915328 0 -0.0024353283361783331 -0.02771186704870893 0 -0.0024353283361783331 -0.02771186704870893 0 -0.0029110767948342937 -0.026198094634114488 0 -0.0010300988797902263 -0.026777790802111432 0 -0.004352764535909593 -0.028788255077592691 0 -0.0029110767948342937 -0.026198094634114488 0 -0.0050655981258649037 -0.026465381294263211 0 -0.0030914364776837176 -0.032933798236943874 0 -0.0029613387119570875 -0.036142271407204551 0 -0.004352764535909593 -0.028788255077592691 0 -0.0024353283361783331 -0.02771186704870893 0 -0.0029110767948342937 -0.026198094634114488 0 -0.0029110767948342937 -0.026198094634114488 0 -0.0050655981258649037 -0.026465381294263211 0 -0.0040545302132195754 -0.024805805143464824 0 -0.0029110767948342937 -0.026198094634114488 0 -0.0019856160646088521 -0.024442400496543004 0 -0.0040545302132195754 -0.024805805143464824 0 -0.0029110767948342937 -0.026198094634114488 0 -0.0010300988797902263 -0.026777790802111432 0 -0.0010436329359261784 -0.025547124798995766 0 -0.0029110767948342937 -0.026198094634114488 0 -0.0019856160646088521 -0.024442400496543004 0 -0.0010436329359261784 -0.025547124798995766 0 -0.0023018064121744118 -0.044518337579992885 0 -0.00092472104581139416 -0.043471651765148153 0 -0.0030715858448233688 -0.042489640649065692 0 -0.0023018064121744118 -0.044518337579992885 0 -0.00092472104581139416 -0.043471651765148153 0 -0.00064096399312785408 -0.045242327320363512 0 -0.00069080350989771393 -0.041514885533734593 0 -0.00092472104581139416 -0.043471651765148153 0 -0.0030715858448233688 -0.042489640649065692 0 -0.0023018064121744118 -0.044518337579992885 0 -0.0030715858448233688 -0.042489640649065692 0 -0.003995400597481249 -0.044617896219770581 0 -0.0023597714981732974 -0.041381028615913876 0 -0.0029613387119570875 -0.036142271407204551 0 -0.0016652402388706838 -0.038457914043102066 0 -0.0010525665210217256 -0.038613528625459727 0 -0.0012553679667687881 -0.039021249200448083 0 -0.0021440137692664931 -0.037134609873385335 0 -0.0030369613933965678 -0.035597017069825806 0 -0.0013963702505815857 -0.035384482075120509 0 -0.0029613387119570875 -0.036142271407204551 0 -0.0024619171414871667 -0.028782247033495002 0 -0.0023018064121744118 -0.044518337579992885 0 -0.003995400597481249 -0.044617896219770581 0 -0.0027660267240156473 -0.046725350666757988 0 -0.0029613387119570875 -0.036142271407204551 0 -0.0015592712885309065 -0.042516905645030398 0 -0.0023018064121744118 -0.044518337579992885 0 -0.0016274394265293436 -0.045812787382372898 0 -0.00064096399312785408 -0.045242327320363512 0 -0.0023018064121744118 -0.044518337579992885 0 -0.0016274394265293436 -0.045812787382372898 0 -0.0027660267240156473 -0.046725350666757988 0 -0.0027243164611678952 -0.045964966035799047 0 -0.0015592712885309065 -0.042516905645030398 0 -0.0016274394265293436 -0.045812787382372898 0 -0.0016126898711891326 -0.04676673206332186 0 -0.0010463134085098211 -0.046420212130857959 0 -0.0016126898711891326 -0.04676673206332186 0 -0.002397904609694627 -0.046538256832536748 0 -0.0012086171311597952 -0.048405367092767618 0 -0.0016126898711891326 -0.04676673206332186 0 -0.0012086171311597952 -0.048405367092767618 0 -0.0010753966066457507 -0.047166396691783241 0 -0.0015592712885309065 -0.042516905645030398 0 -0.00037398942428852188 -0.046253307899436838 0 -0.00055750637021062858 -0.041726346397806549 0 -0.00056253926589233433 -0.041812860455173635 0 -0.00048321070950860451 -0.041875684725304965 0 -0.0016126898711891326 -0.04676673206332186 0 -0.0010463134085098211 -0.046420212130857959 0 -0.0010753966066457507 -0.047166396691783241 0 -0.0016274394265293436 -0.045812787382372898 0 -0.0016126898711891326 -0.04676673206332186 0 -0.002397904609694627 -0.046538256832536748 0 -0.0030369613933965678 -0.035597017069825806 0 -0.0018493210997365197 -0.034601755145502171 0 -0.0013963702505815857 -0.035384482075120509 0 -0.00055750637021062858 -0.041726346397806549 0 -0.0006200015088809155 -0.041763362632642194 0 -0.00056253926589233433 -0.041812860455173635 0 -0.0015592712885309065 -0.042516905645030398 0 -0.0013371504771428663 -0.038251351886291841 0 -0.0006200015088809155 -0.041763362632642194 0 -0.00056253926589233433 -0.041812860455173635 0 -0.00060020526196611962 -0.041869886039393622 0 -0.00037398942428852188 -0.046253307899436838 0 -0.00083353645284172902 -0.044819092094056878 0 -0.00056253926589233433 -0.041812860455173635 0 -0.00048321070950860451 -0.041875684725304965 0 -0.00060020526196611962 -0.041869886039393622 0 -0.0024619171414871667 -0.028782247033495002 0 -0.0010719151617224192 -0.032404135636763025 0 -0.0019856160646088521 -0.024442400496543004 0 -0.0040545302132195754 -0.024805805143464824 0 -0.003210013989305649 -0.023378210544138679 0 -0.0018493210997365197 -0.034601755145502171 0 -0.0013963702505815857 -0.035384482075120509 0 -0.00063537496888971734 -0.033606077968607505 0 -0.0006200015088809155 -0.041763362632642194 0 -0.0006795147615608955 -0.041793998554362242 0 -0.00060020526196611962 -0.041869886039393622 0 -0.0006795147615608955 -0.041793998554362242 0 -0.00071466638549020159 -0.0418839634749835 0 -0.00060020526196611962 -0.041869886039393622 0 -0.0013371504771428663 -0.038251351886291841 0 -0.0010719151617224192 -0.032404135636763025 0 -0.0010719151617224192 -0.032404135636763025 0 -0.0015026883664525123 -0.043822305046673775 0 -0.0019856160646088521 -0.024442400496543004 0 -0.0017327500998824562 -0.023257810238939497 0 -0.00080752323760521414 -0.023583858703977178 0 -0.0019856160646088521 -0.024442400496543004 0 -0.003210013989305649 -0.023378210544138679 0 -0.0017327500998824562 -0.023257810238939497 0 -0.003210013989305649 -0.023378210544138679 0 -0.0017327500998824562 -0.023257810238939497 0 -0.0013162923487023952 -0.022088768609953267 0 -0.00080752323760521414 -0.023583858703977178 0 0.00040958948503760998 -0.022884470013127663 0 -0.00058484760042970335 -0.022751897352839889 0 -0.0017327500998824562 -0.023257810238939497 0 -0.00080752323760521414 -0.023583858703977178 0 -0.00058484760042970335 -0.022751897352839889 0 -0.0019856160646088521 -0.024442400496543004 0 -0.00080752323760521414 -0.023583858703977178 0 -0.00022808193230997254 -0.024598716029977694 0 -0.0019856160646088521 -0.024442400496543004 0 -0.00022808193230997254 -0.024598716029977694 0 -0.0010436329359261784 -0.025547124798995766 0 -0.00022808193230997254 -0.024598716029977694 0 0.00054612256766543865 -0.024517025203721086 0 0.00069560759854152396 -0.024714762049891509 0 -7.8913015840870805e-05 -0.024468508050665576 0 0.00020095476308552992 -0.023933693183955815 0 -0.00022808193230997254 -0.024598716029977694 0 0.00061616055506267533 -0.024422440886100252 0 0.00059936015272121876 -0.024365902837826491 0 -0.00080752323760521414 -0.023583858703977178 0 -0.00022808193230997254 -0.024598716029977694 0 0.00040958948503760998 -0.022884470013127663 0 -0.00022808193230997254 -0.024598716029977694 0 0.00061616055506267533 -0.024422440886100252 0 0.00054612256766543865 -0.024517025203721086 0 0.00061616055506267533 -0.024422440886100252 0 0.00063265061486366661 -0.024485421362366516 0 0.00054612256766543865 -0.024517025203721086 0 0.00061616055506267533 -0.024422440886100252 0 0.00072078469554924182 -0.024490218988581943 0 0.00067827898495572986 -0.0245114578608761 0 0.00034414824463899538 -0.02413407321773527 0 0.00020095476308552992 -0.023933693183955815 0 0.00061616055506267533 -0.024422440886100252 0 0.00067827898495572986 -0.0245114578608761 0 0.00063265061486366661 -0.024485421362366516 0 0.00070433083036491482 -0.02450065663976856 0 0.00070342947180741377 -0.02444595929494002 0 0.00076358044439975997 -0.024714977983342816 0 0.00070433083036491482 -0.02450065663976856 0 0.00070342947180741377 -0.02444595929494002 0 0.00069560759854152396 -0.024714762049891509 0 0.00067827898495572986 -0.0245114578608761 0 0.00070433083036491482 -0.02450065663976856 0 0.00076358044439975997 -0.024714977983342816 0 0.00070433083036491482 -0.02450065663976856 0 0.00054612256766543865 -0.024517025203721086 0 0.00069560759854152396 -0.024714762049891509 0 0.00067827898495572986 -0.0245114578608761 0 0.00063265061486366661 -0.024485421362366516 0 0.00070433083036491482 -0.02450065663976856 0 0.00063265061486366661 -0.024485421362366516 0 0.00070433083036491482 -0.02450065663976856 0 0.00054612256766543865 -0.024517025203721086 0 0.0005696823537829893 -0.02452228994798869 0 0.00068295422113351552 -0.02444113758147938 0 0.00081902076985831355 -0.02433860069778843 0 0.00070342947180741377 -0.02444595929494002 0 0.00083255769202406386 -0.024608039576065457 0 0.00070342947180741377 -0.02444595929494002 0 0.00083255769202406386 -0.024608039576065457 0 0.00069560759854152396 -0.024714762049891509 0 0.00069560759854152396 -0.024714762049891509 0 0.00078634495809706665 -0.025135258884426775 0 0.00042046028962984316 -0.025855163121385194 0 0.00083255769202406386 -0.024608039576065457 0 0.00078634495809706665 -0.025135258884426775 0 0.00090914545479602743 -0.024834033727913023 0 0.00083255769202406386 -0.024608039576065457 0 0.00069560759854152396 -0.024714762049891509 0 0.00078634495809706665 -0.025135258884426775 0 0.00087379576679788671 -0.025540961460841609 0 0.00078634495809706665 -0.025135258884426775 0 0.00090914545479602743 -0.024834033727913023 0 0.00087379576679788671 -0.025540961460841609 0 0.00078634495809706665 -0.025135258884426775 0 0.00042046028962984316 -0.025855163121385194 0 0.00092638183474431446 -0.026916807755236794 0 0.00087379576679788671 -0.025540961460841609 0 0.00042046028962984316 -0.025855163121385194 0 0.00092638183474431446 -0.026916807755236794 0 -6.3016888297344272e-05 -0.027565472360684243 0 0.00042046028962984316 -0.025855163121385194 0 -6.3016888297344272e-05 -0.027565472360684243 0 0.00042046028962984316 -0.025855163121385194 0 -0.0010300988797902263 -0.026777790802111432 0 -0.00022808193230997254 -0.024598716029977694 0 0.00042046028962984316 -0.025855163121385194 0 -0.0010436329359261784 -0.025547124798995766 0 0.00042046028962984316 -0.025855163121385194 0 -0.0010300988797902263 -0.026777790802111432 0 -0.0010436329359261784 -0.025547124798995766 0 -0.00022808193230997254 -0.024598716029977694 0 0.00069560759854152396 -0.024714762049891509 0 0.00042046028962984316 -0.025855163121385194 0 -3.4585245438049577e-07 -0.049996890381225893 0 0.0001002860809635841 -0.046037129956971359 0 1.2153182991631324e-06 -0.043585803288964248 0 4.6865184941418306e-07 -0.049997104256226041 0 -0.00014132023671558483 -0.049063893383777347 0 -1.8900490672227545e-05 -0.049077099561916165 0 4.6865184941418306e-07 -0.049997104256226041 0 -0.00014132023671558483 -0.049063893383777347 0 -6.2493517832381819e-05 -0.048173871837628612 0 -0.00014132023671558483 -0.049063893383777347 0 -6.2493517832381819e-05 -0.048173871837628612 0 -0.00014968915605086469 -0.048862406613140327 0 4.6865184941418306e-07 -0.049997104256226041 0 -3.4585245438049577e-07 -0.049996890381225893 0 -6.2493517832381819e-05 -0.048173871837628612 0 -3.4585245438049577e-07 -0.049996890381225893 0 -6.2493517832381819e-05 -0.048173871837628612 0 0.0001002860809635841 -0.046037129956971359 0 0.0001002860809635841 -0.046037129956971359 0 0.00084715167252521963 -0.043488873382419524 0 1.2153182991631324e-06 -0.043585803288964248 0 -6.2493517832381819e-05 -0.048173871837628612 0 0.0001002860809635841 -0.046037129956971359 0 0.00031055382610560187 -0.044408830023769517 0 0.0001002860809635841 -0.046037129956971359 0 0.00031055382610560187 -0.044408830023769517 0 0.00084715167252521963 -0.043488873382419524 0 0.00031055382610560187 -0.044408830023769517 0 0.0013264464042337756 -0.04328455862634463 0 0.00084715167252521963 -0.043488873382419524 0 1.0307923669960772e-05 -0.047861541951841988 0 0.00021934734547189927 -0.046665805843758588 0 -0.00014132023671558483 -0.049063893383777347 0 -0.00014968915605086469 -0.048862406613140327 0 -8.1376617613034704e-05 -0.048493401991973141 0 0.00021934734547189927 -0.046665805843758588 0 0.00094970088198113325 -0.045607069324151463 0 -0.00014968915605086469 -0.048862406613140327 0 0.00078678645083674254 -0.04783804090299984 0 -8.1376617613034704e-05 -0.048493401991973141 0 0.0013264464042337756 -0.04328455862634463 0 0.0010237381806053559 -0.042566290291587636 0 0.00084715167252521963 -0.043488873382419524 0 0.0013264464042337756 -0.04328455862634463 0 0.0010237381806053559 -0.042566290291587636 0 0.0012328657008901503 -0.045027445839609812 0 0.0010237381806053559 -0.042566290291587636 0 0.00084715167252521963 -0.043488873382419524 0 0.0005476244816987341 -0.041521013040883223 0 0.00084715167252521963 -0.043488873382419524 0 1.2153182991631324e-06 -0.043585803288964248 0 0.0005476244816987341 -0.041521013040883223 0 1.2153182991631324e-06 -0.043585803288964248 0 0.0005476244816987341 -0.041521013040883223 0 1.602092578730418e-06 -0.038717722987177794 0 0.0005476244816987341 -0.041521013040883223 0 1.602092578730418e-06 -0.038717722987177794 0 -4.1295961983769699e-05 -0.040014429734125181 0 0.0010237381806053559 -0.042566290291587636 0 -4.1295961983769699e-05 -0.040014429734125181 0 9.7288017062959384e-05 -0.042078833674062198 0 0.0010237381806053559 -0.042566290291587636 0 0.0005476244816987341 -0.041521013040883223 0 -4.1295961983769699e-05 -0.040014429734125181 0 0.0010237381806053559 -0.042566290291587636 0 9.7288017062959384e-05 -0.042078833674062198 0 0.00042902289321801413 -0.043983819366405615 0 -0.00069080350989771393 -0.041514885533734593 0 -4.1295961983769699e-05 -0.040014429734125181 0 9.7288017062959384e-05 -0.042078833674062198 0 -0.00069080350989771393 -0.041514885533734593 0 -0.00092472104581139416 -0.043471651765148153 0 9.7288017062959384e-05 -0.042078833674062198 0 -0.00092472104581139416 -0.043471651765148153 0 9.7288017062959384e-05 -0.042078833674062198 0 0.00042902289321801413 -0.043983819366405615 0 -0.00092472104581139416 -0.043471651765148153 0 0.00042902289321801413 -0.043983819366405615 0 -0.00064096399312785408 -0.045242327320363512 0 0.00042902289321801413 -0.043983819366405615 0 0.00050446378461850843 -0.045711734466569093 0 -0.00064096399312785408 -0.045242327320363512 0 0.0010237381806053559 -0.042566290291587636 0 0.00042902289321801413 -0.043983819366405615 0 0.0012328657008901503 -0.045027445839609812 0 0.00042902289321801413 -0.043983819366405615 0 0.00050446378461850843 -0.045711734466569093 0 0.0012328657008901503 -0.045027445839609812 0 0.00050446378461850843 -0.045711734466569093 0 0.00041550322561233514 -0.047104133587633344 0 0.00088411263659407633 -0.047258551126653843 0 0.00050446378461850843 -0.045711734466569093 0 -0.00030618757108248678 -0.046539411132706723 0 0.00041550322561233514 -0.047104133587633344 0 0.00050446378461850843 -0.045711734466569093 0 -0.00064096399312785408 -0.045242327320363512 0 -0.00030618757108248678 -0.046539411132706723 0 -0.0016274394265293436 -0.045812787382372898 0 -0.00064096399312785408 -0.045242327320363512 0 -0.0010463134085098211 -0.046420212130857959 0 -0.00064096399312785408 -0.045242327320363512 0 -0.0010463134085098211 -0.046420212130857959 0 -0.00030618757108248678 -0.046539411132706723 0 -0.0010463134085098211 -0.046420212130857959 0 -0.00030618757108248678 -0.046539411132706723 0 -0.0010753966066457507 -0.047166396691783241 0 -0.00030618757108248678 -0.046539411132706723 0 -5.1946786155241716e-05 -0.0471519156229891 0 0.00041550322561233514 -0.047104133587633344 0 -0.00030618757108248678 -0.046539411132706723 0 -5.1946786155241716e-05 -0.0471519156229891 0 -0.00047264060695373421 -0.047495656827757964 0 -5.1946786155241716e-05 -0.0471519156229891 0 -0.00047264060695373421 -0.047495656827757964 0 0.00013139995251749474 -0.047629648803372421 0 -0.00030618757108248678 -0.046539411132706723 0 -0.0010753966066457507 -0.047166396691783241 0 -0.00047264060695373421 -0.047495656827757964 0 -0.0010753966066457507 -0.047166396691783241 0 -0.00047264060695373421 -0.047495656827757964 0 -0.0007591792741894973 -0.047792043577464985 0 -0.00047264060695373421 -0.047495656827757964 0 -0.0007591792741894973 -0.047792043577464985 0 -0.0003190942870744184 -0.048106022287170314 0 -0.0012086171311597952 -0.048405367092767618 0 -0.0007591792741894973 -0.047792043577464985 0 -0.0003190942870744184 -0.048106022287170314 0 -0.0012086171311597952 -0.048405367092767618 0 -0.0010753966066457507 -0.047166396691783241 0 -0.0007591792741894973 -0.047792043577464985 0 -0.00047264060695373421 -0.047495656827757964 0 -0.00021258189644449976 -0.047868183343759294 0 -0.0003190942870744184 -0.048106022287170314 0 -0.00021258189644449976 -0.047868183343759294 0 -0.00021720730689600844 -0.048177121382855001 0 0.00013139995251749474 -0.047629648803372421 0 -0.00047264060695373421 -0.047495656827757964 0 -0.00021258189644449976 -0.047868183343759294 0 0.00013139995251749474 -0.047629648803372421 0 -0.00021258189644449976 -0.047868183343759294 0 -0.0003190942870744184 -0.048106022287170314 0 -0.00021720730689600844 -0.048177121382855001 0 -0.00047257956497962275 -0.048163130876140541 0 -0.0003190942870744184 -0.048106022287170314 0 -0.00021720730689600844 -0.048177121382855001 0 -0.00037398942428852188 -0.046253307899436838 0 -0.00073853828672885416 -0.04761991237027699 0 -0.00021720730689600844 -0.048177121382855001 0 0.000105953180032453 -0.048437733626146479 0 -7.3357512933088482e-05 -0.04838016215140669 0 -0.00021720730689600844 -0.048177121382855001 0 0.00013139995251749474 -0.047629648803372421 0 0.00097066388693491795 -0.04781009496976002 0 -0.00019229439325870292 -0.048177465807342605 0 0.00048785586335659144 -0.048139367906048468 0 0.00013139995251749474 -0.047629648803372421 0 0.00041550322561233514 -0.047104133587633344 0 0.00097066388693491795 -0.04781009496976002 0 -5.1946786155241716e-05 -0.0471519156229891 0 0.00013139995251749474 -0.047629648803372421 0 0.00041550322561233514 -0.047104133587633344 0 0.00041550322561233514 -0.047104133587633344 0 0.00088411263659407633 -0.047258551126653843 0 0.00097066388693491795 -0.04781009496976002 0 0.00088411263659407633 -0.047258551126653843 0 0.00097066388693491795 -0.04781009496976002 0 0.00092102089790369328 -0.047793913323453313 0 0.000105953180032453 -0.048437733626146479 0 0.00018221340692797417 -0.048712070657705601 0 0.00017951213951774864 -0.048645746539189606 0 0.00048785586335659144 -0.048139367906048468 0 0.00046897335978664538 -0.048379748533200539 0 0.00097066388693491795 -0.04781009496976002 0 0.00092102089790369328 -0.047793913323453313 0 0.00072574428297722418 -0.047966445876230897 0 0.00092102089790369328 -0.047793913323453313 0 0.00099454711121456916 -0.047497847291545069 0 0.00056543151883681685 -0.048542812553951008 0 0.0010903538482661629 -0.046674805245893985 0 0.00044657584762093725 -0.047988107553873713 0 0.00088411263659407633 -0.047258551126653843 0 0.00092102089790369328 -0.047793913323453313 0 0.00099454711121456916 -0.047497847291545069 0 0.00046619051503035642 -0.045893136665691912 0 0.0010903538482661629 -0.046674805245893985 0 0.00050446378461850843 -0.045711734466569093 0 0.0013541592485356714 -0.045824186596788032 0 0.0012328657008901503 -0.045027445839609812 0 0.00050446378461850843 -0.045711734466569093 0 0.00088411263659407633 -0.047258551126653843 0 0.00099454711121456916 -0.047497847291545069 0 0.00094970088198113325 -0.045607069324151463 0 0.0010960653296070016 -0.045187861555830655 0 0.00078678645083674254 -0.04783804090299984 0 0.0013541592485356714 -0.045824186596788032 0 0.0012328657008901503 -0.045027445839609812 0 0.00078678645083674254 -0.04783804090299984 0 0.0013541592485356714 -0.045824186596788032 0 0.00018477257383687281 -0.047440170440485249 0 4.6865184941418306e-07 -0.049997104256226041 0 3.1586018765835727e-05 -0.049453055341718448 0 -1.9363928829954313e-07 -0.049997595720539786 0 0.00078678645083674254 -0.04783804090299984 0 -8.1376617613034704e-05 -0.048493401991973141 0 0.00018477257383687281 -0.047440170440485249 0 -8.1376617613034704e-05 -0.048493401991973141 0 0.00018477257383687281 -0.047440170440485249 0 -1.8900490672227545e-05 -0.049077099561916165 0 -0.00014132023671558483 -0.049063893383777347 0 -8.1376617613034704e-05 -0.048493401991973141 0 -1.8900490672227545e-05 -0.049077099561916165 0 0.00056543151883681685 -0.048542812553951008 0 0.00044246573288759145 -0.048494972736080409 0 -1.8900490672227545e-05 -0.049077099561916165 0 0.00044657584762093725 -0.047988107553873713 0 4.4423839565654179e-05 -0.048874888646027285 0 0.00092102089790369328 -0.047793913323453313 0 0.00056543151883681685 -0.048542812553951008 0 0.00044246573288759145 -0.048494972736080409 0 0.00092102089790369328 -0.047793913323453313 0 0.00044246573288759145 -0.048494972736080409 0 0.00072574428297722418 -0.047966445876230897 0 0.00044246573288759145 -0.048494972736080409 0 0.00072574428297722418 -0.047966445876230897 0 0.0001753695969589417 -0.048927100619484243 0 0.00018221340692797417 -0.048712070657705601 0 0.0001807867451337477 -0.048736889061677252 0 0.00017951213951774864 -0.048645746539189606 0 0.00046897335978664538 -0.048379748533200539 0 0.00022137299390772902 -0.048814868446341593 0 0.00018221340692797417 -0.048712070657705601 0 0.0001671322970475219 -0.048840291204038842 0 0.0001807867451337477 -0.048736889061677252 0 0.00018221340692797417 -0.048712070657705601 0 0.0001753695969589417 -0.048927100619484243 0 0.0001671322970475219 -0.048840291204038842 0 0.0001753695969589417 -0.048927100619484243 0 0.0001671322970475219 -0.048840291204038842 0 0.00012591419162875947 -0.049044883356131698 0 0.00044246573288759145 -0.048494972736080409 0 0.0001753695969589417 -0.048927100619484243 0 -1.8900490672227545e-05 -0.049077099561916165 0 0.0001753695969589417 -0.048927100619484243 0 3.1586018765835727e-05 -0.049453055341718448 0 -1.8900490672227545e-05 -0.049077099561916165 0 0.0001753695969589417 -0.048927100619484243 0 3.1586018765835727e-05 -0.049453055341718448 0 0.00012591419162875947 -0.049044883356131698 0 1.2368065749414947e-07 -0.049999769075773498 0 0.00010072478236817303 -0.049528770421616727 0 3.1586018765835727e-05 -0.049453055341718448 0 -1.9363928829954313e-07 -0.049997595720539786 0 0.00012591419162875947 -0.049044883356131698 0 4.6865184941418306e-07 -0.049997104256226041 0 3.1586018765835727e-05 -0.049453055341718448 0 -1.8900490672227545e-05 -0.049077099561916165 0 -9.7342099917675934e-06 -0.049944126818078437 0 4.935344064607333e-07 -0.049994630532950786 0 -2.9258538338414686e-05 -0.049899612126613681 0 1.15065710823498e-06 -0.049976961731801869 0 -1.4436854193095709e-05 -0.049915719071329863 0 -9.7342099917675934e-06 -0.049944126818078437 0 -1.751761493050548e-09 -0.049999921360016908 0 -6.0843564343374231e-06 -0.049942883852822147 0 -9.7342099917675934e-06 -0.049944126818078437 0 -1.751761493050548e-09 -0.049999921360016908 0 4.935344064607333e-07 -0.049994630532950786 0 -2.9258538338414686e-05 -0.049899612126613681 0 -2.4121677259378118e-05 -0.049885358698162602 0 -5.6947661561493306e-05 -0.049814657453022736 0 -9.7342099917675934e-06 -0.049944126818078437 0 -2.9258538338414686e-05 -0.049899612126613681 0 -2.4121677259378118e-05 -0.049885358698162602 0 -2.4121677259378118e-05 -0.049885358698162602 0 -6.0843564343374231e-06 -0.049942883852822147 0 -2.1336334549936874e-05 -0.049845254601405431 0 -2.4121677259378118e-05 -0.049885358698162602 0 -2.1336334549936874e-05 -0.049845254601405431 0 -5.6947661561493306e-05 -0.049814657453022736 0 -1.751761493050548e-09 -0.049999921360016908 0 -6.0843564343374231e-06 -0.049942883852822147 0 5.6194029506427921e-09 -0.049999798533956065 0 -6.0843564343374231e-06 -0.049942883852822147 0 5.6194029506427921e-09 -0.049999798533956065 0 -2.1336334549936874e-05 -0.049845254601405431 0 -9.7342099917675934e-06 -0.049944126818078437 0 -2.4121677259378118e-05 -0.049885358698162602 0 -6.0843564343374231e-06 -0.049942883852822147 0 -1.5411856707676832e-09 -0.049999987695880155 0 3.73635851911148e-06 -0.049995705063419049 0 6.4727800205201257e-06 -0.049988748840119779 0 -2.3913851369665193e-08 -0.049999959409209073 0 -1.5218995350882401e-05 -0.049916190109588345 0 -1.5411856707676832e-09 -0.049999987695880155 0 4.341802661601166e-09 -0.049999993240676867 0 3.73635851911148e-06 -0.049995705063419049 0 -1.3816987687441663e-09 -0.050000006040084886 0 4.341802661601166e-09 -0.049999993240676867 0 3.73635851911148e-06 -0.049995705063419049 0 -1.3816987687441663e-09 -0.050000006040084886 0 3.73635851911148e-06 -0.049995705063419049 0 8.3600129816430818e-06 -0.049996700425024319 0 3.73635851911148e-06 -0.049995705063419049 0 8.3600129816430818e-06 -0.049996700425024319 0 6.4727800205201257e-06 -0.049988748840119779 0 8.3600129816430818e-06 -0.049996700425024319 0 6.4727800205201257e-06 -0.049988748840119779 0 1.9175823149455247e-05 -0.04998089952381457 0 -1.5218995350882401e-05 -0.049916190109588345 0 -4.304743561543711e-05 -0.049877926650808063 0 0.00010072478236817303 -0.049528770421616727 0 0.000121046581411877 -0.049354608740654379 0 0.0001671322970475219 -0.048840291204038842 0 0.00012591419162875947 -0.049044883356131698 0 0.0001782466776645841 -0.0487250128229069 0 8.3600129816430818e-06 -0.049996700425024319 0 1.9175823149455247e-05 -0.04998089952381457 0 2.4996366195673149e-05 -0.04998462850279714 0 0.0001807867451337477 -0.048736889061677252 0 0.0001782466776645841 -0.0487250128229069 0 0.00017951213951774864 -0.048645746539189606 0 0.0001782466776645841 -0.0487250128229069 0 0.00018143557065680884 -0.048676866404702201 0 0.00017951213951774864 -0.048645746539189606 0 0.0001671322970475219 -0.048840291204038842 0 0.0001807867451337477 -0.048736889061677252 0 0.0001782466776645841 -0.0487250128229069 0 -7.5798994608656985e-05 -0.04972247727697688 0 -0.00010966326756197747 -0.049695872423111437 0 -0.00013627162680155083 -0.049628036099531876 0 0.000121046581411877 -0.049354608740654379 0 3.3578984899740563e-05 -0.049461549820132615 0 1.9175823149455247e-05 -0.04998089952381457 0 2.4996366195673149e-05 -0.04998462850279714 0 3.6214035223266912e-05 -0.0499743127474623 0 -4.304743561543711e-05 -0.049877926650808063 0 3.3578984899740563e-05 -0.049461549820132615 0 -7.5798994608656985e-05 -0.04972247727697688 0 -0.00010966326756197747 -0.049695872423111437 0 -8.688549109273651e-05 -0.049742743574252783 0 -0.00011046302543975352 -0.049722648843994063 0 -8.688549109273651e-05 -0.049742743574252783 0 -5.6947661561493306e-05 -0.049814657453022736 0 -0.00010966326756197747 -0.049695872423111437 0 -0.00011046302543975352 -0.049722648843994063 0 -0.00014051426036565428 -0.04965243523291419 0 -0.00010966326756197747 -0.049695872423111437 0 -0.00011046302543975352 -0.049722648843994063 0 -8.688549109273651e-05 -0.049742743574252783 0 -2.1336334549936874e-05 -0.049845254601405431 0 -7.5798994608656985e-05 -0.04972247727697688 0 -5.6947661561493306e-05 -0.049814657453022736 0 -7.5798994608656985e-05 -0.04972247727697688 0 -8.688549109273651e-05 -0.049742743574252783 0 -5.6947661561493306e-05 -0.049814657453022736 0 -1.4436854193095709e-05 -0.049915719071329863 0 -5.5942968434609795e-05 -0.049826974211739559 0 -2.9258538338414686e-05 -0.049899612126613681 0 -5.6947661561493306e-05 -0.049814657453022736 0 -8.4572912929008326e-05 -0.04980504200749334 0 -0.00011046302543975352 -0.049722648843994063 0 -5.6947661561493306e-05 -0.049814657453022736 0 -8.4572912929008326e-05 -0.04980504200749334 0 -0.00011046302543975352 -0.049722648843994063 0 -8.4572912929008326e-05 -0.04980504200749334 0 -0.00014644937129269526 -0.049717282399101649 0 -5.5942968434609795e-05 -0.049826974211739559 0 -0.00012790881027752494 -0.049734070941606853 0 -0.00011046302543975352 -0.049722648843994063 0 -0.00014644937129269526 -0.049717282399101649 0 -0.00016883559276841228 -0.049623526396522614 0 -0.00014644937129269526 -0.049717282399101649 0 -0.00016883559276841228 -0.049623526396522614 0 -0.00023977946797968985 -0.049648284460973031 0 -0.00016883559276841228 -0.049623526396522614 0 -0.00028020398830782363 -0.049443557842451635 0 -0.00023977946797968985 -0.049648284460973031 0 -0.00012790881027752494 -0.049734070941606853 0 -0.00023249115271044383 -0.049668298938751923 0 -0.00016883559276841228 -0.049623526396522614 0 -0.00016318441850286198 -0.049598568574541674 0 -0.00028020398830782363 -0.049443557842451635 0 -0.00011046302543975352 -0.049722648843994063 0 -0.00016883559276841228 -0.049623526396522614 0 -0.00014051426036565428 -0.04965243523291419 0 -0.00016883559276841228 -0.049623526396522614 0 -0.00014051426036565428 -0.04965243523291419 0 -0.00016318441850286198 -0.049598568574541674 0 -0.00010966326756197747 -0.049695872423111437 0 -0.00014051426036565428 -0.04965243523291419 0 -0.00013627162680155083 -0.049628036099531876 0 0.00017457094795017398 -0.048674915447663544 0 0.00018143557065680884 -0.048676866404702201 0 0.00017951213951774864 -0.048645746539189606 0 -0.00014051426036565428 -0.04965243523291419 0 -0.00016318441850286198 -0.049598568574541674 0 -0.00013627162680155083 -0.049628036099531876 0 1.9306669817829689e-05 -0.049168618711810788 0 3.3578984899740563e-05 -0.049461549820132615 0 0.00017457094795017398 -0.048674915447663544 0 0.00017951213951774864 -0.048645746539189606 0 0.00012648047725215768 -0.04858207390063006 0 0.000105953180032453 -0.048437733626146479 0 0.00012648047725215768 -0.04858207390063006 0 3.3112767284298534e-05 -0.048526108849444076 0 0.000105953180032453 -0.048437733626146479 0 0.00017951213951774864 -0.048645746539189606 0 0.00012648047725215768 -0.04858207390063006 0 1.9306669817829689e-05 -0.049168618711810788 0 -0.00018752713114629795 -0.049140454863828481 0 0.00017457094795017398 -0.048674915447663544 0 3.3112767284298534e-05 -0.048526108849444076 0 -3.3862986510351661e-05 -0.048829227551228732 0 0.00017457094795017398 -0.048674915447663544 0 0.00012648047725215768 -0.04858207390063006 0 3.3112767284298534e-05 -0.048526108849444076 0 3.3112767284298534e-05 -0.048526108849444076 0 -0.00026276812469593725 -0.048423578402238945 0 -3.3862986510351661e-05 -0.048829227551228732 0 0.000105953180032453 -0.048437733626146479 0 -7.3357512933088482e-05 -0.04838016215140669 0 3.3112767284298534e-05 -0.048526108849444076 0 -7.3357512933088482e-05 -0.04838016215140669 0 3.3112767284298534e-05 -0.048526108849444076 0 -0.00026276812469593725 -0.048423578402238945 0 -0.00021720730689600844 -0.048177121382855001 0 -7.3357512933088482e-05 -0.04838016215140669 0 -0.00026276812469593725 -0.048423578402238945 0 -0.00053842874662115041 -0.047735747464424841 0 -0.00026276812469593725 -0.048423578402238945 0 -0.00064183235820690734 -0.048205216774071968 0 -0.00037398942428852188 -0.046253307899436838 0 -0.00013951203644092295 -0.048945676511325441 0 -0.00047257956497962275 -0.048163130876140541 0 -0.00021720730689600844 -0.048177121382855001 0 -0.00026276812469593725 -0.048423578402238945 0 -0.00026276812469593725 -0.048423578402238945 0 -0.00047961350953604432 -0.048700664477402303 0 -3.3862986510351661e-05 -0.048829227551228732 0 -0.00026276812469593725 -0.048423578402238945 0 -0.00047961350953604432 -0.048700664477402303 0 -0.00064183235820690734 -0.048205216774071968 0 -0.00047961350953604432 -0.048700664477402303 0 -3.3862986510351661e-05 -0.048829227551228732 0 -0.00058217299571362293 -0.049225265167816286 0 -0.00018752713114629795 -0.049140454863828481 0 -0.00057292224970326058 -0.049239665131706668 0 -0.00028020398830782363 -0.049443557842451635 0 -0.00041388181135495534 -0.049573525781606696 0 -0.00023977946797968985 -0.049648284460973031 0 -0.00028020398830782363 -0.049443557842451635 0 -0.00041388181135495534 -0.049573525781606696 0 -0.00058217299571362293 -0.049225265167816286 0 -0.00041388181135495534 -0.049573525781606696 0 -0.00058217299571362293 -0.049225265167816286 0 -0.00064846112003802338 -0.049769367591781077 0 -0.00041388181135495534 -0.049573525781606696 0 -0.00023977946797968985 -0.049648284460973031 0 -0.00031415853628978952 -0.04989203840440215 0 0.00091754808599783572 -0.044802915064954478 0 0.00013070903376554601 -0.044083249472451097 0 0.00024036094924446847 -0.044933053693912636 0 -0.00041388181135495534 -0.049573525781606696 0 -0.00031415853628978952 -0.04989203840440215 0 -0.00064846112003802338 -0.049769367591781077 0 0.00030968170063753282 -0.047367769705566928 0 -0.00030982001892447406 -0.046753321083017489 0 0.00091754808599783572 -0.044802915064954478 0 0.00069579401083863404 -0.045336320688457062 0 0.00024036094924446847 -0.044933053693912636 0 0.00069579401083863404 -0.045336320688457062 0 0.00024036094924446847 -0.044933053693912636 0 0.00014481790424098219 -0.045489092136295192 0 0.00091754808599783572 -0.044802915064954478 0 0.00069579401083863404 -0.045336320688457062 0 0.0016066624259053488 -0.045387613524870585 0 0.00069579401083863404 -0.045336320688457062 0 0.00094588764715676759 -0.045804212158185212 0 0.0016066624259053488 -0.045387613524870585 0 0.00069579401083863404 -0.045336320688457062 0 0.00094588764715676759 -0.045804212158185212 0 0.00037665184395850061 -0.046042717619049475 0 0.00069579401083863404 -0.045336320688457062 0 0.00014481790424098219 -0.045489092136295192 0 0.00037665184395850061 -0.046042717619049475 0 0.00030968170063753282 -0.047367769705566928 0 0.00070073466444768844 -0.047671936839230322 0 -0.00031415853628978952 -0.04989203840440215 0 -0.00013821322339428648 -0.049959579392512735 0 -0.00012967938319168441 -0.049844575452184639 0 0.00094588764715676759 -0.045804212158185212 0 0.0016066624259053488 -0.045387613524870585 0 0.0012489507857616293 -0.046062500993720057 0 0.0016066624259053488 -0.045387613524870585 0 0.0012489507857616293 -0.046062500993720057 0 0.0016197402065932594 -0.046125176997063519 0 0.0016066624259053488 -0.045387613524870585 0 0.0019344097897234817 -0.045967411049944319 0 0.0016197402065932594 -0.046125176997063519 0 -0.00013821322339428648 -0.049959579392512735 0 -5.5332489383835591e-05 -0.049959515354240557 0 -3.6459028427894327e-05 -0.049983319111090323 0 0.00070073466444768844 -0.047671936839230322 0 0.0012062197856452146 -0.047845716635348895 0 0.0016066624259053488 -0.045387613524870585 0 0.0022065653549019904 -0.045881427573714266 0 0.0019344097897234817 -0.045967411049944319 0 -0.00013821322339428648 -0.049959579392512735 0 -5.5218515733819792e-05 -0.049920174406846679 0 -5.5332489383835591e-05 -0.049959515354240557 0 -0.00013821322339428648 -0.049959579392512735 0 -0.00012967938319168441 -0.049844575452184639 0 -5.5218515733819792e-05 -0.049920174406846679 0 -0.00012967938319168441 -0.049844575452184639 0 -5.8061415264419021e-05 -0.049857519381804306 0 -5.5218515733819792e-05 -0.049920174406846679 0 -0.00023977946797968985 -0.049648284460973031 0 -0.00031415853628978952 -0.04989203840440215 0 -0.00012967938319168441 -0.049844575452184639 0 -9.9743711288071259e-05 -0.049753096268410013 0 -0.00023977946797968985 -0.049648284460973031 0 -0.00012967938319168441 -0.049844575452184639 0 -9.9743711288071259e-05 -0.049753096268410013 0 -0.00012967938319168441 -0.049844575452184639 0 -5.8061415264419021e-05 -0.049857519381804306 0 -2.763070673207022e-05 -0.04985004817224005 0 -5.8061415264419021e-05 -0.049857519381804306 0 -1.8355953337019177e-05 -0.04991699128672903 0 -2.763070673207022e-05 -0.04985004817224005 0 -9.9743711288071259e-05 -0.049753096268410013 0 -5.8061415264419021e-05 -0.049857519381804306 0 -9.7658725917970561e-07 -0.049930793152123801 0 -2.763070673207022e-05 -0.04985004817224005 0 -6.5836536785993021e-06 -0.049920176319738711 0 -2.763070673207022e-05 -0.04985004817224005 0 -6.5836536785993021e-06 -0.049920176319738711 0 -1.8355953337019177e-05 -0.04991699128672903 0 -6.5836536785993021e-06 -0.049920176319738711 0 -1.8355953337019177e-05 -0.04991699128672903 0 -2.683334147082868e-07 -0.049954884516106898 0 -1.8355953337019177e-05 -0.04991699128672903 0 -2.4467495355625037e-05 -0.049940649647546465 0 -6.0926679489504162e-06 -0.049961810599341745 0 -1.8355953337019177e-05 -0.04991699128672903 0 -6.0926679489504162e-06 -0.049961810599341745 0 -2.683334147082868e-07 -0.049954884516106898 0 -5.8061415264419021e-05 -0.049857519381804306 0 -1.8355953337019177e-05 -0.04991699128672903 0 -5.5218515733819792e-05 -0.049920174406846679 0 -1.8355953337019177e-05 -0.04991699128672903 0 -5.5218515733819792e-05 -0.049920174406846679 0 -2.4467495355625037e-05 -0.049940649647546465 0 -5.5218515733819792e-05 -0.049920174406846679 0 -2.466791152515306e-05 -0.049962424429177338 0 -2.4467495355625037e-05 -0.049940649647546465 0 -5.5218515733819792e-05 -0.049920174406846679 0 -5.5332489383835591e-05 -0.049959515354240557 0 -2.466791152515306e-05 -0.049962424429177338 0 -5.5332489383835591e-05 -0.049959515354240557 0 -3.360348754667939e-05 -0.049972134000469487 0 -3.6459028427894327e-05 -0.049983319111090323 0 -3.360348754667939e-05 -0.049972134000469487 0 -2.1612847735281037e-05 -0.049979836674939528 0 -2.466791152515306e-05 -0.049962424429177338 0 -5.5332489383835591e-05 -0.049959515354240557 0 -3.360348754667939e-05 -0.049972134000469487 0 -2.466791152515306e-05 -0.049962424429177338 0 -3.360348754667939e-05 -0.049972134000469487 0 -3.6459028427894327e-05 -0.049983319111090323 0 -2.1612847735281037e-05 -0.049979836674939528 0 -1.1187775209723692e-05 -0.049980080184105088 0 -2.1612847735281037e-05 -0.049979836674939528 0 -2.466791152515306e-05 -0.049962424429177338 0 -1.1187775209723692e-05 -0.049980080184105088 0 -2.466791152515306e-05 -0.049962424429177338 0 -6.4499522694151195e-06 -0.049975203472652781 0 -2.466791152515306e-05 -0.049962424429177338 0 -6.0926679489504162e-06 -0.049961810599341745 0 -6.4499522694151195e-06 -0.049975203472652781 0 -2.466791152515306e-05 -0.049962424429177338 0 -2.4467495355625037e-05 -0.049940649647546465 0 -6.0926679489504162e-06 -0.049961810599341745 0 -6.0926679489504162e-06 -0.049961810599341745 0 1.1920934640089593e-06 -0.049977165082189232 0 1.3225180567457521e-06 -0.049986028503229821 0 -6.0926679489504162e-06 -0.049961810599341745 0 -6.4499522694151195e-06 -0.049975203472652781 0 1.3225180567457521e-06 -0.049986028503229821 0 -6.4499522694151195e-06 -0.049975203472652781 0 1.3225180567457521e-06 -0.049986028503229821 0 -1.8273377779930377e-06 -0.049984250806476005 0 1.3225180567457521e-06 -0.049986028503229821 0 -1.8273377779930377e-06 -0.049984250806476005 0 1.0054953518645789e-06 -0.049989059070732499 0 -1.1187775209723692e-05 -0.049980080184105088 0 -6.4499522694151195e-06 -0.049975203472652781 0 -1.8273377779930377e-06 -0.049984250806476005 0 1.3225180567457521e-06 -0.049986028503229821 0 -2.3051099937973422e-10 -0.049999975458436374 0 6.1382576159605867e-09 -0.049999971490629694 0 1.3225180567457521e-06 -0.049986028503229821 0 -2.3051099937973422e-10 -0.049999975458436374 0 1.0054953518645789e-06 -0.049989059070732499 0 1.1920934640089593e-06 -0.049977165082189232 0 1.3225180567457521e-06 -0.049986028503229821 0 6.1382576159605867e-09 -0.049999971490629694 0 1.1920934640089593e-06 -0.049977165082189232 0 6.1382576159605867e-09 -0.049999971490629694 0 2.1589662590163652e-06 -0.049979647201555122 0 6.1382576159605867e-09 -0.049999971490629694 0 2.1589662590163652e-06 -0.049979647201555122 0 4.5825638990525204e-09 -0.049999948831390528 0 -6.0926679489504162e-06 -0.049961810599341745 0 1.1920934640089593e-06 -0.049977165082189232 0 -2.683334147082868e-07 -0.049954884516106898 0 1.1920934640089593e-06 -0.049977165082189232 0 2.1589662590163652e-06 -0.049979647201555122 0 -2.683334147082868e-07 -0.049954884516106898 0 2.1589662590163652e-06 -0.049979647201555122 0 -2.683334147082868e-07 -0.049954884516106898 0 1.5159224332526963e-06 -0.049963589077491696 0 -9.7658725917970561e-07 -0.049930793152123801 0 -6.5836536785993021e-06 -0.049920176319738711 0 1.5159224332526963e-06 -0.049963589077491696 0 -6.5836536785993021e-06 -0.049920176319738711 0 -2.683334147082868e-07 -0.049954884516106898 0 1.5159224332526963e-06 -0.049963589077491696 0 4.935344064607333e-07 -0.049994630532950786 0 4.5825638990525204e-09 -0.049999948831390528 0 1.5159224332526963e-06 -0.049963589077491696 0 4.935344064607333e-07 -0.049994630532950786 0 -9.7658725917970561e-07 -0.049930793152123801 0 1.5159224332526963e-06 -0.049963589077491696 0 -1.751761493050548e-09 -0.049999921360016908 0 4.935344064607333e-07 -0.049994630532950786 0 4.5825638990525204e-09 -0.049999948831390528 0 2.1589662590163652e-06 -0.049979647201555122 0 4.5825638990525204e-09 -0.049999948831390528 0 1.5159224332526963e-06 -0.049963589077491696 0 0.00098016074564476435 -0.026244377604960043 0 0.0010157147550725863 -0.026313524413066246 0 0.001015030758927748 -0.02632055364307858 0 0.00098016074564476435 -0.026244377604960043 0 0.0010157147550725863 -0.026313524413066246 0 0.00099490766483028236 -0.026316426481768677 0 0.0010157147550725863 -0.026313524413066246 0 0.0010389247477265412 -0.026341586926769182 0 0.00099490766483028236 -0.026316426481768677 0 0.0010389247477265412 -0.026341586926769182 0 0.0010552956420424333 -0.026370274825891833 0 0.0011326491913247012 -0.026441747611120375 0 0.0010157147550725863 -0.026313524413066246 0 0.0010389247477265412 -0.026341586926769182 0 0.0010552956420424333 -0.026370274825891833 0 0.0010157147550725863 -0.026313524413066246 0 0.0010552956420424333 -0.026370274825891833 0 0.001015030758927748 -0.02632055364307858 0 0.0010552956420424333 -0.026370274825891833 0 0.0010595750565561518 -0.026433778048953614 0 0.0011326491913247012 -0.026441747611120375 0 0.0010552956420424333 -0.026370274825891833 0 0.0010595750565561518 -0.026433778048953614 0 0.001015030758927748 -0.02632055364307858 0 0.00098016074564476435 -0.026244377604960043 0 0.001015030758927748 -0.02632055364307858 0 0.00096453006947563619 -0.026225063141420913 0 0.0010595750565561518 -0.026433778048953614 0 0.001015030758927748 -0.02632055364307858 0 0.00099740119305050676 -0.026392744285484965 0 0.001015030758927748 -0.02632055364307858 0 0.00096453006947563619 -0.026225063141420913 0 0.00099740119305050676 -0.026392744285484965 0 0.00096453006947563619 -0.026225063141420913 0 0.00088293956252070754 -0.026025291927047937 0 0.00080996750285575333 -0.026329738857367061 0 0.00098016074564476435 -0.026244377604960043 0 0.00096453006947563619 -0.026225063141420913 0 0.00088293956252070754 -0.026025291927047937 0 0.00030755108932331788 -0.026082102632732512 0 0.00088293956252070754 -0.026025291927047937 0 0.00080996750285575333 -0.026329738857367061 0 0.00030859532646816511 -0.025650760622009525 0 0.00088293956252070754 -0.026025291927047937 0 0.00055562944412659995 -0.025323113252477408 0 0.00088293956252070754 -0.026025291927047937 0 0.0010026380408093346 -0.025113869328038663 0 0.00055562944412659995 -0.025323113252477408 0 0.00098016074564476435 -0.026244377604960043 0 0.00088293956252070754 -0.026025291927047937 0 0.00099251092345808154 -0.026275524779249188 0 0.0008952925105515353 -0.025913187254765751 0 0.00099255819485445586 -0.026007637617429882 0 0.0010026380408093346 -0.025113869328038663 0 0.00055562944412659995 -0.025323113252477408 0 0.00061257337572668256 -0.024891295721398421 0 0.00032506631212654959 -0.024807126598763964 0 0.00055562944412659995 -0.025323113252477408 0 0.00061257337572668256 -0.024891295721398421 0 0.00032506631212654959 -0.024807126598763964 0 0.00070342947180741377 -0.02444595929494002 0 0.00061257337572668256 -0.024891295721398421 0 0.00070342947180741377 -0.02444595929494002 0 0.00061257337572668256 -0.024891295721398421 0 0.00076358044439975997 -0.024714977983342816 0 0.0010026380408093346 -0.025113869328038663 0 0.00061257337572668256 -0.024891295721398421 0 0.00076358044439975997 -0.024714977983342816 0 0.00072078469554924182 -0.024490218988581943 0 0.0010026380408093346 -0.025113869328038663 0 0.00076358044439975997 -0.024714977983342816 0 0.00072078469554924182 -0.024490218988581943 0 0.00067827898495572986 -0.0245114578608761 0 0.00076358044439975997 -0.024714977983342816 0 0.00020095476308552992 -0.023933693183955815 0 0.00099255819485445586 -0.026007637617429882 0 0.00097902988142081673 -0.026325504835804557 0 0.00099251092345808154 -0.026275524779249188 0 0.00097810078600921429 -0.026317050655522714 0 0.00020095476308552992 -0.023933693183955815 0 -0.0019092687263035635 -0.032924988445602613 0 0.00040958948503760998 -0.022884470013127663 0 -0.00032622956076139287 -0.021857231334370182 0 -0.00058484760042970335 -0.022751897352839889 0 0.00097902988142081673 -0.026325504835804557 0 0.00097810078600921429 -0.026317050655522714 0 0.00097271623038745108 -0.026322094570725815 0 -0.001159853092315129 -0.03241798678995348 0 -0.0019092687263035635 -0.032924988445602613 0 0.00099251092345808154 -0.026275524779249188 0 0.00097810078600921429 -0.026317050655522714 0 0.00099490766483028236 -0.026316426481768677 0 0.00098016074564476435 -0.026244377604960043 0 0.00099251092345808154 -0.026275524779249188 0 0.00099490766483028236 -0.026316426481768677 0 0.00097810078600921429 -0.026317050655522714 0 0.00099490766483028236 -0.026316426481768677 0 0.00097508375140813554 -0.026320851036163981 0 -0.00051136123558811629 -0.037785406792370427 0 -0.0019092687263035635 -0.032924988445602613 0 -0.0025595107962647157 -0.048403961108120633 0 -0.0026278424266891719 -0.04766677379499789 0 -0.0035020090374521633 -0.047140845984230725 0 0.0010389247477265412 -0.026341586926769182 0 0.00099490766483028236 -0.026316426481768677 0 0.00097508375140813554 -0.026320851036163981 0 -0.0025595107962647157 -0.048403961108120633 0 -0.0026278424266891719 -0.04766677379499789 0 -0.0019499169232276719 -0.048175517179636251 0 -0.0026278424266891719 -0.04766677379499789 0 -0.0025402668300220314 -0.046896797761719525 0 -0.0035020090374521633 -0.047140845984230725 0 -0.0017327500998824562 -0.023257810238939497 0 -0.0013162923487023952 -0.022088768609953267 0 -0.00058484760042970335 -0.022751897352839889 0 -0.0012602485454197446 -0.033730582094338532 0 -0.0019092687263035635 -0.032924988445602613 0 -0.0013162923487023952 -0.022088768609953267 0 -0.00032622956076139287 -0.021857231334370182 0 -0.00058484760042970335 -0.022751897352839889 0 -0.0011527110272310035 -0.035393181553056159 0 -0.0019873939284837422 -0.036102980052387115 0 -0.0013663681136503393 -0.035938446991313988 0 -0.0010719151617224192 -0.032404135636763025 0 -0.0012602485454197446 -0.033730582094338532 0 -0.0025402668300220314 -0.046896797761719525 0 -0.0011746185985239952 -0.046506136585787249 0 -0.0019499169232276719 -0.048175517179636251 0 -0.0012602485454197446 -0.033730582094338532 0 -0.0015026883664525123 -0.043822305046673775 0 -0.0015026883664525123 -0.043822305046673775 0 -0.00083353645284172902 -0.044819092094056878 0 -0.0016882135291601606 -0.047905307381957064 0 -0.0014494476036380434 -0.048280884023177574 0 -0.0011479434428342936 -0.047852698484303707 0 -0.0014494476036380434 -0.048280884023177574 0 -0.0019499169232276719 -0.048175517179636251 0 -0.0016887907899091077 -0.048621491603030899 0 -0.0016882135291601606 -0.047905307381957064 0 -0.0014494476036380434 -0.048280884023177574 0 -0.0019499169232276719 -0.048175517179636251 0 -0.0015026883664525123 -0.043822305046673775 0 -0.002200976477885259 -0.049271160075045929 0 -0.0026278424266891719 -0.04766677379499789 0 -0.0025402668300220314 -0.046896797761719525 0 -0.0019499169232276719 -0.048175517179636251 0 -0.00064183235820690734 -0.048205216774071968 0 -0.0011479434428342936 -0.047852698484303707 0 -0.00091870821185577073 -0.048432263616100521 0 -0.00053842874662115041 -0.047735747464424841 0 -0.00064183235820690734 -0.048205216774071968 0 -0.0011479434428342936 -0.047852698484303707 0 -0.0014494476036380434 -0.048280884023177574 0 -0.0011479434428342936 -0.047852698484303707 0 -0.00091870821185577073 -0.048432263616100521 0 -0.0014494476036380434 -0.048280884023177574 0 -0.00091870821185577073 -0.048432263616100521 0 -0.0013013425413849395 -0.048753327808951648 0 -0.00047961350953604432 -0.048700664477402303 0 -0.00064183235820690734 -0.048205216774071968 0 -0.00091870821185577073 -0.048432263616100521 0 -0.00047961350953604432 -0.048700664477402303 0 -0.00091870821185577073 -0.048432263616100521 0 -0.00085342753878485714 -0.04885923792249066 0 -0.00047961350953604432 -0.048700664477402303 0 -0.00085342753878485714 -0.04885923792249066 0 -0.00058217299571362293 -0.049225265167816286 0 -0.00085342753878485714 -0.04885923792249066 0 -0.00097881634778776232 -0.049173597950485606 0 -0.00058217299571362293 -0.049225265167816286 0 -0.00085342753878485714 -0.04885923792249066 0 -0.00097881634778776232 -0.049173597950485606 0 -0.0013013425413849395 -0.048753327808951648 0 -0.00091870821185577073 -0.048432263616100521 0 -0.00085342753878485714 -0.04885923792249066 0 -0.0013013425413849395 -0.048753327808951648 0 -0.00097881634778776232 -0.049173597950485606 0 -0.0013013425413849395 -0.048753327808951648 0 -0.0014280898564337432 -0.04901364267802362 0 -0.00097881634778776232 -0.049173597950485606 0 -0.0014280898564337432 -0.04901364267802362 0 -0.0012317582699988504 -0.049472680271541468 0 -0.00097881634778776232 -0.049173597950485606 0 -0.00058217299571362293 -0.049225265167816286 0 -0.00064846112003802338 -0.049769367591781077 0 -0.0025595107962647157 -0.048403961108120633 0 -0.0016887907899091077 -0.048621491603030899 0 -0.0020238466727949701 -0.049046566202231155 0 -0.0025595107962647157 -0.048403961108120633 0 -0.0019499169232276719 -0.048175517179636251 0 -0.0016887907899091077 -0.048621491603030899 0 -0.00051136123558811629 -0.037785406792370427 0 -0.00089781772659199639 -0.039134842307751938 0 -0.0014494476036380434 -0.048280884023177574 0 -0.0016887907899091077 -0.048621491603030899 0 -0.0013013425413849395 -0.048753327808951648 0 -0.0016887907899091077 -0.048621491603030899 0 -0.0014280898564337432 -0.04901364267802362 0 -0.0020238466727949701 -0.049046566202231155 0 -0.0016887907899091077 -0.048621491603030899 0 -0.0013013425413849395 -0.048753327808951648 0 -0.0014280898564337432 -0.04901364267802362 0 -0.0014280898564337432 -0.04901364267802362 0 -0.0020238466727949701 -0.049046566202231155 0 -0.0012317582699988504 -0.049472680271541468 0 -0.00089781772659199639 -0.039134842307751938 0 -0.0011290586350007172 -0.047309605787625553 0 -0.002418884670247676 -0.042149392901720178 0 -0.0017172883045075259 -0.043323398515619262 0 -0.00095505874817945649 -0.043158803601198115 0 0.0011326491913247012 -0.026441747611120375 0 0.0011138102827884157 -0.026537490180114049 0 0.0011942615453471859 -0.026578898755228054 0 0.0010595750565561518 -0.026433778048953614 0 0.0011326491913247012 -0.026441747611120375 0 0.0011138102827884157 -0.026537490180114049 0 -0.00089781772659199639 -0.039134842307751938 0 -0.00068953326061106819 -0.033719751151340432 0 0.0011138102827884157 -0.026537490180114049 0 0.0011942615453471859 -0.026578898755228054 0 0.0011553979342164452 -0.026644216638832721 0 -0.00068953326061106819 -0.033719751151340432 0 0.00037748015518154234 -0.038372694404454205 0 -0.0017172883045075259 -0.043323398515619262 0 -0.0011643757332751026 -0.043712282897264969 0 -0.0010213762476782961 -0.044330587387531886 0 -0.0017172883045075259 -0.043323398515619262 0 -0.0011643757332751026 -0.043712282897264969 0 -0.00095505874817945649 -0.043158803601198115 0 0.0012369356803676925 -0.02674368018583272 0 0.0011553979342164452 -0.026644216638832721 0 0.0011410595563303614 -0.026725571200544512 0 0.0011942615453471859 -0.026578898755228054 0 0.0012369356803676925 -0.02674368018583272 0 0.0011553979342164452 -0.026644216638832721 0 0.00037748015518154234 -0.038372694404454205 0 0.00021779079927218182 -0.035402706613017594 0 -0.0011643757332751026 -0.043712282897264969 0 -0.0010213762476782961 -0.044330587387531886 0 -0.00091590633600746097 -0.044004539986451499 0 0.0010971636752688892 -0.026613080131227557 0 0.0011553979342164452 -0.026644216638832721 0 0.0011410595563303614 -0.026725571200544512 0 0.0011138102827884157 -0.026537490180114049 0 0.0010971636752688892 -0.026613080131227557 0 0.0011553979342164452 -0.026644216638832721 0 -0.00097881634778776232 -0.049173597950485606 0 -0.0012317582699988504 -0.049472680271541468 0 -0.00064846112003802338 -0.049769367591781077 0 -0.0011290586350007172 -0.047309605787625553 0 -0.00030982001892447406 -0.046753321083017489 0 -0.00095505874817945649 -0.043158803601198115 0 -0.00064695590163162207 -0.043880789359717252 0 0.00013070903376554601 -0.044083249472451097 0 -0.0011643757332751026 -0.043712282897264969 0 -0.00064695590163162207 -0.043880789359717252 0 -0.00091590633600746097 -0.044004539986451499 0 -0.0011643757332751026 -0.043712282897264969 0 -0.00095505874817945649 -0.043158803601198115 0 -0.00064695590163162207 -0.043880789359717252 0 -0.00064695590163162207 -0.043880789359717252 0 -0.00091590633600746097 -0.044004539986451499 0 -0.00063984760834585343 -0.044168236352824464 0 -0.00091590633600746097 -0.044004539986451499 0 -0.00063984760834585343 -0.044168236352824464 0 -0.00088561498996274444 -0.044243585215570001 0 -0.00063984760834585343 -0.044168236352824464 0 -0.00088561498996274444 -0.044243585215570001 0 -0.0005576193125232244 -0.044478903969333856 0 -0.0010213762476782961 -0.044330587387531886 0 -0.00091590633600746097 -0.044004539986451499 0 -0.00088561498996274444 -0.044243585215570001 0 0.00037748015518154234 -0.038372694404454205 0 -0.00050308647455127157 -0.039409401885833278 0 -0.00098269069922812878 -0.044323907957906958 0 -0.00088561498996274444 -0.044243585215570001 0 -0.0005576193125232244 -0.044478903969333856 0 -0.0005576193125232244 -0.044478903969333856 0 -0.00039005553542588591 -0.044224504116779119 0 -0.00020866458175079042 -0.044598141508937601 0 -0.00063984760834585343 -0.044168236352824464 0 -0.0005576193125232244 -0.044478903969333856 0 -0.00039005553542588591 -0.044224504116779119 0 -0.00064695590163162207 -0.043880789359717252 0 -0.00063984760834585343 -0.044168236352824464 0 -0.00039005553542588591 -0.044224504116779119 0 -0.00020866458175079042 -0.044598141508937601 0 0.00013070903376554601 -0.044083249472451097 0 0.00024036094924446847 -0.044933053693912636 0 -0.00064695590163162207 -0.043880789359717252 0 -0.00039005553542588591 -0.044224504116779119 0 0.00013070903376554601 -0.044083249472451097 0 -0.00039005553542588591 -0.044224504116779119 0 -0.00020866458175079042 -0.044598141508937601 0 0.00013070903376554601 -0.044083249472451097 0 -0.00020866458175079042 -0.044598141508937601 0 0.00024036094924446847 -0.044933053693912636 0 -0.00024587345842651368 -0.045229630610973653 0 0.00024036094924446847 -0.044933053693912636 0 -0.00024587345842651368 -0.045229630610973653 0 0.00014481790424098219 -0.045489092136295192 0 0.00037748015518154234 -0.038372694404454205 0 -0.0001906836048806964 -0.047373292312771868 0 -0.00060894632297448729 -0.044356897819473974 0 -0.00024587345842651368 -0.045229630610973653 0 -0.00068143978594225457 -0.044897775305983746 0 -0.0005576193125232244 -0.044478903969333856 0 -0.00020866458175079042 -0.044598141508937601 0 -0.00024587345842651368 -0.045229630610973653 0 -0.00048374055395392995 -0.045215542217832139 0 -0.00024587345842651368 -0.045229630610973653 0 -0.00068143978594225457 -0.044897775305983746 0 -0.00098269069922812878 -0.044323907957906958 0 -0.0005576193125232244 -0.044478903969333856 0 -0.00024587345842651368 -0.045229630610973653 0 -0.00042292960522241711 -0.045693504852126872 0 -0.00040077848819769068 -0.045968151023666907 0 -0.00064701050283101766 -0.045914428039796486 0 -0.00042292960522241711 -0.045693504852126872 0 -0.00040077848819769068 -0.045968151023666907 0 -0.00011571835251631503 -0.045893091962597159 0 -0.00042292960522241711 -0.045693504852126872 0 -0.00011571835251631503 -0.045893091962597159 0 0.00014481790424098219 -0.045489092136295192 0 -0.00011571835251631503 -0.045893091962597159 0 0.00014481790424098219 -0.045489092136295192 0 0.00037665184395850061 -0.046042717619049475 0 -0.00048374055395392995 -0.045215542217832139 0 -0.00024587345842651368 -0.045229630610973653 0 0.00014481790424098219 -0.045489092136295192 0 -0.00039430230157353185 -0.045424838384171981 0 0.00011470882810885325 -0.045492476007916713 0 0.0011410595563303614 -0.026725571200544512 0 0.0010659997268308347 -0.026716050347947069 0 0.0010737747945581417 -0.026653966958594361 0 0.0010971636752688892 -0.026613080131227557 0 0.0011410595563303614 -0.026725571200544512 0 0.0010737747945581417 -0.026653966958594361 0 0.00021779079927218182 -0.035402706613017594 0 9.1048099171996529e-05 -0.036046293143315297 0 -0.0010180552424057141 -0.044699098891442274 0 -0.00094868371543536402 -0.044977258741193807 0 -0.0012662652566461808 -0.044819842558398111 0 -0.00048374055395392995 -0.045215542217832139 0 -0.00068143978594225457 -0.044897775305983746 0 -0.00094868371543536402 -0.044977258741193807 0 -0.0010180552424057141 -0.044699098891442274 0 -0.00068143978594225457 -0.044897775305983746 0 -0.00094868371543536402 -0.044977258741193807 0 -0.00060894632297448729 -0.044356897819473974 0 -0.0010180552424057141 -0.044699098891442274 0 -0.00068143978594225457 -0.044897775305983746 0 -0.00064701050283101766 -0.045914428039796486 0 -0.00073307376222338499 -0.045872269792913194 0 -0.00067405622199915867 -0.046103053880147189 0 -0.00042292960522241711 -0.045693504852126872 0 -0.00073446138461843947 -0.045896248667030175 0 -0.00064701050283101766 -0.045914428039796486 0 -0.00039430230157353185 -0.045424838384171981 0 -0.00090958832383036619 -0.045996793425664047 0 -0.00073446138461843947 -0.045896248667030175 0 -0.00064701050283101766 -0.045914428039796486 0 -0.00073307376222338499 -0.045872269792913194 0 -0.00040077848819769068 -0.045968151023666907 0 -0.00064701050283101766 -0.045914428039796486 0 -0.00067405622199915867 -0.046103053880147189 0 -0.00073446138461843947 -0.045896248667030175 0 -0.00046591440133716754 -0.046050480401397885 0 -0.00073307376222338499 -0.045872269792913194 0 -0.00090958832383036619 -0.045996793425664047 0 9.1048099171996529e-05 -0.036046293143315297 0 0.0010264189903146672 -0.02682187467958503 0 0.0010063512005478933 -0.026810297104321257 0 0.00095093217160672214 -0.026742920524798756 0 -0.0003961942551979512 -0.045880044003040729 0 -0.00030669437610672052 -0.045676937432551613 0 -0.00073307376222338499 -0.045872269792913194 0 -0.0003961942551979512 -0.045880044003040729 0 -0.00046591440133716754 -0.046050480401397885 0 -0.00073307376222338499 -0.045872269792913194 0 -0.0003961942551979512 -0.045880044003040729 0 -6.2338579937825896e-05 -0.045908107767489818 0 -0.00030669437610672052 -0.045676937432551613 0 9.1048099171996529e-05 -0.036046293143315297 0 0.00019143810132501798 -0.036439435585582908 0 -0.0003961942551979512 -0.045880044003040729 0 -0.00046591440133716754 -0.046050480401397885 0 -6.2338579937825896e-05 -0.045908107767489818 0 0.0010264189903146672 -0.02682187467958503 0 0.00095093217160672214 -0.026742920524798756 0 0.00096080771853793666 -0.026696122215432206 0 0.0023235939893130786 -0.026048839416774886 0 0.00079529052323487018 -0.03392525255513542 0 0.00095093217160672214 -0.026742920524798756 0 0.00099525571976704914 -0.026629332380921324 0 0.0010025155501984075 -0.026608040418715055 0 0.0010063512005478933 -0.026810297104321257 0 0.00095093217160672214 -0.026742920524798756 0 0.00062545568790951366 -0.027301449255062577 0 0.00019143810132501798 -0.036439435585582908 0 0.00079529052323487018 -0.03392525255513542 0 0.00095093217160672214 -0.026742920524798756 0 0.00096080771853793666 -0.026696122215432206 0 0.00099525571976704914 -0.026629332380921324 0 0.001001668966029398 -0.026606769279887723 0 0.001009723296213912 -0.026568911180270008 0 0.0010374484584228137 -0.026627332983151727 0 0.001009723296213912 -0.026568911180270008 0 0.0010374484584228137 -0.026627332983151727 0 0.0010459805007792151 -0.026589085294928406 0 0.001009723296213912 -0.026568911180270008 0 0.00098188026919664444 -0.026500759589267585 0 0.00098795505469722439 -0.026542333817306016 0 0.001001668966029398 -0.026606769279887723 0 0.001009723296213912 -0.026568911180270008 0 0.00098795505469722439 -0.026542333817306016 0 9.1048099171996529e-05 -0.036046293143315297 0 0.0010863479456893622 -0.026108608996627768 0 0.0010659997268308347 -0.026716050347947069 0 0.001001668966029398 -0.026606769279887723 0 0.0010374484584228137 -0.026627332983151727 0 0.0010659997268308347 -0.026716050347947069 0 0.0010374484584228137 -0.026627332983151727 0 0.0010737747945581417 -0.026653966958594361 0 0.0010374484584228137 -0.026627332983151727 0 0.0010737747945581417 -0.026653966958594361 0 0.0010459805007792151 -0.026589085294928406 0 0.0010971636752688892 -0.026613080131227557 0 0.0010737747945581417 -0.026653966958594361 0 0.0010459805007792151 -0.026589085294928406 0 0.0011138102827884157 -0.026537490180114049 0 0.0010971636752688892 -0.026613080131227557 0 0.0010509682612432291 -0.026509623119260865 0 0.0010459805007792151 -0.026589085294928406 0 0.0010212428544639828 -0.026522943929894838 0 0.0010509682612432291 -0.026509623119260865 0 0.0010971636752688892 -0.026613080131227557 0 0.0010459805007792151 -0.026589085294928406 0 0.0010509682612432291 -0.026509623119260865 0 0.0010212428544639828 -0.026522943929894838 0 0.00099740119305050676 -0.026392744285484965 0 0.00098188026919664444 -0.026500759589267585 0 0.001009723296213912 -0.026568911180270008 0 0.0010459805007792151 -0.026589085294928406 0 0.0010212428544639828 -0.026522943929894838 0 0.001009723296213912 -0.026568911180270008 0 0.0010212428544639828 -0.026522943929894838 0 0.00098188026919664444 -0.026500759589267585 0 0.0010595750565561518 -0.026433778048953614 0 0.00099740119305050676 -0.026392744285484965 0 0.0010509682612432291 -0.026509623119260865 0 0.0010212428544639828 -0.026522943929894838 0 0.00099740119305050676 -0.026392744285484965 0 0.0010509682612432291 -0.026509623119260865 0 0.0010595750565561518 -0.026433778048953614 0 0.0011138102827884157 -0.026537490180114049 0 0.0010509682612432291 -0.026509623119260865 0 0.00096453006947563619 -0.026225063141420913 0 0.00099740119305050676 -0.026392744285484965 0 0.00080996750285575333 -0.026329738857367061 0 0.00099740119305050676 -0.026392744285484965 0 0.00080996750285575333 -0.026329738857367061 0 0.00092279491019806297 -0.026436032851344174 0 0.00099740119305050676 -0.026392744285484965 0 0.00092279491019806297 -0.026436032851344174 0 0.00098188026919664444 -0.026500759589267585 0 0.00092279491019806297 -0.026436032851344174 0 0.00098188026919664444 -0.026500759589267585 0 0.00096142134989583416 -0.026489315504448403 0 0.00098188026919664444 -0.026500759589267585 0 0.00096142134989583416 -0.026489315504448403 0 0.00098795505469722439 -0.026542333817306016 0 0.00092279491019806297 -0.026436032851344174 0 0.00096142134989583416 -0.026489315504448403 0 0.00096098187922696475 -0.026457379593119119 0 0.00046590939471395198 -0.026496360400152904 0 0.00080996750285575333 -0.026329738857367061 0 0.00096098187922696475 -0.026457379593119119 0 0.00077614853440154401 -0.026217545431555838 0 0.00091998371238042936 -0.026407668882927008 0 0.00080996750285575333 -0.026329738857367061 0 0.00092279491019806297 -0.026436032851344174 0 0.00096098187922696475 -0.026457379593119119 0 0.0011025506475590547 -0.026258484928927905 0 0.00096098187922696475 -0.026457379593119119 0 0.0010322193084722365 -0.026438705423538576 0 0.00096098187922696475 -0.026457379593119119 0 0.00099463642487333478 -0.026516939291085249 0 0.0010322193084722365 -0.026438705423538576 0 0.0010863479456893622 -0.026108608996627768 0 0.0009540541009132313 -0.026612625056125969 0 0.001001668966029398 -0.026606769279887723 0 0.00098795505469722439 -0.026542333817306016 0 0.00099463642487333478 -0.026516939291085249 0 0.00096142134989583416 -0.026489315504448403 0 0.00096098187922696475 -0.026457379593119119 0 0.00099463642487333478 -0.026516939291085249 0 0.00096142134989583416 -0.026489315504448403 0 0.00098795505469722439 -0.026542333817306016 0 0.00099463642487333478 -0.026516939291085249 0 0.00096080771853793666 -0.026696122215432206 0 0.00099463642487333478 -0.026516939291085249 0 0.00099525571976704914 -0.026629332380921324 0 0.00099463642487333478 -0.026516939291085249 0 0.00099525571976704914 -0.026629332380921324 0 0.0010259311629133906 -0.026562204325031934 0 0.00099525571976704914 -0.026629332380921324 0 0.0010259311629133906 -0.026562204325031934 0 0.0010025155501984075 -0.026608040418715055 0 0.00099463642487333478 -0.026516939291085249 0 0.0010259311629133906 -0.026562204325031934 0 0.0010322193084722365 -0.026438705423538576 0 0.0010259311629133906 -0.026562204325031934 0 0.0010322193084722365 -0.026438705423538576 0 0.0010407718659866357 -0.02666106229911612 0 0.0010322193084722365 -0.026438705423538576 0 0.0010407718659866357 -0.02666106229911612 0 0.00090416588588012291 -0.026562567966000376 0 0.0010259311629133906 -0.026562204325031934 0 0.0010407718659866357 -0.02666106229911612 0 0.0010025155501984075 -0.026608040418715055 0 0.00071193859363001392 -0.045209884010962223 0 0.00027152650159897261 -0.045180161586767555 0 0.00033279596131164258 -0.045652385536291744 0 0.0014557017750891838 -0.030972829643556365 0 0.00079529052323487018 -0.03392525255513542 0 0.00079444831336610228 -0.041415333925068118 0 0.00079529052323487018 -0.03392525255513542 0 0.0016126202713701602 -0.035624582104133946 0 0.0015213067498525848 -0.035580751764467185 0 0.0017758940927195994 -0.035349731442989321 0 0.00071193859363001392 -0.045209884010962223 0 0.00067993173765190543 -0.044636208313425782 0 0.00027152650159897261 -0.045180161586767555 0 0.0015213067498525848 -0.035580751764467185 0 0.0014632637325584718 -0.035922173744223129 0 0.0013391857686476608 -0.035724718194645344 0 0.0014557017750891838 -0.030972829643556365 0 0.00083638239030207938 -0.029100851648197635 0 0.0016126202713701602 -0.035624582104133946 0 0.0015213067498525848 -0.035580751764467185 0 0.0014632637325584718 -0.035922173744223129 0 0.00079444831336610228 -0.041415333925068118 0 0.0012812795632954443 -0.04016715236464221 0 0.0010627879789012187 -0.04478553610082163 0 0.00067993173765190543 -0.044636208313425782 0 0.0010790137206074858 -0.044247954816659919 0 0.00071193859363001392 -0.045209884010962223 0 0.0010627879789012187 -0.04478553610082163 0 0.00067993173765190543 -0.044636208313425782 0 0.00067993173765190543 -0.044636208313425782 0 0.00024165972612371183 -0.044709552985643101 0 0.00027152650159897261 -0.045180161586767555 0 0.00067993173765190543 -0.044636208313425782 0 0.00042950704108547902 -0.044344779023266376 0 0.00024165972612371183 -0.044709552985643101 0 0.00067993173765190543 -0.044636208313425782 0 0.00042950704108547902 -0.044344779023266376 0 0.00077447510970383808 -0.044200954545478142 0 0.00067993173765190543 -0.044636208313425782 0 0.0010790137206074858 -0.044247954816659919 0 0.00077447510970383808 -0.044200954545478142 0 -1.6118664584672942e-05 -0.044328260758236961 0 0.00024165972612371183 -0.044709552985643101 0 -0.00039306608848863208 -0.044655851902970736 0 -1.6118664584672942e-05 -0.044328260758236961 0 -0.00039306608848863208 -0.044655851902970736 0 -0.00059392405487174301 -0.043937952059665553 0 0.00042950704108547902 -0.044344779023266376 0 -1.6118664584672942e-05 -0.044328260758236961 0 0.00024165972612371183 -0.044709552985643101 0 0.00024165972612371183 -0.044709552985643101 0 -7.0963610230197134e-05 -0.044990506272590484 0 -0.00039306608848863208 -0.044655851902970736 0 -0.00040571480183588176 -0.045077182245824111 0 -7.0963610230197134e-05 -0.044990506272590484 0 -0.00039306608848863208 -0.044655851902970736 0 -0.00040571480183588176 -0.045077182245824111 0 -7.0963610230197134e-05 -0.044990506272590484 0 -0.00016543418902878275 -0.045340608603730535 0 -0.00040571480183588176 -0.045077182245824111 0 -0.00016543418902878275 -0.045340608603730535 0 -0.00049058703930975902 -0.045411919890001907 0 -7.0963610230197134e-05 -0.044990506272590484 0 -0.00016543418902878275 -0.045340608603730535 0 0.00027152650159897261 -0.045180161586767555 0 0.00024165972612371183 -0.044709552985643101 0 -7.0963610230197134e-05 -0.044990506272590484 0 0.00027152650159897261 -0.045180161586767555 0 0.00027152650159897261 -0.045180161586767555 0 2.0597742968836989e-05 -0.045563151384731264 0 0.00033279596131164258 -0.045652385536291744 0 -0.00016543418902878275 -0.045340608603730535 0 0.00027152650159897261 -0.045180161586767555 0 2.0597742968836989e-05 -0.045563151384731264 0 -6.2338579937825896e-05 -0.045908107767489818 0 2.0597742968836989e-05 -0.045563151384731264 0 0.00033279596131164258 -0.045652385536291744 0 -0.00016543418902878275 -0.045340608603730535 0 -0.00030669437610672052 -0.045676937432551613 0 -0.00049058703930975902 -0.045411919890001907 0 -0.00016543418902878275 -0.045340608603730535 0 2.0597742968836989e-05 -0.045563151384731264 0 -0.00030669437610672052 -0.045676937432551613 0 -6.2338579937825896e-05 -0.045908107767489818 0 2.0597742968836989e-05 -0.045563151384731264 0 -0.00030669437610672052 -0.045676937432551613 0 -0.00030669437610672052 -0.045676937432551613 0 -0.00073307376222338499 -0.045872269792913194 0 -0.00049058703930975902 -0.045411919890001907 0 -0.00074585730505257603 -0.045914960785049454 0 -0.00085569589377241693 -0.045915087280462792 0 -0.00073307376222338499 -0.045872269792913194 0 -0.00049058703930975902 -0.045411919890001907 0 -0.00085021545169776944 -0.045121129059904487 0 -0.00073307376222338499 -0.045872269792913194 0 -0.00067405622199915867 -0.046103053880147189 0 -0.00090833499181831054 -0.046682395275838402 0 -0.00067405622199915867 -0.046103053880147189 0 -0.00090833499181831054 -0.046682395275838402 0 -0.00060576099894546725 -0.046604870082406984 0 -0.00090833499181831054 -0.046682395275838402 0 -0.00060576099894546725 -0.046604870082406984 0 -0.00052544924658321597 -0.046980795160516058 0 -0.00040571480183588176 -0.045077182245824111 0 -0.00049058703930975902 -0.045411919890001907 0 -0.00085021545169776944 -0.045121129059904487 0 -0.00011571835251631503 -0.045893091962597159 0 -0.00010016481093529283 -0.046310684687734381 0 0.00037665184395850061 -0.046042717619049475 0 -0.00068054988296127432 -0.046134688511630467 0 -0.00024015389197153125 -0.046461033693712739 0 -0.00040077848819769068 -0.045968151023666907 0 -0.00011571835251631503 -0.045893091962597159 0 -0.00010016481093529283 -0.046310684687734381 0 -0.00040077848819769068 -0.045968151023666907 0 -0.00067405622199915867 -0.046103053880147189 0 -0.00010016481093529283 -0.046310684687734381 0 -0.00067405622199915867 -0.046103053880147189 0 -0.00035888317705484594 -0.04664861450397307 0 -0.00060576099894546725 -0.046604870082406984 0 -0.00035888317705484594 -0.04664861450397307 0 -0.00060576099894546725 -0.046604870082406984 0 -0.00052544924658321597 -0.046980795160516058 0 -0.00035888317705484594 -0.04664861450397307 0 -0.00026202479010208686 -0.046942326343786089 0 -7.7952740459254365e-05 -0.047000492934727647 0 -0.00035888317705484594 -0.04664861450397307 0 -0.00026202479010208686 -0.046942326343786089 0 -0.00052544924658321597 -0.046980795160516058 0 -0.00054383134930524515 -0.047016846620449373 0 -0.00039365944912985834 -0.047252274376257938 0 -0.00057468529429437567 -0.047237645049287028 0 -0.00060245749148342355 -0.047381627497841791 0 -0.00061980670263863042 -0.047386753603114354 0 -0.00057468529429437567 -0.047237645049287028 0 -0.00052544924658321597 -0.046980795160516058 0 -0.00061980670263863042 -0.047386753603114354 0 -0.00026202479010208686 -0.046942326343786089 0 -0.00052544924658321597 -0.046980795160516058 0 -0.0001470083854139332 -0.047155391792571215 0 -0.00057468529429437567 -0.047237645049287028 0 -0.00052544924658321597 -0.046980795160516058 0 -0.00077423764851452289 -0.047259621058948792 0 -0.00062419979237326735 -0.047340492136287618 0 -0.00077423764851452289 -0.047259621058948792 0 -0.00066296230258808221 -0.047441600380629785 0 -0.00093097436137545364 -0.045911290202003345 0 -0.00078950238497620671 -0.045624034025196582 0 -0.00057468529429437567 -0.047237645049287028 0 -0.00062419979237326735 -0.047340492136287618 0 -0.00077423764851452289 -0.047259621058948792 0 -0.00057468529429437567 -0.047237645049287028 0 -0.00062419979237326735 -0.047340492136287618 0 -0.00060245749148342355 -0.047381627497841791 0 -0.00062419979237326735 -0.047340492136287618 0 -0.00060245749148342355 -0.047381627497841791 0 -0.00060067886843920466 -0.047407368743910765 0 -0.00060245749148342355 -0.047381627497841791 0 -0.00060067886843920466 -0.047407368743910765 0 -0.00063212958039631764 -0.047470872911908948 0 -0.00040571480183588176 -0.045077182245824111 0 -0.00085021545169776944 -0.045121129059904487 0 -0.00039306608848863208 -0.044655851902970736 0 -0.00085021545169776944 -0.045121129059904487 0 -0.00039306608848863208 -0.044655851902970736 0 -0.0010436501004952906 -0.044550854261010991 0 -0.00090833499181831054 -0.046682395275838402 0 -0.00052544924658321597 -0.046980795160516058 0 -0.00077423764851452289 -0.047259621058948792 0 -0.00085569589377241693 -0.045915087280462792 0 -0.00093097436137545364 -0.045911290202003345 0 -0.00039306608848863208 -0.044655851902970736 0 -0.0010436501004952906 -0.044550854261010991 0 -0.00059392405487174301 -0.043937952059665553 0 -0.00047284169628546358 -0.043724634812733726 0 -0.00078950238497620671 -0.045624034025196582 0 -0.0010436501004952906 -0.044550854261010991 0 -0.00059392405487174301 -0.043937952059665553 0 -0.0012814780080448974 -0.04398097911116345 0 -0.00026903070647278535 -0.043970186859181151 0 -0.00050694367904740125 -0.043768340588925377 0 -0.00073269869342666998 -0.044008920738367978 0 -0.00026903070647278535 -0.043970186859181151 0 -0.00050694367904740125 -0.043768340588925377 0 -0.00015872223629375196 -0.043638441566128554 0 -0.00051901854593454941 -0.047470257400159657 0 -0.00078950238497620671 -0.045624034025196582 0 -0.00059072708213354073 -0.047407974214045343 0 -0.00040864705418804505 -0.047376032686500265 0 -0.00051824161142133198 -0.04733644264377556 0 -0.00059072708213354073 -0.047407974214045343 0 -0.00060067886843920466 -0.047407368743910765 0 -0.00066296230258808221 -0.047441600380629785 0 -0.00059072708213354073 -0.047407974214045343 0 -0.00051824161142133198 -0.04733644264377556 0 -0.00064371503953720424 -0.047376743631281235 0 -0.00059072708213354073 -0.047407974214045343 0 -0.00064371503953720424 -0.047376743631281235 0 -0.00063042027240606182 -0.047461433856603653 0 -0.00059072708213354073 -0.047407974214045343 0 -0.00060067886843920466 -0.047407368743910765 0 -0.00063042027240606182 -0.047461433856603653 0 -0.00060067886843920466 -0.047407368743910765 0 -0.00063212958039631764 -0.047470872911908948 0 -0.00063042027240606182 -0.047461433856603653 0 -0.00062419979237326735 -0.047340492136287618 0 -0.00060067886843920466 -0.047407368743910765 0 -0.00066296230258808221 -0.047441600380629785 0 -0.00040864705418804505 -0.047376032686500265 0 -0.00048193470463543593 -0.04721655424517994 0 -0.00051824161142133198 -0.04733644264377556 0 -0.00050694367904740125 -0.043768340588925377 0 -0.00073269869342666998 -0.044008920738367978 0 -0.00084656597687467097 -0.043750353533172921 0 -0.00078950238497620671 -0.045624034025196582 0 -0.0004009012941681304 -0.045487091370905106 0 -0.0004009012941681304 -0.045487091370905106 0 -0.00078389912674125726 -0.047517171666332618 0 -0.00048193470463543593 -0.04721655424517994 0 -0.00051824161142133198 -0.04733644264377556 0 -0.00064371503953720424 -0.047376743631281235 0 -0.0001714012448461451 -0.04606453175517608 0 -0.00042823438899821981 -0.046282665005638213 0 -0.00077480080508662158 -0.047356472116499786 0 -0.0001714012448461451 -0.04606453175517608 0 -0.00042823438899821981 -0.046282665005638213 0 -0.0005409698603386395 -0.045688119420905129 0 -0.00042823438899821981 -0.046282665005638213 0 -0.00073740567471768581 -0.046295617289348119 0 -0.0005409698603386395 -0.045688119420905129 0 -0.00042823438899821981 -0.046282665005638213 0 -0.00073740567471768581 -0.046295617289348119 0 -0.00077480080508662158 -0.047356472116499786 0 -0.0005409698603386395 -0.045688119420905129 0 -0.00012642771313435439 -0.045091650106217206 0 -0.00071319937410209725 -0.044570161678575505 0 -0.00039209213136421239 -0.046533573482674825 0 -0.00079384129776374453 -0.047244365698555592 0 -0.0005409698603386395 -0.045688119420905129 0 -0.00071319937410209725 -0.044570161678575505 0 -0.0011695075742108134 -0.04597633357043443 0 -0.00073740567471768581 -0.046295617289348119 0 -0.0005409698603386395 -0.045688119420905129 0 -0.0011695075742108134 -0.04597633357043443 0 -0.0001714012448461451 -0.04606453175517608 0 -0.00012642771313435439 -0.045091650106217206 0 0.00019954380438361185 -0.044715872609857411 0 -0.0001714012448461451 -0.04606453175517608 0 -0.0005409698603386395 -0.045688119420905129 0 -0.00012642771313435439 -0.045091650106217206 0 -0.0004009012941681304 -0.045487091370905106 0 -0.00016943431784529464 -0.044018874917261239 0 -0.00012642771313435439 -0.045091650106217206 0 -0.00014283830792178874 -0.044295219919961208 0 0.00019954380438361185 -0.044715872609857411 0 -0.00012642771313435439 -0.045091650106217206 0 -0.00014283830792178874 -0.044295219919961208 0 -0.00071319937410209725 -0.044570161678575505 0 -0.00050694367904740125 -0.043768340588925377 0 -0.00084656597687467097 -0.043750353533172921 0 -0.00047683984254210613 -0.043442599054415436 0 -0.00050694367904740125 -0.043768340588925377 0 -0.00015872223629375196 -0.043638441566128554 0 -0.00047683984254210613 -0.043442599054415436 0 -0.00014283830792178874 -0.044295219919961208 0 0.00019954380438361185 -0.044715872609857411 0 -3.4762261033028807e-05 -0.044097237085065702 0 -0.00015872223629375196 -0.043638441566128554 0 -0.00047683984254210613 -0.043442599054415436 0 -0.00010494923081654021 -0.043139887242359815 0 0.00019954380438361185 -0.044715872609857411 0 9.99218799559472e-05 -0.043910070967822526 0 -3.4762261033028807e-05 -0.044097237085065702 0 -0.00016943431784529464 -0.044018874917261239 0 -3.1526327532255369e-05 -0.043543252976126906 0 0.00021838358309461255 -0.043552530837245793 0 0.00029772767473316183 -0.043195656014256116 0 -0.00010494923081654021 -0.043139887242359815 0 -0.00015872223629375196 -0.043638441566128554 0 0.00021838358309461255 -0.043552530837245793 0 -0.00010494923081654021 -0.043139887242359815 0 0.00021838358309461255 -0.043552530837245793 0 0.00029772767473316183 -0.043195656014256116 0 0.00065968971209071667 -0.043517025866390203 0 0.00029772767473316183 -0.043195656014256116 0 0.00065968971209071667 -0.043517025866390203 0 0.00077938470640220511 -0.043111649016443675 0 0.0011854943696545223 -0.043464680521848043 0 0.00077938470640220511 -0.043111649016443675 0 0.0015473716353871839 -0.043214514513766275 0 0.0011854943696545223 -0.043464680521848043 0 0.00065968971209071667 -0.043517025866390203 0 0.00077938470640220511 -0.043111649016443675 0 0.0011854943696545223 -0.043464680521848043 0 0.00065968971209071667 -0.043517025866390203 0 0.0010126631087382584 -0.043829794151008163 0 0.00021838358309461255 -0.043552530837245793 0 0.00065968971209071667 -0.043517025866390203 0 0.00059805526757628763 -0.043929767716198304 0 0.00065968971209071667 -0.043517025866390203 0 0.0010126631087382584 -0.043829794151008163 0 0.00059805526757628763 -0.043929767716198304 0 0.0010790137206074858 -0.044247954816659919 0 0.0010126631087382584 -0.043829794151008163 0 0.0012667080158015273 -0.043921028993308284 0 0.0010790137206074858 -0.044247954816659919 0 0.0010126631087382584 -0.043829794151008163 0 0.00077447510970383808 -0.044200954545478142 0 0.0010126631087382584 -0.043829794151008163 0 0.00059805526757628763 -0.043929767716198304 0 0.00077447510970383808 -0.044200954545478142 0 0.00042950704108547902 -0.044344779023266376 0 0.00059805526757628763 -0.043929767716198304 0 0.00077447510970383808 -0.044200954545478142 0 0.00042950704108547902 -0.044344779023266376 0 0.00059805526757628763 -0.043929767716198304 0 0.0001788990062370328 -0.043939989051582862 0 0.00042950704108547902 -0.044344779023266376 0 -1.6118664584672942e-05 -0.044328260758236961 0 0.0001788990062370328 -0.043939989051582862 0 -1.6118664584672942e-05 -0.044328260758236961 0 -0.00059392405487174301 -0.043937952059665553 0 0.0001788990062370328 -0.043939989051582862 0 -0.00047284169628546358 -0.043724634812733726 0 0.0001673056616879573 -0.044002918173072419 0 -0.00026903070647278535 -0.043970186859181151 0 -0.00015872223629375196 -0.043638441566128554 0 0.0001788990062370328 -0.043939989051582862 0 -0.00015872223629375196 -0.043638441566128554 0 0.00021838358309461255 -0.043552530837245793 0 0.0001788990062370328 -0.043939989051582862 0 0.00021838358309461255 -0.043552530837245793 0 0.00059805526757628763 -0.043929767716198304 0 0.0001788990062370328 -0.043939989051582862 0 1.2295156929225625e-08 -0.050000007567245687 0 4.5176197140744744e-05 -0.049953015421765272 0 -1.5166114244790502e-06 -0.049972664405085666 0 1.2295156929225625e-08 -0.050000007567245687 0 4.5176197140744744e-05 -0.049953015421765272 0 2.6126919822011876e-05 -0.049981272912445154 0 4.5176197140744744e-05 -0.049953015421765272 0 2.6126919822011876e-05 -0.049981272912445154 0 6.4645057549737533e-05 -0.049964725791028688 0 2.6126919822011876e-05 -0.049981272912445154 0 5.0598194806194402e-05 -0.049984145533778168 0 6.4645057549737533e-05 -0.049964725791028688 0 1.2295156929225625e-08 -0.050000007567245687 0 2.6126919822011876e-05 -0.049981272912445154 0 8.7086937943664081e-06 -0.049994302220483289 0 2.6126919822011876e-05 -0.049981272912445154 0 8.7086937943664081e-06 -0.049994302220483289 0 1.2965872272029075e-05 -0.049997497486306809 0 1.2295156929225625e-08 -0.050000007567245687 0 8.7086937943664081e-06 -0.049994302220483289 0 1.467564809628166e-08 -0.049999981158451369 0 8.7086937943664081e-06 -0.049994302220483289 0 1.2965872272029075e-05 -0.049997497486306809 0 1.467564809628166e-08 -0.049999981158451369 0 1.2965872272029075e-05 -0.049997497486306809 0 1.467564809628166e-08 -0.049999981158451369 0 1.0774131353672258e-05 -0.050001040817484133 0 2.3761191618726135e-09 -0.050000019939387449 0 1.467564809628166e-08 -0.049999981158451369 0 1.0774131353672258e-05 -0.050001040817484133 0 1.4120612725029769e-07 -0.049999924648969796 0 -0.00015915506374161655 -0.050076644701607248 0 1.2965872272029075e-05 -0.049997497486306809 0 1.0774131353672258e-05 -0.050001040817484133 0 2.2778163098660399e-05 -0.049992090502317385 0 -1.8273377779930377e-06 -0.049984250806476005 0 1.0054953518645789e-06 -0.049989059070732499 0 -9.6312914522215715e-07 -0.0499887555315165 0 -1.1187775209723692e-05 -0.049980080184105088 0 -1.8273377779930377e-06 -0.049984250806476005 0 -9.6312914522215715e-07 -0.0499887555315165 0 -0.00015915506374161655 -0.050076644701607248 0 0.00067820245298291001 -0.04883703464165999 0 -4.3889855852245986e-05 -0.050124761665863757 0 0.00067820245298291001 -0.04883703464165999 0 1.2965872272029075e-05 -0.049997497486306809 0 5.5949928122980064e-05 -0.050006458994937865 0 5.0598194806194402e-05 -0.049984145533778168 0 2.6126919822011876e-05 -0.049981272912445154 0 1.2965872272029075e-05 -0.049997497486306809 0 5.0598194806194402e-05 -0.049984145533778168 0 0.00067820245298291001 -0.04883703464165999 0 0.0015851745589827711 -0.047639591672113651 0 5.5949928122980064e-05 -0.050006458994937865 0 5.0598194806194402e-05 -0.049984145533778168 0 0.00010811406779576785 -0.049970191859103237 0 5.0598194806194402e-05 -0.049984145533778168 0 0.00010811406779576785 -0.049970191859103237 0 6.4645057549737533e-05 -0.049964725791028688 0 0.0022065653549019904 -0.045881427573714266 0 0.002823984725231282 -0.046307541823831858 0 0.0022447706864199006 -0.046006708004525415 0 0.002823984725231282 -0.046307541823831858 0 0.0022447706864199006 -0.046006708004525415 0 0.0021618154102238918 -0.046656332416134032 0 0.0012062197856452146 -0.047845716635348895 0 0.00067820245298291001 -0.04883703464165999 0 -1.1187775209723692e-05 -0.049980080184105088 0 -2.1612847735281037e-05 -0.049979836674939528 0 -9.6312914522215715e-07 -0.0499887555315165 0 -3.6459028427894327e-05 -0.049983319111090323 0 -2.1612847735281037e-05 -0.049979836674939528 0 -9.6312914522215715e-07 -0.0499887555315165 0 0.0022447706864199006 -0.046006708004525415 0 0.0020681393197640118 -0.046221298449168557 0 0.0022074092039190657 -0.046606827541328451 0 0.0023714792427146432 -0.045630258753663104 0 0.0015851745589827711 -0.047639591672113651 0 0.00211373432559846 -0.046019100335439191 0 0.0022447706864199006 -0.046006708004525415 0 0.0020681393197640118 -0.046221298449168557 0 0.0022065653549019904 -0.045881427573714266 0 0.00211373432559846 -0.046019100335439191 0 0.0019344097897234817 -0.045967411049944319 0 0.00211373432559846 -0.046019100335439191 0 0.0020681393197640118 -0.046221298449168557 0 0.0019344097897234817 -0.045967411049944319 0 0.0022065653549019904 -0.045881427573714266 0 0.00211373432559846 -0.046019100335439191 0 0.0022447706864199006 -0.046006708004525415 0 0.0020681393197640118 -0.046221298449168557 0 0.0022074092039190657 -0.046606827541328451 0 0.0019729675970748136 -0.046483553794216918 0 0.0015851745589827711 -0.047639591672113651 0 0.0022265289419240819 -0.046881288947117052 0 0.0022074092039190657 -0.046606827541328451 0 0.0019656367334732129 -0.046746687973787088 0 0.0019729675970748136 -0.046483553794216918 0 0.00010811406779576785 -0.049970191859103237 0 6.4645057549737533e-05 -0.049964725791028688 0 0.00010549497289909488 -0.049937173941637651 0 0.0015851745589827711 -0.047639591672113651 0 0.00073567385421524569 -0.048556093223410028 0 0.0021939031233904581 -0.046630222473323969 0 0.0021381503270217158 -0.047201536533784477 0 0.0019656367334732129 -0.046746687973787088 0 4.5176197140744744e-05 -0.049953015421765272 0 6.4645057549737533e-05 -0.049964725791028688 0 0.00010549497289909488 -0.049937173941637651 0 -8.3597626213568934e-05 -0.049489467466683104 0 9.924666027931502e-05 -0.049526925340017923 0 2.3375410484615541e-06 -0.049409160050557399 0 -0.00013443767415387029 -0.049909220355392657 0 0.00073567385421524569 -0.048556093223410028 0 0.00073567385421524569 -0.048556093223410028 0 0.00028492341565251254 -0.048654233662783208 0 9.924666027931502e-05 -0.049526925340017923 0 0.00015202384319995115 -0.049393236843625628 0 2.3375410484615541e-06 -0.049409160050557399 0 0.00043747371332901046 -0.04746196333143772 0 0.00030185445113289065 -0.047742243045523346 0 0.00045821840921315645 -0.047914416071985808 0 0.00028960259858176702 -0.04771786821685791 0 -0.00021681791260250738 -0.047455009694652772 0 0.00043747371332901046 -0.04746196333143772 0 0.00019897819255354648 -0.047451629022771676 0 0.00030185445113289065 -0.047742243045523346 0 0.00030185445113289065 -0.047742243045523346 0 -0.00020371514674310279 -0.047749400852561248 0 -2.4242457295375831e-05 -0.047998931701221888 0 0.00030185445113289065 -0.047742243045523346 0 -0.00020371514674310279 -0.047749400852561248 0 -0.00050804782836099175 -0.047522625427668046 0 0.00019897819255354648 -0.047451629022771676 0 0.00030185445113289065 -0.047742243045523346 0 2.3274237675666655e-05 -0.047361473949735708 0 -0.00020371514674310279 -0.047749400852561248 0 -0.00050804782836099175 -0.047522625427668046 0 -0.00051404383961703838 -0.047771706093691711 0 0.00019897819255354648 -0.047451629022771676 0 2.3274237675666655e-05 -0.047361473949735708 0 8.2446608719993441e-05 -0.047239248881441376 0 2.3274237675666655e-05 -0.047361473949735708 0 8.2446608719993441e-05 -0.047239248881441376 0 -2.7171694766842833e-05 -0.04718697146324391 0 0.0014466026363825187 -0.046912175533310917 0 0.0018068182004841375 -0.046853101988049692 0 0.0016750647406868051 -0.046546301277938879 0 0.00073567385421524569 -0.048556093223410028 0 0.00084108578183394523 -0.046907437146625507 0 0.0021381503270217158 -0.047201536533784477 0 0.0018068182004841375 -0.046853101988049692 0 0.0019656367334732129 -0.046746687973787088 0 0.00043747371332901046 -0.04746196333143772 0 0.00019897819255354648 -0.047451629022771676 0 8.2446608719993441e-05 -0.047239248881441376 0 0.0021381503270217158 -0.047201536533784477 0 0.0014466026363825187 -0.046912175533310917 0 0.0018068182004841375 -0.046853101988049692 0 0.0019656367334732129 -0.046746687973787088 0 0.0016750647406868051 -0.046546301277938879 0 0.0019729675970748136 -0.046483553794216918 0 0.0018068182004841375 -0.046853101988049692 0 0.0019656367334732129 -0.046746687973787088 0 0.0016750647406868051 -0.046546301277938879 0 0.0016750647406868051 -0.046546301277938879 0 0.0019729675970748136 -0.046483553794216918 0 0.0018841945529019424 -0.046266784879740515 0 0.0020681393197640118 -0.046221298449168557 0 0.0019729675970748136 -0.046483553794216918 0 0.0018841945529019424 -0.046266784879740515 0 0.0020681393197640118 -0.046221298449168557 0 0.0018841945529019424 -0.046266784879740515 0 0.0019344097897234817 -0.045967411049944319 0 0.0016750647406868051 -0.046546301277938879 0 0.0018841945529019424 -0.046266784879740515 0 0.0016197402065932594 -0.046125176997063519 0 0.0018841945529019424 -0.046266784879740515 0 0.0019344097897234817 -0.045967411049944319 0 0.0016197402065932594 -0.046125176997063519 0 0.0012489507857616293 -0.046062500993720057 0 0.0016197402065932594 -0.046125176997063519 0 0.0012235957577189202 -0.046437687521488649 0 0.0014466026363825187 -0.046912175533310917 0 0.0016750647406868051 -0.046546301277938879 0 0.0012235957577189202 -0.046437687521488649 0 0.0016750647406868051 -0.046546301277938879 0 0.0016197402065932594 -0.046125176997063519 0 0.0012235957577189202 -0.046437687521488649 0 0.0014466026363825187 -0.046912175533310917 0 0.0012235957577189202 -0.046437687521488649 0 0.00070026286469738574 -0.046627793914607266 0 0.00084108578183394523 -0.046907437146625507 0 0.00029007362301279241 -0.046831183955151096 0 0.0012235957577189202 -0.046437687521488649 0 0.00085774506098808918 -0.046207628035764281 0 0.00070026286469738574 -0.046627793914607266 0 0.0012489507857616293 -0.046062500993720057 0 0.0012235957577189202 -0.046437687521488649 0 0.00085774506098808918 -0.046207628035764281 0 0.00094588764715676759 -0.045804212158185212 0 0.0012489507857616293 -0.046062500993720057 0 0.00085774506098808918 -0.046207628035764281 0 -0.00010016481093529283 -0.046310684687734381 0 0.00037665184395850061 -0.046042717619049475 0 0.00070026286469738574 -0.046627793914607266 0 0.00085774506098808918 -0.046207628035764281 0 0.00037665184395850061 -0.046042717619049475 0 0.00070026286469738574 -0.046627793914607266 0 0.00094588764715676759 -0.045804212158185212 0 0.00085774506098808918 -0.046207628035764281 0 0.00037665184395850061 -0.046042717619049475 0 -0.00024015389197153125 -0.046461033693712739 0 0.00029007362301279241 -0.046831183955151096 0 -7.7952740459254365e-05 -0.047000492934727647 0 -0.0001470083854139332 -0.047155391792571215 0 -2.7171694766842833e-05 -0.04718697146324391 0 -0.00026202479010208686 -0.046942326343786089 0 -7.7952740459254365e-05 -0.047000492934727647 0 -0.0001470083854139332 -0.047155391792571215 0 8.2446608719993441e-05 -0.047239248881441376 0 -7.7952740459254365e-05 -0.047000492934727647 0 -2.7171694766842833e-05 -0.04718697146324391 0 -0.00021681791260250738 -0.047455009694652772 0 -0.00039365944912985834 -0.047252274376257938 0 2.3274237675666655e-05 -0.047361473949735708 0 -0.0001470083854139332 -0.047155391792571215 0 -2.7171694766842833e-05 -0.04718697146324391 0 -0.00050804782836099175 -0.047522625427668046 0 -0.00061980670263863042 -0.047386753603114354 0 -0.0006215711640084312 -0.04753855543116528 0 -0.00050804782836099175 -0.047522625427668046 0 -0.0006215711640084312 -0.04753855543116528 0 -0.00051404383961703838 -0.047771706093691711 0 -0.0006215711640084312 -0.04753855543116528 0 -0.00070956183180671611 -0.047668609875596499 0 -0.00051404383961703838 -0.047771706093691711 0 -0.0006215711640084312 -0.04753855543116528 0 -0.00064202569790872284 -0.047482453602809761 0 -0.00070956183180671611 -0.047668609875596499 0 -0.00063212958039631764 -0.047470872911908948 0 -0.00064202569790872284 -0.047482453602809761 0 -0.00070956183180671611 -0.047668609875596499 0 -0.00060245749148342355 -0.047381627497841791 0 -0.00063212958039631764 -0.047470872911908948 0 -0.00064202569790872284 -0.047482453602809761 0 -0.00060245749148342355 -0.047381627497841791 0 -0.00061980670263863042 -0.047386753603114354 0 -0.00064202569790872284 -0.047482453602809761 0 -0.00061980670263863042 -0.047386753603114354 0 -0.0006215711640084312 -0.04753855543116528 0 -0.00064202569790872284 -0.047482453602809761 0 -0.00077480080508662158 -0.047356472116499786 0 -0.00070956183180671611 -0.047668609875596499 0 -0.00084976550316847698 -0.047735188491783119 0 -0.00078389912674125726 -0.047517171666332618 0 -0.00069781744949062689 -0.047576875708085123 0 -0.00064371503953720424 -0.047376743631281235 0 -0.00063042027240606182 -0.047461433856603653 0 -0.00070956183180671611 -0.047668609875596499 0 -0.00063212958039631764 -0.047470872911908948 0 -0.00063042027240606182 -0.047461433856603653 0 -0.00070956183180671611 -0.047668609875596499 0 -0.00070956183180671611 -0.047668609875596499 0 -0.00064362270715639567 -0.047825180322499709 0 -0.00084976550316847698 -0.047735188491783119 0 -0.00070956183180671611 -0.047668609875596499 0 -0.00064362270715639567 -0.047825180322499709 0 -0.00051404383961703838 -0.047771706093691711 0 -0.00064362270715639567 -0.047825180322499709 0 -0.00046026021708814454 -0.048158682702202679 0 -0.00051404383961703838 -0.047771706093691711 0 -0.00064362270715639567 -0.047825180322499709 0 -0.00084976550316847698 -0.047735188491783119 0 -0.00046026021708814454 -0.048158682702202679 0 -0.00084976550316847698 -0.047735188491783119 0 -0.00046026021708814454 -0.048158682702202679 0 -0.00052944468316000329 -0.048394963764595553 0 -0.00046026021708814454 -0.048158682702202679 0 -0.00052944468316000329 -0.048394963764595553 0 -0.00035976326979671788 -0.048558313128855106 0 -0.00073740567471768581 -0.046295617289348119 0 -0.00077480080508662158 -0.047356472116499786 0 -0.0011695075742108134 -0.04597633357043443 0 -0.00084976550316847698 -0.047735188491783119 0 -0.00052944468316000329 -0.048394963764595553 0 -0.00052892329390886506 -0.048604755080873398 0 -0.0008331624086242291 -0.047607309886159743 0 -0.00079384129776374453 -0.047244365698555592 0 -0.00077480080508662158 -0.047356472116499786 0 -0.00084976550316847698 -0.047735188491783119 0 -0.0011695075742108134 -0.04597633357043443 0 -0.00052944468316000329 -0.048394963764595553 0 -0.00052892329390886506 -0.048604755080873398 0 -0.00044808403484308178 -0.048646282248920973 0 -0.00011301979501398895 -0.048530025047199124 0 -0.00052892329390886506 -0.048604755080873398 0 -0.00044808403484308178 -0.048646282248920973 0 -0.00011301979501398895 -0.048530025047199124 0 -0.00034959932479195703 -0.048578737168773513 0 -0.00044808403484308178 -0.048646282248920973 0 -0.00034959932479195703 -0.048578737168773513 0 -0.00044808403484308178 -0.048646282248920973 0 -0.00035344652708590052 -0.048717883821504653 0 -0.00034959932479195703 -0.048578737168773513 0 -0.00035344652708590052 -0.048717883821504653 0 -0.00030340342229415369 -0.048793949621278893 0 -0.00052944468316000329 -0.048394963764595553 0 -0.00044808403484308178 -0.048646282248920973 0 -0.00035976326979671788 -0.048558313128855106 0 -0.00044808403484308178 -0.048646282248920973 0 -0.00035344652708590052 -0.048717883821504653 0 -0.00035976326979671788 -0.048558313128855106 0 -0.00035344652708590052 -0.048717883821504653 0 -0.00019424287919254967 -0.048845023697014239 0 -0.00035976326979671788 -0.048558313128855106 0 -0.00035344652708590052 -0.048717883821504653 0 -0.00030340342229415369 -0.048793949621278893 0 -0.00019424287919254967 -0.048845023697014239 0 -0.00019424287919254967 -0.048845023697014239 0 -0.00015436532972457761 -0.048661718746703317 0 -0.00035976326979671788 -0.048558313128855106 0 -0.00019263485557022752 -0.049004734470211954 0 -0.00021775117578809068 -0.049106045517841118 0 -0.00028440345094741512 -0.048891670724505919 0 -0.00030340342229415369 -0.048793949621278893 0 -0.00019263485557022752 -0.049004734470211954 0 -0.00019424287919254967 -0.048845023697014239 0 -0.00030340342229415369 -0.048793949621278893 0 -0.00019263485557022752 -0.049004734470211954 0 -0.00028440345094741512 -0.048891670724505919 0 -0.00019424287919254967 -0.048845023697014239 0 -1.7171926789223211e-05 -0.048916658126468511 0 -9.6458630447518142e-05 -0.049043841504800609 0 -0.00019263485557022752 -0.049004734470211954 0 -0.00019424287919254967 -0.048845023697014239 0 -9.6458630447518142e-05 -0.049043841504800609 0 -1.7171926789223211e-05 -0.048916658126468511 0 -0.00015436532972457761 -0.048661718746703317 0 0.00015431091899587981 -0.04887339862604257 0 -0.00015436532972457761 -0.048661718746703317 0 -0.00012402469162985631 -0.048456373424195509 0 0.00015431091899587981 -0.04887339862604257 0 -0.00019424287919254967 -0.048845023697014239 0 -1.7171926789223211e-05 -0.048916658126468511 0 -0.00015436532972457761 -0.048661718746703317 0 -0.00015436532972457761 -0.048661718746703317 0 -0.00035976326979671788 -0.048558313128855106 0 -0.00028546632172469995 -0.048387321512614455 0 -0.00046026021708814454 -0.048158682702202679 0 -0.00035976326979671788 -0.048558313128855106 0 -0.00028546632172469995 -0.048387321512614455 0 -0.00015436532972457761 -0.048661718746703317 0 -0.00028546632172469995 -0.048387321512614455 0 -0.00012402469162985631 -0.048456373424195509 0 -0.00028546632172469995 -0.048387321512614455 0 -0.00025228892930532354 -0.048099622255900212 0 -0.00012402469162985631 -0.048456373424195509 0 -0.00046026021708814454 -0.048158682702202679 0 -0.00028546632172469995 -0.048387321512614455 0 -0.00025228892930532354 -0.048099622255900212 0 -0.00046026021708814454 -0.048158682702202679 0 -0.00051404383961703838 -0.047771706093691711 0 -0.00025228892930532354 -0.048099622255900212 0 -0.00020371514674310279 -0.047749400852561248 0 -0.00051404383961703838 -0.047771706093691711 0 -0.00025228892930532354 -0.048099622255900212 0 -0.00020371514674310279 -0.047749400852561248 0 -0.00025228892930532354 -0.048099622255900212 0 -2.4242457295375831e-05 -0.047998931701221888 0 -0.00025228892930532354 -0.048099622255900212 0 -2.5969458129635141e-05 -0.048240264796894944 0 -2.4242457295375831e-05 -0.047998931701221888 0 0.00030185445113289065 -0.047742243045523346 0 0.00016875026095819576 -0.048090543402367847 0 0.00045821840921315645 -0.047914416071985808 0 0.00030185445113289065 -0.047742243045523346 0 -2.4242457295375831e-05 -0.047998931701221888 0 0.00016875026095819576 -0.048090543402367847 0 -2.5969458129635141e-05 -0.048240264796894944 0 -2.4242457295375831e-05 -0.047998931701221888 0 0.00016875026095819576 -0.048090543402367847 0 -2.5969458129635141e-05 -0.048240264796894944 0 0.00016875026095819576 -0.048090543402367847 0 0.00015431091899587981 -0.04887339862604257 0 -2.5969458129635141e-05 -0.048240264796894944 0 -0.00012402469162985631 -0.048456373424195509 0 0.00015431091899587981 -0.04887339862604257 0 -0.00025228892930532354 -0.048099622255900212 0 -2.5969458129635141e-05 -0.048240264796894944 0 -0.00012402469162985631 -0.048456373424195509 0 5.3568572411611096e-06 -0.049209820402356157 0 0.00015202384319995115 -0.049393236843625628 0 0.00015431091899587981 -0.04887339862604257 0 0.00016875026095819576 -0.048090543402367847 0 0.00045821840921315645 -0.047914416071985808 0 0.00015431091899587981 -0.04887339862604257 0 0.00028492341565251254 -0.048654233662783208 0 0.00020505427369950279 -0.048830942866276206 0 5.3568572411611096e-06 -0.049209820402356157 0 0.00015202384319995115 -0.049393236843625628 0 2.3375410484615541e-06 -0.049409160050557399 0 -8.3597626213568934e-05 -0.049489467466683104 0 2.3375410484615541e-06 -0.049409160050557399 0 -6.4116005548119141e-05 -0.049396970073909516 0 5.3568572411611096e-06 -0.049209820402356157 0 2.3375410484615541e-06 -0.049409160050557399 0 -6.4116005548119141e-05 -0.049396970073909516 0 5.3568572411611096e-06 -0.049209820402356157 0 -6.4116005548119141e-05 -0.049396970073909516 0 -4.0662528332990263e-05 -0.049207156944360168 0 -6.4116005548119141e-05 -0.049396970073909516 0 -4.0662528332990263e-05 -0.049207156944360168 0 -5.6362425213456995e-05 -0.049539462361126128 0 5.3568572411611096e-06 -0.049209820402356157 0 -4.0662528332990263e-05 -0.049207156944360168 0 0.00015431091899587981 -0.04887339862604257 0 -1.7171926789223211e-05 -0.048916658126468511 0 -4.0662528332990263e-05 -0.049207156944360168 0 0.00015431091899587981 -0.04887339862604257 0 -1.7171926789223211e-05 -0.048916658126468511 0 -4.0662528332990263e-05 -0.049207156944360168 0 -9.6458630447518142e-05 -0.049043841504800609 0 -4.0662528332990263e-05 -0.049207156944360168 0 -9.6458630447518142e-05 -0.049043841504800609 0 -0.00012891460460812411 -0.049346978908869896 0 -0.00019263485557022752 -0.049004734470211954 0 -9.6458630447518142e-05 -0.049043841504800609 0 -0.00012891460460812411 -0.049346978908869896 0 -0.00019263485557022752 -0.049004734470211954 0 -0.00012891460460812411 -0.049346978908869896 0 -0.00021775117578809068 -0.049106045517841118 0 -0.00012891460460812411 -0.049346978908869896 0 -0.00013650105181934336 -0.049503487085339408 0 -0.00020903727482333146 -0.049265567014870656 0 -4.0662528332990263e-05 -0.049207156944360168 0 -0.00012891460460812411 -0.049346978908869896 0 -6.3260403243070121e-05 -0.049602431854948517 0 -4.0662528332990263e-05 -0.049207156944360168 0 -6.3260403243070121e-05 -0.049602431854948517 0 -5.6362425213456995e-05 -0.049539462361126128 0 -6.3260403243070121e-05 -0.049602431854948517 0 -2.9970056541828639e-05 -0.049794394172779359 0 -5.6362425213456995e-05 -0.049539462361126128 0 -0.00012362067977598253 -0.049420111415016552 0 -8.9047331482542021e-05 -0.049647655586602189 0 -0.00012891460460812411 -0.049346978908869896 0 -6.3260403243070121e-05 -0.049602431854948517 0 -3.4673733241893104e-05 -0.049796248900759676 0 -6.3260403243070121e-05 -0.049602431854948517 0 -3.4673733241893104e-05 -0.049796248900759676 0 2.042363892597865e-08 -0.04999952074849788 0 -3.4673733241893104e-05 -0.049796248900759676 0 2.042363892597865e-08 -0.04999952074849788 0 -3.4961759977057903e-08 -0.049999972763419276 0 -6.3260403243070121e-05 -0.049602431854948517 0 2.042363892597865e-08 -0.04999952074849788 0 -2.9970056541828639e-05 -0.049794394172779359 0 2.042363892597865e-08 -0.04999952074849788 0 -2.9970056541828639e-05 -0.049794394172779359 0 -4.3380770464722942e-08 -0.049999506935486174 0 -2.9970056541828639e-05 -0.049794394172779359 0 -3.6948518332644919e-05 -0.049747205590467504 0 -4.3380770464722942e-08 -0.049999506935486174 0 -6.4116005548119141e-05 -0.049396970073909516 0 -5.6362425213456995e-05 -0.049539462361126128 0 -3.6948518332644919e-05 -0.049747205590467504 0 -2.9970056541828639e-05 -0.049794394172779359 0 -5.6362425213456995e-05 -0.049539462361126128 0 -3.6948518332644919e-05 -0.049747205590467504 0 -0.00013443767415387029 -0.049909220355392657 0 2.3547209348644648e-05 -0.049880793225782129 0 -8.3597626213568934e-05 -0.049489467466683104 0 -6.4116005548119141e-05 -0.049396970073909516 0 -3.6948518332644919e-05 -0.049747205590467504 0 -8.3597626213568934e-05 -0.049489467466683104 0 -3.6948518332644919e-05 -0.049747205590467504 0 -1.5166114244790502e-06 -0.049972664405085666 0 1.2295156929225625e-08 -0.050000007567245687 0 -4.3380770464722942e-08 -0.049999506935486174 0 -1.5166114244790502e-06 -0.049972664405085666 0 -3.6948518332644919e-05 -0.049747205590467504 0 -4.3380770464722942e-08 -0.049999506935486174 0 -1.5166114244790502e-06 -0.049972664405085666 0 -1.5598956103324247e-08 -0.049999760526236947 0 -3.9715801321399977e-05 -0.049824010781714292 0 -5.2625047676023934e-05 -0.04983976827543285 0 -1.5598956103324247e-08 -0.049999760526236947 0 -3.9715801321399977e-05 -0.049824010781714292 0 -3.0266956395854378e-08 -0.049999654143591858 0 -3.9715801321399977e-05 -0.049824010781714292 0 -0.00013703148538431458 -0.049619058729348707 0 -5.2625047676023934e-05 -0.04983976827543285 0 -3.9715801321399977e-05 -0.049824010781714292 0 -7.1094124340138602e-05 -0.049706789460612563 0 -0.00013703148538431458 -0.049619058729348707 0 -7.1094124340138602e-05 -0.049706789460612563 0 -0.00018559523722205069 -0.049414643569949061 0 -0.00013703148538431458 -0.049619058729348707 0 -7.1094124340138602e-05 -0.049706789460612563 0 -8.4932921949431802e-05 -0.049635950815114439 0 -0.00018559523722205069 -0.049414643569949061 0 -3.9715801321399977e-05 -0.049824010781714292 0 -7.1094124340138602e-05 -0.049706789460612563 0 -3.0266956395854378e-08 -0.049999654143591858 0 -7.1094124340138602e-05 -0.049706789460612563 0 -3.0266956395854378e-08 -0.049999654143591858 0 -3.884582059654352e-05 -0.049835234203709979 0 -3.0266956395854378e-08 -0.049999654143591858 0 -3.884582059654352e-05 -0.049835234203709979 0 -2.6535556165013791e-08 -0.049999760590003849 0 -3.884582059654352e-05 -0.049835234203709979 0 -2.6535556165013791e-08 -0.049999760590003849 0 -8.4932921949431802e-05 -0.049635950815114439 0 -6.6091418422872683e-09 -0.049999830492224714 0 -0.00012234900316517307 -0.049557628959713364 0 -8.9047331482542021e-05 -0.049647655586602189 0 -4.4321343356931707e-08 -0.049999834038242853 0 -3.4170685896786198e-08 -0.049999897839659489 0 -8.1358785431442679e-05 -0.049709888183863626 0 -0.00015554254714791112 -0.049497712533933924 0 -3.4170685896786198e-08 -0.049999897839659489 0 -8.1358785431442679e-05 -0.049709888183863626 0 -1.1673742381701196e-08 -0.049999407827678463 0 -0.00013650105181934336 -0.049503487085339408 0 -8.1358785431442679e-05 -0.049709888183863626 0 -1.1673742381701196e-08 -0.049999407827678463 0 -0.00013650105181934336 -0.049503487085339408 0 -8.1358785431442679e-05 -0.049709888183863626 0 -0.00015554254714791112 -0.049497712533933924 0 -0.00013650105181934336 -0.049503487085339408 0 -0.00015554254714791112 -0.049497712533933924 0 -0.00020903727482333146 -0.049265567014870656 0 -7.1094124340138602e-05 -0.049706789460612563 0 -3.884582059654352e-05 -0.049835234203709979 0 -8.4932921949431802e-05 -0.049635950815114439 0 -0.00015554254714791112 -0.049497712533933924 0 -0.00020903727482333146 -0.049265567014870656 0 -0.00028921842706066216 -0.049147629672175334 0 -8.4932921949431802e-05 -0.049635950815114439 0 -0.00028921842706066216 -0.049147629672175334 0 -0.00018559523722205069 -0.049414643569949061 0 -0.00012234900316517307 -0.049557628959713364 0 -0.00027595468061719934 -0.04922869530088466 0 -0.00012891460460812411 -0.049346978908869896 0 -0.00020903727482333146 -0.049265567014870656 0 -0.00021775117578809068 -0.049106045517841118 0 -0.00021775117578809068 -0.049106045517841118 0 -0.00029181264618702486 -0.04902827549910866 0 -0.00028440345094741512 -0.048891670724505919 0 -0.00020903727482333146 -0.049265567014870656 0 -0.00021775117578809068 -0.049106045517841118 0 -0.00029181264618702486 -0.04902827549910866 0 -0.00029181264618702486 -0.04902827549910866 0 -0.00028921842706066216 -0.049147629672175334 0 -0.00035811764647047928 -0.048940391481224671 0 -0.00020903727482333146 -0.049265567014870656 0 -0.00029181264618702486 -0.04902827549910866 0 -0.00028921842706066216 -0.049147629672175334 0 -0.00028921842706066216 -0.049147629672175334 0 -0.00040231712627353678 -0.049068624585580076 0 -0.00035811764647047928 -0.048940391481224671 0 -0.00040231712627353678 -0.049068624585580076 0 -0.00018559523722205069 -0.049414643569949061 0 -0.00028246319150953154 -0.049399916039826651 0 -0.00028921842706066216 -0.049147629672175334 0 -0.00040231712627353678 -0.049068624585580076 0 -0.00018559523722205069 -0.049414643569949061 0 -0.00040231712627353678 -0.049068624585580076 0 -0.00040575864351287909 -0.049272526233173915 0 -0.00028246319150953154 -0.049399916039826651 0 -0.00013703148538431458 -0.049619058729348707 0 -0.00028246319150953154 -0.049399916039826651 0 -0.00024012750029715394 -0.049578629542080421 0 -0.00018559523722205069 -0.049414643569949061 0 -0.00013703148538431458 -0.049619058729348707 0 -0.00028246319150953154 -0.049399916039826651 0 -0.00035643727622659859 -0.049405417757825032 0 -0.00028246319150953154 -0.049399916039826651 0 -0.00024012750029715394 -0.049578629542080421 0 -0.00035643727622659859 -0.049405417757825032 0 -0.00040575864351287909 -0.049272526233173915 0 -0.00044782454458164496 -0.049319339546673439 0 -0.00035643727622659859 -0.049405417757825032 0 -0.00040575864351287909 -0.049272526233173915 0 -0.00028246319150953154 -0.049399916039826651 0 -0.00040575864351287909 -0.049272526233173915 0 -0.00041255653865731917 -0.049235935091362849 0 -0.00044782454458164496 -0.049319339546673439 0 -0.00040231712627353678 -0.049068624585580076 0 -0.00040575864351287909 -0.049272526233173915 0 -0.00041255653865731917 -0.049235935091362849 0 -0.00041156502561335196 -0.048109016826813872 0 -0.00021688424570170825 -0.048189040942088132 0 -0.00018295738058824996 -0.047892094767535344 0 -0.00041156502561335196 -0.048109016826813872 0 -0.00018295738058824996 -0.047892094767535344 0 -0.00013591605068567682 -0.047569854427502001 0 -0.00036395211500085483 -0.048637445243534055 0 -0.0002974874698128474 -0.048501087721466114 0 -0.00021688424570170825 -0.048189040942088132 0 -0.00041156502561335196 -0.048109016826813872 0 -0.00036395211500085483 -0.048637445243534055 0 -0.00021688424570170825 -0.048189040942088132 0 -0.00040231712627353678 -0.049068624585580076 0 -0.00041156502561335196 -0.048109016826813872 0 -0.00036395211500085483 -0.048637445243534055 0 -0.00040231712627353678 -0.049068624585580076 0 -0.00036395211500085483 -0.048637445243534055 0 -0.00035811764647047928 -0.048940391481224671 0 -0.00039419113450444481 -0.048988900875219239 0 -0.00038480999659411068 -0.04866218457687136 0 -0.00036395211500085483 -0.048637445243534055 0 -0.0003303862896245263 -0.048778609941905159 0 -0.00035811764647047928 -0.048940391481224671 0 -0.00029181264618702486 -0.04902827549910866 0 -0.0003303862896245263 -0.048778609941905159 0 -0.00035811764647047928 -0.048940391481224671 0 -0.00029181264618702486 -0.04902827549910866 0 -0.0003303862896245263 -0.048778609941905159 0 -0.00028440345094741512 -0.048891670724505919 0 -0.00030340342229415369 -0.048793949621278893 0 -0.00028440345094741512 -0.048891670724505919 0 -0.00031902615668334965 -0.048609559604077479 0 -0.0003303862896245263 -0.048778609941905159 0 -0.00028440345094741512 -0.048891670724505919 0 -0.00031902615668334965 -0.048609559604077479 0 -0.0003303862896245263 -0.048778609941905159 0 -0.00031902615668334965 -0.048609559604077479 0 -0.0002974874698128474 -0.048501087721466114 0 -0.00036395211500085483 -0.048637445243534055 0 -0.0003303862896245263 -0.048778609941905159 0 -0.0002974874698128474 -0.048501087721466114 0 -0.00031902615668334965 -0.048609559604077479 0 -0.0002974874698128474 -0.048501087721466114 0 -0.00022669584412935451 -0.048233050806676496 0 -0.00031902615668334965 -0.048609559604077479 0 -0.00022669584412935451 -0.048233050806676496 0 -0.00025526019626145342 -0.048313945028228875 0 -0.0002974874698128474 -0.048501087721466114 0 -0.00022669584412935451 -0.048233050806676496 0 -0.00021688424570170825 -0.048189040942088132 0 -0.00034959932479195703 -0.048578737168773513 0 -0.00031902615668334965 -0.048609559604077479 0 -0.00025526019626145342 -0.048313945028228875 0 -0.00034959932479195703 -0.048578737168773513 0 -0.00030340342229415369 -0.048793949621278893 0 -0.00031902615668334965 -0.048609559604077479 0 -0.00011301979501398895 -0.048530025047199124 0 -0.00034959932479195703 -0.048578737168773513 0 -0.00025526019626145342 -0.048313945028228875 0 -0.00011301979501398895 -0.048530025047199124 0 -0.00025526019626145342 -0.048313945028228875 0 -9.3392014590770842e-05 -0.047972490583382939 0 -0.00022669584412935451 -0.048233050806676496 0 -0.00025526019626145342 -0.048313945028228875 0 -9.3392014590770842e-05 -0.047972490583382939 0 -0.00022669584412935451 -0.048233050806676496 0 -8.1488494055081408e-05 -0.047844157121577024 0 -9.3392014590770842e-05 -0.047972490583382939 0 -8.1488494055081408e-05 -0.047844157121577024 0 1.0910427726901444e-05 -0.047670348427757532 0 7.5020236457557876e-05 -0.047404966139202698 0 1.0910427726901444e-05 -0.047670348427757532 0 -0.00011709033491532376 -0.047950221533602087 0 -6.9260999462191568e-05 -0.047821449098030544 0 -0.00022669584412935451 -0.048233050806676496 0 -8.1488494055081408e-05 -0.047844157121577024 0 -0.00011709033491532376 -0.047950221533602087 0 -8.1488494055081408e-05 -0.047844157121577024 0 1.0910427726901444e-05 -0.047670348427757532 0 -0.00011709033491532376 -0.047950221533602087 0 -0.00022669584412935451 -0.048233050806676496 0 -0.00011709033491532376 -0.047950221533602087 0 -0.00021688424570170825 -0.048189040942088132 0 -0.00011709033491532376 -0.047950221533602087 0 -0.00021688424570170825 -0.048189040942088132 0 -6.9260999462191568e-05 -0.047821449098030544 0 -0.00021688424570170825 -0.048189040942088132 0 -6.9260999462191568e-05 -0.047821449098030544 0 -0.00018295738058824996 -0.047892094767535344 0 -6.9260999462191568e-05 -0.047821449098030544 0 7.6581267089230782e-06 -0.047619738145109752 0 -7.7879243425446417e-05 -0.047715484612822531 0 -6.9260999462191568e-05 -0.047821449098030544 0 -0.00018295738058824996 -0.047892094767535344 0 -7.7879243425446417e-05 -0.047715484612822531 0 -6.9260999462191568e-05 -0.047821449098030544 0 4.2901302578445658e-05 -0.047618715540545795 0 7.6581267089230782e-06 -0.047619738145109752 0 4.2901302578445658e-05 -0.047618715540545795 0 6.0059680768127318e-05 -0.047551300935235387 0 9.7857704291739154e-05 -0.0475209014101005 0 4.2901302578445658e-05 -0.047618715540545795 0 6.0059680768127318e-05 -0.047551300935235387 0 7.6581267089230782e-06 -0.047619738145109752 0 1.0910427726901444e-05 -0.047670348427757532 0 4.2901302578445658e-05 -0.047618715540545795 0 0.00013333318469961925 -0.047414307295606854 0 1.0910427726901444e-05 -0.047670348427757532 0 -6.9260999462191568e-05 -0.047821449098030544 0 4.2901302578445658e-05 -0.047618715540545795 0 7.1653697108603674e-06 -0.047559590309906787 0 4.2323386106706328e-05 -0.047550161083296669 0 7.6581267089230782e-06 -0.047619738145109752 0 4.2323386106706328e-05 -0.047550161083296669 0 6.0059680768127318e-05 -0.047551300935235387 0 5.6449553609214306e-05 -0.047514812616012328 0 7.1653697108603674e-06 -0.047559590309906787 0 4.2323386106706328e-05 -0.047550161083296669 0 4.9522613878949929e-05 -0.047524372809168845 0 4.2323386106706328e-05 -0.047550161083296669 0 4.9522613878949929e-05 -0.047524372809168845 0 5.6449553609214306e-05 -0.047514812616012328 0 4.2323386106706328e-05 -0.047550161083296669 0 6.0059680768127318e-05 -0.047551300935235387 0 7.6581267089230782e-06 -0.047619738145109752 0 7.1653697108603674e-06 -0.047559590309906787 0 7.6581267089230782e-06 -0.047619738145109752 0 -4.1822734907670757e-05 -0.047614499488030135 0 7.6581267089230782e-06 -0.047619738145109752 0 -7.7879243425446417e-05 -0.047715484612822531 0 -4.1822734907670757e-05 -0.047614499488030135 0 -7.7879243425446417e-05 -0.047715484612822531 0 -4.1822734907670757e-05 -0.047614499488030135 0 -0.00013591605068567682 -0.047569854427502001 0 -0.00018295738058824996 -0.047892094767535344 0 -7.7879243425446417e-05 -0.047715484612822531 0 -0.00013591605068567682 -0.047569854427502001 0 7.1653697108603674e-06 -0.047559590309906787 0 -4.1822734907670757e-05 -0.047614499488030135 0 -0.00013591605068567682 -0.047569854427502001 0 -0.00014097684663168022 -0.048070752663713384 0 6.7324867836222299e-05 -0.047625219089040161 0 -0.00018526454674228714 -0.048942358543069046 0 -2.6687220159362716e-05 -0.048783245857645582 0 -0.00026600076769776009 -0.049225506802156954 0 -1.2738167003480537e-05 -0.048190664566302957 0 -0.00027736028622014517 -0.048885843670439896 0 -0.00010388813409334031 -0.048547734542294545 0 5.0511149415886244e-05 -0.047608291765182956 0 -0.00033633122941468949 -0.048587852817533826 0 -0.00018526454674228714 -0.048942358543069046 0 -0.00014103069316278455 -0.048770705323528445 0 -0.00020447992386096937 -0.048858145828351865 0 -2.6687220159362716e-05 -0.048783245857645582 0 -9.0696928044699805e-05 -0.048678756124063874 0 -0.00014103069316278455 -0.048770705323528445 0 -0.00018526454674228714 -0.048942358543069046 0 -2.6687220159362716e-05 -0.048783245857645582 0 -0.00014103069316278455 -0.048770705323528445 0 7.1653697108603674e-06 -0.047559590309906787 0 -0.00013591605068567682 -0.047569854427502001 0 8.7802922203426739e-05 -0.047548828971875595 0 -0.00010388813409334031 -0.048547734542294545 0 5.0511149415886244e-05 -0.047608291765182956 0 8.7802922203426739e-05 -0.047548828971875595 0 7.1653697108603674e-06 -0.047559590309906787 0 4.9522613878949929e-05 -0.047524372809168845 0 8.7802922203426739e-05 -0.047548828971875595 0 4.9522613878949929e-05 -0.047524372809168845 0 8.7802922203426739e-05 -0.047548828971875595 0 4.0704701649821057e-05 -0.047491911765123844 0 5.0511149415886244e-05 -0.047608291765182956 0 8.7802922203426739e-05 -0.047548828971875595 0 4.1094197238379387e-05 -0.047521439928600161 0 8.7802922203426739e-05 -0.047548828971875595 0 4.0704701649821057e-05 -0.047491911765123844 0 4.1094197238379387e-05 -0.047521439928600161 0 -1.2738167003480537e-05 -0.048190664566302957 0 -1.245616465454349e-05 -0.047695076648593619 0 -2.6687220159362716e-05 -0.048783245857645582 0 -4.1675160374966626e-05 -0.048216767865755655 0 -5.0511049588903987e-06 -0.047590646598358884 0 -2.6687220159362716e-05 -0.048783245857645582 0 -7.5512280910851551e-05 -0.048497205600215934 0 -9.0696928044699805e-05 -0.048678756124063874 0 -2.6687220159362716e-05 -0.048783245857645582 0 -7.5512280910851551e-05 -0.048497205600215934 0 -4.1675160374966626e-05 -0.048216767865755655 0 -7.5512280910851551e-05 -0.048497205600215934 0 -5.7022084980899363e-05 -0.048271696649163788 0 -0.00010322016086189277 -0.048473348712227818 0 -7.5512280910851551e-05 -0.048497205600215934 0 -5.7022084980899363e-05 -0.048271696649163788 0 -4.1675160374966626e-05 -0.048216767865755655 0 -5.7022084980899363e-05 -0.048271696649163788 0 -4.1675160374966626e-05 -0.048216767865755655 0 -4.3509178977090377e-05 -0.047959464157554137 0 -5.7022084980899363e-05 -0.048271696649163788 0 -5.0978238178381279e-05 -0.048116155301872687 0 -4.3509178977090377e-05 -0.047959464157554137 0 -5.7022084980899363e-05 -0.048271696649163788 0 -5.0978238178381279e-05 -0.048116155301872687 0 -6.4471746274240551e-05 -0.048336984997633101 0 -5.0978238178381279e-05 -0.048116155301872687 0 -6.4471746274240551e-05 -0.048336984997633101 0 -5.6908284574950801e-05 -0.048144995024614862 0 -5.0978238178381279e-05 -0.048116155301872687 0 -5.6908284574950801e-05 -0.048144995024614862 0 -6.319796888515544e-05 -0.047925054422782332 0 -5.7022084980899363e-05 -0.048271696649163788 0 -6.4471746274240551e-05 -0.048336984997633101 0 -0.00010322016086189277 -0.048473348712227818 0 -7.5344403334991019e-05 -0.04846537877208159 0 -6.4471746274240551e-05 -0.048336984997633101 0 -0.00011641705467385418 -0.048552947529592369 0 -7.5344403334991019e-05 -0.04846537877208159 0 -6.4471746274240551e-05 -0.048336984997633101 0 -6.2814314504960783e-05 -0.048306332086381597 0 -6.4471746274240551e-05 -0.048336984997633101 0 -6.2814314504960783e-05 -0.048306332086381597 0 -5.6908284574950801e-05 -0.048144995024614862 0 -6.2814314504960783e-05 -0.048306332086381597 0 -5.6908284574950801e-05 -0.048144995024614862 0 -8.7542456715356733e-05 -0.048229166547044157 0 -0.00012324338756773597 -0.048624252651915105 0 -0.00018199484540084435 -0.048703427251224875 0 -0.00011641705467385418 -0.048552947529592369 0 -0.00018199484540084435 -0.048703427251224875 0 -0.00011641705467385418 -0.048552947529592369 0 -0.00014115238181193078 -0.048592069113178954 0 -0.00011641705467385418 -0.048552947529592369 0 -0.00010322016086189277 -0.048473348712227818 0 -0.00014115238181193078 -0.048592069113178954 0 -6.4471746274240551e-05 -0.048336984997633101 0 -0.00011641705467385418 -0.048552947529592369 0 -0.00010322016086189277 -0.048473348712227818 0 -0.00018199484540084435 -0.048703427251224875 0 -0.00014115238181193078 -0.048592069113178954 0 -0.00019859586155051163 -0.048728051109074431 0 -0.00019859586155051163 -0.048728051109074431 0 -0.00014869910826632393 -0.048648770175877973 0 -0.00025344834775594544 -0.04888573472767007 0 -0.00014115238181193078 -0.048592069113178954 0 -0.00019859586155051163 -0.048728051109074431 0 -0.00014869910826632393 -0.048648770175877973 0 -0.00010322016086189277 -0.048473348712227818 0 -0.00014115238181193078 -0.048592069113178954 0 -0.00014869910826632393 -0.048648770175877973 0 -7.5512280910851551e-05 -0.048497205600215934 0 -0.00010322016086189277 -0.048473348712227818 0 -0.00014869910826632393 -0.048648770175877973 0 -7.5512280910851551e-05 -0.048497205600215934 0 -0.00014869910826632393 -0.048648770175877973 0 -9.0696928044699805e-05 -0.048678756124063874 0 -0.00014869910826632393 -0.048648770175877973 0 -9.0696928044699805e-05 -0.048678756124063874 0 -0.00014103069316278455 -0.048770705323528445 0 -0.00014869910826632393 -0.048648770175877973 0 -0.00014103069316278455 -0.048770705323528445 0 -0.00020447992386096937 -0.048858145828351865 0 -0.00014869910826632393 -0.048648770175877973 0 -0.00020447992386096937 -0.048858145828351865 0 -0.00025344834775594544 -0.04888573472767007 0 -0.00025344834775594544 -0.04888573472767007 0 -0.00032560617026302101 -0.049005060056190056 0 -0.00034049646039443398 -0.049105296118601635 0 -0.00020447992386096937 -0.048858145828351865 0 -0.00025344834775594544 -0.04888573472767007 0 -0.00027091141020327758 -0.049039890098769141 0 -0.00025344834775594544 -0.04888573472767007 0 -0.0002608006217695685 -0.048854509236506242 0 -0.00032560617026302101 -0.049005060056190056 0 -0.00019859586155051163 -0.048728051109074431 0 -0.00025344834775594544 -0.04888573472767007 0 -0.0002608006217695685 -0.048854509236506242 0 -0.00018199484540084435 -0.048703427251224875 0 -0.00019859586155051163 -0.048728051109074431 0 -0.0002608006217695685 -0.048854509236506242 0 -0.0002608006217695685 -0.048854509236506242 0 -0.00028111513311265861 -0.04888132619580389 0 -0.00032560617026302101 -0.049005060056190056 0 -0.00018199484540084435 -0.048703427251224875 0 -0.0002608006217695685 -0.048854509236506242 0 -0.00028111513311265861 -0.04888132619580389 0 -0.00018577241077731278 -0.048742073640102801 0 -0.00018199484540084435 -0.048703427251224875 0 -0.00028111513311265861 -0.04888132619580389 0 -0.00032847914115824455 -0.048997905046830548 0 -0.00028111513311265861 -0.04888132619580389 0 -0.00035808612182165571 -0.049053206856602236 0 -0.00028111513311265861 -0.04888132619580389 0 -0.00035808612182165571 -0.049053206856602236 0 -0.00032560617026302101 -0.049005060056190056 0 -0.00035808612182165571 -0.049053206856602236 0 -0.00032560617026302101 -0.049005060056190056 0 -0.00041082360337621525 -0.049212222930585588 0 -0.00032560617026302101 -0.049005060056190056 0 -0.00034049646039443398 -0.049105296118601635 0 -0.00041082360337621525 -0.049212222930585588 0 -0.00039189129263289524 -0.049253251412483302 0 -0.00034049646039443398 -0.049105296118601635 0 -0.00041082360337621525 -0.049212222930585588 0 -0.00039189129263289524 -0.049253251412483302 0 -0.00034008371559882334 -0.049184091533450408 0 -0.00034049646039443398 -0.049105296118601635 0 -0.00039189129263289524 -0.049253251412483302 0 -0.00034008371559882334 -0.049184091533450408 0 -0.0003794783540381549 -0.049279306400685848 0 -0.00025344834775594544 -0.04888573472767007 0 -0.00034049646039443398 -0.049105296118601635 0 -0.00027091141020327758 -0.049039890098769141 0 -0.00034008371559882334 -0.049184091533450408 0 -0.00034049646039443398 -0.049105296118601635 0 -0.00027091141020327758 -0.049039890098769141 0 -0.00018526454674228714 -0.048942358543069046 0 -0.00020447992386096937 -0.048858145828351865 0 -0.00027091141020327758 -0.049039890098769141 0 -0.00018526454674228714 -0.048942358543069046 0 -0.00027091141020327758 -0.049039890098769141 0 -0.00026600076769776009 -0.049225506802156954 0 -0.00034008371559882334 -0.049184091533450408 0 -0.00027091141020327758 -0.049039890098769141 0 -0.00026600076769776009 -0.049225506802156954 0 -0.00038480999659411068 -0.04866218457687136 0 -0.00014097684663168022 -0.048070752663713384 0 -0.00034008371559882334 -0.049184091533450408 0 -0.00026600076769776009 -0.049225506802156954 0 -0.0003794783540381549 -0.049279306400685848 0 -0.00041255653865731917 -0.049235935091362849 0 -0.00010388813409334031 -0.048547734542294545 0 -0.00033633122941468949 -0.048587852817533826 0 -0.00043873064629465952 -0.049266790265472364 0 -0.00027736028622014517 -0.048885843670439896 0 -0.00041255653865731917 -0.049235935091362849 0 -0.00044782454458164496 -0.049319339546673439 0 -0.00033633122941468949 -0.048587852817533826 0 -0.00044782454458164496 -0.049319339546673439 0 -0.00026600076769776009 -0.049225506802156954 0 -0.0003794783540381549 -0.049279306400685848 0 -0.00044782454458164496 -0.049319339546673439 0 -0.0003794783540381549 -0.049279306400685848 0 -0.00039354243872183499 -0.049410371222477489 0 -0.00039189129263289524 -0.049253251412483302 0 -0.0003794783540381549 -0.049279306400685848 0 -0.00039354243872183499 -0.049410371222477489 0 -0.00039189129263289524 -0.049253251412483302 0 -0.00039354243872183499 -0.049410371222477489 0 -0.00036377911118108138 -0.049311022201934208 0 -0.00037306283938825244 -0.049445481097065563 0 -0.00026628557234781238 -0.04958030446954325 0 -0.00035643727622659859 -0.049405417757825032 0 -0.00044782454458164496 -0.049319339546673439 0 -0.00039354243872183499 -0.049410371222477489 0 -0.00035643727622659859 -0.049405417757825032 0 -0.00039354243872183499 -0.049410371222477489 0 -0.00024012750029715394 -0.049578629542080421 0 -0.00024012750029715394 -0.049578629542080421 0 -0.0001928158777945303 -0.049842607061205614 0 -5.2625047676023934e-05 -0.04983976827543285 0 -0.00039354243872183499 -0.049410371222477489 0 -0.00024012750029715394 -0.049578629542080421 0 -0.0001928158777945303 -0.049842607061205614 0 -0.00013703148538431458 -0.049619058729348707 0 -0.00024012750029715394 -0.049578629542080421 0 -5.2625047676023934e-05 -0.04983976827543285 0 -0.00039189129263289524 -0.049253251412483302 0 -0.00036377911118108138 -0.049311022201934208 0 -0.00041082360337621525 -0.049212222930585588 0 -0.00039479653159553858 -0.049250669851557703 0 -0.00030612304722895105 -0.049415237969741094 0 -0.00035808612182165571 -0.049053206856602236 0 -0.00041082360337621525 -0.049212222930585588 0 -0.00030441799067940973 -0.049152199602543245 0 -0.00033284769875833569 -0.049200237912814679 0 -0.00035808612182165571 -0.049053206856602236 0 -0.00030441799067940973 -0.049152199602543245 0 -0.00022125478219211004 -0.04941312583012554 0 -0.00030441799067940973 -0.049152199602543245 0 -7.9515417336451042e-05 -0.049449444971614208 0 -0.00036377911118108138 -0.049311022201934208 0 -0.00034175798826828555 -0.049658284986511682 0 -0.00011423609631056663 -0.049575234883806822 0 -0.00036377911118108138 -0.049311022201934208 0 -0.00041082360337621525 -0.049212222930585588 0 -0.00034175798826828555 -0.049658284986511682 0 -0.00034175798826828555 -0.049658284986511682 0 -7.5934703627448781e-05 -0.049845436185913826 0 -0.00011423609631056663 -0.049575234883806822 0 -0.00030612304722895105 -0.049415237969741094 0 -0.00011627376270340837 -0.049704667557656498 0 -0.00034175798826828555 -0.049658284986511682 0 -7.5934703627448781e-05 -0.049845436185913826 0 -0.000106787506680717 -0.049976493442291492 0 -7.5934703627448781e-05 -0.049845436185913826 0 -3.1373591561722279e-08 -0.050000035891685585 0 8.3404415508985983e-08 -0.049999429408662817 0 -7.5934703627448781e-05 -0.049845436185913826 0 -0.000106787506680717 -0.049976493442291492 0 -3.1373591561722279e-08 -0.050000035891685585 0 -3.1245398132677667e-08 -0.050000069422844712 0 2.121979067118949e-08 -0.04999990914794239 0 -4.7594810903510666e-05 -0.049987590291830579 0 -4.5054279276711682e-08 -0.049999893442487758 0 -0.0001020392904147308 -0.04977840911976697 0 -7.5934703627448781e-05 -0.049845436185913826 0 8.3404415508985983e-08 -0.049999429408662817 0 -0.00011423609631056663 -0.049575234883806822 0 2.121979067118949e-08 -0.04999990914794239 0 -4.7594810903510666e-05 -0.049987590291830579 0 -5.2625047676023934e-05 -0.04983976827543285 0 -0.00026628557234781238 -0.04958030446954325 0 -0.0001020392904147308 -0.04977840911976697 0 -0.0001928158777945303 -0.049842607061205614 0 -4.7594810903510666e-05 -0.049987590291830579 0 -5.2625047676023934e-05 -0.04983976827543285 0 -1.5598956103324247e-08 -0.049999760526236947 0 2.121979067118949e-08 -0.04999990914794239 0 -5.2625047676023934e-05 -0.04983976827543285 0 -0.00020687753008367504 -0.042301364293430982 0 0.0003594578337713325 -0.041676552159631002 0 0.00014156881005323579 -0.042897192185631323 0 -0.00020687753008367504 -0.042301364293430982 0 0.00014156881005323579 -0.042897192185631323 0 -7.6010339207774512e-05 -0.043034679157085427 0 -0.00020687753008367504 -0.042301364293430982 0 -0.00024459540928087776 -0.042448022412982386 0 -7.6010339207774512e-05 -0.043034679157085427 0 -0.00020687753008367504 -0.042301364293430982 0 -0.00024459540928087776 -0.042448022412982386 0 -0.00091605232541105367 -0.041322584428318328 0 -0.00020687753008367504 -0.042301364293430982 0 0.0003594578337713325 -0.041676552159631002 0 -0.00091605232541105367 -0.041322584428318328 0 0.0003594578337713325 -0.041676552159631002 0 0.00087883729020334317 -0.040175221310906929 0 0.0017120284062091349 -0.041084079110307335 0 0.0003594578337713325 -0.041676552159631002 0 0.0008978599461300816 -0.042431856480036091 0 0.0017120284062091349 -0.041084079110307335 0 0.0003594578337713325 -0.041676552159631002 0 0.0008978599461300816 -0.042431856480036091 0 0.00014156881005323579 -0.042897192185631323 0 0.0008978599461300816 -0.042431856480036091 0 0.00077938470640220511 -0.043111649016443675 0 0.0015473716353871839 -0.043214514513766275 0 0.0008978599461300816 -0.042431856480036091 0 0.00077938470640220511 -0.043111649016443675 0 0.00014156881005323579 -0.042897192185631323 0 0.00029772767473316183 -0.043195656014256116 0 0.00077938470640220511 -0.043111649016443675 0 0.00014156881005323579 -0.042897192185631323 0 0.00014156881005323579 -0.042897192185631323 0 9.99218799559472e-05 -0.043910070967822526 0 -7.6010339207774512e-05 -0.043034679157085427 0 0.00029772767473316183 -0.043195656014256116 0 0.00014156881005323579 -0.042897192185631323 0 -0.00010494923081654021 -0.043139887242359815 0 0.00013898906360171131 -0.042977297292569501 0 -3.1526327532255369e-05 -0.043543252976126906 0 9.99218799559472e-05 -0.043910070967822526 0 -3.4762261033028807e-05 -0.044097237085065702 0 -0.00019942436472544474 -0.043834007333978561 0 9.99218799559472e-05 -0.043910070967822526 0 -0.00019942436472544474 -0.043834007333978561 0 -7.6010339207774512e-05 -0.043034679157085427 0 -0.00014283830792178874 -0.044295219919961208 0 -3.4762261033028807e-05 -0.044097237085065702 0 -0.00019059153983283627 -0.043974393594025517 0 -3.4762261033028807e-05 -0.044097237085065702 0 -0.00019059153983283627 -0.043974393594025517 0 -0.00019942436472544474 -0.043834007333978561 0 -0.00019942436472544474 -0.043834007333978561 0 -0.00037091952976188203 -0.04462129064233674 0 -0.00010756754982243375 -0.043465055786332259 0 -0.00019059153983283627 -0.043974393594025517 0 -0.00019942436472544474 -0.043834007333978561 0 -0.00037091952976188203 -0.04462129064233674 0 -0.00019942436472544474 -0.043834007333978561 0 -7.6010339207774512e-05 -0.043034679157085427 0 -0.00010756754982243375 -0.043465055786332259 0 -0.00039209213136421239 -0.046533573482674825 0 7.0827009318967599e-05 -0.045914270894385011 0 -0.00011301979501398895 -0.048530025047199124 0 0.0003266134185220245 -0.047900735083667795 0 -9.3392014590770842e-05 -0.047972490583382939 0 -0.00014283830792178874 -0.044295219919961208 0 -0.00071319937410209725 -0.044570161678575505 0 -4.7107593997629114e-05 -0.043773033930365621 0 -0.00014283830792178874 -0.044295219919961208 0 -0.00019059153983283627 -0.043974393594025517 0 -4.7107593997629114e-05 -0.043773033930365621 0 7.0827009318967599e-05 -0.045914270894385011 0 -8.9952777063228618e-05 -0.046156198675021395 0 0.00012674238825463585 -0.047267575652555155 0 0.0003266134185220245 -0.047900735083667795 0 -5.8418309425591468e-05 -0.046057695829512968 0 -0.00037091952976188203 -0.04462129064233674 0 -4.7107593997629114e-05 -0.043773033930365621 0 -5.8418309425591468e-05 -0.046057695829512968 0 -0.00019059153983283627 -0.043974393594025517 0 -0.00037091952976188203 -0.04462129064233674 0 -4.7107593997629114e-05 -0.043773033930365621 0 0.00012674238825463585 -0.047267575652555155 0 0.0003266134185220245 -0.047900735083667795 0 -9.3392014590770842e-05 -0.047972490583382939 0 -8.1488494055081408e-05 -0.047844157121577024 0 -9.3392014590770842e-05 -0.047972490583382939 0 7.5020236457557876e-05 -0.047404966139202698 0 0.00012674238825463585 -0.047267575652555155 0 -9.3392014590770842e-05 -0.047972490583382939 0 7.5020236457557876e-05 -0.047404966139202698 0 1.0910427726901444e-05 -0.047670348427757532 0 7.5020236457557876e-05 -0.047404966139202698 0 0.00013333318469961925 -0.047414307295606854 0 0.00012674238825463585 -0.047267575652555155 0 7.5020236457557876e-05 -0.047404966139202698 0 0.00018117533694954246 -0.046991704684606138 0 7.5020236457557876e-05 -0.047404966139202698 0 0.00018117533694954246 -0.046991704684606138 0 0.00013333318469961925 -0.047414307295606854 0 0.00018117533694954246 -0.046991704684606138 0 0.00014897967163279299 -0.047283067568066196 0 0.00013333318469961925 -0.047414307295606854 0 0.00018117533694954246 -0.046991704684606138 0 0.00012592896009241362 -0.047137336305710681 0 0.00014897967163279299 -0.047283067568066196 0 0.00012674238825463585 -0.047267575652555155 0 0.00018117533694954246 -0.046991704684606138 0 -5.8418309425591468e-05 -0.046057695829512968 0 0.00018117533694954246 -0.046991704684606138 0 0.00012592896009241362 -0.047137336305710681 0 -5.8418309425591468e-05 -0.046057695829512968 0 7.168679628085342e-05 -0.04749246158060174 0 -0.00015947959297567629 -0.04766863239058565 0 5.9388631614490359e-05 -0.047502206119650454 0 0.00012592896009241362 -0.047137336305710681 0 7.168679628085342e-05 -0.04749246158060174 0 -0.00015947959297567629 -0.04766863239058565 0 7.168679628085342e-05 -0.04749246158060174 0 0.00014897967163279299 -0.047283067568066196 0 0.0001227271092566001 -0.047462291946571429 0 7.168679628085342e-05 -0.04749246158060174 0 0.0001227271092566001 -0.047462291946571429 0 7.515828222554163e-05 -0.047500240957080303 0 0.00012592896009241362 -0.047137336305710681 0 7.168679628085342e-05 -0.04749246158060174 0 0.00014897967163279299 -0.047283067568066196 0 0.00014897967163279299 -0.047283067568066196 0 0.00013333318469961925 -0.047414307295606854 0 0.0001227271092566001 -0.047462291946571429 0 0.00013333318469961925 -0.047414307295606854 0 0.0001227271092566001 -0.047462291946571429 0 9.7857704291739154e-05 -0.0475209014101005 0 0.0001227271092566001 -0.047462291946571429 0 9.7857704291739154e-05 -0.0475209014101005 0 8.2500506502305781e-05 -0.047510624842902055 0 4.2901302578445658e-05 -0.047618715540545795 0 0.00013333318469961925 -0.047414307295606854 0 9.7857704291739154e-05 -0.0475209014101005 0 -7.6010339207774512e-05 -0.043034679157085427 0 -0.00010756754982243375 -0.043465055786332259 0 -7.0646881037914134e-05 -0.042774180189801253 0 -0.00037091952976188203 -0.04462129064233674 0 -5.8418309425591468e-05 -0.046057695829512968 0 -0.00015947959297567629 -0.04766863239058565 0 -0.00030621428262075473 -0.044606798143417836 0 -0.0001221766672167639 -0.045203353001139035 0 -0.00037091952976188203 -0.04462129064233674 0 -0.00010756754982243375 -0.043465055786332259 0 -0.00015661241938597881 -0.042835093852798448 0 -0.00015661241938597881 -0.042835093852798448 0 -7.0646881037914134e-05 -0.042774180189801253 0 0.00063631145983459637 -0.043133621074575038 0 -0.00010756754982243375 -0.043465055786332259 0 -0.00015661241938597881 -0.042835093852798448 0 -7.0646881037914134e-05 -0.042774180189801253 0 0.00012592896009241362 -0.047137336305710681 0 -5.8418309425591468e-05 -0.046057695829512968 0 -0.00015947959297567629 -0.04766863239058565 0 -0.00024459540928087776 -0.042448022412982386 0 -7.6010339207774512e-05 -0.043034679157085427 0 -7.0646881037914134e-05 -0.042774180189801253 0 -0.00024459540928087776 -0.042448022412982386 0 0.00063631145983459637 -0.043133621074575038 0 -0.00015889303816630563 -0.043652513629690824 0 -0.00024459540928087776 -0.042448022412982386 0 -7.0646881037914134e-05 -0.042774180189801253 0 0.00063631145983459637 -0.043133621074575038 0 -0.00015947959297567629 -0.04766863239058565 0 0.00037774898567119784 -0.047423612032314988 0 5.9388631614490359e-05 -0.047502206119650454 0 -0.0001221766672167639 -0.045203353001139035 0 0.00045039781398574323 -0.045344969828298984 0 0.00037774898567119784 -0.047423612032314988 0 0.00011101714219263904 -0.047225212048280306 0 0.00051978723002418315 -0.046055125951292221 0 0.00037774898567119784 -0.047423612032314988 0 5.9388631614490359e-05 -0.047502206119650454 0 0.00011101714219263904 -0.047225212048280306 0 0.00063631145983459637 -0.043133621074575038 0 -0.00015889303816630563 -0.043652513629690824 0 0.00051978723002418315 -0.046055125951292221 0 0.00045039781398574323 -0.045344969828298984 0 0.00049660812248924113 -0.046033932141609224 0 5.6449553609214306e-05 -0.047514812616012328 0 8.2500506502305781e-05 -0.047510624842902055 0 5.0428234918586427e-05 -0.047486301982927866 0 6.0059680768127318e-05 -0.047551300935235387 0 5.6449553609214306e-05 -0.047514812616012328 0 8.2500506502305781e-05 -0.047510624842902055 0 6.0059680768127318e-05 -0.047551300935235387 0 9.7857704291739154e-05 -0.0475209014101005 0 8.2500506502305781e-05 -0.047510624842902055 0 0.0001227271092566001 -0.047462291946571429 0 8.2500506502305781e-05 -0.047510624842902055 0 7.515828222554163e-05 -0.047500240957080303 0 8.2500506502305781e-05 -0.047510624842902055 0 5.0428234918586427e-05 -0.047486301982927866 0 7.515828222554163e-05 -0.047500240957080303 0 5.0428234918586427e-05 -0.047486301982927866 0 5.9388631614490359e-05 -0.047502206119650454 0 2.7057655737907382e-05 -0.047410742622585815 0 5.0428234918586427e-05 -0.047486301982927866 0 7.515828222554163e-05 -0.047500240957080303 0 5.9388631614490359e-05 -0.047502206119650454 0 7.168679628085342e-05 -0.04749246158060174 0 7.515828222554163e-05 -0.047500240957080303 0 5.9388631614490359e-05 -0.047502206119650454 0 5.9388631614490359e-05 -0.047502206119650454 0 0.00011101714219263904 -0.047225212048280306 0 2.7057655737907382e-05 -0.047410742622585815 0 0.00011101714219263904 -0.047225212048280306 0 2.7057655737907382e-05 -0.047410742622585815 0 3.1845832196427557e-05 -0.047315278031552846 0 5.0428234918586427e-05 -0.047486301982927866 0 2.7057655737907382e-05 -0.047410742622585815 0 4.0704701649821057e-05 -0.047491911765123844 0 2.7057655737907382e-05 -0.047410742622585815 0 1.6803699019989144e-05 -0.047451150674752196 0 4.0704701649821057e-05 -0.047491911765123844 0 2.7057655737907382e-05 -0.047410742622585815 0 1.6803699019989144e-05 -0.047451150674752196 0 3.1845832196427557e-05 -0.047315278031552846 0 1.6803699019989144e-05 -0.047451150674752196 0 4.0704701649821057e-05 -0.047491911765123844 0 4.1094197238379387e-05 -0.047521439928600161 0 5.6449553609214306e-05 -0.047514812616012328 0 5.0428234918586427e-05 -0.047486301982927866 0 4.0704701649821057e-05 -0.047491911765123844 0 4.9522613878949929e-05 -0.047524372809168845 0 5.6449553609214306e-05 -0.047514812616012328 0 4.0704701649821057e-05 -0.047491911765123844 0 5.0511149415886244e-05 -0.047608291765182956 0 4.1094197238379387e-05 -0.047521439928600161 0 -5.0511049588903987e-06 -0.047590646598358884 0 -4.3509178977090377e-05 -0.047959464157554137 0 -5.0511049588903987e-06 -0.047590646598358884 0 -7.1492814393537646e-05 -0.047775527526102438 0 -4.1675160374966626e-05 -0.048216767865755655 0 -4.3509178977090377e-05 -0.047959464157554137 0 -5.0511049588903987e-06 -0.047590646598358884 0 4.1094197238379387e-05 -0.047521439928600161 0 1.3240435158820723e-05 -0.047464224749411019 0 -5.0511049588903987e-06 -0.047590646598358884 0 1.6803699019989144e-05 -0.047451150674752196 0 4.1094197238379387e-05 -0.047521439928600161 0 1.3240435158820723e-05 -0.047464224749411019 0 1.3240435158820723e-05 -0.047464224749411019 0 -5.0511049588903987e-06 -0.047590646598358884 0 3.1845832196427557e-05 -0.047315278031552846 0 1.6803699019989144e-05 -0.047451150674752196 0 1.3240435158820723e-05 -0.047464224749411019 0 3.1845832196427557e-05 -0.047315278031552846 0 -5.0511049588903987e-06 -0.047590646598358884 0 0.00014479840132285848 -0.047200139842307823 0 3.1845832196427557e-05 -0.047315278031552846 0 0.00011101714219263904 -0.047225212048280306 0 3.1845832196427557e-05 -0.047315278031552846 0 0.00023207794935979588 -0.046872163405263838 0 0.00014479840132285848 -0.047200139842307823 0 0.00023207794935979588 -0.046872163405263838 0 0.00038829423673857727 -0.046743074944217422 0 0.00014479840132285848 -0.047200139842307823 0 3.1845832196427557e-05 -0.047315278031552846 0 0.00023207794935979588 -0.046872163405263838 0 0.00027465329888428302 -0.046311533266516179 0 0.00027879912668375933 -0.047014143842728194 0 0.00010447623967111408 -0.047254968186396164 0 -0.00019858496110966426 -0.047589286180253466 0 -0.00013369366460503908 -0.047525232212614808 0 0.00027465329888428302 -0.046311533266516179 0 0.00010447623967111408 -0.047254968186396164 0 -0.00015545458340694018 -0.047669982978821974 0 0.00014479840132285848 -0.047200139842307823 0 0.00027879912668375933 -0.047014143842728194 0 0.00038829423673857727 -0.046743074944217422 0 -5.0511049588903987e-06 -0.047590646598358884 0 0.00014479840132285848 -0.047200139842307823 0 0.00010447623967111408 -0.047254968186396164 0 0.00014479840132285848 -0.047200139842307823 0 0.00027879912668375933 -0.047014143842728194 0 0.00010447623967111408 -0.047254968186396164 0 -0.00036646172149847002 -0.048310581900219841 0 -0.00019987734850615807 -0.048203304084299195 0 -0.00015545458340694018 -0.047669982978821974 0 -5.0511049588903987e-06 -0.047590646598358884 0 0.00010447623967111408 -0.047254968186396164 0 -0.00015545458340694018 -0.047669982978821974 0 -5.0511049588903987e-06 -0.047590646598358884 0 -0.00015545458340694018 -0.047669982978821974 0 -7.1492814393537646e-05 -0.047775527526102438 0 -0.00019987734850615807 -0.048203304084299195 0 -0.00015545458340694018 -0.047669982978821974 0 -8.8278518577225321e-05 -0.048018021627167694 0 -0.00019987734850615807 -0.048203304084299195 0 -8.7542456715356733e-05 -0.048229166547044157 0 -8.8278518577225321e-05 -0.048018021627167694 0 -5.6908284574950801e-05 -0.048144995024614862 0 -8.7542456715356733e-05 -0.048229166547044157 0 -8.8278518577225321e-05 -0.048018021627167694 0 -5.6908284574950801e-05 -0.048144995024614862 0 -8.8278518577225321e-05 -0.048018021627167694 0 -6.319796888515544e-05 -0.047925054422782332 0 -0.00015545458340694018 -0.047669982978821974 0 -8.8278518577225321e-05 -0.048018021627167694 0 -6.319796888515544e-05 -0.047925054422782332 0 -0.00015545458340694018 -0.047669982978821974 0 -7.1492814393537646e-05 -0.047775527526102438 0 -6.319796888515544e-05 -0.047925054422782332 0 -4.3509178977090377e-05 -0.047959464157554137 0 -7.1492814393537646e-05 -0.047775527526102438 0 -6.319796888515544e-05 -0.047925054422782332 0 -5.0978238178381279e-05 -0.048116155301872687 0 -4.3509178977090377e-05 -0.047959464157554137 0 -6.319796888515544e-05 -0.047925054422782332 0 0.00051978723002418315 -0.046055125951292221 0 0.00023207794935979588 -0.046872163405263838 0 0.00038829423673857727 -0.046743074944217422 0 0.00011101714219263904 -0.047225212048280306 0 0.00051978723002418315 -0.046055125951292221 0 0.00023207794935979588 -0.046872163405263838 0 0.00040424136622172689 -0.046880989614276565 0 0.00027879912668375933 -0.047014143842728194 0 0.00038829423673857727 -0.046743074944217422 0 0.00040424136622172689 -0.046880989614276565 0 0.00038829423673857727 -0.046743074944217422 0 0.0002754613319617592 -0.046754246005113777 0 0.00051978723002418315 -0.046055125951292221 0 0.00038829423673857727 -0.046743074944217422 0 0.0002754613319617592 -0.046754246005113777 0 0.00029919673499072057 -0.046938353860833337 0 0.00040134528139259423 -0.046881997015027953 0 0.00051978723002418315 -0.046055125951292221 0 0.0002754613319617592 -0.046754246005113777 0 -0.00030584004455912894 -0.046654959055250134 0 -0.0029358398290439945 -0.035309521189248474 0 -0.0034339300664217322 -0.036170516346363875 0 -0.0019740050616207346 -0.036448430789452632 0 -0.0029358398290439945 -0.035309521189248474 0 -0.0011454916725020814 -0.035325459974729773 0 -0.0019740050616207346 -0.036448430789452632 0 -0.0011454916725020814 -0.035325459974729773 0 -0.0019740050616207346 -0.036448430789452632 0 -0.00056878709909824444 -0.036862336515777534 0 -0.0019740050616207346 -0.036448430789452632 0 -0.0025323611460571632 -0.038308623619254585 0 -0.00056878709909824444 -0.036862336515777534 0 -0.0034339300664217322 -0.036170516346363875 0 -0.0019740050616207346 -0.036448430789452632 0 -0.0025323611460571632 -0.038308623619254585 0 -0.00015889303816630563 -0.043652513629690824 0 0.00051978723002418315 -0.046055125951292221 0 -0.0012813925772921211 -0.044339468365429673 0 -0.0020669203626976951 -0.041209943825566954 0 -0.0017492110513573284 -0.041398916841931671 0 0.00051978723002418315 -0.046055125951292221 0 -0.00030584004455912894 -0.046654959055250134 0 -0.0012813925772921211 -0.044339468365429673 0 -0.00015889303816630563 -0.043652513629690824 0 -0.0012813925772921211 -0.044339468365429673 0 -0.00057170077438329389 -0.04272991619382871 0 -0.0025323611460571632 -0.038308623619254585 0 -0.00091605232541105367 -0.041322584428318328 0 0.00023714410708524457 -0.038506669176049918 0 -0.0012813925772921211 -0.044339468365429673 0 -0.00091605232541105367 -0.041322584428318328 0 -0.00057170077438329389 -0.04272991619382871 0 -0.0017492110513573284 -0.041398916841931671 0 -0.0010445675614808184 -0.041437086314003571 0 -0.00024459540928087776 -0.042448022412982386 0 -0.00091605232541105367 -0.041322584428318328 0 -0.00057170077438329389 -0.04272991619382871 0 -0.00024459540928087776 -0.042448022412982386 0 -0.00015889303816630563 -0.043652513629690824 0 -0.00057170077438329389 -0.04272991619382871 0 -0.00091605232541105367 -0.041322584428318328 0 0.00087883729020334317 -0.040175221310906929 0 0.00023714410708524457 -0.038506669176049918 0 0.0003594578337713325 -0.041676552159631002 0 -0.00091605232541105367 -0.041322584428318328 0 0.00087883729020334317 -0.040175221310906929 0 0.00087883729020334317 -0.040175221310906929 0 0.00023714410708524457 -0.038506669176049918 0 0.0016819396124711802 -0.03823130270026643 0 0.00023714410708524457 -0.038506669176049918 0 0.0012538461391015966 -0.036682815169038804 0 -0.00056878709909824444 -0.036862336515777534 0 0.00023714410708524457 -0.038506669176049918 0 0.0012538461391015966 -0.036682815169038804 0 0.0016819396124711802 -0.03823130270026643 0 -0.0025323611460571632 -0.038308623619254585 0 0.00023714410708524457 -0.038506669176049918 0 -0.00056878709909824444 -0.036862336515777534 0 -0.0011454916725020814 -0.035325459974729773 0 -0.00056878709909824444 -0.036862336515777534 0 0.00023356262548159784 -0.035531812116679003 0 0.001914803579010173 -0.034774663364999514 0 0.0012538461391015966 -0.036682815169038804 0 0.00023356262548159784 -0.035531812116679003 0 0.0012538461391015966 -0.036682815169038804 0 -0.00056878709909824444 -0.036862336515777534 0 0.00023356262548159784 -0.035531812116679003 0 0.0012538461391015966 -0.036682815169038804 0 0.0026990830238717459 -0.035604818761869189 0 0.0023006281233909857 -0.036989346576727235 0 0.001914803579010173 -0.034774663364999514 0 0.0012538461391015966 -0.036682815169038804 0 0.0026990830238717459 -0.035604818761869189 0 0.0023006281233909857 -0.036989346576727235 0 0.0036262552796359655 -0.036350842072951833 0 0.0028771595147436481 -0.037714728358319592 0 0.0026990830238717459 -0.035604818761869189 0 0.0023006281233909857 -0.036989346576727235 0 0.0036262552796359655 -0.036350842072951833 0 0.0012538461391015966 -0.036682815169038804 0 0.0023006281233909857 -0.036989346576727235 0 0.0016819396124711802 -0.03823130270026643 0 0.0045350218310519236 -0.034118706837055153 0 0.0046125548646625452 -0.035140114167050193 0 0.0055738976162009318 -0.034230132202671633 0 0.0036140819797190766 -0.034598919535723881 0 0.0046125548646625452 -0.035140114167050193 0 0.0036262552796359655 -0.036350842072951833 0 0.0036140819797190766 -0.034598919535723881 0 0.0026990830238717459 -0.035604818761869189 0 0.0036262552796359655 -0.036350842072951833 0 0.0036262552796359655 -0.036350842072951833 0 0.0046676103304290279 -0.036415673881400976 0 0.0038241994287198707 -0.038126339946816357 0 0.0046125548646625452 -0.035140114167050193 0 0.0036262552796359655 -0.036350842072951833 0 0.0046676103304290279 -0.036415673881400976 0 0.0046125548646625452 -0.035140114167050193 0 0.0046676103304290279 -0.036415673881400976 0 0.0056131374356375649 -0.035299509128588584 0 0.0046676103304290279 -0.036415673881400976 0 0.0048604716065897011 -0.037641156386221626 0 0.0038241994287198707 -0.038126339946816357 0 0.0046676103304290279 -0.036415673881400976 0 0.0048604716065897011 -0.037641156386221626 0 0.0057504652958290945 -0.036397520364552002 0 0.0036262552796359655 -0.036350842072951833 0 0.0038241994287198707 -0.038126339946816357 0 0.0028771595147436481 -0.037714728358319592 0 0.0038241994287198707 -0.038126339946816357 0 0.0044654361019452592 -0.038937692848068854 0 0.0033527295936378672 -0.039959048566090387 0 0.0048604716065897011 -0.037641156386221626 0 0.0044654361019452592 -0.038937692848068854 0 0.0056832709093231643 -0.038299445793485556 0 0.0048604716065897011 -0.037641156386221626 0 0.0038241994287198707 -0.038126339946816357 0 0.0044654361019452592 -0.038937692848068854 0 0.0044654361019452592 -0.038937692848068854 0 0.0048090460967540908 -0.039996248500412425 0 0.0056832709093231643 -0.038299445793485556 0 0.0023006281233909857 -0.036989346576727235 0 0.0016819396124711802 -0.03823130270026643 0 0.0028771595147436481 -0.037714728358319592 0 0.0016819396124711802 -0.03823130270026643 0 0.0028771595147436481 -0.037714728358319592 0 0.0023698479268335626 -0.039256628737331691 0 0.0038241994287198707 -0.038126339946816357 0 0.0028771595147436481 -0.037714728358319592 0 0.0023698479268335626 -0.039256628737331691 0 0.0038241994287198707 -0.038126339946816357 0 0.0023698479268335626 -0.039256628737331691 0 0.0033527295936378672 -0.039959048566090387 0 0.00087883729020334317 -0.040175221310906929 0 0.0016819396124711802 -0.03823130270026643 0 0.0023698479268335626 -0.039256628737331691 0 0.00087883729020334317 -0.040175221310906929 0 0.0023698479268335626 -0.039256628737331691 0 0.0017120284062091349 -0.041084079110307335 0 0.0017120284062091349 -0.041084079110307335 0 0.0027921327640595289 -0.041247449055365225 0 0.001998742746827948 -0.04218880432776332 0 0.0017120284062091349 -0.041084079110307335 0 0.0027921327640595289 -0.041247449055365225 0 0.0033527295936378672 -0.039959048566090387 0 0.0023698479268335626 -0.039256628737331691 0 0.0017120284062091349 -0.041084079110307335 0 0.0033527295936378672 -0.039959048566090387 0 0.0044654361019452592 -0.038937692848068854 0 0.0033527295936378672 -0.039959048566090387 0 0.0048090460967540908 -0.039996248500412425 0 0.0048090460967540908 -0.039996248500412425 0 0.0040469849064883566 -0.041260006491882557 0 0.0055299425913382123 -0.041007680000776738 0 0.0027921327640595289 -0.041247449055365225 0 0.0033527295936378672 -0.039959048566090387 0 0.0040469849064883566 -0.041260006491882557 0 0.0033527295936378672 -0.039959048566090387 0 0.0048090460967540908 -0.039996248500412425 0 0.0040469849064883566 -0.041260006491882557 0 0.0040469849064883566 -0.041260006491882557 0 0.0030698793746508596 -0.041992937298489581 0 0.0038994799787849845 -0.042655162708116895 0 0.0027921327640595289 -0.041247449055365225 0 0.0040469849064883566 -0.041260006491882557 0 0.0030698793746508596 -0.041992937298489581 0 0.0040469849064883566 -0.041260006491882557 0 0.0050185163507682016 -0.0421175321237044 0 0.0055299425913382123 -0.041007680000776738 0 0.0040469849064883566 -0.041260006491882557 0 0.0050185163507682016 -0.0421175321237044 0 0.0038994799787849845 -0.042655162708116895 0 0.0050185163507682016 -0.0421175321237044 0 0.0047548675957136003 -0.042873764074657809 0 0.0038994799787849845 -0.042655162708116895 0 0.0047548675957136003 -0.042873764074657809 0 0.0038994799787849845 -0.042655162708116895 0 0.0042897037812899587 -0.043409743746011906 0 0.0050185163507682016 -0.0421175321237044 0 0.0047548675957136003 -0.042873764074657809 0 0.0053881757273597152 -0.042735932082439025 0 0.0030698793746508596 -0.041992937298489581 0 0.0038994799787849845 -0.042655162708116895 0 0.0026678444568875963 -0.042764294285844821 0 0.0038994799787849845 -0.042655162708116895 0 0.0026678444568875963 -0.042764294285844821 0 0.00308520115044546 -0.04378567354071812 0 0.0026678444568875963 -0.042764294285844821 0 0.001998742746827948 -0.04218880432776332 0 0.0015473716353871839 -0.043214514513766275 0 0.0008978599461300816 -0.042431856480036091 0 0.001998742746827948 -0.04218880432776332 0 0.0015473716353871839 -0.043214514513766275 0 0.0008978599461300816 -0.042431856480036091 0 0.0017120284062091349 -0.041084079110307335 0 0.001998742746827948 -0.04218880432776332 0 0.0027921327640595289 -0.041247449055365225 0 0.0030698793746508596 -0.041992937298489581 0 0.001998742746827948 -0.04218880432776332 0 0.0030698793746508596 -0.041992937298489581 0 0.0026678444568875963 -0.042764294285844821 0 0.001998742746827948 -0.04218880432776332 0 0.0086480132179255747 -0.041373856979817984 0 0.0078106527245575532 -0.04075483497026175 0 0.0083251817416868882 -0.040551565816021234 0 0.0078262663310933248 -0.041459689201332244 0 0.0071578652720355315 -0.041969874684826526 0 0.0068640347128600832 -0.041064951829605859 0 0.0078262663310933248 -0.041459689201332244 0 0.0086480132179255747 -0.041373856979817984 0 0.0079614585951113728 -0.042204300306948279 0 0.0078262663310933248 -0.041459689201332244 0 0.0068640347128600832 -0.041064951829605859 0 0.0078106527245575532 -0.04075483497026175 0 0.0078262663310933248 -0.041459689201332244 0 0.0086480132179255747 -0.041373856979817984 0 0.0078106527245575532 -0.04075483497026175 0 0.009651842403540653 -0.039668647425680936 0 0.0086480132179255747 -0.041373856979817984 0 0.0096140844509904847 -0.042246356798089441 0 0.0099410721640033513 -0.031037687708976289 0 0.0086958036355090883 -0.025915341664706881 0 0.0079614585951113728 -0.042204300306948279 0 0.0096140844509904847 -0.042246356798089441 0 0.0078489703925868765 -0.043429916513452259 0 0.0086480132179255747 -0.041373856979817984 0 0.0079614585951113728 -0.042204300306948279 0 0.0096140844509904847 -0.042246356798089441 0 0.0079614585951113728 -0.042204300306948279 0 0.006971844216661925 -0.042776203702158372 0 0.0078489703925868765 -0.043429916513452259 0 0.0079614585951113728 -0.042204300306948279 0 0.0071578652720355315 -0.041969874684826526 0 0.006971844216661925 -0.042776203702158372 0 0.0078262663310933248 -0.041459689201332244 0 0.0079614585951113728 -0.042204300306948279 0 0.0071578652720355315 -0.041969874684826526 0 0.006971844216661925 -0.042776203702158372 0 0.0060914070952992573 -0.042149940873142694 0 0.0059112791445260857 -0.043235988613600201 0 0.0071578652720355315 -0.041969874684826526 0 0.006971844216661925 -0.042776203702158372 0 0.0060914070952992573 -0.042149940873142694 0 0.0060914070952992573 -0.042149940873142694 0 0.0053881757273597152 -0.042735932082439025 0 0.0059112791445260857 -0.043235988613600201 0 0.0050185163507682016 -0.0421175321237044 0 0.0060914070952992573 -0.042149940873142694 0 0.0053881757273597152 -0.042735932082439025 0 0.0050185163507682016 -0.0421175321237044 0 0.0060914070952992573 -0.042149940873142694 0 0.0055299425913382123 -0.041007680000776738 0 0.0060914070952992573 -0.042149940873142694 0 0.0068640347128600832 -0.041064951829605859 0 0.0055299425913382123 -0.041007680000776738 0 0.0071578652720355315 -0.041969874684826526 0 0.0060914070952992573 -0.042149940873142694 0 0.0068640347128600832 -0.041064951829605859 0 0.0068640347128600832 -0.041064951829605859 0 0.0071002110519385051 -0.040142997173456832 0 0.0060982040540164331 -0.039903387218765039 0 0.0068640347128600832 -0.041064951829605859 0 0.0055299425913382123 -0.041007680000776738 0 0.0060982040540164331 -0.039903387218765039 0 0.0048090460967540908 -0.039996248500412425 0 0.0055299425913382123 -0.041007680000776738 0 0.0060982040540164331 -0.039903387218765039 0 0.0048090460967540908 -0.039996248500412425 0 0.0060982040540164331 -0.039903387218765039 0 0.0056832709093231643 -0.038299445793485556 0 0.0071002110519385051 -0.040142997173456832 0 0.0060982040540164331 -0.039903387218765039 0 0.0073387697775575168 -0.039355227732375923 0 0.0060982040540164331 -0.039903387218765039 0 0.0073387697775575168 -0.039355227732375923 0 0.0069426432463741729 -0.038319577521647129 0 0.007965000409540228 -0.039969005100467497 0 0.0088285055481247768 -0.040027570281266675 0 0.0080603490160600488 -0.038889855993273804 0 0.0073387697775575168 -0.039355227732375923 0 0.007965000409540228 -0.039969005100467497 0 0.0080603490160600488 -0.038889855993273804 0 0.0071002110519385051 -0.040142997173456832 0 0.0073387697775575168 -0.039355227732375923 0 0.007965000409540228 -0.039969005100467497 0 0.0071002110519385051 -0.040142997173456832 0 0.007965000409540228 -0.039969005100467497 0 0.0078106527245575532 -0.04075483497026175 0 0.007965000409540228 -0.039969005100467497 0 0.0078106527245575532 -0.04075483497026175 0 0.0083251817416868882 -0.040551565816021234 0 0.0068640347128600832 -0.041064951829605859 0 0.0071002110519385051 -0.040142997173456832 0 0.0078106527245575532 -0.04075483497026175 0 0.009651842403540653 -0.039668647425680936 0 0.0086204209215499442 -0.037217509135193116 0 0.0092329685883737519 -0.036243009439416288 0 0.009651842403540653 -0.039668647425680936 0 0.0086480132179255747 -0.041373856979817984 0 0.0086204209215499442 -0.037217509135193116 0 0.0086480132179255747 -0.041373856979817984 0 0.0083251817416868882 -0.040551565816021234 0 0.0088285055481247768 -0.040027570281266675 0 0.0099410721640033513 -0.031037687708976289 0 0.0096327133717430662 -0.028118403492264708 0 0.0086677765898089103 -0.041009514953181309 0 0.0086758218136152761 -0.039123826192412982 0 0.007965000409540228 -0.039969005100467497 0 0.0083251817416868882 -0.040551565816021234 0 0.0088285055481247768 -0.040027570281266675 0 0.0086204209215499442 -0.037217509135193116 0 0.0092329685883737519 -0.036243009439416288 0 0.008780049579456474 -0.032653291549285632 0 0.0086758218136152761 -0.039123826192412982 0 0.0095165616851222243 -0.033206192293552067 0 0.0088285055481247768 -0.040027570281266675 0 0.0092863829854103793 -0.038014423361822529 0 0.0080603490160600488 -0.038889855993273804 0 0.0096327133717430662 -0.028118403492264708 0 0.0095165616851222243 -0.033206192293552067 0 0.010237497351882698 -0.022229437714051056 0 0.010542571982045997 -0.024290687454171501 0 0.0087688799904220779 -0.0234334727309627 0 0.0092863829854103793 -0.038014423361822529 0 0.0080603490160600488 -0.038889855993273804 0 0.0079208033451093184 -0.037374442364581081 0 0.0080603490160600488 -0.038889855993273804 0 0.0079208033451093184 -0.037374442364581081 0 0.0069426432463741729 -0.038319577521647129 0 0.0073387697775575168 -0.039355227732375923 0 0.0080603490160600488 -0.038889855993273804 0 0.0069426432463741729 -0.038319577521647129 0 0.0092863829854103793 -0.038014423361822529 0 0.0079208033451093184 -0.037374442364581081 0 0.0083892910892619244 -0.036496503187630758 0 0.0079208033451093184 -0.037374442364581081 0 0.0077964502622734529 -0.036203328050425372 0 0.0069610687464736953 -0.036447471814601465 0 0.0079208033451093184 -0.037374442364581081 0 0.0077964502622734529 -0.036203328050425372 0 0.0083892910892619244 -0.036496503187630758 0 0.0095165616851222243 -0.033206192293552067 0 0.010146086999877318 -0.030867205549365079 0 0.0092863829854103793 -0.038014423361822529 0 0.0083892910892619244 -0.036496503187630758 0 0.0093906577590824759 -0.035879036242410615 0 0.0096135005079831404 -0.037988992522317709 0 0.0098903113369466344 -0.035776165194212652 0 0.0093906577590824759 -0.035879036242410615 0 0.010542571982045997 -0.024290687454171501 0 0.010630426480733533 -0.02691584132487259 0 0.0096251967047277214 -0.02596613831173511 0 0.0095165616851222243 -0.033206192293552067 0 0.009502770951124756 -0.037877560042662205 0 0.0060982040540164331 -0.039903387218765039 0 0.0056832709093231643 -0.038299445793485556 0 0.0069426432463741729 -0.038319577521647129 0 0.0079208033451093184 -0.037374442364581081 0 0.0069426432463741729 -0.038319577521647129 0 0.0069610687464736953 -0.036447471814601465 0 0.0056832709093231643 -0.038299445793485556 0 0.0069426432463741729 -0.038319577521647129 0 0.0069610687464736953 -0.036447471814601465 0 0.0056832709093231643 -0.038299445793485556 0 0.0069610687464736953 -0.036447471814601465 0 0.0057504652958290945 -0.036397520364552002 0 0.0048604716065897011 -0.037641156386221626 0 0.0056832709093231643 -0.038299445793485556 0 0.0057504652958290945 -0.036397520364552002 0 0.0046676103304290279 -0.036415673881400976 0 0.0057504652958290945 -0.036397520364552002 0 0.0056131374356375649 -0.035299509128588584 0 0.0057504652958290945 -0.036397520364552002 0 0.0066464430336887889 -0.035334210947095546 0 0.0056131374356375649 -0.035299509128588584 0 0.0069610687464736953 -0.036447471814601465 0 0.0057504652958290945 -0.036397520364552002 0 0.0066464430336887889 -0.035334210947095546 0 0.0069610687464736953 -0.036447471814601465 0 0.0066464430336887889 -0.035334210947095546 0 0.0075417427586253099 -0.035222783827053572 0 0.0066464430336887889 -0.035334210947095546 0 0.0075417427586253099 -0.035222783827053572 0 0.0074261244959518075 -0.034298757100018618 0 0.0066464430336887889 -0.035334210947095546 0 0.006609924430828606 -0.034367837326237098 0 0.0074261244959518075 -0.034298757100018618 0 0.0067713429510682394 -0.033552560117294586 0 0.006609924430828606 -0.034367837326237098 0 0.0075277232223597591 -0.033518997640633548 0 0.006609924430828606 -0.034367837326237098 0 0.0074261244959518075 -0.034298757100018618 0 0.0075277232223597591 -0.033518997640633548 0 0.0067713429510682394 -0.033552560117294586 0 0.006609924430828606 -0.034367837326237098 0 0.0055738976162009318 -0.034230132202671633 0 0.0066464430336887889 -0.035334210947095546 0 0.006609924430828606 -0.034367837326237098 0 0.0056131374356375649 -0.035299509128588584 0 0.0046125548646625452 -0.035140114167050193 0 0.0055738976162009318 -0.034230132202671633 0 0.0056131374356375649 -0.035299509128588584 0 0.006609924430828606 -0.034367837326237098 0 0.0055738976162009318 -0.034230132202671633 0 0.0056131374356375649 -0.035299509128588584 0 0.010630426480733533 -0.02691584132487259 0 0.0090888092504762558 -0.03139470062121083 0 0.0089847825439492903 -0.029225440359460963 0 0.0091950268366100419 -0.034710249144177981 0 0.0098903113369466344 -0.035776165194212652 0 0.0090888092504762558 -0.03139470062121083 0 0.010146086999877318 -0.030867205549365079 0 0.0093599110603082847 -0.031548092942337798 0 0.0091950268366100419 -0.034710249144177981 0 0.0088748005001963587 -0.035429857134506054 0 0.0086671216222704069 -0.03468214713135287 0 0.0091950268366100419 -0.034710249144177981 0 0.0088644282297685797 -0.033903707887961307 0 0.0086671216222704069 -0.03468214713135287 0 0.010630426480733533 -0.02691584132487259 0 0.0089847825439492903 -0.029225440359460963 0 0.0091669118597576919 -0.027485026181694249 0 0.010630426480733533 -0.02691584132487259 0 0.0091669118597576919 -0.027485026181694249 0 0.0096251967047277214 -0.02596613831173511 0 0.0083892910892619244 -0.036496503187630758 0 0.0093906577590824759 -0.035879036242410615 0 0.0088748005001963587 -0.035429857134506054 0 0.0098903113369466344 -0.035776165194212652 0 0.0093906577590824759 -0.035879036242410615 0 0.0093256512471750833 -0.035454792770133144 0 0.0091950268366100419 -0.034710249144177981 0 0.0098903113369466344 -0.035776165194212652 0 0.0093256512471750833 -0.035454792770133144 0 0.0091950268366100419 -0.034710249144177981 0 0.0093256512471750833 -0.035454792770133144 0 0.0088748005001963587 -0.035429857134506054 0 0.0093906577590824759 -0.035879036242410615 0 0.0093256512471750833 -0.035454792770133144 0 0.0088748005001963587 -0.035429857134506054 0 0.0077964502622734529 -0.036203328050425372 0 0.0083892910892619244 -0.036496503187630758 0 0.0082257897642422622 -0.035342111412944487 0 0.0083892910892619244 -0.036496503187630758 0 0.0088748005001963587 -0.035429857134506054 0 0.0082257897642422622 -0.035342111412944487 0 0.0088748005001963587 -0.035429857134506054 0 0.0082257897642422622 -0.035342111412944487 0 0.0086671216222704069 -0.03468214713135287 0 0.0077964502622734529 -0.036203328050425372 0 0.0082257897642422622 -0.035342111412944487 0 0.0075417427586253099 -0.035222783827053572 0 0.0077964502622734529 -0.036203328050425372 0 0.0069610687464736953 -0.036447471814601465 0 0.0075417427586253099 -0.035222783827053572 0 0.0075417427586253099 -0.035222783827053572 0 0.0082491592384357926 -0.03404013678910485 0 0.0074261244959518075 -0.034298757100018618 0 0.0082257897642422622 -0.035342111412944487 0 0.0075417427586253099 -0.035222783827053572 0 0.0082491592384357926 -0.03404013678910485 0 0.0082257897642422622 -0.035342111412944487 0 0.0086671216222704069 -0.03468214713135287 0 0.0082491592384357926 -0.03404013678910485 0 0.0088644282297685797 -0.033903707887961307 0 0.0086671216222704069 -0.03468214713135287 0 0.0082491592384357926 -0.03404013678910485 0 0.0082491592384357926 -0.03404013678910485 0 0.0085660850971730311 -0.032942902276719074 0 0.0086798782838609454 -0.033086118248182285 0 0.0082491592384357926 -0.03404013678910485 0 0.0080591732686389091 -0.033418412025372678 0 0.0085660850971730311 -0.032942902276719074 0 0.0088644282297685797 -0.033903707887961307 0 0.0082491592384357926 -0.03404013678910485 0 0.0086798782838609454 -0.033086118248182285 0 0.0082491592384357926 -0.03404013678910485 0 0.0074261244959518075 -0.034298757100018618 0 0.0080591732686389091 -0.033418412025372678 0 0.0074261244959518075 -0.034298757100018618 0 0.0080591732686389091 -0.033418412025372678 0 0.0075277232223597591 -0.033518997640633548 0 0.0079929011132624187 -0.033096699451226008 0 0.0080591732686389091 -0.033418412025372678 0 0.0075277232223597591 -0.033518997640633548 0 0.0084932252319202123 -0.032888478215535817 0 0.0080591732686389091 -0.033418412025372678 0 0.0085660850971730311 -0.032942902276719074 0 0.0084932252319202123 -0.032888478215535817 0 0.0079929011132624187 -0.033096699451226008 0 0.0080591732686389091 -0.033418412025372678 0 0.0085660850971730311 -0.032942902276719074 0 0.0086798782838609454 -0.033086118248182285 0 0.0090888092504762558 -0.03139470062121083 0 0.0087508443928517223 -0.032511610745742617 0 0.0087517560475690176 -0.031368374720283879 0 0.0085660850971730311 -0.032942902276719074 0 0.0090888092504762558 -0.03139470062121083 0 0.0093256229324928976 -0.029783758357700672 0 0.0084932252319202123 -0.032888478215535817 0 0.0085660850971730311 -0.032942902276719074 0 0.0083176873441503391 -0.032646080584740923 0 0.0091950268366100419 -0.034710249144177981 0 0.0088644282297685797 -0.033903707887961307 0 0.0090888092504762558 -0.03139470062121083 0 0.0088644282297685797 -0.033903707887961307 0 0.0086798782838609454 -0.033086118248182285 0 0.0090888092504762558 -0.03139470062121083 0 0.0090888092504762558 -0.03139470062121083 0 0.0093256229324928976 -0.029783758357700672 0 0.0089847825439492903 -0.029225440359460963 0 0.0093256229324928976 -0.029783758357700672 0 0.0079953270914381157 -0.028703777813933906 0 0.0077705884401148726 -0.029029909063675727 0 0.0093256229324928976 -0.029783758357700672 0 0.0087178147279775922 -0.028952755060915703 0 0.0079953270914381157 -0.028703777813933906 0 0.0087178147279775922 -0.028952755060915703 0 0.0081397028059149081 -0.028112528957780734 0 0.0079953270914381157 -0.028703777813933906 0 0.0087178147279775922 -0.028952755060915703 0 0.0087000226728231825 -0.028461310963801723 0 0.0081397028059149081 -0.028112528957780734 0 0.0093256229324928976 -0.029783758357700672 0 0.0087178147279775922 -0.028952755060915703 0 0.0089847825439492903 -0.029225440359460963 0 0.0087178147279775922 -0.028952755060915703 0 0.0089847825439492903 -0.029225440359460963 0 0.0087000226728231825 -0.028461310963801723 0 0.0089847825439492903 -0.029225440359460963 0 0.0087000226728231825 -0.028461310963801723 0 0.0091669118597576919 -0.027485026181694249 0 0.0087000226728231825 -0.028461310963801723 0 0.0084049827680317581 -0.027253532753160552 0 0.0091669118597576919 -0.027485026181694249 0 0.0087000226728231825 -0.028461310963801723 0 0.0081397028059149081 -0.028112528957780734 0 0.0084049827680317581 -0.027253532753160552 0 0.0081397028059149081 -0.028112528957780734 0 0.0084049827680317581 -0.027253532753160552 0 0.0075854296992385788 -0.027096518574847364 0 0.0084049827680317581 -0.027253532753160552 0 0.0088330503119143609 -0.02631974861512041 0 0.007853208661100123 -0.025951608561546099 0 0.0084049827680317581 -0.027253532753160552 0 0.0091669118597576919 -0.027485026181694249 0 0.0088330503119143609 -0.02631974861512041 0 0.0091669118597576919 -0.027485026181694249 0 0.0088330503119143609 -0.02631974861512041 0 0.0096251967047277214 -0.02596613831173511 0 0.0075854296992385788 -0.027096518574847364 0 0.0065802732778575766 -0.027363829984302042 0 0.0065654159968325304 -0.026046908823086894 0 0.0075854296992385788 -0.027096518574847364 0 0.0065654159968325304 -0.026046908823086894 0 0.007853208661100123 -0.025951608561546099 0 0.0084049827680317581 -0.027253532753160552 0 0.0075854296992385788 -0.027096518574847364 0 0.007853208661100123 -0.025951608561546099 0 0.0081397028059149081 -0.028112528957780734 0 0.0075854296992385788 -0.027096518574847364 0 0.0074273317348067455 -0.027895135594580657 0 0.0075854296992385788 -0.027096518574847364 0 0.0065802732778575766 -0.027363829984302042 0 0.0074273317348067455 -0.027895135594580657 0 0.0065802732778575766 -0.027363829984302042 0 0.0074273317348067455 -0.027895135594580657 0 0.0068738028001797914 -0.028350608686207927 0 0.0081397028059149081 -0.028112528957780734 0 0.0074273317348067455 -0.027895135594580657 0 0.0079953270914381157 -0.028703777813933906 0 0.0074273317348067455 -0.027895135594580657 0 0.0079953270914381157 -0.028703777813933906 0 0.0068738028001797914 -0.028350608686207927 0 0.0079953270914381157 -0.028703777813933906 0 0.0077705884401148726 -0.029029909063675727 0 0.0068738028001797914 -0.028350608686207927 0 0.0069320966020052924 -0.029302077365515378 0 0.0077705884401148726 -0.029029909063675727 0 0.0068738028001797914 -0.028350608686207927 0 0.0069320966020052924 -0.029302077365515378 0 0.0068738028001797914 -0.028350608686207927 0 0.0061317250827396634 -0.028492038638811858 0 0.0068738028001797914 -0.028350608686207927 0 0.0061317250827396634 -0.028492038638811858 0 0.0055103716952327681 -0.0276733830982226 0 0.0054419751932478777 -0.028542763851217724 0 0.0061317250827396634 -0.028492038638811858 0 0.0055103716952327681 -0.0276733830982226 0 0.0040285158084034768 -0.027952367632419001 0 0.0054419751932478777 -0.028542763851217724 0 0.0055103716952327681 -0.0276733830982226 0 0.0065802732778575766 -0.027363829984302042 0 0.0055103716952327681 -0.0276733830982226 0 0.0056590304780014819 -0.026770893390355259 0 0.0065802732778575766 -0.027363829984302042 0 0.0068738028001797914 -0.028350608686207927 0 0.0055103716952327681 -0.0276733830982226 0 0.0053324850299034231 -0.02752110822203023 0 0.0032294932009216508 -0.026978359318575972 0 0.0055103716952327681 -0.0276733830982226 0 0.0046267470914552779 -0.026584086441659886 0 0.0056590304780014819 -0.026770893390355259 0 0.0055103716952327681 -0.0276733830982226 0 0.0046267470914552779 -0.026584086441659886 0 0.0039490891550859209 -0.027152081821941669 0 0.0040285158084034768 -0.027952367632419001 0 0.0055103716952327681 -0.0276733830982226 0 0.0023972321779236611 -0.026677290585620829 0 0.0028918891567313687 -0.027560976667246852 0 0.0040285158084034768 -0.027952367632419001 0 0.0023972321779236611 -0.026677290585620829 0 0.0046267470914552779 -0.026584086441659886 0 0.0052552012863687769 -0.02582004415857617 0 0.0041449015504912978 -0.02567928695394597 0 0.0046267470914552779 -0.026584086441659886 0 0.0052552012863687769 -0.02582004415857617 0 0.0056590304780014819 -0.026770893390355259 0 0.0052552012863687769 -0.02582004415857617 0 0.0056590304780014819 -0.026770893390355259 0 0.0065654159968325304 -0.026046908823086894 0 0.0065802732778575766 -0.027363829984302042 0 0.0056590304780014819 -0.026770893390355259 0 0.0065654159968325304 -0.026046908823086894 0 0.0052552012863687769 -0.02582004415857617 0 0.0065654159968325304 -0.026046908823086894 0 0.0060663482088533028 -0.024620450054335684 0 0.0065654159968325304 -0.026046908823086894 0 0.0060663482088533028 -0.024620450054335684 0 0.0073012890311009533 -0.024755280450222256 0 0.0052552012863687769 -0.02582004415857617 0 0.0060663482088533028 -0.024620450054335684 0 0.0046641782723674157 -0.024556651828899243 0 0.0052552012863687769 -0.02582004415857617 0 0.0046641782723674157 -0.024556651828899243 0 0.0041449015504912978 -0.02567928695394597 0 0.0046641782723674157 -0.024556651828899243 0 0.0055233975021856882 -0.023414977444124019 0 0.0040997959390421737 -0.023376142637225754 0 0.0060663482088533028 -0.024620450054335684 0 0.0046641782723674157 -0.024556651828899243 0 0.0055233975021856882 -0.023414977444124019 0 0.0060663482088533028 -0.024620450054335684 0 0.0055233975021856882 -0.023414977444124019 0 0.0070089981437632155 -0.023315123652112475 0 0.0060663482088533028 -0.024620450054335684 0 0.0070089981437632155 -0.023315123652112475 0 0.0073012890311009533 -0.024755280450222256 0 0.0070089981437632155 -0.023315123652112475 0 0.0087688799904220779 -0.0234334727309627 0 0.0073012890311009533 -0.024755280450222256 0 0.0087688799904220779 -0.0234334727309627 0 0.0088189321299235145 -0.025148874824009616 0 0.0073012890311009533 -0.024755280450222256 0 0.010542571982045997 -0.024290687454171501 0 0.0087688799904220779 -0.0234334727309627 0 0.0088189321299235145 -0.025148874824009616 0 0.010542571982045997 -0.024290687454171501 0 0.0088189321299235145 -0.025148874824009616 0 0.0096251967047277214 -0.02596613831173511 0 0.0088189321299235145 -0.025148874824009616 0 0.0088330503119143609 -0.02631974861512041 0 0.0096251967047277214 -0.02596613831173511 0 0.0088189321299235145 -0.025148874824009616 0 0.0088330503119143609 -0.02631974861512041 0 0.007853208661100123 -0.025951608561546099 0 0.0088189321299235145 -0.025148874824009616 0 0.007853208661100123 -0.025951608561546099 0 0.0073012890311009533 -0.024755280450222256 0 0.0065654159968325304 -0.026046908823086894 0 0.007853208661100123 -0.025951608561546099 0 0.0073012890311009533 -0.024755280450222256 0 0.0010366367734312143 -0.025858917454923733 0 0.0014557485672139613 -0.026401064130848331 0 0.0016375959318928684 -0.025771985828302851 0 0.0010366367734312143 -0.025858917454923733 0 0.0016375959318928684 -0.025771985828302851 0 0.0010510333935025041 -0.024959746248429181 0 0.0015903915355218934 -0.026412558551705188 0 0.0010366367734312143 -0.025858917454923733 0 0.0014557485672139613 -0.026401064130848331 0 0.001740218691887632 -0.026411063060550723 0 0.0015903915355218934 -0.026412558551705188 0 0.0014557485672139613 -0.026401064130848331 0 0.0014557485672139613 -0.026401064130848331 0 0.0023273757816012061 -0.026699251563067718 0 0.0016375959318928684 -0.025771985828302851 0 0.0014752567343098476 -0.026448801016753828 0 0.0019045279170410291 -0.026639985640170765 0 0.0015236332648575562 -0.026530476363881932 0 0.0014557485672139613 -0.026401064130848331 0 0.0014359666230811144 -0.026603527956576379 0 0.0016375959318928684 -0.025771985828302851 0 0.0023585320572150122 -0.025632727823546895 0 0.0015437315798360789 -0.024602205212021944 0 0.0023273757816012061 -0.026699251563067718 0 0.0016375959318928684 -0.025771985828302851 0 0.0023585320572150122 -0.025632727823546895 0 0.0023585320572150122 -0.025632727823546895 0 0.0033652454019299631 -0.026127809019789127 0 0.0030726744445868986 -0.02456155685340548 0 0.0023273757816012061 -0.026699251563067718 0 0.0023585320572150122 -0.025632727823546895 0 0.0033652454019299631 -0.026127809019789127 0 0.0017377269123663307 -0.027002109094987944 0 0.0014359666230811144 -0.026603527956576379 0 0.0023972321779236611 -0.026677290585620829 0 0.0019045279170410291 -0.026639985640170765 0 0.0032294932009216508 -0.026978359318575972 0 0.0023273757816012061 -0.026699251563067718 0 0.0039490891550859209 -0.027152081821941669 0 0.0033652454019299631 -0.026127809019789127 0 0.0033652454019299631 -0.026127809019789127 0 0.0041449015504912978 -0.02567928695394597 0 0.0030726744445868986 -0.02456155685340548 0 0.0046267470914552779 -0.026584086441659886 0 0.0039490891550859209 -0.027152081821941669 0 0.0033652454019299631 -0.026127809019789127 0 0.0046267470914552779 -0.026584086441659886 0 0.0033652454019299631 -0.026127809019789127 0 0.0041449015504912978 -0.02567928695394597 0 0.0046641782723674157 -0.024556651828899243 0 0.0041449015504912978 -0.02567928695394597 0 0.0030726744445868986 -0.02456155685340548 0 0.0040997959390421737 -0.023376142637225754 0 0.0030726744445868986 -0.02456155685340548 0 0.0030768412840135023 -0.022647572591425739 0 0.0046641782723674157 -0.024556651828899243 0 0.0040997959390421737 -0.023376142637225754 0 0.0030726744445868986 -0.02456155685340548 0 0.0030726744445868986 -0.02456155685340548 0 0.001964272661465464 -0.023209147667804502 0 0.0030768412840135023 -0.022647572591425739 0 0.0023585320572150122 -0.025632727823546895 0 0.0030726744445868986 -0.02456155685340548 0 0.0015437315798360789 -0.024602205212021944 0 0.0015437315798360789 -0.024602205212021944 0 0.001964272661465464 -0.023209147667804502 0 0.0003513027965502201 -0.023059979254480573 0 0.0030726744445868986 -0.02456155685340548 0 0.0015437315798360789 -0.024602205212021944 0 0.001964272661465464 -0.023209147667804502 0 0.00034236169051686061 -0.024143686933757999 0 0.0015437315798360789 -0.024602205212021944 0 0.0003513027965502201 -0.023059979254480573 0 0.00034236169051686061 -0.024143686933757999 0 0.0015437315798360789 -0.024602205212021944 0 0.0010510333935025041 -0.024959746248429181 0 0.00034236169051686061 -0.024143686933757999 0 0.0010366367734312143 -0.025858917454923733 0 0.0010510333935025041 -0.024959746248429181 0 0.0016375959318928684 -0.025771985828302851 0 0.0015437315798360789 -0.024602205212021944 0 0.0010510333935025041 -0.024959746248429181 0 -0.0012951198377879872 -0.019960418284186768 0 3.8698885591492332e-05 -0.020029456094787016 0 -0.00036581790329400378 -0.021243199535943672 0 3.8698885591492332e-05 -0.020029456094787016 0 -0.00036581790329400378 -0.021243199535943672 0 0.00097041769556357603 -0.021568391743268668 0 0.0003513027965502201 -0.023059979254480573 0 -0.00036581790329400378 -0.021243199535943672 0 0.00097041769556357603 -0.021568391743268668 0 0.001964272661465464 -0.023209147667804502 0 0.0003513027965502201 -0.023059979254480573 0 0.00097041769556357603 -0.021568391743268668 0 0.001964272661465464 -0.023209147667804502 0 0.00097041769556357603 -0.021568391743268668 0 0.002342224463137458 -0.021285330818228667 0 0.00097041769556357603 -0.021568391743268668 0 0.002342224463137458 -0.021285330818228667 0 0.0013508135484776428 -0.019939679725111032 0 3.8698885591492332e-05 -0.020029456094787016 0 0.00097041769556357603 -0.021568391743268668 0 0.0013508135484776428 -0.019939679725111032 0 0.002342224463137458 -0.021285330818228667 0 0.0035633854396163716 -0.020851876532989665 0 0.0027314131125736889 -0.019063554731063127 0 0.002342224463137458 -0.021285330818228667 0 0.0027314131125736889 -0.019063554731063127 0 0.0013508135484776428 -0.019939679725111032 0 0.002342224463137458 -0.021285330818228667 0 0.0030768412840135023 -0.022647572591425739 0 0.0035633854396163716 -0.020851876532989665 0 0.001964272661465464 -0.023209147667804502 0 0.002342224463137458 -0.021285330818228667 0 0.0030768412840135023 -0.022647572591425739 0 0.0030768412840135023 -0.022647572591425739 0 0.004057346882938408 -0.022028730586894741 0 0.0035633854396163716 -0.020851876532989665 0 0.0040997959390421737 -0.023376142637225754 0 0.0030768412840135023 -0.022647572591425739 0 0.004057346882938408 -0.022028730586894741 0 0.0040997959390421737 -0.023376142637225754 0 0.004057346882938408 -0.022028730586894741 0 0.0051272213043264767 -0.022145899450137934 0 0.004057346882938408 -0.022028730586894741 0 0.0035633854396163716 -0.020851876532989665 0 0.0047763378619335023 -0.020858306029415821 0 0.0035633854396163716 -0.020851876532989665 0 0.0044000941088773995 -0.019500608800252995 0 0.0047763378619335023 -0.020858306029415821 0 0.0044000941088773995 -0.019500608800252995 0 0.0042185942397018556 -0.018004908046908463 0 0.0027314131125736889 -0.019063554731063127 0 0.0035633854396163716 -0.020851876532989665 0 0.0044000941088773995 -0.019500608800252995 0 0.0027314131125736889 -0.019063554731063127 0 0.0042185942397018556 -0.018004908046908463 0 0.0030532043703799866 -0.017375502576858576 0 0.0027314131125736889 -0.019063554731063127 0 0.0042185942397018556 -0.018004908046908463 0 0.0030532043703799866 -0.017375502576858576 0 0.0038817559818639263 -0.016218404771033888 0 0.0030532043703799866 -0.017375502576858576 0 0.0027314131125736889 -0.019063554731063127 0 0.0018480356747614492 -0.017316075706013258 0 3.8698885591492332e-05 -0.020029456094787016 0 0.0013508135484776428 -0.019939679725111032 0 0.00094371301217661204 -0.018334194579001161 0 0.0027314131125736889 -0.019063554731063127 0 0.0013508135484776428 -0.019939679725111032 0 0.00094371301217661204 -0.018334194579001161 0 0.00094371301217661204 -0.018334194579001161 0 0.0018480356747614492 -0.017316075706013258 0 0.00045731226065760843 -0.016894303956659477 0 0.0027314131125736889 -0.019063554731063127 0 0.00094371301217661204 -0.018334194579001161 0 0.0018480356747614492 -0.017316075706013258 0 -0.00070398580869440188 -0.018179002159918786 0 0.00045731226065760843 -0.016894303956659477 0 -0.00087435273415174949 -0.016458477719622576 0 0.00094371301217661204 -0.018334194579001161 0 -0.00070398580869440188 -0.018179002159918786 0 0.00045731226065760843 -0.016894303956659477 0 3.8698885591492332e-05 -0.020029456094787016 0 0.00094371301217661204 -0.018334194579001161 0 -0.00070398580869440188 -0.018179002159918786 0 -0.0012951198377879872 -0.019960418284186768 0 3.8698885591492332e-05 -0.020029456094787016 0 -0.00070398580869440188 -0.018179002159918786 0 0.0071472140919600141 -0.020400048665631061 0 0.0078405068800713584 -0.021972068735363667 0 0.0065325477949475406 -0.022146818181929328 0 0.0071472140919600141 -0.020400048665631061 0 0.0081031985599679564 -0.020802577128470934 0 0.0078405068800713584 -0.021972068735363667 0 0.0081031985599679564 -0.020802577128470934 0 0.0090375526951202538 -0.021362658001665369 0 0.0078405068800713584 -0.021972068735363667 0 0.0099396129178022131 -0.020276499530585565 0 0.0090375526951202538 -0.021362658001665369 0 0.0083890813765990554 -0.01948843405023264 0 0.0081031985599679564 -0.020802577128470934 0 0.0090375526951202538 -0.021362658001665369 0 0.0083890813765990554 -0.01948843405023264 0 0.0099396129178022131 -0.020276499530585565 0 0.010237497351882698 -0.022229437714051056 0 0.0090375526951202538 -0.021362658001665369 0 0.0090375526951202538 -0.021362658001665369 0 0.0090234418575765394 -0.022296977702842863 0 0.0078405068800713584 -0.021972068735363667 0 0.010237497351882698 -0.022229437714051056 0 0.0090375526951202538 -0.021362658001665369 0 0.0090234418575765394 -0.022296977702842863 0 0.010237497351882698 -0.022229437714051056 0 0.0087688799904220779 -0.0234334727309627 0 0.0090234418575765394 -0.022296977702842863 0 0.0087688799904220779 -0.0234334727309627 0 0.0090234418575765394 -0.022296977702842863 0 0.0078405068800713584 -0.021972068735363667 0 0.0070089981437632155 -0.023315123652112475 0 0.0087688799904220779 -0.0234334727309627 0 0.0078405068800713584 -0.021972068735363667 0 0.0070089981437632155 -0.023315123652112475 0 0.0078405068800713584 -0.021972068735363667 0 0.0065325477949475406 -0.022146818181929328 0 0.0065325477949475406 -0.022146818181929328 0 0.0051272213043264767 -0.022145899450137934 0 0.0058989571041377495 -0.021065469077429858 0 0.0055233975021856882 -0.023414977444124019 0 0.0070089981437632155 -0.023315123652112475 0 0.0065325477949475406 -0.022146818181929328 0 0.0055233975021856882 -0.023414977444124019 0 0.0065325477949475406 -0.022146818181929328 0 0.0051272213043264767 -0.022145899450137934 0 0.0055233975021856882 -0.023414977444124019 0 0.0040997959390421737 -0.023376142637225754 0 0.0051272213043264767 -0.022145899450137934 0 0.004057346882938408 -0.022028730586894741 0 0.0051272213043264767 -0.022145899450137934 0 0.0047763378619335023 -0.020858306029415821 0 0.0051272213043264767 -0.022145899450137934 0 0.0047763378619335023 -0.020858306029415821 0 0.0058989571041377495 -0.021065469077429858 0 0.0047763378619335023 -0.020858306029415821 0 0.0058989571041377495 -0.021065469077429858 0 0.0057265013271675953 -0.019716621809165009 0 0.0071472140919600141 -0.020400048665631061 0 0.0058989571041377495 -0.021065469077429858 0 0.0057265013271675953 -0.019716621809165009 0 0.0071472140919600141 -0.020400048665631061 0 0.0065325477949475406 -0.022146818181929328 0 0.0058989571041377495 -0.021065469077429858 0 0.0071472140919600141 -0.020400048665631061 0 0.0057265013271675953 -0.019716621809165009 0 0.0064334553834555471 -0.018215620465220544 0 0.0071472140919600141 -0.020400048665631061 0 0.0064334553834555471 -0.018215620465220544 0 0.007681973835361248 -0.018371779856691237 0 0.0057265013271675953 -0.019716621809165009 0 0.0053149133599967348 -0.018350070389692209 0 0.0064334553834555471 -0.018215620465220544 0 0.0044000941088773995 -0.019500608800252995 0 0.0047763378619335023 -0.020858306029415821 0 0.0057265013271675953 -0.019716621809165009 0 0.0044000941088773995 -0.019500608800252995 0 0.0057265013271675953 -0.019716621809165009 0 0.0053149133599967348 -0.018350070389692209 0 0.0042185942397018556 -0.018004908046908463 0 0.0053149133599967348 -0.018350070389692209 0 0.0049266245731121793 -0.01680609383395136 0 0.0053149133599967348 -0.018350070389692209 0 0.0060897199036879643 -0.016942290639257802 0 0.0049266245731121793 -0.01680609383395136 0 0.0044000941088773995 -0.019500608800252995 0 0.0042185942397018556 -0.018004908046908463 0 0.0053149133599967348 -0.018350070389692209 0 0.0053149133599967348 -0.018350070389692209 0 0.0064334553834555471 -0.018215620465220544 0 0.0060897199036879643 -0.016942290639257802 0 0.0064334553834555471 -0.018215620465220544 0 0.0073894907365767322 -0.017063060103966632 0 0.0060897199036879643 -0.016942290639257802 0 0.0064334553834555471 -0.018215620465220544 0 0.007681973835361248 -0.018371779856691237 0 0.0073894907365767322 -0.017063060103966632 0 0.007681973835361248 -0.018371779856691237 0 0.0083890813765990554 -0.01948843405023264 0 0.0085542881202752292 -0.017744388369258814 0 0.007681973835361248 -0.018371779856691237 0 0.0085542881202752292 -0.017744388369258814 0 0.0073894907365767322 -0.017063060103966632 0 0.0071472140919600141 -0.020400048665631061 0 0.007681973835361248 -0.018371779856691237 0 0.0083890813765990554 -0.01948843405023264 0 0.0071472140919600141 -0.020400048665631061 0 0.0081031985599679564 -0.020802577128470934 0 0.0083890813765990554 -0.01948843405023264 0 0.0099396129178022131 -0.020276499530585565 0 0.0083890813765990554 -0.01948843405023264 0 0.0096488031242471118 -0.018517157418508453 0 0.009771097470475533 -0.01759878883874598 0 0.0086958036355090883 -0.025915341664706881 0 0.0083890813765990554 -0.01948843405023264 0 0.0097283087012856873 -0.018185198641452537 0 0.0085542881202752292 -0.017744388369258814 0 0.0097283087012856873 -0.018185198641452537 0 0.0085542881202752292 -0.017744388369258814 0 0.0094934154436239759 -0.017031108000321853 0 0.0086958036355090883 -0.025915341664706881 0 0.0088563306446057376 -0.015702453967638093 0 0.0085542881202752292 -0.017744388369258814 0 0.0094934154436239759 -0.017031108000321853 0 0.0085664756120144986 -0.01645712624349641 0 0.0094934154436239759 -0.017031108000321853 0 0.0085664756120144986 -0.01645712624349641 0 0.0097137140884522577 -0.015662612049691164 0 0.0086227036290551472 -0.015277855154805859 0 0.0096189635906734922 -0.014220655696881404 0 0.0077070758229967531 -0.014232064976102549 0 0.0097137140884522577 -0.015662612049691164 0 0.0086227036290551472 -0.015277855154805859 0 0.0096189635906734922 -0.014220655696881404 0 0.0085664756120144986 -0.01645712624349641 0 0.0097137140884522577 -0.015662612049691164 0 0.0086227036290551472 -0.015277855154805859 0 0.0077784445779290525 -0.015758849150376734 0 0.0065993695670383866 -0.015781139624908291 0 0.0077070758229967531 -0.014232064976102549 0 0.0086227036290551472 -0.015277855154805859 0 0.0077784445779290525 -0.015758849150376734 0 0.0077070758229967531 -0.014232064976102549 0 0.0085664756120144986 -0.01645712624349641 0 0.0086227036290551472 -0.015277855154805859 0 0.0077784445779290525 -0.015758849150376734 0 0.0077784445779290525 -0.015758849150376734 0 0.0073894907365767322 -0.017063060103966632 0 0.0065993695670383866 -0.015781139624908291 0 0.0085664756120144986 -0.01645712624349641 0 0.0077784445779290525 -0.015758849150376734 0 0.0073894907365767322 -0.017063060103966632 0 0.0085542881202752292 -0.017744388369258814 0 0.0085664756120144986 -0.01645712624349641 0 0.0073894907365767322 -0.017063060103966632 0 0.0060897199036879643 -0.016942290639257802 0 0.0051214783228254179 -0.015447121171695406 0 0.0065993695670383866 -0.015781139624908291 0 0.0073894907365767322 -0.017063060103966632 0 0.0060897199036879643 -0.016942290639257802 0 0.0065993695670383866 -0.015781139624908291 0 0.0060897199036879643 -0.016942290639257802 0 0.0049266245731121793 -0.01680609383395136 0 0.0051214783228254179 -0.015447121171695406 0 0.0049266245731121793 -0.01680609383395136 0 0.0051214783228254179 -0.015447121171695406 0 0.0038817559818639263 -0.016218404771033888 0 0.0051214783228254179 -0.015447121171695406 0 0.0062008605983607072 -0.013876993290642634 0 0.0046551887956307264 -0.01389304885289659 0 0.0051214783228254179 -0.015447121171695406 0 0.0065993695670383866 -0.015781139624908291 0 0.0062008605983607072 -0.013876993290642634 0 0.0065993695670383866 -0.015781139624908291 0 0.0062008605983607072 -0.013876993290642634 0 0.0077070758229967531 -0.014232064976102549 0 0.0062008605983607072 -0.013876993290642634 0 0.0073759698310289761 -0.012616630995097631 0 0.0077070758229967531 -0.014232064976102549 0 0.0062008605983607072 -0.013876993290642634 0 0.0061565158282317631 -0.012540065495867852 0 0.0073759698310289761 -0.012616630995097631 0 0.0062008605983607072 -0.013876993290642634 0 0.0046551887956307264 -0.01389304885289659 0 0.0049461728947049251 -0.012443122602146965 0 0.0062008605983607072 -0.013876993290642634 0 0.0049461728947049251 -0.012443122602146965 0 0.0061565158282317631 -0.012540065495867852 0 0.0049461728947049251 -0.012443122602146965 0 0.0061062976319522554 -0.011235947922780678 0 0.0048110717946418975 -0.011022624823803997 0 0.0049461728947049251 -0.012443122602146965 0 0.0061565158282317631 -0.012540065495867852 0 0.0061062976319522554 -0.011235947922780678 0 0.0061565158282317631 -0.012540065495867852 0 0.0073759698310289761 -0.012616630995097631 0 0.0061062976319522554 -0.011235947922780678 0 0.0073759698310289761 -0.012616630995097631 0 0.0077894750985471693 -0.011187640321233677 0 0.0061062976319522554 -0.011235947922780678 0 0.0073759698310289761 -0.012616630995097631 0 0.0087795613933776915 -0.012676510726113734 0 0.0077894750985471693 -0.011187640321233677 0 0.0087795613933776915 -0.012676510726113734 0 0.0096189635906734922 -0.014220655696881404 0 0.0104630313857813 -0.012273703342460343 0 0.0087795613933776915 -0.012676510726113734 0 0.0091664515703342442 -0.011181598121145603 0 0.0104630313857813 -0.012273703342460343 0 0.0087795613933776915 -0.012676510726113734 0 0.0096189635906734922 -0.014220655696881404 0 0.0077070758229967531 -0.014232064976102549 0 0.0073759698310289761 -0.012616630995097631 0 0.0087795613933776915 -0.012676510726113734 0 0.0077070758229967531 -0.014232064976102549 0 -0.0010332187830137439 -0.015103161426513025 0 0.00029127013976271821 -0.015373732251931546 0 4.1690892640934241e-05 -0.013807063706256832 0 -0.0013877048642200499 -0.013872236012597693 0 -0.0010332187830137439 -0.015103161426513025 0 4.1690892640934241e-05 -0.013807063706256832 0 -0.0010332187830137439 -0.015103161426513025 0 0.00029127013976271821 -0.015373732251931546 0 -0.00087435273415174949 -0.016458477719622576 0 0.00029127013976271821 -0.015373732251931546 0 0.00045731226065760843 -0.016894303956659477 0 -0.00087435273415174949 -0.016458477719622576 0 0.00029127013976271821 -0.015373732251931546 0 0.00045731226065760843 -0.016894303956659477 0 0.001395061524155008 -0.015932419797586587 0 0.0018480356747614492 -0.017316075706013258 0 0.00045731226065760843 -0.016894303956659477 0 0.001395061524155008 -0.015932419797586587 0 0.00029127013976271821 -0.015373732251931546 0 0.0017651879250480129 -0.014031533063454034 0 4.1690892640934241e-05 -0.013807063706256832 0 0.00029127013976271821 -0.015373732251931546 0 0.001395061524155008 -0.015932419797586587 0 0.0017651879250480129 -0.014031533063454034 0 0.002726725194956728 -0.015989304583769296 0 0.0035874453019998183 -0.014695707690680758 0 0.0017651879250480129 -0.014031533063454034 0 0.001395061524155008 -0.015932419797586587 0 0.002726725194956728 -0.015989304583769296 0 0.0017651879250480129 -0.014031533063454034 0 0.0018480356747614492 -0.017316075706013258 0 0.001395061524155008 -0.015932419797586587 0 0.002726725194956728 -0.015989304583769296 0 0.0030532043703799866 -0.017375502576858576 0 0.0018480356747614492 -0.017316075706013258 0 0.002726725194956728 -0.015989304583769296 0 0.0030532043703799866 -0.017375502576858576 0 0.002726725194956728 -0.015989304583769296 0 0.0038817559818639263 -0.016218404771033888 0 0.0042185942397018556 -0.018004908046908463 0 0.0049266245731121793 -0.01680609383395136 0 0.0038817559818639263 -0.016218404771033888 0 0.002726725194956728 -0.015989304583769296 0 0.0038817559818639263 -0.016218404771033888 0 0.0035874453019998183 -0.014695707690680758 0 0.0051214783228254179 -0.015447121171695406 0 0.0046551887956307264 -0.01389304885289659 0 0.0035874453019998183 -0.014695707690680758 0 0.0051214783228254179 -0.015447121171695406 0 0.0038817559818639263 -0.016218404771033888 0 0.0035874453019998183 -0.014695707690680758 0 0.0046551887956307264 -0.01389304885289659 0 0.0049461728947049251 -0.012443122602146965 0 0.0033984822970709707 -0.013012801288000399 0 0.0046551887956307264 -0.01389304885289659 0 0.0035874453019998183 -0.014695707690680758 0 0.0033984822970709707 -0.013012801288000399 0 0.0049461728947049251 -0.012443122602146965 0 0.0036096209924116451 -0.011337248054146433 0 0.0048110717946418975 -0.011022624823803997 0 0.0049461728947049251 -0.012443122602146965 0 0.0033984822970709707 -0.013012801288000399 0 0.0036096209924116451 -0.011337248054146433 0 0.0033984822970709707 -0.013012801288000399 0 0.0036096209924116451 -0.011337248054146433 0 0.0018263852580336303 -0.011568711529775589 0 0.0033984822970709707 -0.013012801288000399 0 0.0017651879250480129 -0.014031533063454034 0 0.0018263852580336303 -0.011568711529775589 0 0.0035874453019998183 -0.014695707690680758 0 0.0033984822970709707 -0.013012801288000399 0 0.0017651879250480129 -0.014031533063454034 0 0.0017651879250480129 -0.014031533063454034 0 0.00085954252508978462 -0.012779645648662404 0 0.0018263852580336303 -0.011568711529775589 0 0.0017651879250480129 -0.014031533063454034 0 0.00085954252508978462 -0.012779645648662404 0 4.1690892640934241e-05 -0.013807063706256832 0 0.0018263852580336303 -0.011568711529775589 0 -0.00029806683447644014 -0.011888694882934415 0 0.00020295870820190846 -0.01028594831876848 0 0.00085954252508978462 -0.012779645648662404 0 0.0018263852580336303 -0.011568711529775589 0 -0.00029806683447644014 -0.011888694882934415 0 -0.0024746286865871222 -0.010450930299541923 0 -0.00029806683447644014 -0.011888694882934415 0 0.00020295870820190846 -0.01028594831876848 0 0.00085954252508978462 -0.012779645648662404 0 -0.00029806683447644014 -0.011888694882934415 0 4.1690892640934241e-05 -0.013807063706256832 0 -0.0013877048642200499 -0.013872236012597693 0 -0.00029806683447644014 -0.011888694882934415 0 4.1690892640934241e-05 -0.013807063706256832 0 0.0010693022910652366 -0.006625093911032348 0 0.00033855170135189906 -0.0076526805758878021 0 7.6264777205978693e-05 -0.0079870611073553782 0 0.00033855170135189906 -0.0076526805758878021 0 7.6264777205978693e-05 -0.0079870611073553782 0 0.00082977772433801976 -0.0076959498075432923 0 -0.0024746286865871222 -0.010450930299541923 0 7.6264777205978693e-05 -0.0079870611073553782 0 0.00020295870820190846 -0.01028594831876848 0 7.6264777205978693e-05 -0.0079870611073553782 0 0.00020295870820190846 -0.01028594831876848 0 0.0015505087368313673 -0.0099053455213156741 0 0.0018263852580336303 -0.011568711529775589 0 0.00020295870820190846 -0.01028594831876848 0 0.0015505087368313673 -0.0099053455213156741 0 7.6264777205978693e-05 -0.0079870611073553782 0 0.0015505087368313673 -0.0099053455213156741 0 0.0018788664327407786 -0.008527027368913984 0 7.6264777205978693e-05 -0.0079870611073553782 0 0.0018788664327407786 -0.008527027368913984 0 0.00082977772433801976 -0.0076959498075432923 0 0.0018788664327407786 -0.008527027368913984 0 0.0028353304678540988 -0.0099138993487329335 0 0.0036395163096001847 -0.0082170877252850019 0 0.0015505087368313673 -0.0099053455213156741 0 0.0018788664327407786 -0.008527027368913984 0 0.0028353304678540988 -0.0099138993487329335 0 0.0018263852580336303 -0.011568711529775589 0 0.0015505087368313673 -0.0099053455213156741 0 0.0028353304678540988 -0.0099138993487329335 0 0.0036096209924116451 -0.011337248054146433 0 0.0018263852580336303 -0.011568711529775589 0 0.0028353304678540988 -0.0099138993487329335 0 0.0036096209924116451 -0.011337248054146433 0 0.0028353304678540988 -0.0099138993487329335 0 0.0041668793875057194 -0.0098455523974759953 0 0.0036096209924116451 -0.011337248054146433 0 0.0041668793875057194 -0.0098455523974759953 0 0.0048110717946418975 -0.011022624823803997 0 0.0028353304678540988 -0.0099138993487329335 0 0.0041668793875057194 -0.0098455523974759953 0 0.0036395163096001847 -0.0082170877252850019 0 0.0041668793875057194 -0.0098455523974759953 0 0.0036395163096001847 -0.0082170877252850019 0 0.004881398951281285 -0.0087682026019787352 0 0.0033460797231404612 -0.0060711042093289144 0 0.0036395163096001847 -0.0082170877252850019 0 0.0050113028142275973 -0.007445130997342642 0 0.005670696077981336 -0.0047790527069063986 0 0.0068088583644716144 -0.0051021599202651464 0 0.0070438340851790137 -0.0040507450672039383 0 0.0033460797231404612 -0.0060711042093289144 0 0.0023920627606101108 -0.0075168999222549474 0 0.0013476505640000586 -0.0069113367517806392 0 0.0033460797231404612 -0.0060711042093289144 0 0.0036395163096001847 -0.0082170877252850019 0 0.0023920627606101108 -0.0075168999222549474 0 0.0046153244525054945 -0.0053061190137715626 0 0.00392273852183842 -0.0059961645017689988 0 0.0018788664327407786 -0.008527027368913984 0 0.0036395163096001847 -0.0082170877252850019 0 0.0023920627606101108 -0.0075168999222549474 0 0.0018788664327407786 -0.008527027368913984 0 0.0023920627606101108 -0.0075168999222549474 0 0.00082977772433801976 -0.0076959498075432923 0 0.0023920627606101108 -0.0075168999222549474 0 0.00082977772433801976 -0.0076959498075432923 0 0.0013476505640000586 -0.0069113367517806392 0 0.0068088583644716144 -0.0051021599202651464 0 0.0078158511284544107 -0.0046753303492027606 0 0.0070438340851790137 -0.0040507450672039383 0 0.0078158511284544107 -0.0046753303492027606 0 0.007869167759398301 -0.0038678731128852385 0 0.0083017155985235964 -0.0034072841903015306 0 0.0078158511284544107 -0.0046753303492027606 0 0.0070438340851790137 -0.0040507450672039383 0 0.007869167759398301 -0.0038678731128852385 0 0.0076346107180900458 -8.7059746927724364e-05 0 0.0051992444932353055 -0.0022347665966831109 0 0.0065749040819111596 0.0031557515367027708 0 0.0070989763329548069 0.003567888110017244 0 0.0071767659887236601 0.0040101839723051215 0 0.0070909289827199556 0.0033167241471968411 0 0.0065749040819111596 0.0031557515367027708 0 0.0070989763329548069 0.003567888110017244 0 0.00392273852183842 -0.0059961645017689988 0 0.0051992444932353055 -0.0022347665966831109 0 0.0070438340851790137 -0.0040507450672039383 0 0.007869167759398301 -0.0038678731128852385 0 0.0083017155985235964 -0.0034072841903015306 0 0.00033855170135189906 -0.0076526805758878021 0 0.00082977772433801976 -0.0076959498075432923 0 0.00037643649020880927 -0.0078706908923709181 0 0.00082977772433801976 -0.0076959498075432923 0 0.0013476505640000586 -0.0069113367517806392 0 0.00037643649020880927 -0.0078706908923709181 0 0.0084004068857993271 -0.0097688131655869967 0 0.006951576349830374 -0.0097147479421406061 0 0.0077480686187673996 -0.0082450033862520623 0 0.0084004068857993271 -0.0097688131655869967 0 0.0077894750985471693 -0.011187640321233677 0 0.006951576349830374 -0.0097147479421406061 0 0.0084004068857993271 -0.0097688131655869967 0 0.0093550025352594213 -0.0087521245774465524 0 0.010189528204578078 -0.010067114707763983 0 0.0084004068857993271 -0.0097688131655869967 0 0.0091664515703342442 -0.011181598121145603 0 0.010189528204578078 -0.010067114707763983 0 0.0087795613933776915 -0.012676510726113734 0 0.0091664515703342442 -0.011181598121145603 0 0.0077894750985471693 -0.011187640321233677 0 0.0084004068857993271 -0.0097688131655869967 0 0.0091664515703342442 -0.011181598121145603 0 0.0077894750985471693 -0.011187640321233677 0 0.0077894750985471693 -0.011187640321233677 0 0.0061062976319522554 -0.011235947922780678 0 0.006951576349830374 -0.0097147479421406061 0 0.0061062976319522554 -0.011235947922780678 0 0.0055202195555559682 -0.009844833320297685 0 0.006951576349830374 -0.0097147479421406061 0 0.0061062976319522554 -0.011235947922780678 0 0.0048110717946418975 -0.011022624823803997 0 0.0055202195555559682 -0.009844833320297685 0 0.0041668793875057194 -0.0098455523974759953 0 0.0048110717946418975 -0.011022624823803997 0 0.0055202195555559682 -0.009844833320297685 0 0.0041668793875057194 -0.0098455523974759953 0 0.004881398951281285 -0.0087682026019787352 0 0.0055202195555559682 -0.009844833320297685 0 0.004881398951281285 -0.0087682026019787352 0 0.0055202195555559682 -0.009844833320297685 0 0.0060631317193450777 -0.0085283134010726794 0 0.0055202195555559682 -0.009844833320297685 0 0.006951576349830374 -0.0097147479421406061 0 0.0060631317193450777 -0.0085283134010726794 0 0.0060631317193450777 -0.0085283134010726794 0 0.0065032642274775749 -0.0070811232064519882 0 0.0077480686187673996 -0.0082450033862520623 0 0.0060631317193450777 -0.0085283134010726794 0 0.0050113028142275973 -0.007445130997342642 0 0.0065032642274775749 -0.0070811232064519882 0 0.006951576349830374 -0.0097147479421406061 0 0.0060631317193450777 -0.0085283134010726794 0 0.0077480686187673996 -0.0082450033862520623 0 0.004881398951281285 -0.0087682026019787352 0 0.0060631317193450777 -0.0085283134010726794 0 0.0050113028142275973 -0.007445130997342642 0 0.0036395163096001847 -0.0082170877252850019 0 0.004881398951281285 -0.0087682026019787352 0 0.0050113028142275973 -0.007445130997342642 0 0.0053163760343553695 -0.0052990944995906187 0 0.0050113028142275973 -0.007445130997342642 0 0.0065032642274775749 -0.0070811232064519882 0 0.0065032642274775749 -0.0070811232064519882 0 0.0078869172826255482 -0.0066278252986208845 0 0.0077480686187673996 -0.0082450033862520623 0 0.0078869172826255482 -0.0066278252986208845 0 0.0077480686187673996 -0.0082450033862520623 0 0.0088256004193540943 -0.0073915541134613764 0 0.0077480686187673996 -0.0082450033862520623 0 0.0093550025352594213 -0.0087521245774465524 0 0.0088256004193540943 -0.0073915541134613764 0 0.0084004068857993271 -0.0097688131655869967 0 0.0077480686187673996 -0.0082450033862520623 0 0.0093550025352594213 -0.0087521245774465524 0 0.0089343957111881912 -0.0063764856754120764 0 0.0088256004193540943 -0.0073915541134613764 0 0.010168971422238418 -0.0070231589059175526 0 0.0089343957111881912 -0.0063764856754120764 0 0.0078869172826255482 -0.0066278252986208845 0 0.0088256004193540943 -0.0073915541134613764 0 0.0093550025352594213 -0.0087521245774465524 0 0.0088256004193540943 -0.0073915541134613764 0 0.010168971422238418 -0.0070231589059175526 0 -0.00046448379373150887 -0.026039047087711591 0 -0.00016960263851710224 -0.026025899428860039 0 -0.00016602988970495735 -0.026291364624577811 0 -0.00046448379373150887 -0.026039047087711591 0 -0.00016602988970495735 -0.026291364624577811 0 -0.00035168883657609113 -0.026525487567299118 0 -0.00016602988970495735 -0.026291364624577811 0 -0.00035168883657609113 -0.026525487567299118 0 7.5230081208080756e-05 -0.026680160989711574 0 0.01145747424029322 -0.0051704579554786318 0 0.0053295133934012249 -0.015571274441246943 0 0.0053295133934012249 -0.015571274441246943 0 0.005302704718464479 -0.017872413083065693 0 0.0093550025352594213 -0.0087521245774465524 0 0.010327974428987157 -0.0073017642291983587 0 0.010984777796353967 -0.0089083587403546282 0 0.0093550025352594213 -0.0087521245774465524 0 0.010984777796353967 -0.0089083587403546282 0 0.010189528204578078 -0.010067114707763983 0 0.005302704718464479 -0.017872413083065693 0 0.0058439805549711215 -0.019236304280616012 0 0.010984777796353967 -0.0089083587403546282 0 0.010189528204578078 -0.010067114707763983 0 0.011756346364013582 -0.010816860108123647 0 -0.00035168883657609113 -0.026525487567299118 0 -0.00019074539987048566 -0.027060157666383731 0 7.5230081208080756e-05 -0.026680160989711574 0 0.0058439805549711215 -0.019236304280616012 0 0.0061140539464754331 -0.01856189239558792 0 0.010189528204578078 -0.010067114707763983 0 0.011756346364013582 -0.010816860108123647 0 0.0104630313857813 -0.012273703342460343 0 0.0091664515703342442 -0.011181598121145603 0 0.010189528204578078 -0.010067114707763983 0 0.0104630313857813 -0.012273703342460343 0 0.00030522617870571404 -0.027243790012671912 0 0.00044898146491629832 -0.026916303214401215 0 0.00070513217005364968 -0.027235727852731817 0 -0.00019074539987048566 -0.027060157666383731 0 0.00030522617870571404 -0.027243790012671912 0 6.5671617321798963e-06 -0.027560481760097514 0 -0.00019074539987048566 -0.027060157666383731 0 0.00030522617870571404 -0.027243790012671912 0 7.5230081208080756e-05 -0.026680160989711574 0 0.00030522617870571404 -0.027243790012671912 0 0.00044898146491629832 -0.026916303214401215 0 7.5230081208080756e-05 -0.026680160989711574 0 0.00044898146491629832 -0.026916303214401215 0 0.00039179235806411614 -0.026499930326306379 0 7.5230081208080756e-05 -0.026680160989711574 0 0.00039179235806411614 -0.026499930326306379 0 7.5230081208080756e-05 -0.026680160989711574 0 0.00011257212913842548 -0.0262178941124094 0 -0.00016602988970495735 -0.026291364624577811 0 7.5230081208080756e-05 -0.026680160989711574 0 0.00011257212913842548 -0.0262178941124094 0 -0.00016960263851710224 -0.026025899428860039 0 -0.00016602988970495735 -0.026291364624577811 0 0.00011257212913842548 -0.0262178941124094 0 0.00039179235806411614 -0.026499930326306379 0 0.00011257212913842548 -0.0262178941124094 0 0.00039022198925144769 -0.02604889255127003 0 0.00039179235806411614 -0.026499930326306379 0 0.00039022198925144769 -0.02604889255127003 0 0.00072054272530596114 -0.026255887517024679 0 0.00098210118322254562 -0.026316556108414057 0 0.00069314571369386317 -0.026557030426056484 0 0.0010410053573449258 -0.026611982497384001 0 0.00069314571369386317 -0.026557030426056484 0 0.0010410053573449258 -0.026611982497384001 0 0.0010047984177538971 -0.026894363012112094 0 0.00069314571369386317 -0.026557030426056484 0 0.0007785427978891069 -0.026905304885542308 0 0.0010047984177538971 -0.026894363012112094 0 0.00070412480599758105 -0.026415088816039864 0 0.00077066330930544507 -0.026871642406067844 0 0.00039179235806411614 -0.026499930326306379 0 0.00072054272530596114 -0.026255887517024679 0 0.0007785427978891069 -0.026905304885542308 0 0.00098210118322254562 -0.026316556108414057 0 0.0012569578444559474 -0.026478915901946204 0 0.0010410053573449258 -0.026611982497384001 0 0.0012569578444559474 -0.026478915901946204 0 0.0010410053573449258 -0.026611982497384001 0 0.0011940211385823222 -0.026777845642864319 0 0.0010410053573449258 -0.026611982497384001 0 0.0011940211385823222 -0.026777845642864319 0 0.0010047984177538971 -0.026894363012112094 0 0.0015213067498525848 -0.035580751764467185 0 0.0012378098835819547 -0.03574849824916463 0 0.0013391857686476608 -0.035724718194645344 0 0.0011292987021234112 -0.026011557800354818 0 0.00083638239030207938 -0.029100851648197635 0 0.0010407718659866357 -0.02666106229911612 0 0.00090416588588012291 -0.026562567966000376 0 0.00087542156485047762 -0.0268163279523022 0 0.0012569578444559474 -0.026478915901946204 0 0.0011940211385823222 -0.026777845642864319 0 0.0013727171386856793 -0.026892930069361241 0 0.0014632637325584718 -0.035922173744223129 0 0.0010794368980916497 -0.036069496090169878 0 0.0010832656529251815 -0.036504341977880481 0 0.0012812795632954443 -0.04016715236464221 0 0.002078831328383554 -0.040960294180366966 0 0.00083568837687979572 -0.036437629724877664 0 0.0026927700165437201 -0.033474785709921573 0 0.0012378098835819547 -0.03574849824916463 0 0.0013391857686476608 -0.035724718194645344 0 0.0012406838236519167 -0.035821060343724072 0 0.0014632637325584718 -0.035922173744223129 0 0.0013391857686476608 -0.035724718194645344 0 0.0010794368980916497 -0.036069496090169878 0 0.00083638239030207938 -0.029100851648197635 0 0.0026927700165437201 -0.033474785709921573 0 0.0014955027895249423 -0.026950801776814328 0 0.0014974333103393855 -0.0271063461867385 0 0.0012662307364106279 -0.027055597661028691 0 0.0026927700165437201 -0.033474785709921573 0 0.002078831328383554 -0.040960294180366966 0 0.0014974333103393855 -0.0271063461867385 0 0.0012662307364106279 -0.027055597661028691 0 0.0012442398065905498 -0.027247442340023666 0 0.0011940211385823222 -0.026777845642864319 0 0.0013727171386856793 -0.026892930069361241 0 0.0012662307364106279 -0.027055597661028691 0 0.00083638239030207938 -0.029100851648197635 0 0.0017669511136225327 -0.026901547701950263 0 0.0012662307364106279 -0.027055597661028691 0 0.0011305557124282439 -0.027100857286436637 0 0.0010047984177538971 -0.026894363012112094 0 0.0011940211385823222 -0.026777845642864319 0 0.0012662307364106279 -0.027055597661028691 0 0.0010047984177538971 -0.026894363012112094 0 0.0012662307364106279 -0.027055597661028691 0 0.0011305557124282439 -0.027100857286436637 0 0.0012442398065905498 -0.027247442340023666 0 0.002078831328383554 -0.040960294180366966 0 0.0027252652683354981 -0.042532687759638546 0 0.0026927700165437201 -0.033474785709921573 0 0.0025976067451695438 -0.033578197455255983 0 0.0034408872421911839 -0.039980372945921348 0 0.0055430996494277513 -0.038579830997361973 0 0.0035843516535911672 -0.041071530628648864 0 0.0014974333103393855 -0.0271063461867385 0 0.0012442398065905498 -0.027247442340023666 0 0.0013574117924824217 -0.027579807895089938 0 0.0055636581781125299 -0.036558386332283935 0 0.0034408872421911839 -0.039980372945921348 0 0.0055430996494277513 -0.038579830997361973 0 0.0012442398065905498 -0.027247442340023666 0 0.0013574117924824217 -0.027579807895089938 0 0.0011775344972497471 -0.027413694472555872 0 0.0010627879789012187 -0.04478553610082163 0 0.0010790137206074858 -0.044247954816659919 0 0.001393235798482279 -0.044385212060841214 0 0.002078831328383554 -0.040960294180366966 0 0.0014714696565877152 -0.044943638099327277 0 0.0010790137206074858 -0.044247954816659919 0 0.001393235798482279 -0.044385212060841214 0 0.0013924899840142297 -0.044078009777905991 0 0.00044898146491629832 -0.026916303214401215 0 0.00039179235806411614 -0.026499930326306379 0 0.0007785427978891069 -0.026905304885542308 0 0.00044898146491629832 -0.026916303214401215 0 0.0007785427978891069 -0.026905304885542308 0 0.00070513217005364968 -0.027235727852731817 0 0.0007785427978891069 -0.026905304885542308 0 0.0010151488143934557 -0.027193738997324076 0 0.00070513217005364968 -0.027235727852731817 0 0.0007785427978891069 -0.026905304885542308 0 0.0010047984177538971 -0.026894363012112094 0 0.0010151488143934557 -0.027193738997324076 0 0.0011305557124282439 -0.027100857286436637 0 0.0012442398065905498 -0.027247442340023666 0 0.0010151488143934557 -0.027193738997324076 0 0.0011305557124282439 -0.027100857286436637 0 0.0010047984177538971 -0.026894363012112094 0 0.0010151488143934557 -0.027193738997324076 0 0.0010151488143934557 -0.027193738997324076 0 0.0010364358474106545 -0.027539519520547822 0 0.00070513217005364968 -0.027235727852731817 0 0.0010151488143934557 -0.027193738997324076 0 0.0010364358474106545 -0.027539519520547822 0 0.0011775344972497471 -0.027413694472555872 0 0.0012442398065905498 -0.027247442340023666 0 0.0010151488143934557 -0.027193738997324076 0 0.0011775344972497471 -0.027413694472555872 0 0.0013574117924824217 -0.027579807895089938 0 0.0010364358474106545 -0.027539519520547822 0 0.0011775344972497471 -0.027413694472555872 0 0.0010364358474106545 -0.027539519520547822 0 0.00070513217005364968 -0.027235727852731817 0 0.00074001216568453398 -0.027666652523431968 0 0.00030522617870571404 -0.027243790012671912 0 0.00070513217005364968 -0.027235727852731817 0 0.00074001216568453398 -0.027666652523431968 0 0.00095759140236977166 -0.027548270973222946 0 -0.0003937117454239522 -0.028263422477945398 0 0.00074001216568453398 -0.027666652523431968 0 0.00073333758375118306 -0.028248909981779591 0 0.00019544334377137842 -0.02839745710798932 0 0.00074001216568453398 -0.027666652523431968 0 0.0010179996348822875 -0.027908842126243512 0 0.00073333758375118306 -0.028248909981779591 0 0.0013574117924824217 -0.027579807895089938 0 0.0011306359550896851 -0.028045028716672388 0 0.001139234458323061 -0.028437733113810738 0 0.0013574117924824217 -0.027579807895089938 0 0.0011306359550896851 -0.028045028716672388 0 0.0010179996348822875 -0.027908842126243512 0 0.0025976067451695438 -0.033578197455255983 0 0.0013074550840543456 -0.035236334865842087 0 0.0018317785790071511 -0.043498880744335826 0 0.0027252652683354981 -0.042532687759638546 0 0.0010364358474106545 -0.027539519520547822 0 0.00074001216568453398 -0.027666652523431968 0 0.0010179996348822875 -0.027908842126243512 0 0.0013574117924824217 -0.027579807895089938 0 0.0010364358474106545 -0.027539519520547822 0 0.0010179996348822875 -0.027908842126243512 0 0.0011306359550896851 -0.028045028716672388 0 0.0010179996348822875 -0.027908842126243512 0 0.00097515942808712778 -0.028265765450143362 0 0.0010179996348822875 -0.027908842126243512 0 0.00097515942808712778 -0.028265765450143362 0 0.00073333758375118306 -0.028248909981779591 0 0.0011306359550896851 -0.028045028716672388 0 0.001139234458323061 -0.028437733113810738 0 0.00097515942808712778 -0.028265765450143362 0 0.0016807994839568394 -0.043459964143049153 0 0.0018293110222368455 -0.04353850755609754 0 0.0035843516535911672 -0.041071530628648864 0 0.001139234458323061 -0.028437733113810738 0 0.00097515942808712778 -0.028265765450143362 0 0.00081835690729397466 -0.028610474735834043 0 0.0018293110222368455 -0.04353850755609754 0 0.0016566394234512664 -0.043793413266523216 0 0.0017154052054237747 -0.043652533254692275 0 0.0018293110222368455 -0.04353850755609754 0 0.0017609138813541331 -0.043572779897655324 0 0.0017154052054237747 -0.043652533254692275 0 0.0017609138813541331 -0.043572779897655324 0 0.0017813608663626564 -0.04351856283122936 0 0.0016993514132571852 -0.043585227156673477 0 0.0016807994839568394 -0.043459964143049153 0 0.0018293110222368455 -0.04353850755609754 0 0.0017813608663626564 -0.04351856283122936 0 0.0017609138813541331 -0.043572779897655324 0 0.0017154052054237747 -0.043652533254692275 0 0.0016993514132571852 -0.043585227156673477 0 0.0018293110222368455 -0.04353850755609754 0 0.0017609138813541331 -0.043572779897655324 0 0.0017813608663626564 -0.04351856283122936 0 0.0016807994839568394 -0.043459964143049153 0 0.0017813608663626564 -0.04351856283122936 0 0.0017932647539132046 -0.043478848583413922 0 0.001139234458323061 -0.028437733113810738 0 0.00081835690729397466 -0.028610474735834043 0 0.00068010472567064061 -0.029411983748128975 0 0.00055949964743420312 -0.02869593665763652 0 0.00073333758375118306 -0.028248909981779591 0 0.00019544334377137842 -0.02839745710798932 0 0.00081835690729397466 -0.028610474735834043 0 0.00055949964743420312 -0.02869593665763652 0 0.00073333758375118306 -0.028248909981779591 0 0.00097515942808712778 -0.028265765450143362 0 0.00081835690729397466 -0.028610474735834043 0 0.00073333758375118306 -0.028248909981779591 0 0.0010790137206074858 -0.044247954816659919 0 0.0012667080158015273 -0.043921028993308284 0 0.0013924899840142297 -0.044078009777905991 0 0.0012667080158015273 -0.043921028993308284 0 0.0013924899840142297 -0.044078009777905991 0 0.0014879042814587929 -0.043868546175623746 0 0.0034408872421911839 -0.039980372945921348 0 0.0016807994839568394 -0.043459964143049153 0 0.0035843516535911672 -0.041071530628648864 0 0.0018293110222368455 -0.04353850755609754 0 0.0016350052236583001 -0.044011118910890608 0 0.0016566394234512664 -0.043793413266523216 0 0.0013881756647148072 -0.04427591042195983 0 0.0013924899840142297 -0.044078009777905991 0 0.0016350052236583001 -0.044011118910890608 0 0.0013924899840142297 -0.044078009777905991 0 0.0014879042814587929 -0.043868546175623746 0 0.0016350052236583001 -0.044011118910890608 0 0.0014879042814587929 -0.043868546175623746 0 0.0016350052236583001 -0.044011118910890608 0 0.0016566394234512664 -0.043793413266523216 0 0.0016566394234512664 -0.043793413266523216 0 0.0016091066788933616 -0.043715339798681523 0 0.0017154052054237747 -0.043652533254692275 0 0.0016091066788933616 -0.043715339798681523 0 0.0017154052054237747 -0.043652533254692275 0 0.0016993514132571852 -0.043585227156673477 0 0.0016993514132571852 -0.043585227156673477 0 0.0014628534349481891 -0.043648538058758984 0 0.0016933400372777891 -0.043483027953476895 0 0.0016091066788933616 -0.043715339798681523 0 0.0016993514132571852 -0.043585227156673477 0 0.0014628534349481891 -0.043648538058758984 0 0.0014879042814587929 -0.043868546175623746 0 0.0016566394234512664 -0.043793413266523216 0 0.0016091066788933616 -0.043715339798681523 0 0.0014879042814587929 -0.043868546175623746 0 0.0016091066788933616 -0.043715339798681523 0 0.0014628534349481891 -0.043648538058758984 0 0.0010126631087382584 -0.043829794151008163 0 0.0012667080158015273 -0.043921028993308284 0 0.0014628534349481891 -0.043648538058758984 0 0.0011854943696545223 -0.043464680521848043 0 0.0010126631087382584 -0.043829794151008163 0 0.0014628534349481891 -0.043648538058758984 0 0.0012667080158015273 -0.043921028993308284 0 0.0014879042814587929 -0.043868546175623746 0 0.0014628534349481891 -0.043648538058758984 0 0.0011854943696545223 -0.043464680521848043 0 0.0014628534349481891 -0.043648538058758984 0 0.0015465396096642295 -0.043417137743448221 0 0.0015465396096642295 -0.043417137743448221 0 0.0016933400372777891 -0.043483027953476895 0 0.0017133708428470438 -0.043340783003928761 0 0.0014628534349481891 -0.043648538058758984 0 0.0015465396096642295 -0.043417137743448221 0 0.0016933400372777891 -0.043483027953476895 0 0.0015465396096642295 -0.043417137743448221 0 0.0015473716353871839 -0.043214514513766275 0 0.0017133708428470438 -0.043340783003928761 0 0.0015082422737741654 -0.04314318270327909 0 0.002548994203378869 -0.043931065508244715 0 0.0026678444568875963 -0.042764294285844821 0 0.0015473716353871839 -0.043214514513766275 0 0.00308520115044546 -0.04378567354071812 0 0.0011854943696545223 -0.043464680521848043 0 0.0015465396096642295 -0.043417137743448221 0 0.0015473716353871839 -0.043214514513766275 0 0.0013074550840543456 -0.035236334865842087 0 0.0030733713049831755 -0.040688553309442752 0 0.00055949964743420312 -0.02869593665763652 0 0.00068010472567064061 -0.029411983748128975 0 0.00031193750902384709 -0.028884373263850467 0 0.00081835690729397466 -0.028610474735834043 0 0.00055949964743420312 -0.02869593665763652 0 0.00068010472567064061 -0.029411983748128975 0 0.0016807994839568394 -0.043459964143049153 0 0.0018930532501677294 -0.043436943032847106 0 0.0017932647539132046 -0.043478848583413922 0 0.0018930532501677294 -0.043436943032847106 0 0.0017932647539132046 -0.043478848583413922 0 0.0017133708428470438 -0.043340783003928761 0 0.0016933400372777891 -0.043483027953476895 0 0.0017932647539132046 -0.043478848583413922 0 0.0017133708428470438 -0.043340783003928761 0 0.0017813608663626564 -0.04351856283122936 0 0.0016993514132571852 -0.043585227156673477 0 0.0016933400372777891 -0.043483027953476895 0 0.0017813608663626564 -0.04351856283122936 0 0.0016933400372777891 -0.043483027953476895 0 0.0017932647539132046 -0.043478848583413922 0 0.0046375428044502648 -0.044242257803581826 0 0.00308520115044546 -0.04378567354071812 0 0.0042897037812899587 -0.043409743746011906 0 0.0038994799787849845 -0.042655162708116895 0 0.00308520115044546 -0.04378567354071812 0 0.0042897037812899587 -0.043409743746011906 0 0.0030733713049831755 -0.040688553309442752 0 0.002548994203378869 -0.043931065508244715 0 0.0049586406758715101 -0.043744675394945941 0 0.005151766968367816 -0.043447458592247107 0 0.0053026866433953986 -0.04370777143558871 0 0.0046375428044502648 -0.044242257803581826 0 0.0042897037812899587 -0.043409743746011906 0 0.005151766968367816 -0.043447458592247107 0 0.0030733713049831755 -0.040688553309442752 0 0.0042495879423679363 -0.043449763995766402 0 0.0047548675957136003 -0.042873764074657809 0 0.0042897037812899587 -0.043409743746011906 0 0.005151766968367816 -0.043447458592247107 0 0.0047548675957136003 -0.042873764074657809 0 0.0053881757273597152 -0.042735932082439025 0 0.005151766968367816 -0.043447458592247107 0 0.0053881757273597152 -0.042735932082439025 0 0.005151766968367816 -0.043447458592247107 0 0.0059112791445260857 -0.043235988613600201 0 0.0059112791445260857 -0.043235988613600201 0 0.0056801422445286005 -0.04358974250518504 0 0.0058264609456643163 -0.043825467466366223 0 0.0059112791445260857 -0.043235988613600201 0 0.0053026866433953986 -0.04370777143558871 0 0.0056801422445286005 -0.04358974250518504 0 0.005151766968367816 -0.043447458592247107 0 0.0059112791445260857 -0.043235988613600201 0 0.0053026866433953986 -0.04370777143558871 0 0.0053026866433953986 -0.04370777143558871 0 0.0058264609456643163 -0.043825467466366223 0 0.0059399445398064625 -0.0439756515269282 0 0.0049586406758715101 -0.043744675394945941 0 0.0053026866433953986 -0.04370777143558871 0 0.0059399445398064625 -0.0439756515269282 0 0.00068010472567064061 -0.029411983748128975 0 -0.00029811008244777043 -0.028974690090502662 0 0.00031193750902384709 -0.028884373263850467 0 0.0030733713049831755 -0.040688553309442752 0 0.0054257065417328432 -0.029810879172175054 0 0.0053026866433953986 -0.04370777143558871 0 0.0056801422445286005 -0.04358974250518504 0 0.0058264609456643163 -0.043825467466366223 0 0.0064302977248559198 -0.044461122371868902 0 0.0067561929078633421 -0.043497495156572356 0 0.0078489703925868765 -0.043429916513452259 0 0.0059112791445260857 -0.043235988613600201 0 0.0058264609456643163 -0.043825467466366223 0 0.0059399445398064625 -0.0439756515269282 0 0.0069076351613888689 -0.049022657475297188 0 0.0054257065417328432 -0.029810879172175054 0 0.012915114429566518 -0.014865628503518167 0 0.01311505196019019 -0.01495629250652184 0 0.011859678212105915 -0.015299754174489599 0 0.012915114429566518 -0.014865628503518167 0 0.011859678212105915 -0.015299754174489599 0 0.012116417081468062 -0.014283725532855455 0 0.0062757955117355869 -0.028884198622222634 0 0.0054257065417328432 -0.029810879172175054 0 0.0059112791445260857 -0.043235988613600201 0 0.0064302977248559198 -0.044461122371868902 0 0.0067561929078633421 -0.043497495156572356 0 0.006971844216661925 -0.042776203702158372 0 0.0059112791445260857 -0.043235988613600201 0 0.0067561929078633421 -0.043497495156572356 0 0.006971844216661925 -0.042776203702158372 0 0.0067561929078633421 -0.043497495156572356 0 0.0078489703925868765 -0.043429916513452259 0 0.0086958036355090883 -0.025915341664706881 0 0.01041490049787081 -0.030461065016873682 0 0.0096346326336816546 -0.018141179935312161 0 0.0094934154436239759 -0.017031108000321853 0 0.011344993246219494 -0.016526386151872813 0 0.0094934154436239759 -0.017031108000321853 0 0.0097137140884522577 -0.015662612049691164 0 0.011344993246219494 -0.016526386151872813 0 0.0097137140884522577 -0.015662612049691164 0 0.011344993246219494 -0.016526386151872813 0 0.010758859520387161 -0.015168787624988384 0 0.0097137140884522577 -0.015662612049691164 0 0.0096189635906734922 -0.014220655696881404 0 0.010758859520387161 -0.015168787624988384 0 0.0054257065417328432 -0.029810879172175054 0 0.01041490049787081 -0.030461065016873682 0 0.01311505196019019 -0.01495629250652184 0 0.011344993246219494 -0.016526386151872813 0 0.011859678212105915 -0.015299754174489599 0 0.011344993246219494 -0.016526386151872813 0 0.010758859520387161 -0.015168787624988384 0 0.011859678212105915 -0.015299754174489599 0 0.010758859520387161 -0.015168787624988384 0 0.011859678212105915 -0.015299754174489599 0 0.011242241764048604 -0.014102810838645714 0 0.011859678212105915 -0.015299754174489599 0 0.012116417081468062 -0.014283725532855455 0 0.011242241764048604 -0.014102810838645714 0 0.012116417081468062 -0.014283725532855455 0 0.011242241764048604 -0.014102810838645714 0 0.012454667071926372 -0.012844029625699532 0 0.0096189635906734922 -0.014220655696881404 0 0.010758859520387161 -0.015168787624988384 0 0.011242241764048604 -0.014102810838645714 0 0.0096189635906734922 -0.014220655696881404 0 0.011242241764048604 -0.014102810838645714 0 0.0104630313857813 -0.012273703342460343 0 0.011756346364013582 -0.010816860108123647 0 0.0104630313857813 -0.012273703342460343 0 0.012454667071926372 -0.012844029625699532 0 0.011242241764048604 -0.014102810838645714 0 0.0104630313857813 -0.012273703342460343 0 0.012454667071926372 -0.012844029625699532 0 6.5671617321798963e-06 -0.027560481760097514 0 0.00032545772755571432 -0.027554780968999461 0 0.00023929052190086106 -0.027765889106006053 0 0.00030522617870571404 -0.027243790012671912 0 6.5671617321798963e-06 -0.027560481760097514 0 0.00032545772755571432 -0.027554780968999461 0 0.00074001216568453398 -0.027666652523431968 0 0.00032545772755571432 -0.027554780968999461 0 0.00044956487284332622 -0.027756034536999534 0 0.00030522617870571404 -0.027243790012671912 0 0.00074001216568453398 -0.027666652523431968 0 0.00032545772755571432 -0.027554780968999461 0 0.00032545772755571432 -0.027554780968999461 0 0.00044956487284332622 -0.027756034536999534 0 0.00023929052190086106 -0.027765889106006053 0 0.0054257065417328432 -0.029810879172175054 0 -0.0003937117454239522 -0.028263422477945398 0 0.0002152793294040975 -0.027993238761933398 0 0.00044956487284332622 -0.027756034536999534 0 0.00023929052190086106 -0.027765889106006053 0 -0.00029811008244777043 -0.028974690090502662 0 0.00019544334377137842 -0.02839745710798932 0 0.00031193750902384709 -0.028884373263850467 0 0.00055949964743420312 -0.02869593665763652 0 0.00019544334377137842 -0.02839745710798932 0 0.00031193750902384709 -0.028884373263850467 0 0.012915114429566518 -0.014865628503518167 0 0.012116417081468062 -0.014283725532855455 0 0.012454667071926372 -0.012844029625699532 0 0.0054257065417328432 -0.029810879172175054 0 0.0061140539464754331 -0.01856189239558792 0 0.0002152793294040975 -0.027993238761933398 0 6.5671617321798963e-06 -0.027560481760097514 0 0.00023929052190086106 -0.027765889106006053 0 0.012915114429566518 -0.014865628503518167 0 0.013132650135100453 -0.014964131407562704 0 0.012454667071926372 -0.012844029625699532 0 
</DataArray>
</PointData>
<CellData Scalars="region_id,cross_section_updated," Vectors="" Tensors="stress,">
<DataArray type="Float64" Name="region_id" format="ascii">
5 5 5 5 6 5 5 5 5 5 5 5 5 6 5 5 6 5 5 5 5 5 6 5 5 5 6 6 5 5 5 5 5 5 5 5 5 5 5 5 5 5 5 5 5 5 6 5 5 5 5 5 5 5 5 6 5 5 5 5 5 5 6 5 5 6 5 5 5 5 6 5 5 5 5 5 5 5 5 5 5 5 5 5 5 5 5 5 5 5 5 5 6 5 5 5 5 5 5 6 5 5 5 5 5 5 5 5 5 5 5 5 5 6 5 6 5 5 5 5 6 5 5 5 5 5 5 5 5 5 5 5 6 5 5 5 5 6 5 5 5 5 5 5 5 5 5 5 6 5 5 5 5 5 5 5 5 5 5 5 5 5 5 6 5 5 5 5 6 5 5 5 5 5 5 5 5 5 5 5 5 5 5 5 5 5 5 5 5 5 5 5 5 5 5 5 5 5 5 5 5 5 5 5 5 5 5 5 5 5 5 5 6 5 5 6 5 5 5 5 5 5 5 5 5 5 6 6 5 5 5 5 5 5 5 5 5 5 5 5 5 6 5 5 5 5 5 6 5 5 5 5 5 6 5 5 5 5 5 5 6 5 5 6 5 5 5 6 5 5 5 5 6 5 5 5 6 6 5 6 5 5 5 5 5 5 5 5 6 5 5 5 5 5 5 5 5 5 5 5 6 5 5 5 5 5 5 5 5 5 5 5 5 5 5 5 5 5 6 5 5 5 5 5 5 5 5 5 5 5 5 5 5 5 5 5 5 6 5 5 5 6 6 5 5 5 6 5 5 6 5 5 5 5 5 5 5 5 5 5 5 5 5 6 5 5 5 5 5 5 5 5 5 5 5 5 5 5 5 5 5 6 5 5 5 6 5 5 5 5 6 5 5 5 5 5 5 5 6 5 5 6 5 5 5 5 5 5 5 5 5 6 6 5 5 6 5 5 5 6 5 6 5 5 5 5 6 5 5 6 5 5 5 5 5 5 6 5 5 5 5 6 5 6 5 6 5 6 5 5 5 6 5 5 5 6 5 5 5 6 5 6 5 5 5 6 5 5 5 5 5 5 5 5 5 5 5 6 5 5 5 5 5 5 5 5 5 5 5 5 5 5 6 6 5 5 5 5 6 5 5 5 5 5 5 6 5 5 6 5 5 5 5 5 5 5 5 5 5 5 5 5 5 5 5 5 5 5 5 5 5 5 5 6 5 5 5 6 5 5 6 5 6 5 5 6 5 5 5 5 5 5 5 5 5 6 5 5 6 5 5 5 5 5 5 5 5 5 5 5 5 5 5 5 5 5 5 5 5 5 5 5 5 5 5 5 5 5 6 5 5 5 5 5 5 6 5 5 5 5 5 5 5 6 5 5 5 6 6 5 5 6 5 5 6 5 5 5 5 5 5 5 5 5 5 5 5 6 5 5 5 5 5 6 5 5 5 5 5 5 6 6 5 6 5 5 5 6 5 6 5 6 5 5 5 5 5 6 6 5 5 5 6 5 6 6 5 5 5 5 5 5 5 5 5 6 5 5 5 5 6 5 5 5 5 5 5 6 5 5 5 6 5 5 5 5 5 5 5 5 6 5 5 5 5 5 6 5 5 5 5 5 5 5 5 5 6 5 5 5 5 5 5 5 5 5 5 5 5 5 5 5 5 5 5 5 5 5 5 5 5 5 5 5 5 5 5 5 5 5 5 5 5 5 6 5 6 5 5 6 5 5 5 6 5 5 5 5 5 5 5 5 5 5 5 5 6 5 5 6 5 5 5 5 5 6 6 6 5 6 5 5 5 5 5 5 5 6 5 6 5 6 5 5 6 5 5 6 5 5 5 5 5 6 5 5 5 5 5 6 5 5 5 6 5 5 6 5 5 5 5 5 5 5 5 5 5 5 5 6 5 6 5 5 5 5 5 5 5 5 5 5 5 5 5 6 5 5 6 5 5 5 6 6 5 5 5 5 5 6 5 5 6 5 6 5 5 5 5 5 6 5 5 5 5 5 5 5 5 5 5 5 5 5 5 6 5 6 5 5 5 5 5 6 5 5 5 5 5 6 6 5 5 6 5 6 5 5 6 5 6 5 6 6 6 5 5 6 5 5 5 5 5 5 5 5 5 5 5 6 5 5 6 5 5 5 5 5 5 5 5 5 6 5 6 5 6 5 5 6 5 6 5 5 5 6 5 6 6 5 5 6 6 5 5 5 5 5 6 5 5 5 5 5 5 5 5 5 5 5 5 5 5 5 5 5 5 5 5 5 5 5 5 5 5 5 5 5 5 5 5 5 6 5 5 5 5 5 5 6 5 5 6 5 5 5 5 5 5 5 5 5 5 5 5 5 6 5 6 5 5 6 5 5 5 5 5 5 5 5 5 5 5 5 6 5 5 6 5 5 5 5 5 5 5 5 5 5 5 5 5 6 6 5 5 5 5 5 6 5 6 6 5 5 5 5 5 5 5 5 6 5 5 5 6 5 5 5 5 5 5 5 5 5 6 5 6 5 5 5 5 5 5 5 5 6 5 5 5 6 5 5 5 6 5 5 6 5 5 5 5 6 5 5 5 5 5 6 5 5 5 6 5 5 5 5 5 5 5 5 5 5 5 5 6 5 5 5 5 5 5 5 5 5 6 5 5 5 5 6 5 5 5 5 5 5 6 5 5 5 5 5 5 5 5 5 5 5 6 5 5 6 5 5 6 5 6 6 5 5 5 5 5 6 5 5 5 5 5 5 5 6 5 5 5 5 5 5 5 5 5 5 5 5 5 5 5 5 6 5 5 6 5 5 5 5 5 5 5 5 5 6 5 5 5 5 5 5 5 5 5 5 5 5 5 5 5 5 5 5 5 5 5 5 5 5 6 5 5 5 5 5 5 5 5 5 5 5 5 5 6 5 5 5 5 5 5 5 5 5 5 6 5 5 5 5 6 5 6 5 5 5 5 5 5 5 5 6 5 5 5 5 5 6 5 5 5 5 5 6 5 6 5 5 5 5 5 5 5 5 5 5 5 6 5 5 5 5 5 5 5 5 5 5 5 5 5 5 5 5 5 5 5 5 5 5 5 5 5 5 5 6 5 5 5 5 5 5 5 5 6 5 6 5 5 5 5 5 5 5 5 5 5 5 5 5 5 5 5 5 6 5 5 5 5 5 5 5 6 5 5 5 5 5 6 5 5 5 5 5 5 5 5 5 5 6 5 5 5 5 5 5 5 5 5 5 5 5 5 5 5 5 5 5 5 5 5 5 5 5 6 5 5 6 5 5 5 5 5 6 5 5 5 5 6 5 5 5 5 5 5 5 5 5 5 5 5 5 6 6 5 5 5 5 6 5 5 5 5 5 5 5 6 5 5 5 6 5 5 5 5 5 6 5 6 5 6 5 5 5 5 5 5 5 5 5 5 5 6 5 5 5 6 5 5 5 5 5 5 5 5 5 5 5 6 6 5 5 6 5 5 6 5 5 5 5 5 5 5 5 5 5 5 5 5 5 5 5 5 5 5 5 5 5 5 6 5 5 5 5 5 6 5 5 5 5 6 5 5 5 5 5 5 6 5 5 5 5 5 5 6 5 5 6 5 6 5 6 5 5 5 5 5 5 5 5 5 5 5 5 5 5 5 5 6 6 5 5 5 6 5 5 5 6 5 6 5 5 6 6 5 5 5 5 5 5 5 5 6 5 5 5 6 5 5 6 5 6 5 6 5 5 5 5 5 5 5 5 5 5 5 5 5 5 5 5 5 5 5 5 5 5 6 5 5 5 6 6 5 5 5 5 5 5 6 6 5 5 6 5 5 5 5 6 5 5 5 5 5 5 5 5 5 5 5 5 5 5 5 6 5 5 5 6 5 5 5 5 5 5 5 5 5 5 6 5 5 5 5 6 5 5 5 5 6 5 5 5 5 5 5 5 5 5 5 6 5 6 6 5 5 5 5 5 5 5 5 5 5 5 5 5 5 5 5 5 5 5 5 5 6 5 5 5 5 5 5 5 5 5 6 5 5 5 6 5 5 5 5 5 5 5 6 6 5 5 6 6 5 6 5 5 5 6 5 5 6 6 5 5 5 5 5 5 5 5 5 6 5 5 5 6 6 5 5 5 5 5 5 5 5 6 5 5 5 5 5 5 5 5 6 5 5 5 5 5 5 5 5 6 5 5 6 5 5 5 6 6 5 5 5 5 5 5 5 5 5 5 5 5 6 5 5 5 6 5 6 5 5 5 5 5 5 5 6 5 6 5 5 5 5 5 5 5 5 5 5 5 5 6 5 5 5 5 6 5 5 5 6 5 5 5 5 5 5 5 6 5 5 5 6 5 5 5 5 5 5 5 5 6 5 5 5 5 5 5 5 5 5 5 5 5 5 5 5 5 5 5 6 6 5 5 5 5 6 5 6 5 5 5 5 5 5 5 6 5 5 6 6 5 6 6 5 6 5 6 5 5 5 6 5 5 5 5 5 5 5 5 5 5 5 5 6 5 5 6 5 5 5 5 5 5 5 6 5 6 5 6 5 5 6 5 5 6 5 5 6 5 5 5 5 5 5 5 5 5 5 5 6 5 5 5 5 5 5 5 5 5 5 5 5 5 5 5 5 5 5 5 5 5 5 5 5 6 5 5 5 5 6 5 5 5 5 5 5 6 5 5 6 5 5 5 5 5 5 5 5 5 5 6 5 5 5 5 5 5 6 5 5 5 5 5 5 5 5 5 5 5 5 6 5 5 5 5 5 5 5 5 5 5 5 6 5 5 5 6 6 5 5 5 5 5 6 5 5 5 5 5 5 5 5 5 6 5 5 6 5 5 5 6 5 5 5 5 5 5 5 6 5 5 5 5 5 5 5 5 5 5 5 5 5 5 5 5 5 5 5 5 5 5 6 5 5 5 6 5 5 5 6 6 5 5 5 5 5 5 5 6 5 5 5 5 6 5 5 6 5 5 5 5 5 6 5 5 6 5 5 5 5 6 5 5 5 5 5 5 5 5 5 6 5 5 6 6 5 6 5 5 5 6 6 6 5 5 6 5 5 6 5 5 5 5 6 5 5 6 5 5 5 6 5 5 5 5 6 5 5 5 6 5 5 5 6 5 5 5 5 6 6 5 5 5 6 5 6 5 5 5 5 5 5 5 5 6 5 5 5 5 5 5 6 5 5 5 5 6 5 5 5 6 5 5 5 5 5 5 6 6 6 5 6 5 5 5 5 5 5 5 5 5 5 5 5 5 5 5 5 5 5 5 5 5 5 5 5 6 5 5 5 6 5 5 5 6 5 5 5 6 5 5 5 6 5 5 5 5 5 5 5 5 5 6 5 5 5 5 5 5 5 5 5 5 5 5 5 5 5 5 5 5 5 5 5 5 5 5 5 5 5 6 5 5 5 6 5 5 5 5 6 5 5 5 5 5 5 6 5 5 5 6 5 5 5 5 5 5 5 5 5 5 5 5 5 5 5 5 5 5 5 6 5 5 5 5 5 5 5 5 5 5 5 5 5 5 5 5 5 5 5 5 5 5 5 5 5 5 5 5 5 5 5 5 5 5 5 5 5 5 5 5 5 5 5 5 5 5 5 5 6 5 5 5 5 5 6 5 5 5 5 5 5 5 5 5 5 6 5 5 6 5 6 5 5 6 5 5 5 5 5 5 5 5 5 5 5 5 5 5 5 5 6 5 5 5 5 5 6 5 5 5 5 5 6 5 5 5 5 5 5 5 5 5 6 6 5 5 5 6 5 5 5 5 5 5 6 6 5 5 5 5 5 5 6 5 5 6 5 5 5 5 5 5 5 5 6 5 5 6 5 5 5 6 5 5 5 5 5 5 6 5 5 5 5 5 5 5 5 5 5 5 5 6 5 5 5 6 6 5 5 6 5 5 5 6 5 5 5 5 5 5 5 5 5 5 6 5 5 5 5 6 6 5 5 5 5 6 5 5 5 6 5 5 5 5 6 5 5 6 5 5 5 5 5 6 5 6 6 5 5 6 5 5 5 5 6 5 5 5 5 5 6 6 5 5 6 5 6 6 5 5 5 5 5 5 5 6 5 5 5 5 6 5 5 5 5 5 5 5 5 5 5 5 5 5 5 5 5 6 5 5 5 5 5 5 6 5 5 5 6 6 5 5 6 5 6 5 5 6 5 5 5 5 5 5 5 6 5 5 5 5 5 6 5 6 5 5 5 6 6 5 5 5 6 5 5 5 6 5 5 5 6 5 5 5 5 5 5 6 6 6 5 5 5 5 5 6 6 5 5 5 5 5 5 6 5 6 5 5 5 5 5 6 5 5 5 6 5 6 5 5 5 5 5 5 5 5 5 5 5 6 5 5 5 5 5 6 5 5 5 5 5 5 6 5 5 5 6 5 6 5 6 5 6 5 5 5 6 6 5 5 5 5 5 5 5 5 5 5 5 5 5 6 5 5 5 5 5 5 5 5 6 5 5 5 5 5 6 5 5 6 5 6 6 5 5 5 5 5 6 5 5 5 5 5 5 5 5 5 5 5 5 5 5 5 5 5 5 5 5 5 5 5 5 5 5 5 5 5 5 5 5 5 5 5 5 5 5 5 5 5 6 5 5 5 5 5 5 5 5 5 5 5 6 5 5 5 5 6 5 6 5 5 6 5 5 5 5 5 5 5 5 5 5 5 5 5 5 5 5 5 5 5 5 5 5 5 5 5 5 5 5 5 5 5 5 5 5 5 6 5 5 5 5 5 5 5 5 5 5 5 5 5 6 5 6 5 5 5 5 5 5 6 5 5 6 5 5 6 5 6 5 5 5 5 5 5 5 6 5 6 5 5 5 6 5 5 6 5 5 6 6 5 6 5 6 5 5 5 5 6 5 5 5 6 6 5 5 5 6 5 5 5 5 5 6 5 5 5 5 5 6 5 5 5 5 5 5 5 5 5 5 6 5 5 6 6 5 5 6 6 5 6 5 5 5 6 5 5 5 5 6 5 6 5 5 6 6 6 5 6 5 5 6 5 6 5 5 6 5 5 6 5 6 5 5 6 5 6 5 5 5 5 5 6 6 6 5 5 5 6 5 6 6 5 5 6 5 5 5 6 5 5 6 6 5 6 5 6 5 5 5 6 5 5 5 5 5 5 5 6 5 5 5 5 6 5 5 5 6 5 5 5 5 5 6 6 5 5 5 5 6 6 5 5 5 5 5 5 5 6 5 6 5 5 5 5 6 5 6 6 5 5 5 5 5 5 6 5 6 5 5 5 5 6 5 6 6 5 5 6 5 5 5 5 5 5 5 5 5 5 6 5 5 6 5 5 5 5 6 5 5 5 5 5 6 6 5 5 6 5 5 5 5 5 5 5 5 5 5 6 5 5 5 5 5 5 5 5 5 5 5 5 5 5 5 5 5 5 6 5 5 6 5 5 5 5 5 5 6 6 5 5 5 6 6 5 5 5 6 5 5 5 6 5 6 5 5 5 5 6 6 5 5 5 5 6 5 6 5 6 6 5 5 6 6 5 5 5 5 5 5 5 5 5 5 5 5 6 5 5 6 5 5 5 5 5 5 5 6 5 5 5 5 6 5 5 5 5 5 5 5 5 6 5 5 6 6 5 5 5 5 6 5 6 5 5 5 5 5 5 5 5 5 6 5 5 6 6 5 5 5 6 5 5 6 5 5 5 6 5 5 5 5 6 6 5 5 5 5 6 5 5 5 5 5 5 5 5 5 5 5 6 5 5 5 6 5 6 5 5 5 6 5 5 6 6 5 5 6 6 6 5 6 5 5 6 5 6 5 6 6 5 5 5 6 5 6 5 6 5 5 5 5 5 6 5 5 5 5 5 6 6 5 5 5 5 5 6 5 5 5 5 5 6 5 5 5 5 5 5 5 5 5 6 5 5 5 6 6 6 5 5 5 6 5 6 5 5 5 5 6 5 5 5 5 5 5 5 5 5 5 5 5 5 5 5 5 6 5 5 5 5 5 5 5 5 5 5 5 6 6 5 5 6 5 5 5 6 5 5 5 5 5 5 5 5 5 5 5 5 5 5 6 6 5 5 5 5 5 6 5 5 5 5 5 5 5 5 5 6 5 5 5 6 5 5 5 5 5 5 5 6 6 5 5 5 5 5 5 5 5 5 5 5 5 5 5 5 5 5 5 5 5 5 5 5 5 5 5 5 5 5 5 5 5 6 5 5 5 5 5 5 5 5 6 5 6 5 6 5 5 6 5 5 6 5 6 6 5 5 5 6 6 5 5 5 5 5 5 5 5 5 5 5 5 5 5 5 5 5 5 5 6 5 5 5 5 5 5 5 6 5 5 5 5 5 5 5 5 6 5 5 5 6 6 5 6 5 5 5 5 5 5 5 5 5 5 5 6 5 5 5 5 5 5 5 5 5 5 5 5 5 5 6 5 5 5 5 5 5 6 5 5 5 5 5 5 5 5 5 5 6 5 5 5 5 5 5 5 5 5 5 6 5 6 5 5 5 5 5 5 5 5 5 5 5 5 5 5 6 5 5 5 5 5 5 5 5 5 5 5 5 5 5 5 6 5 5 5 6 5 5 5 5 5 5 5 5 5 6 5 5 6 5 6 5 5 5 6 5 5 5 5 5 6 5 5 5 5 5 5 5 6 5 5 6 5 5 5 5 5 5 6 5 5 6 5 5 5 6 5 5 5 5 5 5 6 5 5 5 5 5 5 5 5 5 5 5 5 5 5 5 5 5 5 6 5 6 5 5 6 5 5 5 5 5 5 5 5 5 5 5 5 5 5 6 5 5 6 5 5 5 5 6 5 5 5 5 5 5 6 5 5 5 6 5 5 6 5 5 5 6 5 6 6 5 5 5 6 5 5 5 6 6 5 5 6 6 5 5 5 5 6 6 5 5 5 5 5 6 6 5 6 5 5 6 5 5 5 5 5 5 5 6 6 5 5 5 5 5 5 5 5 5 5 5 5 5 5 5 5 5 5 5 6 5 5 5 5 5 6 5 5 5 5 6 5 5 5 5 5 5 6 5 5 5 5 5 5 5 6 5 5 5 5 5 6 5 6 6 5 5 6 5 6 5 6 5 6 5 5 5 5 5 5 5 5 6 5 5 5 6 5 5 5 5 5 5 5 5 5 5 5 5 5 5 5 5 5 5 5 5 5 5 5 5 5 6 5 5 5 5 5 5 5 5 5 6 5 6 5 5 5 5 5 5 5 5 5 5 5 5 6 5 5 6 5 5 5 6 5 5 5 6 5 5 5 5 6 5 5 6 5 5 5 5 5 5 5 5 5 5 5 5 5 5 5 5 6 5 5 5 5 5 5 5 5 6 5 5 5 6 5 5 5 5 5 5 5 5 5 5 5 5 5 5 5 5 5 5 5 5 5 5 5 5 5 6 5 6 5 5 5 5 6 5 5 6 5 5 5 5 5 5 5 5 5 5 5 5 6 5 5 5 6 5 6 5 5 5 5 5 5 5 6 5 6 5 5 6 5 5 5 5 5 5 5 5 5 5 5 6 5 5 5 5 6 5 5 5 5 5 5 5 5 5 5 5 5 5 5 6 5 5 5 5 5 5 5 5 5 5 5 5 5 5 5 5 5 5 5 5 5 5 5 5 5 5 5 5 6 5 5 6 6 5 5 5 5 5 5 6 5 5 5 5 5 5 5 5 5 5 5 5 5 5 5 5 5 5 5 5 5 5 5 5 5 5 5 5 5 5 5 5 5 5 5 5 5 5 5 5 5 5 5 5 5 5 5 5 5 5 5 5 5 5 5 5 5 5 5 5 5 5 5 5 5 6 5 5 5 5 5 5 5 5 5 5 5 5 5 5 5 5 5 6 5 5 5 5 6 5 5 5 5 5 6 5 5 6 5 6 6 5 6 6 5 6 5 5 5 5 5 6 5 6 5 5 5 5 5 5 5 6 6 5 6 5 5 5 5 5 5 5 5 5 5 5 5 5 5 5 5 5 5 5 5 5 5 5 5 5 6 5 5 5 6 5 5 5 5 5 5 5 5 5 5 6 5 5 5 6 5 5 6 5 5 5 5 5 5 5 6 5 5 5 5 6 5 5 6 5 5 5 5 5 5 5 5 5 5 5 6 5 5 5 5 5 5 5 5 5 5 5 5 6 5 5 5 5 5 5 5 5 5 5 5 5 5 5 5 5 6 5 5 5 6 5 5 5 5 5 5 5 5 5 5 5 5 5 5 5 6 6 5 5 5 5 5 5 5 5 5 6 5 6 5 5 5 5 5 5 6 5 5 5 5 5 5 5 5 6 6 5 5 5 5 5 5 5 5 5 5 5 5 5 6 5 5 5 5 5 5 6 5 5 5 5 6 5 5 5 5 5 5 5 5 5 5 5 5 5 5 5 5 5 5 5 6 5 5 6 5 5 6 5 5 5 5 6 5 5 5 5 5 5 5 5 6 5 5 6 5 5 5 5 5 5 5 6 5 5 5 5 6 5 5 6 5 5 5 6 5 5 5 5 6 5 5 5 5 5 5 6 5 6 5 5 5 5 5 6 6 5 5 5 5 6 5 5 6 5 5 5 5 5 5 5 5 5 5 5 6 5 5 5 5 5 5 5 5 5 5 6 5 5 5 5 5 5 5 5 5 5 5 5 5 5 5 5 5 5 5 5 5 5 5 5 5 5 5 5 5 5 6 5 6 6 5 6 5 5 5 5 5 6 5 5 5 6 5 5 5 5 5 6 5 5 5 5 6 5 6 5 6 5 5 5 5 5 5 5 5 5 5 6 5 6 5 5 5 6 5 6 5 5 5 5 6 6 6 5 5 5 5 5 5 5 5 5 5 5 6 5 5 6 6 5 5 5 5 6 5 5 5 5 5 5 5 5 5 5 5 5 5 5 6 5 5 5 5 5 5 5 5 5 5 5 5 5 5 6 5 5 5 5 5 5 6 5 5 5 6 6 5 6 5 5 6 5 5 6 6 5 5 5 6 5 5 6 5 5 5 5 5 5 5 5 6 5 6 5 5 5 6 5 6 6 5 5 6 5 5 5 5 5 5 5 5 5 5 5 6 5 5 5 5 5 5 5 5 5 5 5 5 6 5 6 5 6 5 5 5 5 5 5 5 5 5 5 5 5 5 5 5 5 5 6 5 5 5 5 5 5 5 5 6 5 5 5 5 5 5 5 5 5 5 5 5 5 5 5 5 6 5 5 5 5 6 5 5 5 5 5 5 5 5 5 5 6 5 5 5 5 5 5 6 5 5 5 5 5 5 5 5 5 5 5 5 5 5 5 6 5 5 5 5 5 5 5 5 6 5 5 6 5 5 6 5 6 6 5 6 6 5 5 6 5 5 5 5 5 5 5 5 5 5 5 6 5 5 6 5 5 5 5 5 5 5 5 5 5 5 5 5 5 6 5 5 5 5 5 5 5 5 5 6 5 5 5 5 6 5 5 5 5 5 6 5 5 5 6 5 6 5 6 5 6 5 5 5 6 5 5 5 5 6 5 6 5 6 5 6 5 6 5 5 5 6 6 5 5 6 6 5 5 5 5 5 6 5 5 5 6 5 5 6 5 5 5 6 5 5 5 5 6 6 5 5 6 5 5 5 6 5 5 5 5 5 5 6 5 5 6 5 6 5 6 5 5 5 5 5 5 5 5 5 5 5 6 5 5 5 6 5 5 5 6 5 5 5 5 5 5 5 5 5 5 5 5 5 5 5 5 5 5 6 5 6 5 6 5 6 5 5 5 5 5 6 5 5 5 5 5 5 6 5 6 5 5 6 5 5 5 6 5 5 5 5 5 5 5 5 5 5 5 5 5 5 5 5 5 5 5 6 5 6 5 5 5 5 6 5 5 5 6 5 5 5 5 5 5 5 5 5 6 5 6 5 5 6 5 5 5 5 5 6 5 6 6 5 5 5 6 6 5 6 5 5 6 5 5 5 5 6 5 5 5 5 5 5 5 5 5 5 6 5 5 5 5 5 5 5 5 5 5 5 5 6 5 5 5 5 5 6 5 5 5 5 6 5 6 5 5 6 5 5 5 5 6 5 5 5 5 5 5 5 5 5 5 5 5 6 5 6 5 5 5 5 6 5 5 5 6 5 6 5 6 5 5 5 5 5 6 5 5 5 5 5 5 5 6 5 5 5 6 5 5 5 5 6 5 5 5 6 5 5 5 5 5 5 5 6 5 6 5 5 5 5 5 5 5 5 5 5 5 6 5 6 5 5 6 5 5 5 6 5 5 5 5 5 5 5 5 5 5 5 5 5 5 5 5 5 5 5 5 5 5 5 5 5 5 5 5 5 5 5 5 5 5 5 5 5 5 5 5 5 5 5 5 5 5 5 6 5 5 5 5 5 5 5 5 5 5 5 5 5 5 6 5 5 5 5 5 5 5 5 5 5 5 5 5 5 5 5 5 5 5 5 5 5 5 5 5 5 5 5 6 5 5 6 5 5 5 5 5 5 5 5 5 5 6 6 5 6 5 5 5 5 6 6 5 6 5 5 5 6 5 5 6 5 5 5 5 5 5 5 5 5 5 6 5 5 5 5 5 6 5 6 5 5 5 6 5 6 5 5 5 5 5 5 6 5 6 5 5 5 5 5 5 5 5 5 6 5 5 5 5 5 5 5 5 5 5 5 5 5 5 6 5 5 5 6 5 5 5 5 5 6 5 5 5 5 5 5 5 5 5 6 5 5 5 5 6 5 5 5 5 5 5 5 5 5 5 5 5 5 5 5 5 5 5 5 5 5 5 5 5 5 5 5 6 5 5 5 5 5 5 5 5 5 5 5 5 5 5 5 5 5 5 5 5 5 5 5 5 5 5 5 5 5 5 5 5 5 5 5 5 5 5 5 5 5 5 5 6 5 5 5 5 5 5 5 5 5 5 5 5 5 5 5 5 5 5 5 5 5 5 5 5 5 5 5 5 5 5 5 5 5 5 5 5 5 5 5 5 5 6 5 5 5 5 5 5 5 5 5 5 5 5 5 5 6 5 5 5 5 6 5 5 5 5 5 6 5 5 5 5 5 5 5 6 5 5 5 5 5 5 6 5 5 5 5 5 5 5 5 5 5 5 5 5 5 5 6 5 5 5 5 6 5 5 5 5 5 5 5 5 5 5 5 5 5 5 6 5 6 5 5 5 6 6 5 5 5 5 5 5 6 5 6 5 5 5 5 5 5 5 5 5 5 5 5 5 5 5 5 6 5 5 5 5 5 6 5 5 6 5 5 5 5 5 6 5 5 6 6 5 5 5 5 5 5 5 5 6 5 5 5 6 6 6 5 6 5 5 5 5 5 5 6 5 6 5 5 6 5 5 5 5 5 5 5 5 6 5 6 5 5 5 6 5 5 5 6 5 5 5 5 6 5 5 5 6 5 5 5 5 5 5 5 5 5 5 5 5 5 5 6 5 6 5 5 5 5 5 5 6 5 6 5 6 5 5 5 5 5 5 5 5 5 5 5 5 5 5 5 5 5 5 5 5 5 5 5 5 5 6 5 5 5 5 5 6 5 5 5 5 6 5 5 6 5 5 5 5 6 5 5 6 5 6 5 5 5 5 6 5 6 5 5 5 5 5 5 5 6 5 6 5 5 6 6 5 5 6 6 5 5 5 6 5 5 6 5 6 5 5 5 5 5 5 5 5 5 5 5 5 5 6 6 5 5 5 5 5 5 5 5 5 5 5 5 5 5 5 5 5 5 5 5 5 5 5 5 5 5 5 5 5 5 5 5 6 5 5 5 6 5 5 6 5 6 6 5 5 6 6 5 5 5 5 5 5 6 6 5 6 5 5 5 6 5 5 6 5 5 5 5 5 5 5 5 5 5 5 5 5 5 5 5 5 5 5 5 5 5 5 5 5 5 5 5 5 5 5 5 5 5 5 6 5 6 5 6 5 5 6 5 5 5 5 5 5 5 5 5 5 5 5 5 5 5 5 5 6 5 5 5 5 5 5 5 5 5 6 5 5 5 5 5 5 5 6 5 5 6 5 5 5 5 5 5 5 5 5 5 6 5 5 5 5 5 5 5 5 5 5 5 5 5 6 5 5 6 5 5 5 5 5 5 5 5 5 5 6 5 5 5 5 5 5 5 5 5 5 5 5 5 5 5 5 5 6 5 5 5 5 5 5 5 5 5 5 5 5 6 5 5 5 5 5 5 5 6 5 6 5 5 5 5 5 5 5 6 5 5 6 5 5 5 5 5 6 5 5 5 5 5 6 5 5 5 5 5 5 5 5 5 5 5 5 5 5 5 5 5 5 5 5 5 5 5 5 5 5 5 5 5 5 6 6 5 5 5 5 5 5 5 6 5 5 5 5 5 5 5 5 5 6 5 5 6 5 5 5 5 5 5 6 5 6 5 5 5 5 5 5 5 5 6 5 6 5 5 5 5 5 5 6 5 5 5 5 5 5 5 6 5 5 5 5 5 5 5 5 6 5 5 5 5 5 5 5 5 6 5 5 5 6 5 5 5 5 6 5 5 5 6 6 5 5 5 5 5 6 6 5 5 5 6 6 5 5 5 5 6 5 6 5 6 5 5 5 5 5 5 5 5 5 5 5 5 5 5 6 5 5 5 5 5 5 5 5 5 5 6 5 5 6 6 6 5 5 5 5 6 5 5 5 5 5 6 5 5 5 5 5 5 5 5 5 5 5 6 5 5 5 6 6 5 5 5 5 5 5 5 6 5 5 6 5 6 5 5 5 5 6 5 5 5 6 5 5 6 5 6 5 5 5 5 5 5 5 5 5 5 5 5 5 5 5 5 6 5 5 5 5 5 5 5 5 5 5 5 5 6 5 6 5 5 5 5 5 6 5 5 5 5 5 5 5 5 5 5 5 6 5 6 5 5 6 5 5 5 5 5 6 5 5 5 5 5 5 5 5 5 5 6 5 5 5 5 5 5 5 5 5 5 5 5 5 6 5 5 5 6 5 5 5 5 5 6 5 5 5 5 5 5 6 5 6 6 6 5 5 5 5 5 6 5 5 5 5 5 5 6 5 6 6 5 5 6 6 5 6 5 5 6 5 5 5 5 5 5 5 5 5 5 5 5 5 5 5 5 5 5 5 5 6 5 5 5 5 5 5 5 5 5 5 5 5 5 5 5 5 5 5 5 5 6 5 5 5 5 5 6 5 5 5 5 5 5 5 6 5 5 6 5 5 5 5 5 5 5 5 5 5 5 5 5 5 5 5 5 6 5 5 5 5 6 5 5 6 5 6 5 5 5 5 5 5 5 5 5 5 5 5 5 6 5 5 5 5 5 5 5 5 6 5 5 5 5 6 5 5 5 5 5 5 5 6 5 5 5 5 5 5 5 5 5 5 5 5 5 5 5 5 5 6 5 5 5 5 5 6 5 5 5 5 5 5 6 5 5 5 6 5 5 5 5 5 6 6 5 5 5 5 6 5 6 5 6 5 5 5 5 5 5 5 5 5 5 5 5 6 6 5 6 5 5 5 5 5 5 5 5 5 5 5 5 5 5 5 5 5 5 5 5 5 5 6 5 5 5 5 5 5 5 6 5 6 5 5 6 6 5 5 5 5 6 5 5 5 5 5 5 6 5 5 5 5 5 5 6 5 5 5 5 5 6 5 5 5 5 5 5 5 6 6 5 5 5 5 5 5 5 5 6 5 6 5 5 6 6 6 5 5 5 5 5 5 5 6 5 6 5 6 6 5 6 6 5 5 5 6 6 5 5 5 5 5 6 5 6 6 6 5 5 5 5 6 5 6 5 5 5 5 5 6 6 5 5 5 5 5 6 5 5 5 5 5 6 5 5 5 5 5 5 5 5 6 6 5 6 5 5 6 5 5 5 6 6 6 5 6 5 6 6 5 5 6 5 5 5 5 5 5 5 5 5 5 5 5 5 6 6 5 6 5 6 5 5 5 5 6 6 5 5 5 5 6 5 5 5 5 5 5 5 5 5 5 5 5 5 6 5 5 6 5 5 5 5 5 5 5 5 5 5 5 5 5 5 5 5 5 5 5 6 5 5 5 6 5 5 5 6 5 5 6 5 6 5 6 5 5 5 5 5 5 5 5 5 5 5 6 5 5 5 5 6 5 5 6 5 5 5 5 5 5 6 5 5 6 5 5 5 5 5 5 6 5 5 6 5 5 6 5 5 6 5 5 5 5 5 5 6 5 5 5 5 6 5 5 5 6 5 5 5 5 5 5 5 5 5 5 5 5 5 6 5 5 5 6 6 5 5 6 5 5 6 6 5 5 5 5 5 5 6 5 5 6 5 5 5 5 5 5 5 5 6 5 5 6 6 5 5 5 5 6 5 5 5 5 6 5 5 5 5 5 5 5 5 5 5 5 5 5 5 5 5 5 5 5 5 5 5 5 5 5 5 5 6 5 5 5 6 5 5 5 5 5 6 5 5 5 5 5 5 5 5 5 5 5 5 5 5 5 6 6 5 5 5 5 5 5 5 5 5 5 5 5 6 6 5 5 6 5 5 5 6 5 5 5 5 5 5 5 5 5 5 5 5 5 5 5 5 5 5 5 5 5 5 5 5 5 6 5 5 5 5 5 5 5 5 5 5 5 5 5 6 5 5 5 5 5 5 5 5 5 5 5 5 5 6 5 5 5 5 5 5 5 5 5 5 5 5 5 5 5 5 5 5 5 6 5 5 5 5 5 5 5 5 6 5 5 5 6 5 5 5 5 5 5 5 5 5 5 5 5 5 5 5 5 5 5 5 5 5 5 5 5 5 6 5 5 5 6 5 5 5 5 5 5 5 5 5 5 5 5 6 5 5 5 5 5 6 5 5 6 5 5 6 5 6 5 5 5 6 5 5 5 6 5 5 5 5 6 5 5 5 5 5 5 5 6 6 5 5 5 6 5 5 5 6 5 5 5 5 5 5 5 5 5 6 5 5 5 5 5 5 5 5 6 5 5 5 5 5 5 5 5 5 5 6 5 6 5 5 5 5 5 6 6 5 5 5 5 5 5 5 6 5 5 5 5 5 5 5 5 5 6 5 5 5 5 5 5 5 5 5 6 5 5 5 6 5 5 5 6 5 6 5 5 5 5 5 5 5 5 5 5 5 5 5 5 5 5 5 5 5 5 5 5 5 5 5 5 5 5 5 5 5 5 5 5 5 5 5 5 5 5 5 5 6 5 5 5 5 5 5 5 5 5 5 5 6 5 5 5 5 5 5 5 5 5 5 5 5 5 5 5 5 5 5 5 5 5 5 5 5 5 5 5 5 5 5 5 5 5 5 5 5 5 5 5 5 5 5 5 5 5 5 5 5 5 5 5 5 5 5 5 5 5 5 5 5 5 5 5 5 5 5 6 6 5 5 5 5 5 6 5 6 5 5 6 5 5 5 5 5 5 5 5 5 5 6 5 5 5 5 5 5 5 5 5 5 5 5 5 5 5 5 5 5 5 5 5 5 5 5 5 5 5 5 5 6 5 5 6 5 5 5 5 5 5 5 5 5 5 5 5 5 6 5 5 5 5 5 6 5 5 5 5 6 5 5 5 6 5 5 5 6 5 5 5 5 5 5 5 6 5 5 6 5 5 5 5 5 5 5 5 5 5 5 6 5 5 5 5 5 5 5 6 5 5 5 5 5 5 5 5 5 5 5 5 5 5 5 5 5 5 5 5 5 5 6 5 5 5 6 5 5 5 5 6 5 5 5 5 5 5 5 5 6 6 5 5 5 5 5 5 5 5 5 5 5 5 5 5 5 5 5 5 5 5 5 5 5 5 5 5 5 5 5 5 6 6 5 5 5 5 5 5 6 6 5 5 5 5 5 5 5 5 5 5 5 5 5 5 5 5 6 5 6 5 6 5 6 6 5 5 6 5 5 5 5 5 5 5 5 5 5 5 5 5 5 5 6 6 6 5 5 5 6 5 5 5 5 5 5 5 5 6 6 5 5 5 5 5 5 5 5 5 6 5 6 6 5 5 5 5 5 6 5 5 5 5 5 5 5 5 5 5 5 6 5 5 5 5 5 5 5 5 6 5 5 5 5 5 5 5 5 5 5 5 5 5 5 5 5 5 5 6 5 5 5 5 5 5 5 5 5 5 6 5 6 5 5 5 5 5 5 5 5 5 5 5 6 5 5 6 5 5 5 5 5 5 5 6 5 5 5 6 5 5 5 5 5 5 5 5 5 6 5 5 5 5 5 6 6 5 6 6 5 5 5 5 5 5 5 5 5 6 5 5 6 5 5 5 5 5 5 5 5 5 5 5 5 5 5 5 5 5 5 5 5 6 5 5 6 5 5 5 5 5 6 5 5 5 5 5 5 5 5 5 5 5 5 5 5 5 5 6 5 5 5 5 5 5 5 5 5 5 5 5 5 5 5 6 5 5 5 5 5 5 5 5 6 5 5 5 5 6 6 5 6 5 5 5 5 5 6 5 5 5 5 5 5 5 5 5 6 5 5 5 5 5 5 5 5 5 5 5 5 5 5 5 5 5 5 5 5 5 5 5 5 5 5 5 5 5 5 5 5 5 5 5 5 5 5 5 5 5 5 5 5 5 5 5 5 5 5 5 5 5 6 5 5 5 5 5 5 5 5 5 5 5 5 5 5 5 5 5 5 5 5 5 5 5 5 5 6 6 5 5 5 5 6 5 5 5 6 5 5 5 5 6 5 5 5 5 5 5 5 5 6 5 5 5 5 5 6 5 5 5 5 5 5 5 6 5 6 5 5 6 5 5 5 5 5 5 5 5 5 6 5 5 6 5 5 6 6 5 5 5 5 5 5 5 5 5 5 5 5 5 5 5 5 5 6 5 5 5 5 5 5 5 5 5 5 6 5 5 5 5 6 5 5 5 5 5 5 5 5 6 5 5 5 5 5 6 5 5 5 5 6 5 5 5 5 5 5 6 5 5 6 5 5 5 6 5 5 5 5 5 5 5 5 5 5 6 6 5 5 5 5 5 5 5 5 5 5 5 5 5 5 5 6 5 5 6 5 5 5 5 5 5 5 6 5 5 5 5 6 5 5 5 6 5 5 5 5 5 5 5 6 5 5 5 6 5 5 6 5 5 5 5 5 6 6 5 5 5 5 5 5 6 5 5 5 5 5 5 5 6 5 5 5 5 5 6 5 5 5 5 5 6 5 5 5 6 5 5 5 5 5 5 5 5 5 5 5 5 5 5 5 5 5 6 5 5 5 5 5 5 5 5 5 5 5 5 6 5 5 5 6 5 5 5 5 5 6 5 6 5 5 5 5 5 5 5 5 5 5 5 6 5 5 5 5 5 5 6 5 5 5 5 5 5 5 5 5 5 5 6 5 5 5 5 5 5 5 5 5 6 5 5 5 6 5 5 5 5 5 6 5 5 5 5 5 5 5 5 6 6 5 5 6 5 5 5 5 5 5 5 5 6 5 6 5 5 5 5 5 5 5 5 5 5 5 5 5 5 5 5 5 5 5 5 5 5 6 5 5 5 5 5 5 5 5 5 5 5 5 5 5 5 5 5 5 5 5 5 5 5 6 5 5 5 5 6 5 5 5 5 5 5 5 5 6 5 5 5 5 5 5 5 5 6 5 5 5 5 5 5 5 5 5 5 5 5 6 5 5 5 6 5 5 5 5 5 5 6 5 5 5 5 5 5 5 5 5 6 5 5 6 5 6 5 5 6 5 5 5 6 5 5 5 5 5 6 5 6 5 6 5 5 5 5 6 6 5 5 5 5 5 5 5 5 6 5 5 5 5 5 6 5 5 5 5 5 5 5 6 5 5 5 5 5 5 5 5 5 5 5 5 5 5 5 5 5 5 5 5 5 5 5 6 5 6 5 5 5 5 5 5 5 5 5 5 5 5 5 5 5 5 5 5 5 5 5 5 5 5 5 5 5 5 5 5 5 5 5 5 5 5 6 5 5 6 5 5 5 5 5 6 5 5 6 5 6 5 5 6 5 5 5 5 5 5 5 6 5 5 5 5 6 5 5 5 5 5 5 6 5 5 5 6 5 5 5 5 5 5 5 5 5 5 6 5 5 5 5 5 6 6 5 5 5 5 5 5 6 5 6 5 5 5 5 5 5 6 5 5 5 6 5 5 5 6 5 5 5 5 5 5 6 5 5 5 6 5 5 5 5 5 5 5 6 5 5 5 5 6 5 5 5 5 5 5 6 5 5 5 5 5 5 6 5 5 5 5 5 6 5 5 5 5 5 5 5 5 5 5 5 5 5 5 5 5 5 5 5 5 5 5 5 5 5 5 5 5 5 5 5 5 5 5 5 5 5 5 5 5 5 5 5 5 5 5 5 5 5 5 5 5 5 5 5 5 5 5 5 5 5 5 6 5 5 5 5 5 5 5 6 5 6 5 5 6 5 5 5 6 5 5 5 5 5 6 5 5 6 5 6 6 5 5 5 6 5 5 5 5 5 5 5 5 5 5 5 5 5 5 5 5 6 5 5 5 5 6 5 5 5 6 5 6 5 5 5 5 6 5 5 5 5 6 5 5 5 5 5 5 5 6 5 5 5 5 5 5 5 5 5 6 5 5 5 5 5 5 5 5 5 6 5 5 6 5 5 5 5 5 5 6 5 5 5 6 5 5 5 5 6 5 5 6 5 5 6 5 5 5 5 5 6 5 5 5 5 5 5 5 5 5 5 5 5 5 5 5 5 5 5 5 5 6 5 5 5 6 5 5 5 5 5 5 5 5 5 5 5 6 6 5 5 5 6 5 6 5 5 5 5 5 5 5 5 5 5 5 5 5 5 5 5 5 5 5 5 5 5 6 5 5 5 5 5 5 6 5 5 5 5 5 5 6 5 5 5 5 5 6 5 5 5 5 5 5 5 6 5 6 5 5 5 6 5 5 5 5 5 5 5 5 5 6 6 5 5 5 5 5 5 6 5 5 5 5 6 5 5 5 5 5 5 5 6 5 5 5 5 5 5 5 5 5 5 5 5 5 5 5 5 6 5 5 5 5 5 5 5 5 5 5 5 5 5 6 5 5 5 6 6 5 5 6 5 5 5 5 6 5 5 5 6 5 5 5 5 5 6 5 5 6 5 5 5 6 6 5 5 6 5 5 5 5 5 5 5 5 6 5 5 5 5 5 5 5 5 5 5 5 5 5 5 6 5 5 5 5 5 5 6 5 5 5 6 5 5 5 5 5 5 5 5 5 5 6 5 5 5 5 5 5 5 5 5 5 6 5 5 5 5 5 5 5 5 5 5 5 5 5 5 5 5 5 5 5 5 5 5 5 5 5 5 5 5 5 5 5 5 5 5 5 5 6 5 5 5 5 5 5 5 5 5 5 5 5 5 5 5 6 5 5 5 5 5 5 5 5 6 5 5 5 5 5 5 5 5 5 5 5 5 5 5 6 6 5 5 5 5 5 5 5 5 6 5 5 5 5 5 5 5 5 5 5 5 5 5 5 5 5 5 5 5 5 5 5 6 5 5 5 5 5 5 5 5 5 5 5 5 5 5 5 5 5 5 5 5 5 5 5 5 5 5 5 5 5 5 5 5 5 5 5 5 5 5 5 5 6 5 6 5 5 5 5 5 5 5 5 5 5 6 5 5 5 5 5 5 5 5 5 5 5 5 5 5 5 5 5 5 5 5 5 5 5 5 5 5 5 5 5 5 5 5 5 5 5 5 5 5 5 5 5 5 5 5 5 5 5 5 6 5 5 6 5 5 5 5 5 6 5 5 5 5 5 5 6 5 5 5 5 5 5 6 5 5 5 5 6 5 5 6 5 5 5 5 5 5 5 5 5 5 5 5 5 5 5 6 5 5 5 5 5 5 5 6 5 5 5 6 5 5 5 5 5 5 5 5 5 5 5 5 5 5 5 5 5 5 5 5 5 5 5 5 6 5 5 5 5 5 5 5 5 6 5 5 5 6 5 5 5 5 5 5 5 5 5 5 5 5 5 5 5 5 5 5 5 5 5 5 5 5 5 5 5 5 6 5 5 5 5 5 5 5 5 5 5 5 5 5 5 5 5 5 5 5 5 6 5 5 5 5 5 5 5 6 5 5 5 5 6 5 5 5 5 5 5 5 5 5 5 5 5 5 5 5 5 5 5 5 5 5 5 5 5 5 5 5 5 5 5 5 5 5 5 5 5 5 5 5 5 5 5 5 5 5 5 5 5 5 5 5 5 5 5 5 5 5 5 5 5 5 5 6 5 5 5 5 5 5 5 5 5 5 5 5 5 5 5 5 5 5 5 5 5 5 5 5 5 5 5 6 6 5 5 6 5 6 5 5 5 5 5 5 5 6 5 5 5 6 5 5 5 5 5 5 5 5 5 5 5 5 5 5 5 5 5 5 5 6 5 5 5 5 5 5 5 5 5 5 5 5 5 5 5 5 5 5 5 5 5 5 5 5 5 5 5 6 5 5 5 5 5 5 5 5 5 5 5 5 5 5 5 5 5 5 5 5 5 5 5 5 5 5 5 5 5 5 5 5 5 5 6 5 5 5 5 5 5 5 5 5 5 5 5 5 5 5 5 5 5 5 5 5 5 5 5 5 5 5 5 5 6 5 5 5 5 5 5 6 5 5 5 5 5 5 5 5 5 5 5 5 5 5 5 5 5 5 5 5 5 5 5 5 5 5 5 5 5 5 5 5 5 5 5 5 5 5 5 5 5 5 5 5 5 5 5 5 5 5 5 5 5 5 5 5 5 5 5 5 5 5 5 5 5 5 5 5 5 5 5 5 5 5 5 5 5 5 5 5 5 6 5 5 6 5 5 5 5 5 5 5 5 5 5 5 5 5 5 5 5 5 5 5 5 5 5 5 5 5 5 5 5 5 5 5 5 5 5 5 5 5 5 5 5 5 5 5 5 5 5 5 5 5 5 5 5 5 5 5 5 5 5 5 5 5 5 5 5 5 5 5 5 5 5 5 5 5 5 5 5 5 5 5 5 5 6 5 5 5 5 5 5 6 5 5 6 5 5 5 5 5 5 5 5 5 5 5 5 5 5 5 5 5 5 5 5 5 5 5 5 5 5 5 5 5 5 5 5 6 6 5 5 6 5 5 6 5 5 5 5 5 5 5 5 5 5 5 5 5 5 5 6 5 5 5 5 5 6 5 5 5 6 6 5 5 6 5 6 5 5 6 5 5 5 6 6 5 5 5 5 5 6 5 5 5 5 5 5 5 5 5 5 5 5 5 6 5 5 5 5 6 6 5 5 5 5 5 5 5 5 5 5 5 5 5 5 5 5 5 5 5 5 5 5 5 5 5 5 5 5 5 5 5 5 5 5 5 5 5 5 6 5 5 6 5 5 5 5 5 5 5 5 5 6 5 5 6 5 5 5 5 5 5 5 5 5 6 5 5 5 6 5 5 6 5 5 5 6 5 5 5 5 6 5 5 5 5 5 5 5 5 5 5 5 5 5 5 6 5 5 5 5 6 5 5 
</DataArray>
<DataArray type="Float64" Name="stress" NumberOfComponents="9" format="ascii">
-405.48486982233555 504.37946348762125 0 504.37946348762125 4999.0257716801825 0 0 0 0 -0.061789313844938951 -181.88422185170973 0 -181.88422185170973 5921.4516266223363 0 0 0 0 -682.05240759091316 -290.39781018097347 0 -290.39781018097347 4525.7473171266611 0 0 0 0 0.13915173119096802 -358.98251900073956 0 -358.98251900073956 1271.0239892063146 0 0 0 0 -1.3054370511746423 -4.7828588832315688 0 -4.7828588832315688 10.505515756809558 0 0 0 0 -217.3807149682533 116.64676667274762 0 116.64676667274762 2191.4139205030951 0 0 0 0 -98.378765529144857 -304.2003662183015 0 -304.2003662183015 2614.5494916237803 0 0 0 0 -0.53143165684585669 -496.97506526461802 0 -496.97506526461802 2169.3260934947175 0 0 0 0 -119.24026747953485 -453.40329861175269 0 -453.40329861175269 2176.4762981818417 0 0 0 0 103.58159577425022 -1385.6486975775188 0 -1385.6486975775188 2666.8499733754034 0 0 0 0 452.7993588582417 -1048.5046501132601 0 -1048.5046501132601 2671.9779492376738 0 0 0 0 -199.61065890332193 -10.435192057374479 0 -10.435192057374479 3079.4427113897691 0 0 0 0 -3.3765144847770898 -382.85793535590346 0 -382.85793535590346 2678.6635305685777 0 0 0 0 -2.1463194854628922 -4.2379651496691508 0 -4.2379651496691508 10.771670617822423 0 0 0 0 -975.83805945227391 412.21423663265159 0 412.21423663265159 7568.5384662847064 0 0 0 0 219.84793989649552 350.5021149360764 0 350.5021149360764 4881.9334179301222 0 0 0 0 -3.6301482905565523 -10.270314284207444 0 -10.270314284207444 15.767032427154021 0 0 0 0 -2.4840266036509888 -1363.8304024580793 0 -1363.8304024580793 2785.7552290308304 0 0 0 0 277.16502619306198 -512.25984844159927 0 -512.25984844159927 4931.0241967570764 0 0 0 0 677.84805183346953 -864.0989338196232 0 -864.0989338196232 5037.6048817136179 0 0 0 0 264.77283619150131 -1089.1283409057755 0 -1089.1283409057755 4932.0765669217944 0 0 0 0 668.67186216080165 -367.57323294236039 0 -367.57323294236039 6098.4852894303767 0 0 0 0 -0.27431338178074993 0.15871404869244543 0 0.15871404869244543 18.360068988716591 0 0 0 0 355.79442033400073 -1482.4966961518803 0 -1482.4966961518803 6301.0453337379186 0 0 0 0 272.73323734575735 -1333.6628050553409 0 -1333.6628050553409 6034.4866511839646 0 0 0 0 401.14533113421021 -1350.2978791544228 0 -1350.2978791544228 5993.65177931996 0 0 0 0 18.760150894011527 -11.795266646822739 0 -11.795266646822739 13.633408522398284 0 0 0 0 -44.090923245281317 -6.5412958346615824 0 -6.5412958346615824 70.847614826124357 0 0 0 0 2.8981479975864204 -501.97971475882514 0 -501.97971475882514 -473.18013616318058 0 0 0 0 -724.33034378037974 34.465448835704592 0 34.465448835704592 86.600362225246499 0 0 0 0 861.17322879231551 1017.1489893820981 0 1017.1489893820981 1234.6888210689503 0 0 0 0 117.98392153035184 -319.31756050555123 0 -319.31756050555123 686.32631473625224 0 0 0 0 56.04250734080324 -292.84982418712025 0 -292.84982418712025 723.52571410637756 0 0 0 0 1439.5461728608595 -1586.1437648213177 0 -1586.1437648213177 3678.8009055484436 0 0 0 0 534.88190462133707 -1064.6442102939473 0 -1064.6442102939473 98.819825385551667 0 0 0 0 894.69505590054928 -2474.7669740886959 0 -2474.7669740886959 2786.5431431242032 0 0 0 0 -330.47367036116657 -1647.4454650771222 0 -1647.4454650771222 4652.9712750351173 0 0 0 0 -442.12284462874436 -1842.5549670984474 0 -1842.5549670984474 5978.7612514173452 0 0 0 0 466.03455127721537 -480.79084214531804 0 -480.79084214531804 3187.4183371669205 0 0 0 0 -96.39551813114349 -884.71818618105317 0 -884.71818618105317 3125.3906566368787 0 0 0 0 -313.38697883032432 -70.146985071412928 0 -70.146985071412928 961.79056044624303 0 0 0 0 638.58125154165157 -1146.2526808370239 0 -1146.2526808370239 1312.9768322796153 0 0 0 0 278.56963832448309 -207.58321311600594 0 -207.58321311600594 71.116981720319018 0 0 0 0 -204.95200686509298 -316.0431826007698 0 -316.0431826007698 1482.7477339300895 0 0 0 0 -591.04474664629834 -342.5900402112602 0 -342.5900402112602 820.64854542047397 0 0 0 0 -981.31911899485806 808.22642355949392 0 808.22642355949392 294.6589206008648 0 0 0 0 -34.757995809283614 0.98925311247577952 0 0.98925311247577952 72.390620194187477 0 0 0 0 -461.0627080402985 -462.712927815086 0 -462.712927815086 298.58435894141439 0 0 0 0 89.1119983951412 -290.53918945642363 0 -290.53918945642363 709.80908687631018 0 0 0 0 410.46146754297297 -806.55404472647569 0 -806.55404472647569 1309.2057686593398 0 0 0 0 278.52104298808536 -559.9920539031009 0 -559.9920539031009 851.52939153038824 0 0 0 0 588.52027163605271 -1020.0848986448109 0 -1020.0848986448109 1387.4655490266996 0 0 0 0 98.41786866398661 -980.62740429517362 0 -980.62740429517362 2106.7824294556631 0 0 0 0 -212.27265911477753 -1038.9020476347796 0 -1038.9020476347796 2321.9835400974844 0 0 0 0 -218.01746069422825 -904.08541806411813 0 -904.08541806411813 1988.8129721677833 0 0 0 0 -24.175954699273703 2.4529732023810027 0 2.4529732023810027 59.478333772223664 0 0 0 0 -1381.3757537266029 1008.0044079306754 0 1008.0044079306754 -291.06605243643571 0 0 0 0 1152.3652252063066 -1696.0756000125766 0 -1696.0756000125766 2097.8890005678259 0 0 0 0 1153.9210951729006 -1674.0186272129777 0 -1674.0186272129777 2345.6325268358341 0 0 0 0 95.750222553013373 -925.57281535137736 0 -925.57281535137736 2398.4254719570672 0 0 0 0 1818.2471531303036 -1547.1607961691625 0 -1547.1607961691625 2246.1462526268078 0 0 0 0 -2643.086613840494 2008.1845164051629 0 2008.1845164051629 249.36092513017502 0 0 0 0 -7.1061625827348642 0.32004415022791477 0 0.32004415022791477 24.147559047029461 0 0 0 0 -326.32193410345371 288.78209054049512 0 288.78209054049512 -831.7609392284794 0 0 0 0 -1010.6207578214398 -422.91226225554601 0 -422.91226225554601 617.22208721138304 0 0 0 0 1.7961933839645505 1.5339303188059716 0 1.5339303188059716 3.0791352128559595 0 0 0 0 226.08453098086216 -588.75833530606178 0 -588.75833530606178 1077.0108432478301 0 0 0 0 471.84375839036511 386.94307059382845 0 386.94307059382845 266.44566309067159 0 0 0 0 -397.69642121921754 65.40452857200853 0 65.40452857200853 351.05619449168444 0 0 0 0 0.74697252051819618 -347.39783506812819 0 -347.39783506812819 978.25181749960029 0 0 0 0 1.3022459208033152 1.2655587236730241 0 1.2655587236730241 5.4064358613683794 0 0 0 0 229.30292860810357 -604.94998255746032 0 -604.94998255746032 1191.6992292587092 0 0 0 0 202.93764291419228 -586.72147443710855 0 -586.72147443710855 1274.0283254438546 0 0 0 0 231.56114686893136 -712.09595676757453 0 -712.09595676757453 1315.7387918072054 0 0 0 0 34.652631899144808 -665.52802064861316 0 -665.52802064861316 1820.7217135087994 0 0 0 0 0.022174328339231275 -494.64181008399464 0 -494.64181008399464 1481.2862822337775 0 0 0 0 -33.599645229372527 -717.59957519447926 0 -717.59957519447926 1833.5654505839193 0 0 0 0 -106.71035597143327 -821.42413622434833 0 -821.42413622434833 2619.9645556119553 0 0 0 0 185.22629436445345 -1121.2915841646027 0 -1121.2915841646027 1694.0124183733278 0 0 0 0 64.884202967201873 -752.05420013783441 0 -752.05420013783441 1806.7862088453694 0 0 0 0 163.28582028308028 -1126.9509886485503 0 -1126.9509886485503 1145.5703738754382 0 0 0 0 -154.25466915397192 -163.92101050225756 0 -163.92101050225756 407.17736140513443 0 0 0 0 71.048809225800483 -769.07636721780364 0 -769.07636721780364 1255.9613911655324 0 0 0 0 146.47651967499405 -635.34294787436374 0 -635.34294787436374 1436.294233555971 0 0 0 0 590.43691031901994 -1725.7517450343589 0 -1725.7517450343589 1952.4969244877575 0 0 0 0 606.91389383014848 -1569.4038203025862 0 -1569.4038203025862 2374.842815693075 0 0 0 0 1575.9369950664 -1891.3131825798046 0 -1891.3131825798046 1963.6215664707361 0 0 0 0 -259.63137030687341 -1812.2888412944503 0 -1812.2888412944503 4976.2081247613023 0 0 0 0 394.46786668629289 -1722.9398820243332 0 -1722.9398820243332 3945.8096030804736 0 0 0 0 411.80973799697989 -751.90985590189302 0 -751.90985590189302 3866.4843671895501 0 0 0 0 525.76947394199999 -1380.6745223172111 0 -1380.6745223172111 4999.7073656814937 0 0 0 0 860.81748435526333 -881.28754006501549 0 -881.28754006501549 5447.1895906162245 0 0 0 0 -3.3506241279325639 3.1932549997478645 0 3.1932549997478645 19.72578419715191 0 0 0 0 1262.2669386329603 -2932.7242055030511 0 -2932.7242055030511 5829.8707357436115 0 0 0 0 115.00208853283709 439.00598188861477 0 439.00598188861477 375.84691070654662 0 0 0 0 1972.8221609508935 -250.2585717974689 0 -250.2585717974689 2016.175172654679 0 0 0 0 432.09256770960377 -1299.415808637641 0 -1299.415808637641 1396.1418472928635 0 0 0 0 382.83995487843015 105.3578708624118 0 105.3578708624118 1006.726077206753 0 0 0 0 -28.712284379021192 -978.99423742866747 0 -978.99423742866747 4999.7978673454345 0 0 0 0 -10.221435997352987 9.1140519414889525 0 9.1140519414889525 37.30465975572983 0 0 0 0 260.31329407661821 -410.07847302700247 0 -410.07847302700247 963.70807086293644 0 0 0 0 -1137.563134148322 -749.13464741591815 0 -749.13464741591815 3861.0118077114821 0 0 0 0 411.57202318636359 -930.291438132248 0 -930.291438132248 2542.1867615467854 0 0 0 0 -444.86540373029771 -1330.3939300057866 0 -1330.3939300057866 4202.4083841454849 0 0 0 0 -469.27896075733122 -1018.9586046333279 0 -1018.9586046333279 5058.5115120725022 0 0 0 0 1072.9191326950693 -1882.6452411446571 0 -1882.6452411446571 2929.929759554987 0 0 0 0 -913.73209305825458 -1309.4594545092696 0 -1309.4594545092696 4882.0576684526604 0 0 0 0 -710.72209945337727 -570.90172404714394 0 -570.90172404714394 4779.8206798193369 0 0 0 0 747.25659639762443 -1129.5279839788991 0 -1129.5279839788991 4573.6106896715501 0 0 0 0 -461.70903291065247 -400.83042160435434 0 -400.83042160435434 4742.8292251102503 0 0 0 0 -821.24514449637934 -1179.7012079222914 0 -1179.7012079222914 3644.609350297018 0 0 0 0 -436.34414514287346 172.24210124832462 0 172.24210124832462 1326.6473602007682 0 0 0 0 -435.29434277646283 95.085611358459573 0 95.085611358459573 1543.8166146152362 0 0 0 0 -9.4186380181126612 3.3394060576258369 0 3.3394060576258369 0.24059858011069934 0 0 0 0 -115.76817199363813 -367.88068850187119 0 -367.88068850187119 712.30791451601544 0 0 0 0 -32.605700745898922 0.20356257729955018 0 0.20356257729955018 16.913195929354991 0 0 0 0 91.297308424374705 -349.70270384513242 0 -349.70270384513242 672.46809543852578 0 0 0 0 -580.77734115649855 -201.97186969509494 0 -201.97186969509494 814.32684504384815 0 0 0 0 -978.03138032616789 908.10288183477655 0 908.10288183477655 110.6094719448738 0 0 0 0 1621.8082357344374 -2610.2555253097962 0 -2610.2555253097962 3115.1194983871969 0 0 0 0 -7.7473922561855062 1.0018366907312384 0 1.0018366907312384 16.360949275302744 0 0 0 0 -950.85145842091424 -44.231931302871089 0 -44.231931302871089 1297.0102076224066 0 0 0 0 -383.86763604311636 -746.44475245687863 0 -746.44475245687863 2086.7991880259797 0 0 0 0 -59.871444212023562 -989.83140931896196 0 -989.83140931896196 2015.1586739527993 0 0 0 0 174.2194884258829 -615.47723566618151 0 -615.47723566618151 1832.529756632357 0 0 0 0 108.83004081416129 -959.3705855496155 0 -959.3705855496155 1882.4684392925556 0 0 0 0 -17.370410448059374 -868.58543225070025 0 -868.58543225070025 1856.537511494811 0 0 0 0 340.21735783844724 -1315.6458330148453 0 -1315.6458330148453 3121.9873845100956 0 0 0 0 749.59457968254651 -823.02727286255868 0 -823.02727286255868 1432.299603781983 0 0 0 0 606.64789969034086 -895.7681307679668 0 -895.7681307679668 1399.3109611088803 0 0 0 0 399.39021881964845 -1400.7463762337138 0 -1400.7463762337138 2424.8013531090764 0 0 0 0 867.95051935815536 -1393.7847708550544 0 -1393.7847708550544 2136.7275091064585 0 0 0 0 -13.954207477826593 6.1595406495353586 0 6.1595406495353586 34.792783470505213 0 0 0 0 -587.29347158590872 -410.50567839178984 0 -410.50567839178984 982.12455417006277 0 0 0 0 359.26864351325617 -1400.6556083715768 0 -1400.6556083715768 2179.0260011086066 0 0 0 0 377.37891822789618 -1469.7449800574286 0 -1469.7449800574286 2385.0585395729577 0 0 0 0 288.63069417061376 -1958.5410254283997 0 -1958.5410254283997 4013.7467535640972 0 0 0 0 5.7880678103886849 -12.416416918322717 0 -12.416416918322717 30.9583900549693 0 0 0 0 2113.5230892098439 -2133.1650588864541 0 -2133.1650588864541 998.85227687862789 0 0 0 0 226.95485093096954 -1622.2084478775432 0 -1622.2084478775432 2235.9782883500302 0 0 0 0 388.64600320364576 -1305.2888887926078 0 -1305.2888887926078 1890.6479903917207 0 0 0 0 789.91841232206707 -1391.0290094872908 0 -1391.0290094872908 1327.750871167882 0 0 0 0 647.2696735208491 -454.79857236595126 0 -454.79857236595126 278.86518165736925 0 0 0 0 -572.2081605650792 -400.84448085892654 0 -400.84448085892654 665.99370522347454 0 0 0 0 659.54875758104936 -332.99390264437034 0 -332.99390264437034 -165.76057143701473 0 0 0 0 180.4563144430897 93.776872542715864 0 93.776872542715864 -427.7662324603225 0 0 0 0 -662.29944037418682 -655.4541956785979 0 -655.4541956785979 19.624871872991207 0 0 0 0 -17.540469743842721 151.47245556195776 0 151.47245556195776 4.6859099180874182 0 0 0 0 8.2123574237625689 -27.189586586959493 0 -27.189586586959493 82.400310431650269 0 0 0 0 349.86990700118554 -75.42400615348015 0 -75.42400615348015 127.62339238802451 0 0 0 0 147.11779335164076 378.64163670512789 0 378.64163670512789 512.30748602564563 0 0 0 0 -7.4492888216116171 -509.63787653922554 0 -509.63787653922554 1814.9735925498171 0 0 0 0 125.40379759733906 665.59118423264408 0 665.59118423264408 2307.4881417932047 0 0 0 0 102.89349113930075 -1530.1972727330503 0 -1530.1972727330503 3344.5232225138316 0 0 0 0 362.68162601273247 -885.31033887536796 0 -885.31033887536796 994.64207394585537 0 0 0 0 -559.51716581776418 -443.88148022434325 0 -443.88148022434325 42.710219709203557 0 0 0 0 -207.66970841179318 6.6926492475176929 0 6.6926492475176929 76.226461189832662 0 0 0 0 -321.21155669047766 134.40004972025054 0 134.40004972025054 825.3528725271899 0 0 0 0 -256.22400057313553 47.919627166644204 0 47.919627166644204 185.05055741951219 0 0 0 0 -493.4936800363912 -249.00506233768829 0 -249.00506233768829 146.92753336770693 0 0 0 0 -105.13194873318025 59.254213139458443 0 59.254213139458443 78.721571424841386 0 0 0 0 -395.21926736406692 -312.43078706923552 0 -312.43078706923552 168.73510653704579 0 0 0 0 -1101.980195259157 -391.16806698873552 0 -391.16806698873552 254.42011360936158 0 0 0 0 8.973056779213044 -38.297867231677394 0 -38.297867231677394 135.09501094520624 0 0 0 0 -233.74525261512895 767.19542844195144 0 767.19542844195144 549.95104672078742 0 0 0 0 -422.0510013520593 487.69904010629944 0 487.69904010629944 -359.2871532095669 0 0 0 0 52.478461437123769 -227.89881829308433 0 -227.89881829308433 -76.291094927466474 0 0 0 0 -301.76779693750632 -40.491738863056526 0 -40.491738863056526 1133.5300227718544 0 0 0 0 8.5850338580039089 -34.551692542145709 0 -34.551692542145709 116.09781069248425 0 0 0 0 -1071.1895604681558 -308.12669798157003 0 -308.12669798157003 186.71355688720359 0 0 0 0 -1111.443253225204 -505.13542269831669 0 -505.13542269831669 153.49597849790007 0 0 0 0 -491.82254930741692 108.44831806002185 0 108.44831806002185 68.155876945296768 0 0 0 0 -520.76405851291383 -78.31882634809881 0 -78.31882634809881 115.27550635059379 0 0 0 0 -704.99634166789292 -445.4510449472873 0 -445.4510449472873 -203.69323594962771 0 0 0 0 -648.00479352296134 -45.345506964062224 0 -45.345506964062224 -33.846046746504726 0 0 0 0 -378.59713808785909 -217.07792435504234 0 -217.07792435504234 57.29245755446027 0 0 0 0 235.13652048842482 -24.615608923268155 0 -24.615608923268155 55.796286775337649 0 0 0 0 -119.62067803577293 55.471915658563375 0 55.471915658563375 214.26314270214061 0 0 0 0 252.33387223444834 -24.867874441108142 0 -24.867874441108142 -44.18065699620638 0 0 0 0 -244.94561245399564 -321.99927566696351 0 -321.99927566696351 109.11472853911982 0 0 0 0 511.48834359489024 -162.29049207220669 0 -162.29049207220669 162.17230215727614 0 0 0 0 265.98184127446331 -336.58619087506327 0 -336.58619087506327 565.18787585660175 0 0 0 0 264.17591397784679 76.656647110303311 0 76.656647110303311 297.08267128575244 0 0 0 0 395.02474434416763 176.35316523181245 0 176.35316523181245 213.16030367951362 0 0 0 0 -54.140364173670605 -28.695374305636506 0 -28.695374305636506 222.0279367191979 0 0 0 0 -10.44790493681694 -198.61189376575203 0 -198.61189376575203 409.64614303033159 0 0 0 0 219.82164503706559 261.41165969213762 0 261.41165969213762 640.68254634263576 0 0 0 0 249.37412919169401 -116.11659126642189 0 -116.11659126642189 616.91974958266655 0 0 0 0 171.25668693859552 37.643963860420627 0 37.643963860420627 -363.057623040615 0 0 0 0 235.42687850440279 -218.19738131466875 0 -218.19738131466875 171.07339579133986 0 0 0 0 188.16589853514677 -2.7317400544670818 0 -2.7317400544670818 362.63716374681098 0 0 0 0 391.19742665776425 17.366076027887175 0 17.366076027887175 298.74719334412111 0 0 0 0 291.49524299657065 -109.5574600119362 0 -109.5574600119362 467.62630128029559 0 0 0 0 130.1001876611748 82.179810251451272 0 82.179810251451272 315.45219841181824 0 0 0 0 474.90968318044366 -379.25054088200432 0 -379.25054088200432 740.85142500890652 0 0 0 0 523.16550441397067 -362.54842021971126 0 -362.54842021971126 746.50345346038375 0 0 0 0 413.97945465593921 -122.48578169428947 0 -122.48578169428947 439.1172539109466 0 0 0 0 395.558206809132 -463.01801519555102 0 -463.01801519555102 743.49764387609321 0 0 0 0 123.33814915421863 -223.72690455094562 0 -223.72690455094562 556.877023626148 0 0 0 0 128.97130644910158 -365.82330908645963 0 -365.82330908645963 997.2083287089481 0 0 0 0 606.87303561383465 -910.58869425275543 0 -910.58869425275543 1364.4570579252322 0 0 0 0 10.060814497953288 -613.80671284403434 0 -613.80671284403434 1329.9262822469755 0 0 0 0 196.74763218989938 -411.05458969076426 0 -411.05458969076426 810.21075854546507 0 0 0 0 92.35037086268494 -370.50367426956655 0 -370.50367426956655 826.57843705857522 0 0 0 0 -46.915689845060115 -298.94660167532129 0 -298.94660167532129 741.27736791488132 0 0 0 0 101.31085055759922 -243.64966856415413 0 -243.64966856415413 183.82127881841734 0 0 0 0 255.48232191188436 -777.29690867218596 0 -777.29690867218596 145.51170846252262 0 0 0 0 170.56133208634765 -854.67629072698037 0 -854.67629072698037 803.69877234936575 0 0 0 0 24.551463021683503 -289.31187814573786 0 -289.31187814573786 516.35538946447195 0 0 0 0 174.81311216328686 -415.46469940718816 0 -415.46469940718816 480.60625639869249 0 0 0 0 14.400002662104271 -292.61256027110358 0 -292.61256027110358 548.42830805678386 0 0 0 0 -175.35963759364495 -501.83288974533207 0 -501.83288974533207 471.86562956079251 0 0 0 0 5.5146869856693463 -0.94167294126845036 0 -0.94167294126845036 1.3638011870254303 0 0 0 0 -654.79318607142523 266.1848451684491 0 266.1848451684491 385.20800247668012 0 0 0 0 -158.60145148545689 74.889899457441061 0 74.889899457441061 1293.5630106101016 0 0 0 0 11.372145829424902 -5.9690277170628292 0 -5.9690277170628292 4.1145284324379077 0 0 0 0 1635.3412801778377 -1230.8357553765381 0 -1230.8357553765381 1682.0379037453094 0 0 0 0 -656.97312423359438 -413.79840127158297 0 -413.79840127158297 1468.2846185166272 0 0 0 0 -234.15107620856816 -110.69175919033296 0 -110.69175919033296 929.24462773604318 0 0 0 0 28.670350990650149 -96.675481116413721 0 -96.675481116413721 398.80710374019236 0 0 0 0 15.995573003285699 -58.396456652757479 0 -58.396456652757479 773.0023693125986 0 0 0 0 -6.0532258429175272 -183.74591101630358 0 -183.74591101630358 947.78745798792806 0 0 0 0 407.46813856200424 -343.45315085933544 0 -343.45315085933544 48.555095632407756 0 0 0 0 348.84455490986807 212.26366071635493 0 212.26366071635493 694.86523823003517 0 0 0 0 -142.84476897624336 77.518930633937998 0 77.518930633937998 1684.1292904333532 0 0 0 0 -113.89389711674255 357.08037563294783 0 357.08037563294783 651.19094213523204 0 0 0 0 -0.74738561986197283 0.4620882155459185 0 0.4620882155459185 0.11165586525513049 0 0 0 0 -2.9996934381471796 2.0255999085201211 0 2.0255999085201211 -0.80130505327218771 0 0 0 0 132.61606832737209 70.69733047693444 0 70.69733047693444 69.237415550058358 0 0 0 0 66.113308313665129 103.3336932559323 0 103.3336932559323 87.026122102106456 0 0 0 0 48.845520535443939 -22.546285167321912 0 -22.546285167321912 398.86379535228036 0 0 0 0 131.17996046612143 37.502110223809723 0 37.502110223809723 160.55784896636032 0 0 0 0 90.592385638682117 82.065248304301349 0 82.065248304301349 189.20144614501623 0 0 0 0 98.134726445279739 79.114310285287502 0 79.114310285287502 142.60663336588186 0 0 0 0 105.62969251533559 103.53999433146237 0 103.53999433146237 144.40786564379232 0 0 0 0 115.25614112716812 95.028437579152524 0 95.028437579152524 102.11845643736888 0 0 0 0 70.074349905451527 72.664497391728219 0 72.664497391728219 99.134494331819951 0 0 0 0 92.010605380597099 89.515178238449153 0 89.515178238449153 89.050733093361487 0 0 0 0 64.637238143563991 48.302130181720713 0 48.302130181720713 61.525717550495756 0 0 0 0 42.81498216143882 72.810192648714292 0 72.810192648714292 135.16594022254867 0 0 0 0 87.03076152583219 111.64378047116952 0 111.64378047116952 152.66847617123858 0 0 0 0 -1.7591103382768178 1.1766518042479106 0 1.1766518042479106 -0.26133469408725318 0 0 0 0 -5.4832832950232842 78.879668015630159 0 78.879668015630159 148.65166173486796 0 0 0 0 60.604487327457264 94.215049358474062 0 94.215049358474062 126.24914691245067 0 0 0 0 40.703346817012971 84.574901108484482 0 84.574901108484482 125.44980249876426 0 0 0 0 43.181559624652436 90.238205111265415 0 90.238205111265415 111.19400548953854 0 0 0 0 60.522422654710454 31.956181886722334 0 31.956181886722334 -3.1161504267074633 0 0 0 0 -15.688321956795919 6.5897647713006791 0 6.5897647713006791 -3.3807234600431286 0 0 0 0 102.65031777902846 -31.81772030339198 0 -31.81772030339198 -89.749762829262181 0 0 0 0 46.375265054953843 -528.8255972498082 0 -528.8255972498082 842.54704867111286 0 0 0 0 57.722153700997161 314.07527846705858 0 314.07527846705858 304.90004261991999 0 0 0 0 -59.981768333687569 -55.278115705768869 0 -55.278115705768869 705.03508560760383 0 0 0 0 -109.7380940374876 174.21974748556386 0 174.21974748556386 700.5395303842015 0 0 0 0 2.5916018219845842 -2.7593803883973891 0 -2.7593803883973891 4.8962140393379059 0 0 0 0 -196.23352030884325 -167.22770190587471 0 -167.22770190587471 291.00718023852824 0 0 0 0 705.88377736348593 677.77947266328556 0 677.77947266328556 502.96744325291365 0 0 0 0 -91.861164587729945 47.500695034606906 0 47.500695034606906 29.325810634021764 0 0 0 0 -25.012519603044439 129.41709322896349 0 129.41709322896349 103.55492450793827 0 0 0 0 -61.78529801332752 28.024448427495372 0 28.024448427495372 111.8514463785541 0 0 0 0 53.398024312726193 108.57293958420632 0 108.57293958420632 123.46656152380092 0 0 0 0 -2.0867243724317301 1.2506705724153733 0 1.2506705724153733 -0.26191372839835481 0 0 0 0 -69.149052343576841 25.974162850776338 0 25.974162850776338 120.67231411694956 0 0 0 0 5.7823165084814718 -9.0880685781739885 0 -9.0880685781739885 65.536667626467533 0 0 0 0 -34.938299132097839 15.660352893102669 0 15.660352893102669 -0.71174608962516572 0 0 0 0 6.8954747464420052 -25.471998599379731 0 -25.471998599379731 -19.981948417407693 0 0 0 0 -51.967582390164353 39.4847350497148 0 39.4847350497148 29.413719646734535 0 0 0 0 152.89106144178913 173.90579532059201 0 173.90579532059201 244.43489444656734 0 0 0 0 5.187144155842855 8.0960496884202371 0 8.0960496884202371 2.4656963633601947 0 0 0 0 188.94069274870708 4.3630440558190458 0 4.3630440558190458 13.518253761765664 0 0 0 0 144.88088325343415 188.76609833203474 0 188.76609833203474 92.721996200270951 0 0 0 0 -56.169611140003326 52.16321997041814 0 52.16321997041814 28.460644309627241 0 0 0 0 -104.49377589754931 10.426059847435681 0 10.426059847435681 53.318966882390669 0 0 0 0 -22.245033879859253 22.7915126297423 0 22.7915126297423 10.174189249954964 0 0 0 0 100.36929258390774 50.129044726796565 0 50.129044726796565 5.9737836187414359 0 0 0 0 109.47721653631288 63.78328307134143 0 63.78328307134143 -75.467568894906435 0 0 0 0 -56.885975424524077 135.47471933947236 0 135.47471933947236 42.182297132458189 0 0 0 0 -17.383385032424112 27.709477002049198 0 27.709477002049198 11.14540752812519 0 0 0 0 -15.409751230955933 19.815111455371635 0 19.815111455371635 83.514767663940063 0 0 0 0 -45.122674624454248 122.47370706325819 0 122.47370706325819 19.650937882688595 0 0 0 0 -13.946542289253721 15.163650938220641 0 15.163650938220641 8.8957247604359395 0 0 0 0 -93.451052594184148 169.8387160001439 0 169.8387160001439 156.43290089955553 0 0 0 0 -80.678023255371954 88.489873189624632 0 88.489873189624632 52.906295205757488 0 0 0 0 -96.412652964352674 105.09465184250439 0 105.09465184250439 19.577057395363227 0 0 0 0 -118.91015769570913 89.65979823716043 0 89.65979823716043 137.23316983442419 0 0 0 0 -93.90047166336808 146.16549926226435 0 146.16549926226435 262.89756972641044 0 0 0 0 154.24274359056653 176.72357414310682 0 176.72357414310682 178.75056172450422 0 0 0 0 -175.50964882021617 189.52823770796385 0 189.52823770796385 211.78434828827449 0 0 0 0 -56.729795859593651 84.388647589919856 0 84.388647589919856 238.41332775150659 0 0 0 0 -5.3995144098634302 -4.7025426852877814 0 -4.7025426852877814 19.298355438117312 0 0 0 0 366.47974264215736 303.84068295361067 0 303.84068295361067 169.098706861143 0 0 0 0 139.83251763583394 332.56579914984468 0 332.56579914984468 301.57095377886435 0 0 0 0 -118.23748092543974 168.90493275113113 0 168.90493275113113 333.37410263802667 0 0 0 0 -69.451364932067008 57.619089726125821 0 57.619089726125821 111.07040160078031 0 0 0 0 -824.08938986348585 -132.30952618756783 0 -132.30952618756783 399.11114661794272 0 0 0 0 953.45339136931966 -246.56743743666448 0 -246.56743743666448 1032.1923298191105 0 0 0 0 1053.5316906981291 -642.55096336160204 0 -642.55096336160204 2410.6789421449357 0 0 0 0 20.123049535225874 416.0198344503151 0 416.0198344503151 737.55340513915871 0 0 0 0 256.54561723951377 -210.88054146195282 0 -210.88054146195282 2396.5283625692828 0 0 0 0 405.62843319856512 436.36708596559765 0 436.36708596559765 951.98349127161782 0 0 0 0 352.06303602396474 925.12054281920427 0 925.12054281920427 2132.1165736888561 0 0 0 0 1.9521449766613723 -5.9978767634158885 0 -5.9978767634158885 11.551549562687683 0 0 0 0 311.8529077776156 -882.48335536170362 0 -882.48335536170362 959.29054746733163 0 0 0 0 366.19837298313348 -340.0787463939937 0 -340.0787463939937 89.722253643092699 0 0 0 0 -178.9178518885318 -321.56901437656779 0 -321.56901437656779 2167.6658402031535 0 0 0 0 -1.2671903655943229 -293.2316004339591 0 -293.2316004339591 1941.6557839542947 0 0 0 0 192.09295300176291 -520.28058140790381 0 -520.28058140790381 1144.5427438960469 0 0 0 0 -34.991678396488396 -634.95589953538001 0 -634.95589953538001 2449.9297276152211 0 0 0 0 241.22348495245751 -152.02781703791698 0 -152.02781703791698 2162.50514488206 0 0 0 0 -116.98725041527678 -377.75587842055393 0 -377.75587842055393 3054.9827910209424 0 0 0 0 -12.414119805120379 -423.69703754498187 0 -423.69703754498187 2405.2748663308157 0 0 0 0 0.22625399241662714 -276.78679138688312 0 -276.78679138688312 2651.5670273865981 0 0 0 0 -171.38587808111504 -179.06871601587773 0 -179.06871601587773 2956.0434741207937 0 0 0 0 -110.62235926236147 -452.62827312424997 0 -452.62827312424997 2383.0660728044168 0 0 0 0 14.295983920440221 417.8279573879845 0 417.8279573879845 3451.9169232181448 0 0 0 0 1206.9901392672755 -2053.5543390383209 0 -2053.5543390383209 4441.494692199456 0 0 0 0 464.64380596622084 -1430.3212122000841 0 -1430.3212122000841 4483.8222744513114 0 0 0 0 1200.7056489191436 -1562.4230644930649 0 -1562.4230644930649 1640.8622122262605 0 0 0 0 1092.8133885711786 -933.87624276814677 0 -933.87624276814677 -656.52232627781632 0 0 0 0 12.654030876937082 -13.193849326143834 0 -13.193849326143834 10.933217185568083 0 0 0 0 615.17540627996641 -1406.7486445902468 0 -1406.7486445902468 6067.6868006053846 0 0 0 0 -1776.1482704329555 4.4787696574931033 0 4.4787696574931033 3401.374966585834 0 0 0 0 2898.8352493490793 -4472.1740975508146 0 -4472.1740975508146 5138.1533415955928 0 0 0 0 -378.28834461577389 -706.48657932768401 0 -706.48657932768401 6025.6949508889084 0 0 0 0 868.81320144027177 -1926.1225701510193 0 -1926.1225701510193 3432.6002443659672 0 0 0 0 -240.79172967825434 -334.99896062108746 0 -334.99896062108746 3624.5567520902805 0 0 0 0 -272.26323819409845 327.94518752204021 0 327.94518752204021 1371.9724385612099 0 0 0 0 227.53402563260533 -584.36192210948502 0 -584.36192210948502 1154.1800893775799 0 0 0 0 95.586448432957695 -444.30318276985781 0 -444.30318276985781 1566.7784762047086 0 0 0 0 648.98867731532664 130.8794912340818 0 130.8794912340818 1657.2422163342271 0 0 0 0 -178.18396750386273 -420.81154718601465 0 -420.81154718601465 1296.5490836156823 0 0 0 0 -274.852989455223 -408.8472904170485 0 -408.8472904170485 1784.507970419465 0 0 0 0 -427.06983505253811 -504.89076377836318 0 -504.89076377836318 2460.6878941166942 0 0 0 0 -241.51432201170974 -490.86653696889698 0 -490.86653696889698 1248.7756676931167 0 0 0 0 -177.02549612963776 -208.89290015306324 0 -208.89290015306324 816.55262951158511 0 0 0 0 -336.13370970545293 13.456118281545059 0 13.456118281545059 798.61423401028878 0 0 0 0 357.99122131464992 -615.20805335634941 0 -615.20805335634941 -838.10186823307595 0 0 0 0 -44.360551214442239 71.662330200291763 0 71.662330200291763 -218.09723275082069 0 0 0 0 18.16262711409151 -19.781678771654924 0 -19.781678771654924 14.131335780800924 0 0 0 0 -13.596354171897019 -351.55795523944835 0 -351.55795523944835 -24.476419815735426 0 0 0 0 -25.524236983550509 103.46240885971929 0 103.46240885971929 1678.6685492361357 0 0 0 0 726.57394040532927 429.66915403182793 0 429.66915403182793 1814.794710586677 0 0 0 0 8.6249630416348584 -6.3402099456842791 0 -6.3402099456842791 4.7068332647545077 0 0 0 0 6.4914637347738875 -6.5357991554170667 0 -6.5357991554170667 5.6804794451645932 0 0 0 0 -1254.4271585895985 1205.7648726641492 0 1205.7648726641492 2679.187521322252 0 0 0 0 -2.7594739685000604 58.738217870661174 0 58.738217870661174 982.21553193745785 0 0 0 0 -83.080075926970494 -420.17473038330354 0 -420.17473038330354 613.05405994137982 0 0 0 0 25.728252116125553 -25.083056937730873 0 -25.083056937730873 17.081282865583347 0 0 0 0 -464.1924183409738 47.407356921619794 0 47.407356921619794 1652.1548681853164 0 0 0 0 -263.37862183819198 299.12286749022314 0 299.12286749022314 1857.3788798479654 0 0 0 0 2.163879488938699 -3.2188909702508965 0 -3.2188909702508965 3.1192584810621611 0 0 0 0 -120.94784583681439 63.042945647437591 0 63.042945647437591 869.40384556748177 0 0 0 0 75.259911415969782 50.32637009278551 0 50.32637009278551 682.23738429608056 0 0 0 0 -195.82179856580274 102.33872992512443 0 102.33872992512443 900.97888754858286 0 0 0 0 -183.3593872778722 222.45269988101791 0 222.45269988101791 1683.2400885228708 0 0 0 0 265.82157740538844 570.71586274955189 0 570.71586274955189 1078.2739749515895 0 0 0 0 34.593284797100274 22.514820220298134 0 22.514820220298134 296.0639571788488 0 0 0 0 -18.401072188737999 173.20479835831793 0 173.20479835831793 706.44043062478886 0 0 0 0 373.99799883675161 531.41395901067881 0 531.41395901067881 111.38911428168649 0 0 0 0 -29.093575984105854 272.73907826909362 0 272.73907826909362 765.84877243277151 0 0 0 0 -37.872732392823423 161.90456190869736 0 161.90456190869736 606.95990505738882 0 0 0 0 1.259064589603895 90.475321562902536 0 90.475321562902536 520.0579410099599 0 0 0 0 -11.024062418023959 227.74269509883015 0 227.74269509883015 338.17258502365439 0 0 0 0 23.315994924169672 -88.522324819816276 0 -88.522324819816276 14.028663827302807 0 0 0 0 -2.6399015041343867 -5.9018736185992395 0 -5.9018736185992395 19.67864411350331 0 0 0 0 139.64197345394041 -6.3308209296228597 0 -6.3308209296228597 422.57114056887804 0 0 0 0 115.30557170353859 181.7555496688874 0 181.7555496688874 857.07773791527143 0 0 0 0 149.68798174159451 36.072324202104937 0 36.072324202104937 705.4715068161604 0 0 0 0 65.294997810284258 44.348996043379884 0 44.348996043379884 707.67487571007223 0 0 0 0 123.85620169725485 -20.468297852210526 0 -20.468297852210526 558.86724248435348 0 0 0 0 53.45170776681789 73.190218397270655 0 73.190218397270655 500.02401582692255 0 0 0 0 18.180652420905062 179.90172584303946 0 179.90172584303946 760.695709624546 0 0 0 0 -15.195663654150621 50.404953860277601 0 50.404953860277601 260.92052466180758 0 0 0 0 111.70197862844134 29.987688683140732 0 29.987688683140732 261.30856509480509 0 0 0 0 167.28791496430722 15.162621407798724 0 15.162621407798724 237.45941628429864 0 0 0 0 61.584986219554594 48.287960685047437 0 48.287960685047437 229.12587678664568 0 0 0 0 91.264420238610001 30.996528621108155 0 30.996528621108155 419.00169047091003 0 0 0 0 91.450530036692726 74.572124084967072 0 74.572124084967072 94.262273769330932 0 0 0 0 125.31538140455996 54.967896994356124 0 54.967896994356124 104.90978919461486 0 0 0 0 82.035526390341872 -25.802729533084403 0 -25.802729533084403 -4.6531502502039075 0 0 0 0 120.5625022870579 80.438915003585862 0 80.438915003585862 58.128936346431146 0 0 0 0 -30.471743628188506 -48.308513523807051 0 -48.308513523807051 17.640049606139655 0 0 0 0 3.93644864612012 -12.401222469489738 0 -12.401222469489738 26.149085213858541 0 0 0 0 32.514656485620549 -24.983842000830919 0 -24.983842000830919 54.204442078073043 0 0 0 0 70.363415575212457 35.441857886573416 0 35.441857886573416 8.2101700612620334 0 0 0 0 92.057292335610782 33.247007831156225 0 33.247007831156225 6.4458402687450871 0 0 0 0 1.0739206841360467 -2.6048945886329875 0 -2.6048945886329875 6.1657250524818608 0 0 0 0 7.6340435339322994 -13.889831735876214 0 -13.889831735876214 23.776077892805915 0 0 0 0 6.7845260468498054 -15.755973600040306 0 -15.755973600040306 26.916476500955469 0 0 0 0 7.2394903105952153 -13.437548571564548 0 -13.437548571564548 26.428607431531418 0 0 0 0 -16.408202874686594 18.65639500162797 0 18.65639500162797 7.3086511954315938 0 0 0 0 1.6380128129929812 -10.607665779594299 0 -10.607665779594299 22.165377587856597 0 0 0 0 -28.790323603756178 -10.796637639650726 0 -10.796637639650726 40.871503260394093 0 0 0 0 10.731548301410385 -5.0872541087737773 0 -5.0872541087737773 28.267737336223945 0 0 0 0 -1.0091691549278039 -29.204522572195856 0 -29.204522572195856 65.606947544023569 0 0 0 0 13.734270195064369 4.5090705967886606 0 4.5090705967886606 57.861761295644101 0 0 0 0 -24.357490169231369 -0.96471445132920053 0 -0.96471445132920053 45.121933819944388 0 0 0 0 -28.254899915958394 22.845923794101225 0 22.845923794101225 16.312486488721333 0 0 0 0 -16.765581993932301 -7.2975919253949542 0 -7.2975919253949542 11.625364472969522 0 0 0 0 -0.35105160715757755 0.059462129020971588 0 0.059462129020971588 -0.3847638736646104 0 0 0 0 2.0546347994525149 -12.392690980595944 0 -12.392690980595944 14.795059916124501 0 0 0 0 2.1795431729083248 -11.456404999902588 0 -11.456404999902588 19.94194219606652 0 0 0 0 2.2902177038026501 -6.0313496311272417 0 -6.0313496311272417 13.726789468408526 0 0 0 0 0.072732700759274849 -5.036799818284635 0 -5.036799818284635 14.54407320448081 0 0 0 0 1.8766915039294645 -8.8060056664289732 0 -8.8060056664289732 22.275231030653231 0 0 0 0 7.1631582588764786 -15.747360976805794 0 -15.747360976805794 25.266553444875171 0 0 0 0 3.8437910157992974 -8.36724623250484 0 -8.36724623250484 18.309926388155873 0 0 0 0 -3.0861268496616958 -3.2498708389830426 0 -3.2498708389830426 21.447054848482367 0 0 0 0 -5.3745467336813135 -10.289254044109839 0 -10.289254044109839 28.188688977570564 0 0 0 0 -1.7885203503340108 -5.1872912364342483 0 -5.1872912364342483 23.853918046770559 0 0 0 0 -87.320083309727437 -332.93436266159188 0 -332.93436266159188 147.00958654400893 0 0 0 0 186.05118663060955 290.53477440697316 0 290.53477440697316 -90.128624892327935 0 0 0 0 -8.3861982052948498 1.3426476697199519 0 1.3426476697199519 10.28936438064423 0 0 0 0 -1.576142945987284 -0.6154487222901821 0 -0.6154487222901821 7.4586803793984586 0 0 0 0 -301.90457166741578 -38.666547619897756 0 -38.666547619897756 1298.507367236085 0 0 0 0 0.018636823661164346 0.92701513424981385 0 0.92701513424981385 4.6199232489452697 0 0 0 0 0.15376861136467723 -0.51962803333219654 0 -0.51962803333219654 1.5703156166767371 0 0 0 0 163.54716878831309 -264.77535237458682 0 -264.77535237458682 116.61559470830252 0 0 0 0 163.23683636239775 127.61983628294547 0 127.61983628294547 649.59645201746025 0 0 0 0 -1.8769827800364709 -5.7484330285069518 0 -5.7484330285069518 22.565240307478234 0 0 0 0 -3.5016961177146109 4.1638720461272953 0 4.1638720461272953 8.1424545417371235 0 0 0 0 151.39996905188002 102.04717516504752 0 102.04717516504752 -95.320261663313431 0 0 0 0 0.34693015224719281 -0.12568293751243687 0 -0.12568293751243687 3.7388104467237326 0 0 0 0 -95.492478302193717 -145.92795006821689 0 -145.92795006821689 170.10987793537424 0 0 0 0 2.7970074354182657 1.3885503183992114 0 1.3885503183992114 4.1480620170332259 0 0 0 0 0.56332254467898046 -6.5137795062037185 0 -6.5137795062037185 17.550374250888126 0 0 0 0 -0.0018452877052320762 -2.7995274675340625 0 -2.7995274675340625 10.036604130742489 0 0 0 0 0.32569052815287908 -1.0714504736534707 0 -1.0714504736534707 2.6435042491597187 0 0 0 0 0.64494831471339165 -6.4479472900857218 0 -6.4479472900857218 14.403344312508125 0 0 0 0 -2.8220439264687229 -5.0377301865955815 0 -5.0377301865955815 22.22954097505135 0 0 0 0 1.7330143441030508 -5.5553857260387502 0 -5.5553857260387502 14.564610479828957 0 0 0 0 1.7037258707943703 -5.1058548263536068 0 -5.1058548263536068 14.574517457649563 0 0 0 0 1.0508218805160494 -4.4690681963184034 0 -4.4690681963184034 14.536979895172408 0 0 0 0 0.0033803604215433217 -4.9260086636859342 0 -4.9260086636859342 15.209645171475131 0 0 0 0 1.756793788200234 -5.9782836521480931 0 -5.9782836521480931 14.113255734322593 0 0 0 0 1.8412372373026811 -4.7238199384846666 0 -4.7238199384846666 15.612529919410008 0 0 0 0 1.6819578173207701 -6.3821624700403845 0 -6.3821624700403845 16.447547779185697 0 0 0 0 0.69336008606301458 -1.4319308840127576 0 -1.4319308840127576 3.2190522830284181 0 0 0 0 4.022522180598326 -13.71262589887192 0 -13.71262589887192 23.180948967550648 0 0 0 0 1.7719456382693739 -6.6136484722665045 0 -6.6136484722665045 25.920442354487022 0 0 0 0 0.004878638937222542 -3.4793726384305046 0 -3.4793726384305046 11.257283578801434 0 0 0 0 12.155436651659892 -23.770391152080265 0 -23.770391152080265 22.498773756058654 0 0 0 0 -0.0018121888648810376 0.10868517560447799 0 0.10868517560447799 -0.19429254660792594 0 0 0 0 0.24914202193215829 -5.0451899427844182 0 -5.0451899427844182 20.249816864496097 0 0 0 0 -0.24884204761067252 -1.788783926258418 0 -1.788783926258418 2.6559080397528874 0 0 0 0 2.3221773815316737 -4.4956551503564697 0 -4.4956551503564697 16.834037883236306 0 0 0 0 0.011644104861406213 -1.9343486079537229 0 -1.9343486079537229 4.3642842140849325 0 0 0 0 1.5027172616396456 -10.479029798778356 0 -10.479029798778356 23.929041305680585 0 0 0 0 2.2431040247121281 -6.8470862338365492 0 -6.8470862338365492 12.502689351633251 0 0 0 0 3.4245988975549153 -10.520754244687851 0 -10.520754244687851 16.484693281176078 0 0 0 0 6.1085226201890883 -13.437923181241786 0 -13.437923181241786 17.983835814782651 0 0 0 0 21.823411430847855 11.080228758093654 0 11.080228758093654 -43.332572193961823 0 0 0 0 -0.27710693537707398 -2.0985513440454611 0 -2.0985513440454611 2.1271211474504526 0 0 0 0 4.6508272989468011 -7.5161805637180805 0 -7.5161805637180805 17.757978494381859 0 0 0 0 -25.7421792921632 -56.263858110614819 0 -56.263858110614819 -43.14165363801294 0 0 0 0 0.10902165966149369 -32.509508598282991 0 -32.509508598282991 -31.66982474483666 0 0 0 0 1.2893885447555122 -8.0637819220685287 0 -8.0637819220685287 11.461765797670523 0 0 0 0 18.252819454495693 -12.225768708973192 0 -12.225768708973192 0.51011786272283643 0 0 0 0 26.353610736986411 -11.542571524798404 0 -11.542571524798404 0.56057372900249902 0 0 0 0 -5.3166032269971311 -16.672665009355114 0 -16.672665009355114 40.973096307454398 0 0 0 0 1.72974396405505 -7.7298659353326968 0 -7.7298659353326968 -4.683293419470175 0 0 0 0 9.4989583530700656 -14.020910107967211 0 -14.020910107967211 26.78578298096545 0 0 0 0 1.7904006936599552 -1.9513280106266109 0 -1.9513280106266109 -1.9421431155054734 0 0 0 0 -24.553414524159052 -12.541537511307979 0 -12.541537511307979 4.176945959799923 0 0 0 0 9.071927344589767 0.80868195588118397 0 0.80868195588118397 -5.4820594056509435 0 0 0 0 54.430218095428927 -12.539646510296734 0 -12.539646510296734 -8.1329756883496884 0 0 0 0 -0.30740832607062929 -0.050707258542274758 0 -0.050707258542274758 0.51790623765072041 0 0 0 0 101.6610515181859 -36.600849399306753 0 -36.600849399306753 3.0692572878324427 0 0 0 0 51.912553193367387 -4.2242377139446035 0 -4.2242377139446035 -12.821010842395481 0 0 0 0 -75.565425337195165 -65.700355315202614 0 -65.700355315202614 88.125575261365157 0 0 0 0 81.601605604220964 -7.3261154705214722 0 -7.3261154705214722 -39.097614056765451 0 0 0 0 20.768461061395499 -57.531289112492232 0 -57.531289112492232 72.97926676570205 0 0 0 0 -3.5331719725994049 -3.9039992017060285 0 -3.9039992017060285 -23.040029517258517 0 0 0 0 117.30293175305239 -112.9888749867896 0 -112.9888749867896 170.94519376913377 0 0 0 0 7.2697281274895431 -20.276014417264378 0 -20.276014417264378 100.20355631505663 0 0 0 0 -18.846468129339883 -1.927975656632043 0 -1.927975656632043 153.93027416011319 0 0 0 0 35.407776493452388 -100.14400660932006 0 -100.14400660932006 97.937347148719709 0 0 0 0 21.871213212499015 -64.431848990061553 0 -64.431848990061553 181.32900171956862 0 0 0 0 -0.14052011239688517 -0.033500174059639676 0 -0.033500174059639676 -0.4090214463782047 0 0 0 0 22.63038579084904 65.550119398074457 0 65.550119398074457 61.458379915478872 0 0 0 0 0.097903495466880749 -2.8197108000760993 0 -2.8197108000760993 27.597453187947394 0 0 0 0 -2.3379647395127421 -14.032522310873901 0 -14.032522310873901 92.294205015423358 0 0 0 0 155.0674945480896 90.750247464631684 0 90.750247464631684 161.32652383866662 0 0 0 0 -0.15117582760145398 -26.975032367918175 0 -26.975032367918175 201.62243385295733 0 0 0 0 -46.79493419364745 -76.958796099308529 0 -76.958796099308529 150.12929239968071 0 0 0 0 -0.19315589499133037 -60.159923417326354 0 -60.159923417326354 117.49747607985773 0 0 0 0 -28.492623861442084 -171.99875127600535 0 -171.99875127600535 102.88600920069439 0 0 0 0 -16.271770918519792 -18.778684336459264 0 -18.778684336459264 -28.487766909471247 0 0 0 0 -45.614797354795847 -33.86122462158869 0 -33.86122462158869 402.07081464354997 0 0 0 0 -19.184388025251565 -42.276539892714936 0 -42.276539892714936 344.76065682906483 0 0 0 0 79.282970915840551 191.14976002260664 0 191.14976002260664 228.18310403250143 0 0 0 0 28.356832004709531 62.054591490887105 0 62.054591490887105 44.357742473424878 0 0 0 0 32.865297460670703 99.721029996101606 0 99.721029996101606 59.814949140680255 0 0 0 0 -0.083088553240839441 0.20018868877497908 0 0.20018868877497908 3.333177668929693 0 0 0 0 -0.45319894713085807 0.11418811052456235 0 0.11418811052456235 8.3736311556900205 0 0 0 0 -122.37830658059391 78.761167382530402 0 78.761167382530402 59.109760045685107 0 0 0 0 31.975219682210426 57.568780619277049 0 57.568780619277049 62.828542656468926 0 0 0 0 33.796685596372335 102.68234113394669 0 102.68234113394669 -21.213581811229233 0 0 0 0 -346.12087316056352 -21.65107810455811 0 -21.65107810455811 124.69955940256477 0 0 0 0 -0.66537537044904194 0.027484028018530893 0 0.027484028018530893 9.7324384889229805 0 0 0 0 -57.980639351185914 25.856052298222494 0 25.856052298222494 -32.869528162227653 0 0 0 0 0.8515935882385669 -64.22468762567587 0 -64.22468762567587 55.484684707560518 0 0 0 0 -72.442406352040933 14.926307875484781 0 14.926307875484781 323.44539590211934 0 0 0 0 -7.1094192863087358 -86.207999463491433 0 -86.207999463491433 70.811049678042764 0 0 0 0 -221.98128242316949 -89.26849441102695 0 -89.26849441102695 57.835100489668548 0 0 0 0 -20.968100938949192 14.397899853851413 0 14.397899853851413 46.297788850664801 0 0 0 0 -0.34166919932094686 -2.8208246744916892 0 -2.8208246744916892 10.017070112401427 0 0 0 0 28.078888927612752 -12.689741014532046 0 -12.689741014532046 -4.9051553217723267 0 0 0 0 -55.067596582176066 -57.504218390560709 0 -57.504218390560709 27.213059656744008 0 0 0 0 1.3390797619273318 -9.5429856257196874 0 -9.5429856257196874 35.302404415281387 0 0 0 0 28.822805265519492 -70.507713890852756 0 -70.507713890852756 16.321147267633933 0 0 0 0 95.226441245352362 -16.251172680451418 0 -16.251172680451418 -17.481909551192075 0 0 0 0 -4.9322439015489863 40.979261395204958 0 40.979261395204958 181.87956504840986 0 0 0 0 31.94495074643828 91.332423559542804 0 91.332423559542804 74.317099615916959 0 0 0 0 62.010433984127133 -9.9999007172245911 0 -9.9999007172245911 247.3248890612449 0 0 0 0 91.713662699665065 71.945449616876431 0 71.945449616876431 60.94937981973635 0 0 0 0 63.030379681386876 82.888946034909168 0 82.888946034909168 22.504742247023387 0 0 0 0 70.343480282528844 33.654402174295683 0 33.654402174295683 27.367844230917399 0 0 0 0 -17.062764617248604 26.707457867843914 0 26.707457867843914 64.468852681355202 0 0 0 0 -10.580741168013219 25.536505524942186 0 25.536505524942186 63.769216422981117 0 0 0 0 -3.9567393053753221 2.9031736996403197 0 2.9031736996403197 119.71087086091575 0 0 0 0 9.7120426867475089 66.972379056998761 0 66.972379056998761 146.01006541893003 0 0 0 0 -20.137851672379838 30.823646224816912 0 30.823646224816912 72.882723462418653 0 0 0 0 -45.032881675762837 7.736249914203654 0 7.736249914203654 92.9887925220537 0 0 0 0 -41.354593163619711 4.78266240053199 0 4.78266240053199 51.023857545951614 0 0 0 0 -47.362720783278746 3.9034291409698199 0 3.9034291409698199 42.661171226325678 0 0 0 0 -51.868307867650856 1.7663004718560842 0 1.7663004718560842 67.213956318766577 0 0 0 0 -40.403965387395147 14.386865568318171 0 14.386865568318171 65.262030201538437 0 0 0 0 -14.982947829816112 24.469506876470405 0 24.469506876470405 61.012859178066719 0 0 0 0 -35.343949147895273 20.301068898028461 0 20.301068898028461 67.094734740210697 0 0 0 0 -39.772041599904242 7.7175057139102137 0 7.7175057139102137 64.188937839935534 0 0 0 0 -32.293978159960716 13.094415114101139 0 13.094415114101139 61.668202807981288 0 0 0 0 -22.560560739582797 2.1735119973745896 0 2.1735119973745896 56.837880678576767 0 0 0 0 -7.9202949734708454 -11.277285979682347 0 -11.277285979682347 56.188388709560968 0 0 0 0 -1.1954227011031593 -11.307356413433716 0 -11.307356413433716 46.134361567038923 0 0 0 0 -1.1975520217347366 -15.366358183076954 0 -15.366358183076954 63.27767730539199 0 0 0 0 -36.271312778499123 4.1769222051952966 0 4.1769222051952966 43.681901071919128 0 0 0 0 -49.706916073461798 6.3104874544078484 0 6.3104874544078484 65.708671610947931 0 0 0 0 -2.5427740262725997 0.67375540957687008 0 0.67375540957687008 11.085961361838031 0 0 0 0 -54.066044958982275 -0.40254872693913057 0 -0.40254872693913057 58.950569048902253 0 0 0 0 -16.132691082997098 -15.858272521658364 0 -15.858272521658364 48.358547047711909 0 0 0 0 -1.589094265019209 -1.3339108281289427 0 -1.3339108281289427 39.82569362052925 0 0 0 0 1.3908335449750666 -11.459917997024604 0 -11.459917997024604 44.126907262470922 0 0 0 0 -2.6696653952543645 -4.8374958425384875 0 -4.8374958425384875 10.786273339704934 0 0 0 0 -12.242903628162026 6.1647869140251714 0 6.1647869140251714 63.717871994216694 0 0 0 0 16.973112470338492 -1.6707298086112132 0 -1.6707298086112132 50.865436650034098 0 0 0 0 -1.1514208316334456 -6.8140022862223191 0 -6.8140022862223191 38.933076245961672 0 0 0 0 -61.925447667834305 -24.303101921017515 0 -24.303101921017515 35.618975534569472 0 0 0 0 -77.129696349561982 -27.900927171474905 0 -27.900927171474905 55.987982271064539 0 0 0 0 -60.922213702695572 -3.0884984705508032 0 -3.0884984705508032 73.720235791639425 0 0 0 0 -58.566906079042383 -23.414158749626949 0 -23.414158749626949 59.86057957225421 0 0 0 0 -45.001989190611312 -13.165242773262435 0 -13.165242773262435 49.102331884903833 0 0 0 0 -59.225622606829347 -14.947413286601659 0 -14.947413286601659 38.967468425689731 0 0 0 0 -59.072642177522937 -12.962688196847012 0 -12.962688196847012 60.320203182694968 0 0 0 0 -81.640862156258663 -10.254263153925422 0 -10.254263153925422 55.120824276615167 0 0 0 0 -92.44220116845554 -49.538560433749808 0 -49.538560433749808 26.289208758040331 0 0 0 0 -1.1119768121403872 -0.34383758143914633 0 -0.34383758143914633 10.250548479970519 0 0 0 0 -108.37902280435355 -10.021498575690202 0 -10.021498575690202 63.322493672356359 0 0 0 0 -72.338456675899124 -23.202160790882772 0 -23.202160790882772 58.100275162723847 0 0 0 0 -3.9182842875808483 -0.22427439182532538 0 -0.22427439182532538 47.584479937864046 0 0 0 0 -37.872082771989426 -27.189293301024009 0 -27.189293301024009 50.790698436554521 0 0 0 0 -62.721627344139733 -29.683749227624503 0 -29.683749227624503 62.127692571782973 0 0 0 0 -62.986880931709493 -31.842413628648501 0 -31.842413628648501 44.73045021109283 0 0 0 0 -67.346179007272895 -16.621186332777143 0 -16.621186332777143 49.933597833121894 0 0 0 0 -18.633184635644128 1.2666676084918436 0 1.2666676084918436 66.293464243703056 0 0 0 0 8.9340916273463336 9.3793657973146765 0 9.3793657973146765 55.756095905700931 0 0 0 0 31.617842832283714 2.3243955998914316 0 2.3243955998914316 57.749086277079186 0 0 0 0 2.7629529679842335 8.6003725668524567 0 8.6003725668524567 81.82173993185279 0 0 0 0 -14.8702997430305 -6.0800805206527002 0 -6.0800805206527002 132.52853183318803 0 0 0 0 2.1300973796205653 -43.410668722761329 0 -43.410668722761329 125.72159304143861 0 0 0 0 2.8425072376542175 -24.503952052036766 0 -24.503952052036766 106.83410504978383 0 0 0 0 -18.84224433331201 -33.737663276173407 0 -33.737663276173407 90.865657564407229 0 0 0 0 -16.825504778477807 5.1916797877565841 0 5.1916797877565841 88.743295884691179 0 0 0 0 -23.630929878370353 -7.9357298149407143 0 -7.9357298149407143 68.750126507817185 0 0 0 0 -44.569410604327459 -17.406773670954863 0 -17.406773670954863 84.794526220022817 0 0 0 0 -36.686511724174579 -32.113608441330143 0 -32.113608441330143 66.381122680468252 0 0 0 0 -1.4016940783076279 -40.130797095043818 0 -40.130797095043818 40.064176326370216 0 0 0 0 -23.105917070227633 -21.222824778276845 0 -21.222824778276845 54.576175255468115 0 0 0 0 -5.5868168235620033 -24.053169684149907 0 -24.053169684149907 77.482542399375234 0 0 0 0 24.36352982119115 -59.662731105097919 0 -59.662731105097919 60.311827521800296 0 0 0 0 -2.7244519284427042 -35.923585141063086 0 -35.923585141063086 40.373145891819149 0 0 0 0 21.023807670850147 -45.236574329261202 0 -45.236574329261202 41.380095944085042 0 0 0 0 70.571267175811613 -51.335793724472751 0 -51.335793724472751 16.503237777447794 0 0 0 0 64.839010644733207 -92.875667126128974 0 -92.875667126128974 89.360306933027459 0 0 0 0 25.492344881817189 -23.158484281098936 0 -23.158484281098936 5.6121522652319982 0 0 0 0 30.466500825297544 -39.682256788437371 0 -39.682256788437371 26.166680528316647 0 0 0 0 -4.0328588688398668 -21.000631830451312 0 -21.000631830451312 17.143247610540129 0 0 0 0 3.0042241494386417 -31.782676727438229 0 -31.782676727438229 32.08534495580534 0 0 0 0 -23.538129100610604 -32.012288825513679 0 -32.012288825513679 37.94187165160838 0 0 0 0 -2.2984674529262685 -8.8319636768046337 0 -8.8319636768046337 -1.288962025468436 0 0 0 0 4.3879598539297149 -33.154574923537439 0 -33.154574923537439 43.849620700260857 0 0 0 0 -18.114709341154139 -27.595260446847533 0 -27.595260446847533 31.8410572942812 0 0 0 0 52.610807080566474 -32.857950549630914 0 -32.857950549630914 41.074942814302631 0 0 0 0 4.0257209416644741 -16.313003813302203 0 -16.313003813302203 25.661134993308224 0 0 0 0 -1.2192475003368486 -20.926428905615921 0 -20.926428905615921 23.042788213817403 0 0 0 0 -7.3344412000931243 -45.16605003811128 0 -45.16605003811128 31.655175403197063 0 0 0 0 -0.17681850524834264 -0.085924722270078746 0 -0.085924722270078746 0.06616013211564109 0 0 0 0 -6.3600309909243151 11.597502720716875 0 11.597502720716875 22.825560733414022 0 0 0 0 16.540325864886199 16.22231534376624 0 16.22231534376624 33.877633501731907 0 0 0 0 27.358076737544252 31.605211126377981 0 31.605211126377981 55.498898335441481 0 0 0 0 10.451011097939642 18.050882247647678 0 18.050882247647678 46.152796678448794 0 0 0 0 6.1099733898101434 3.1410093925769615 0 3.1410093925769615 45.753102054237388 0 0 0 0 -24.727026082131488 -31.175447927147616 0 -31.175447927147616 35.929492695795489 0 0 0 0 3.3107833093749832 9.5623224359223968 0 9.5623224359223968 39.205392153235152 0 0 0 0 -2.7707835147279218 0.55341954540453031 0 0.55341954540453031 39.989452410548324 0 0 0 0 -25.170720741671175 -26.222500726376893 0 -26.222500726376893 32.096408225042978 0 0 0 0 17.293122044845063 7.3501262536155991 0 7.3501262536155991 32.209208878513891 0 0 0 0 9.7204485931193858 18.29641769202135 0 18.29641769202135 18.152042025321862 0 0 0 0 0.4727455273566652 0.9915162260893382 0 0.9915162260893382 0.66870741124944288 0 0 0 0 6.1488327235998081 4.379586115683054 0 4.379586115683054 22.111203719562042 0 0 0 0 20.683616374949679 -19.149464480156894 0 -19.149464480156894 33.778632253946853 0 0 0 0 16.265987443121844 14.751865818441729 0 14.751865818441729 34.298169700425206 0 0 0 0 4.6729117738810526 -6.4597818637821547 0 -6.4597818637821547 13.294148112879213 0 0 0 0 65.622240992521711 34.908057877855754 0 34.908057877855754 18.950339330971474 0 0 0 0 10.03350697665519 6.2868182706151856 0 6.2868182706151856 16.215336102784931 0 0 0 0 3.3204415922238599 0.59340420837872898 0 0.59340420837872898 14.359424085894375 0 0 0 0 39.774674327348293 17.282193910359638 0 17.282193910359638 51.900857588567305 0 0 0 0 11.996217879256619 30.489530765320524 0 30.489530765320524 40.974029982106003 0 0 0 0 41.410657982205066 29.164117765838455 0 29.164117765838455 -0.29372176474134903 0 0 0 0 33.310840047329293 47.48513549076597 0 47.48513549076597 63.671995689612231 0 0 0 0 58.0393407692045 47.340743075488717 0 47.340743075488717 33.097868399214349 0 0 0 0 45.480121111599601 56.42300173905096 0 56.42300173905096 82.20694538425596 0 0 0 0 33.340501629942992 71.825505890898057 0 71.825505890898057 70.96686311357189 0 0 0 0 37.028450296576921 57.481784433079156 0 57.481784433079156 60.660371882055188 0 0 0 0 38.66619696099815 49.691993612083024 0 49.691993612083024 45.159972222616489 0 0 0 0 36.339497605138831 58.513969649855426 0 58.513969649855426 30.851257063535741 0 0 0 0 13.533952004946507 52.74205478267686 0 52.74205478267686 153.9162928747246 0 0 0 0 8.2418048016799048 21.715321906172903 0 21.715321906172903 200.19883536915586 0 0 0 0 18.320940815559467 27.776526248475932 0 27.776526248475932 -5.8347785704292363 0 0 0 0 36.005378720043161 39.581437043625556 0 39.581437043625556 107.04479150034604 0 0 0 0 41.613580994276163 9.3296251211068011 0 9.3296251211068011 132.65527333480713 0 0 0 0 -8.9575755107180157 31.386068755135057 0 31.386068755135057 48.9557037308914 0 0 0 0 42.925646556691333 20.721689564335975 0 20.721689564335975 120.84356308483984 0 0 0 0 20.726358169817388 5.951877959043486 0 5.951877959043486 119.73329035673669 0 0 0 0 5.7413103011719109 3.2971382126015101 0 3.2971382126015101 10.496419961552704 0 0 0 0 -12.166480310119994 -18.250099725177279 0 -18.250099725177279 89.390381270844955 0 0 0 0 17.982515837169956 5.4093063932377845 0 5.4093063932377845 133.55157697403047 0 0 0 0 7.1066294877249732 19.130430991950561 0 19.130430991950561 117.89516374090454 0 0 0 0 -6.4081237961024442 -21.354679816635326 0 -21.354679816635326 93.358856612248928 0 0 0 0 -6.9526610548273879 -30.816805373149691 0 -30.816805373149691 -55.508595951716416 0 0 0 0 -27.597907008901302 -11.852253461474902 0 -11.852253461474902 92.822567016177345 0 0 0 0 3.2842702622743314 10.67945036668624 0 10.67945036668624 44.919330405215476 0 0 0 0 -11.088065902243887 -9.1856179979257888 0 -9.1856179979257888 37.789907359787549 0 0 0 0 32.554930374064497 22.805766141289496 0 22.805766141289496 62.774568084350904 0 0 0 0 8.1548306969984843 -5.2199195399625751 0 -5.2199195399625751 14.916063637020073 0 0 0 0 -16.335446950774042 -42.333703408632573 0 -42.333703408632573 76.023890473210486 0 0 0 0 -5.1540154510921639 20.284634601528523 0 20.284634601528523 72.970449727450614 0 0 0 0 21.473176657015756 23.656129995259107 0 23.656129995259107 70.000076057775004 0 0 0 0 -9.9234925280237807 -11.405414118636756 0 -11.405414118636756 50.093460216310234 0 0 0 0 21.604511723516225 28.535817244384816 0 28.535817244384816 90.777052466466557 0 0 0 0 0.25569154543489425 1.4466885888461434 0 1.4466885888461434 10.93370650842995 0 0 0 0 -12.038679170160663 21.996119819996238 0 21.996119819996238 137.56829408023623 0 0 0 0 14.167985117868517 27.791910953793433 0 27.791910953793433 0.7134143169209608 0 0 0 0 29.483770992051888 4.0221337313960248 0 4.0221337313960248 53.416026277089259 0 0 0 0 -121.4827768294017 -100.61086505967251 0 -100.61086505967251 173.35007073682937 0 0 0 0 -27.023524734307102 33.218453446010244 0 33.218453446010244 25.660550292042899 0 0 0 0 -35.771528304181629 -40.616648716968484 0 -40.616648716968484 262.73616878739267 0 0 0 0 19.728057596104918 -76.474818382572266 0 -76.474818382572266 227.45519194187364 0 0 0 0 -2.3587074535958976 0.20714329274468923 0 0.20714329274468923 0.78443441802414782 0 0 0 0 -12.502722012065101 1.482531451442874 0 1.482531451442874 76.052627626057586 0 0 0 0 -21.686661884225373 4.5295827285262931 0 4.5295827285262931 118.32505123503506 0 0 0 0 -90.256089222661103 -9.9498501134003163 0 -9.9498501134003163 0.86066387256141752 0 0 0 0 -139.03583820496897 18.852270654635504 0 18.852270654635504 71.165677589655388 0 0 0 0 -29.329522880489407 17.018511012667005 0 17.018511012667005 36.229886432136738 0 0 0 0 -28.626527521963681 -5.1496884959342424 0 -5.1496884959342424 38.973822607804323 0 0 0 0 -23.753261938761646 1.0142794696633928 0 1.0142794696633928 21.682636819225991 0 0 0 0 -28.486032767993187 -17.021681852151005 0 -17.021681852151005 15.476972013410659 0 0 0 0 12.682348624239239 25.778695676825009 0 25.778695676825009 28.768403001624392 0 0 0 0 31.644799667689767 38.302010248560691 0 38.302010248560691 5.950816948490683 0 0 0 0 -48.581402305690972 62.662101860878465 0 62.662101860878465 36.624594964785501 0 0 0 0 -44.000714886387868 72.133046758666751 0 72.133046758666751 43.785197652119678 0 0 0 0 -67.786268313717301 98.520980853107176 0 98.520980853107176 14.532753571023932 0 0 0 0 9.0851035107643838 51.341219378373353 0 51.341219378373353 -60.671397767524468 0 0 0 0 -74.479847921760665 30.571290484294877 0 30.571290484294877 6.6044294932071352 0 0 0 0 23.692596427085689 55.53973996962327 0 55.53973996962327 2.3680534340674058 0 0 0 0 21.609294868419965 -21.907555289639276 0 -21.907555289639276 -7.1172433377359994 0 0 0 0 -1.8767826868961102 4.688473333437372 0 4.688473333437372 10.396223814813197 0 0 0 0 344.36649402807234 64.884729816694744 0 64.884729816694744 -1.868417508487255 0 0 0 0 -167.92540160473072 116.28319451553398 0 116.28319451553398 110.44075314401198 0 0 0 0 14.503880542917614 130.53956713639491 0 130.53956713639491 110.8138221839763 0 0 0 0 57.373010509362302 173.43440023680523 0 173.43440023680523 9.2051386603270657 0 0 0 0 -1.188617514326598 0.45100260612937859 0 0.45100260612937859 0.14565750467727412 0 0 0 0 -68.553533540822173 93.354666968196398 0 93.354666968196398 114.77224299892987 0 0 0 0 47.769205151013921 89.179868153150892 0 89.179868153150892 -19.099969019574928 0 0 0 0 52.785924948939282 62.69011243787827 0 62.69011243787827 68.81904166896129 0 0 0 0 -20.584446402958747 83.003986752548371 0 83.003986752548371 65.811162994121332 0 0 0 0 -444.66083355996579 -18.711511353671085 0 -18.711511353671085 593.22709450597176 0 0 0 0 49.569018131135408 -37.312365183606744 0 -37.312365183606744 368.84002931292343 0 0 0 0 22.677950087361026 27.779033004666331 0 27.779033004666331 -4.949001304695031 0 0 0 0 -30.858727962497142 48.04804621655785 0 48.04804621655785 87.082967906666454 0 0 0 0 56.795697537972046 30.529136693781766 0 30.529136693781766 -54.698039357346715 0 0 0 0 -34.924709897816228 -30.834530937288946 0 -30.834530937288946 66.398721829886199 0 0 0 0 2.5423307607877885 1.4170286512742507 0 1.4170286512742507 -0.077107205685337021 0 0 0 0 67.124867810161959 76.128751049167477 0 76.128751049167477 26.732931863999511 0 0 0 0 -16.587783895938173 -27.793764633039245 0 -27.793764633039245 41.791839024963338 0 0 0 0 84.80554230753296 110.85591507497884 0 110.85591507497884 89.91345718393859 0 0 0 0 50.527586306030116 54.793706759461202 0 54.793706759461202 43.357300250892877 0 0 0 0 13.797673582227446 70.305292736586125 0 70.305292736586125 112.64718384947628 0 0 0 0 43.46175440406887 94.049586667853873 0 94.049586667853873 131.14909562467437 0 0 0 0 79.170268448364766 141.93447353252122 0 141.93447353252122 119.02800334029598 0 0 0 0 802.53240791332064 -44.254582154622767 0 -44.254582154622767 180.5216046616697 0 0 0 0 23.505365533230311 28.165088027493226 0 28.165088027493226 -6.3029711140912994 0 0 0 0 584.1347935909032 70.955054057194502 0 70.955054057194502 228.42917953683354 0 0 0 0 82.439931093323139 389.47216322334862 0 389.47216322334862 249.83029816727503 0 0 0 0 -113.36846472908303 71.767038204692653 0 71.767038204692653 157.07787611737149 0 0 0 0 3.544570967015261 -491.41716966038257 0 -491.41716966038257 522.07838197407546 0 0 0 0 2.8063564195233539 161.25915498267568 0 161.25915498267568 228.96009930891114 0 0 0 0 1.212083285794689 1.4149329515953184 0 1.4149329515953184 2.5697675770896922 0 0 0 0 -44.173504699904015 111.13283230394882 0 111.13283230394882 180.36422689069877 0 0 0 0 -46.591285851489154 66.656970679117876 0 66.656970679117876 168.66329906581086 0 0 0 0 10.435302947620812 92.743315701576648 0 92.743315701576648 186.42047802392335 0 0 0 0 131.12277019410749 131.44400879923342 0 131.44400879923342 107.19160594315326 0 0 0 0 68.954360745786516 55.677414505516936 0 55.677414505516936 32.302726234978763 0 0 0 0 3.2813291649429175 94.711066417803522 0 94.711066417803522 184.42448873214016 0 0 0 0 1.3427304935789834 83.493902969945339 0 83.493902969945339 245.54302706837188 0 0 0 0 -44.761744709595405 70.388187992444728 0 70.388187992444728 92.588071944614057 0 0 0 0 -64.430421611009933 65.769870821161021 0 65.769870821161021 113.58988366287667 0 0 0 0 16.704471680935995 29.659847989256463 0 29.659847989256463 5.4423082296413412 0 0 0 0 69.499650824132118 -59.792753068075399 0 -59.792753068075399 127.60425502221915 0 0 0 0 7.2299090354673012 12.743044838225615 0 12.743044838225615 199.0179107497097 0 0 0 0 59.879406136604985 -15.607521986996289 0 -15.607521986996289 212.97437705137418 0 0 0 0 43.270148081952073 84.968203015838299 0 84.968203015838299 236.47423324268311 0 0 0 0 -8.0905530345824843 41.195406070462923 0 41.195406070462923 189.13475112162996 0 0 0 0 -7.9865098175393996 45.543776168982731 0 45.543776168982731 304.67903926639701 0 0 0 0 -21.156155114783132 64.365832225041231 0 64.365832225041231 229.5429301457043 0 0 0 0 -20.825480929173295 59.35307459698015 0 59.35307459698015 153.73447658176883 0 0 0 0 -15.132187920892648 -0.16301878332160413 0 -0.16301878332160413 156.66776510028285 0 0 0 0 0.91099414118070854 47.313867542914522 0 47.313867542914522 151.52729939756682 0 0 0 0 -9.2253244606566795 -11.085213291393302 0 -11.085213291393302 117.80770722572925 0 0 0 0 -19.165407953246586 -14.665020633736276 0 -14.665020633736276 207.51656794081282 0 0 0 0 -5.8710038601452652 -2.5221027933584992 0 -2.5221027933584992 110.80889835911512 0 0 0 0 -5.8777038060569522 -15.90048945649405 0 -15.90048945649405 95.848410637117922 0 0 0 0 -8.4610508229220898 -12.945795675723275 0 -12.945795675723275 92.904820184689015 0 0 0 0 -9.161626164928748 -5.3177908866928192 0 -5.3177908866928192 111.08022182331479 0 0 0 0 -1.5977302489009162 1.2537559983757092 0 1.2537559983757092 106.4463086691394 0 0 0 0 4.3556797527071467 42.141340035901521 0 42.141340035901521 136.85692467942135 0 0 0 0 8.5335942160345439 17.542543770439806 0 17.542543770439806 91.482712441837066 0 0 0 0 10.241573858467632 25.003442324017669 0 25.003442324017669 103.2126253755996 0 0 0 0 -6.9977390017238577 5.2897710191464284 0 5.2897710191464284 120.18351325104595 0 0 0 0 -12.3065821208952 -2.3684265071788104 0 -2.3684265071788104 97.65576327915187 0 0 0 0 -4.0451204744343841 2.6246742317562166 0 2.6246742317562166 99.224607226846274 0 0 0 0 9.2718905088057966 10.084405467131546 0 10.084405467131546 93.377389372384641 0 0 0 0 -17.754389150866722 1.4211423289539198 0 1.4211423289539198 110.6289641581825 0 0 0 0 -3.6439388881235573 18.365870318142697 0 18.365870318142697 111.79588057623914 0 0 0 0 -15.809009363853193 4.7930241139947611 0 4.7930241139947611 96.827665213873843 0 0 0 0 2.520689912904345 2.1368579234549543 0 2.1368579234549543 77.425154245633166 0 0 0 0 -4.7325720705935055 4.1851807953062234 0 4.1851807953062234 96.786787959339563 0 0 0 0 -10.006762159557184 -5.2101056865067221 0 -5.2101056865067221 103.96917665166256 0 0 0 0 -9.5909976414814082 -2.1808773421798833 0 -2.1808773421798833 88.706500599655556 0 0 0 0 -4.931946997045543 -10.409478906265576 0 -10.409478906265576 84.732820543838898 0 0 0 0 -0.71490353988701827 -5.1922318846045528 0 -5.1922318846045528 75.627077847078908 0 0 0 0 -3.936889382875961 -7.8815261762356386 0 -7.8815261762356386 89.282591266297459 0 0 0 0 -3.8753851817604641 -12.313279901028181 0 -12.313279901028181 80.588270026812097 0 0 0 0 -3.6883113081244119 -11.047109078121139 0 -11.047109078121139 84.838683929756371 0 0 0 0 -8.2861931704525205 -8.0390184124989901 0 -8.0390184124989901 87.081518612860236 0 0 0 0 -2.0364130873244251 -18.726159723367147 0 -18.726159723367147 58.087692471700109 0 0 0 0 11.090460562736553 -5.0308882233512122 0 -5.0308882233512122 99.961683747940697 0 0 0 0 -1.1813244965971363 -16.106681184393942 0 -16.106681184393942 3.2500183450680993 0 0 0 0 0.18216336097680141 27.828386026887529 0 27.828386026887529 62.723880929959705 0 0 0 0 0.73330228656732288 -14.437869355904695 0 -14.437869355904695 100.00516937862267 0 0 0 0 2.7963526088888164 0.29484173047424633 0 0.29484173047424633 16.054577356098989 0 0 0 0 -0.23817586030827442 -20.872766669039265 0 -20.872766669039265 64.566665783931967 0 0 0 0 2.8239233746851369 -8.5038261045410763 0 -8.5038261045410763 110.85957911731384 0 0 0 0 -16.477667350545971 -24.965612777610659 0 -24.965612777610659 96.678535488937086 0 0 0 0 3.0450396467898053 -0.85974599866221979 0 -0.85974599866221979 -1.3994688679957346 0 0 0 0 23.717829017960753 -33.706070061314676 0 -33.706070061314676 11.959953003228293 0 0 0 0 -14.381258383924433 -12.521070979943033 0 -12.521070979943033 106.17444441940461 0 0 0 0 -20.119753336247641 12.798121193533007 0 12.798121193533007 126.87505087924364 0 0 0 0 5.1711799227441304 11.103053339371399 0 11.103053339371399 78.613933055865346 0 0 0 0 -3.9028318392347572 27.492997267017017 0 27.492997267017017 76.918549388283282 0 0 0 0 -1.7666834482613467 -3.0351978939652327 0 -3.0351978939652327 77.793780727224657 0 0 0 0 -38.786922617880577 -14.392757938563591 0 -14.392757938563591 111.30726064227929 0 0 0 0 1.4585074783017262 -8.3591407003696077 0 -8.3591407003696077 56.723969115555519 0 0 0 0 1.5887154135652963 -12.712014576653019 0 -12.712014576653019 61.479775705854991 0 0 0 0 0.043441845296911197 -13.438240566509194 0 -13.438240566509194 65.95685277528537 0 0 0 0 2.2682757851080169 -11.335888113753754 0 -11.335888113753754 64.266133103032189 0 0 0 0 -5.1669525870247526 -7.0986008627951378 0 -7.0986008627951378 48.630296526433085 0 0 0 0 -6.8439312931379384 3.2236959053251724 0 3.2236959053251724 13.416552814992514 0 0 0 0 11.584190682785447 -2.839968086747831 0 -2.839968086747831 44.151512021868257 0 0 0 0 2.118545862882911 7.2413429426233051 0 7.2413429426233051 92.457467439111497 0 0 0 0 -1.6262326457905569 7.1834716368260274 0 7.1834716368260274 18.706608325625353 0 0 0 0 11.05181206645284 1.5875709367683157 0 1.5875709367683157 84.126396427745931 0 0 0 0 -1.5769000830832738 -12.723019757817383 0 -12.723019757817383 58.690783948608441 0 0 0 0 24.847722414697728 23.987991979389335 0 23.987991979389335 79.331077656366688 0 0 0 0 0.17401513750382946 29.530063696489378 0 29.530063696489378 116.46373923550709 0 0 0 0 0.025164694601699011 17.751298971648794 0 17.751298971648794 33.540652335505001 0 0 0 0 0.64481817663531737 -5.5455214282873158 0 -5.5455214282873158 37.819435935217825 0 0 0 0 -1.2571184435588787 24.1339983007787 0 24.1339983007787 65.601824881125538 0 0 0 0 -5.9506323633921507 -8.0738054023518941 0 -8.0738054023518941 43.210787425559943 0 0 0 0 -3.5023396441836212 -16.287844921680517 0 -16.287844921680517 52.730252518755151 0 0 0 0 1.3379249195495957 3.2072091198801331 0 3.2072091198801331 12.017691708427506 0 0 0 0 8.3182396720576435 -11.543017022675485 0 -11.543017022675485 73.424084274709458 0 0 0 0 14.838312114715791 8.5344068101403536 0 8.5344068101403536 83.328797142399708 0 0 0 0 -2.171302690574521 -10.701743905781768 0 -10.701743905781768 71.843730434426107 0 0 0 0 -4.5529413127178486 1.0031317689863499 0 1.0031317689863499 79.596999272675021 0 0 0 0 -2.4061878705811068 -3.3856824209215119 0 -3.3856824209215119 77.712942450481933 0 0 0 0 -10.338949896086888 -3.7904135767603293 0 -3.7904135767603293 80.286647624045145 0 0 0 0 -4.3869113294872477 -10.037388997014205 0 -10.037388997014205 50.267495339969173 0 0 0 0 -7.5444981040286949 -17.282674446771011 0 -17.282674446771011 40.374793294428855 0 0 0 0 -5.6117502518163747 -13.841693126843893 0 -13.841693126843893 77.617628946434706 0 0 0 0 -1.8027054707361261 4.5036100176574223 0 4.5036100176574223 11.578589363126461 0 0 0 0 0.47024893757998143 -10.776467858682736 0 -10.776467858682736 53.072461084200768 0 0 0 0 -4.2030663030735447 0.25775137594868625 0 0.25775137594868625 8.3165759246816151 0 0 0 0 -4.6510855938182374 -3.6917663694184739 0 -3.6917663694184739 69.204492850170936 0 0 0 0 9.3616244952841043 6.262498865253292 0 6.262498865253292 109.49806079788686 0 0 0 0 -0.69294205683879673 2.2286874939660777 0 2.2286874939660777 15.086488812221299 0 0 0 0 -6.4884328544553682 -5.8718395286050509 0 -5.8718395286050509 106.67005316977156 0 0 0 0 -11.900640330704846 -28.116084465291351 0 -28.116084465291351 71.564940606256641 0 0 0 0 -4.2470760584708565 -16.759917477348694 0 -16.759917477348694 51.492526911917423 0 0 0 0 -15.309813302102555 -25.00882102666219 0 -25.00882102666219 77.185160920867929 0 0 0 0 -12.817677163563332 -18.342059601668552 0 -18.342059601668552 23.722326226474252 0 0 0 0 4.6884772677258297 -67.292523826559773 0 -67.292523826559773 65.115510409246781 0 0 0 0 28.540627661087456 -22.579363399578142 0 -22.579363399578142 29.424652496054478 0 0 0 0 -23.862251900494812 -47.220864078379236 0 -47.220864078379236 20.186698577454081 0 0 0 0 -0.1883323236096679 1.1288282954089084 0 1.1288282954089084 -1.8324667620230937 0 0 0 0 -19.578612688414069 -16.918120844900841 0 -16.918120844900841 149.50474863541604 0 0 0 0 26.027114543241623 -43.924690706218826 0 -43.924690706218826 -33.348396965040592 0 0 0 0 -9.083961706755872 -38.018349733625655 0 -38.018349733625655 74.261302118167805 0 0 0 0 6.2177117154051302 0.27006956258264836 0 0.27006956258264836 44.227658096322557 0 0 0 0 -3.5195441093146655 -0.048040734662208706 0 -0.048040734662208706 54.620129401926533 0 0 0 0 -4.1951103717188669 -1.5022492724140193 0 -1.5022492724140193 7.2203162638739258 0 0 0 0 -7.8877002385506785 -7.5336830320884474 0 -7.5336830320884474 48.182563866837882 0 0 0 0 19.802465225778178 -16.489179395190149 0 -16.489179395190149 29.311325569001156 0 0 0 0 2.7601198262145772 -6.954583402373828 0 -6.954583402373828 29.597155581519473 0 0 0 0 1.4342715690358663 -5.6053084663682426 0 -5.6053084663682426 23.733991390773326 0 0 0 0 298.05247589355167 -188.24371016609803 0 -188.24371016609803 107.89398019407236 0 0 0 0 236.40939241942147 512.47114243491524 0 512.47114243491524 559.53180802171119 0 0 0 0 0.75743756982393151 -1.7740253075748242 0 -1.7740253075748242 8.7475654672736027 0 0 0 0 -6.2155573790032577 -225.82631470943306 0 -225.82631470943306 480.6344804680557 0 0 0 0 8.2341710246842013 -27.922419978000107 0 -27.922419978000107 50.028478351741796 0 0 0 0 45.027942625676133 -128.9361368690752 0 -128.9361368690752 144.52161764982156 0 0 0 0 71.726396388916783 -28.43383466967498 0 -28.43383466967498 25.9965464948109 0 0 0 0 -26.803365991904684 -55.807387786917388 0 -55.807387786917388 75.592316885915352 0 0 0 0 -54.500974773583152 -19.696599832983338 0 -19.696599832983338 132.22710361130885 0 0 0 0 -26.154299730689445 -51.482269063772037 0 -51.482269063772037 104.11679372636718 0 0 0 0 -74.37247771981356 -10.598761699657189 0 -10.598761699657189 129.36924839691346 0 0 0 0 -120.57989729418523 -52.594368902209681 0 -52.594368902209681 218.50153446915647 0 0 0 0 -36.613161923743064 238.57539373521286 0 238.57539373521286 -149.35572389187291 0 0 0 0 -94.02610170591015 19.107481932311202 0 19.107481932311202 149.79072824240575 0 0 0 0 12.184925970304334 -18.67270027248378 0 -18.67270027248378 106.01952653595072 0 0 0 0 4.0651283747119509 5.8666529909552025 0 5.8666529909552025 1.0687230344061618 0 0 0 0 -26.648064188356557 -27.272001463963534 0 -27.272001463963534 240.71264055950451 0 0 0 0 1.8873449187106104 2.6509328803964252 0 2.6509328803964252 1.5958353845228714 0 0 0 0 -39.147862201219141 -28.559119166980963 0 -28.559119166980963 453.08407672324392 0 0 0 0 487.44932442972367 136.77023353597906 0 136.77023353597906 -505.3985070752824 0 0 0 0 -33.049131776410491 -63.495011196188898 0 -63.495011196188898 -346.44963229907444 0 0 0 0 608.12167333571142 -66.116211644664872 0 -66.116211644664872 -360.93825490799281 0 0 0 0 -176.11432518096717 -300.2903688030492 0 -300.2903688030492 450.62282428066828 0 0 0 0 -132.97356061677146 280.30681573555921 0 280.30681573555921 808.28817356846412 0 0 0 0 -246.33161337933188 -45.904793086567224 0 -45.904793086567224 23.713023644406348 0 0 0 0 312.63524229076938 485.57683675910812 0 485.57683675910812 483.77595593775914 0 0 0 0 -10.468041693879854 16.403226410846401 0 16.403226410846401 8.5131545258627739 0 0 0 0 -51.621192162492662 -32.071617725407123 0 -32.071617725407123 19.735397991258651 0 0 0 0 -10.060279554138788 22.410924471143517 0 22.410924471143517 42.165922164538642 0 0 0 0 -34.561818283174944 -0.93078264681389555 0 -0.93078264681389555 78.713784332949729 0 0 0 0 76.424635637031543 92.589854246049072 0 92.589854246049072 45.207096869882662 0 0 0 0 1.4017199043286066 -3.196497134628558 0 -3.196497134628558 4.9738356799974213 0 0 0 0 70.625321158459428 104.61066963414487 0 104.61066963414487 139.58262953648227 0 0 0 0 -67.670534594768469 7.2290070223680232 0 7.2290070223680232 104.19950628052175 0 0 0 0 0.10590429753416708 9.407529160180367 0 9.407529160180367 82.667710309796064 0 0 0 0 -96.033247595483772 148.49425377399893 0 148.49425377399893 51.178573606404825 0 0 0 0 -14.696332079078275 7.408304876407783 0 7.408304876407783 66.2300580838928 0 0 0 0 -19.648809160408518 -24.649993180639285 0 -24.649993180639285 48.281675850581451 0 0 0 0 1.7143381316127622 -0.47722886658729635 0 -0.47722886658729635 16.549691367145897 0 0 0 0 0.35325732538409305 3.7681626696411037 0 3.7681626696411037 71.085477147492156 0 0 0 0 -16.996343675604749 45.238363227850641 0 45.238363227850641 91.740181422195747 0 0 0 0 -7.2373640927172573 -6.1341479544116737 0 -6.1341479544116737 88.503742036715266 0 0 0 0 -42.27573799698223 7.4353950290533248 0 7.4353950290533248 87.070591349693132 0 0 0 0 -14.54353880671249 15.306844593491405 0 15.306844593491405 89.041421594418352 0 0 0 0 -63.296442035419631 53.48250279205422 0 53.48250279205422 60.030450641832431 0 0 0 0 3.6361826158718098 5.1581487016535732 0 5.1581487016535732 18.528395875104565 0 0 0 0 -13.435743412680949 -12.025962894666009 0 -12.025962894666009 140.45730485040986 0 0 0 0 -14.995957200643261 27.828598329375382 0 27.828598329375382 103.82553576983628 0 0 0 0 0.34303117285457463 9.4495028872929439 0 9.4495028872929439 78.877062199472448 0 0 0 0 -66.875839472157168 60.534231862471643 0 60.534231862471643 144.66767023381544 0 0 0 0 -1.6664581991098224 -3.2676891119507872 0 -3.2676891119507872 14.234354352008381 0 0 0 0 -53.362326787547318 81.594425199633406 0 81.594425199633406 21.709976344949609 0 0 0 0 -39.658836204507679 -7.6138310269088834 0 -7.6138310269088834 39.920570729396786 0 0 0 0 13.200515519900819 -7.7862065449735383 0 -7.7862065449735383 19.978927136558923 0 0 0 0 59.507982415553215 -73.611608292398159 0 -73.611608292398159 183.03109362194664 0 0 0 0 -79.869321377911547 -181.11609364114702 0 -181.11609364114702 312.89013542345492 0 0 0 0 -5.2103964728549972 0.5249651408616387 0 0.5249651408616387 29.410399840499494 0 0 0 0 -133.51304758947845 216.33178093197057 0 216.33178093197057 -158.54372880375013 0 0 0 0 328.38525692774328 -296.17349453791394 0 -296.17349453791394 168.79818030929891 0 0 0 0 -127.33577920229436 -11.052767913264688 0 -11.052767913264688 146.06761047829059 0 0 0 0 -538.35400967157329 182.21678372091264 0 182.21678372091264 653.76359898172086 0 0 0 0 123.42695047099483 106.41955426707864 0 106.41955426707864 213.60092086248915 0 0 0 0 141.22988454773531 28.386893921764567 0 28.386893921764567 -71.19093743331905 0 0 0 0 79.144267312982947 -3.1636662028977298 0 -3.1636662028977298 231.85374578292249 0 0 0 0 77.502939528784282 27.218492131709354 0 27.218492131709354 86.498996497713961 0 0 0 0 21.325695558230564 -47.015976156108081 0 -47.015976156108081 315.4801935829164 0 0 0 0 -43.78836117908395 19.496536640697741 0 19.496536640697741 261.27133258626418 0 0 0 0 -46.17023659771985 7.4750121393444715 0 7.4750121393444715 274.38646335655358 0 0 0 0 -33.262962539589353 2.8557957355224062 0 2.8557957355224062 253.72176556658815 0 0 0 0 -30.956728442499298 -17.702980720408959 0 -17.702980720408959 302.22482388259959 0 0 0 0 55.219535250477747 61.414419200074917 0 61.414419200074917 -106.67142167902784 0 0 0 0 1.7708877407517569 26.737832086997372 0 26.737832086997372 25.367009392032656 0 0 0 0 13.130559226236073 -5.8246057052601827 0 -5.8246057052601827 115.16803586706919 0 0 0 0 2.0389060514161859 3.0924187670629522 0 3.0924187670629522 -8.4295857635922857 0 0 0 0 16.060103703425966 15.878027038139408 0 15.878027038139408 113.51085583004169 0 0 0 0 31.45143842853804 -89.691744803858455 0 -89.691744803858455 21.280548838229151 0 0 0 0 -63.353275267365007 -89.93195036389443 0 -89.93195036389443 359.21851159978542 0 0 0 0 -8.168665648535125 -100.13964392306661 0 -100.13964392306661 -14.556730198994046 0 0 0 0 71.811583559464452 210.49161160067888 0 210.49161160067888 427.86823509281385 0 0 0 0 -0.21059703077187031 -0.80368805898980611 0 -0.80368805898980611 2.7445714740505309 0 0 0 0 4.9423186356470978 27.54874706812916 0 27.54874706812916 71.266824921229272 0 0 0 0 -15.415344031881318 36.385993678528394 0 36.385993678528394 142.34713376853324 0 0 0 0 -10.750483456718939 29.088066456180968 0 29.088066456180968 72.102723730204161 0 0 0 0 8.6158351538560396 43.295828196161892 0 43.295828196161892 34.875094342438388 0 0 0 0 -11.015348980634712 7.7312247031586594 0 7.7312247031586594 77.606182629941031 0 0 0 0 -9.5923702376008677 3.8034322775778548 0 3.8034322775778548 -0.3728570720150568 0 0 0 0 -16.446486437554082 3.8800486775680838 0 3.8800486775680838 7.811210937815499 0 0 0 0 -22.916989690545961 4.6871671417466132 0 4.6871671417466132 90.041380128473975 0 0 0 0 -12.568528816752966 31.48740427424309 0 31.48740427424309 74.814694564702222 0 0 0 0 -12.462679718793364 13.555935872109316 0 13.555935872109316 36.445116379381318 0 0 0 0 -39.432979587084446 21.488712312464486 0 21.488712312464486 37.501036572306475 0 0 0 0 -0.17163207620709109 -1.5870950803875417 0 -1.5870950803875417 10.133787968364686 0 0 0 0 -24.502801246709168 7.7070898314777878 0 7.7070898314777878 36.670713553059613 0 0 0 0 -54.504713726644241 13.188609760192776 0 13.188609760192776 59.57149691550876 0 0 0 0 -0.67839928538410699 15.307022556999184 0 15.307022556999184 36.384283116403026 0 0 0 0 -11.833347802508982 24.368546323932605 0 24.368546323932605 44.937738840817474 0 0 0 0 -6.2994619139512107 12.858877618842143 0 12.858877618842143 54.569726548194524 0 0 0 0 -9.636864527424791 7.528028135689965 0 7.528028135689965 72.984527302265633 0 0 0 0 -27.812441550347195 18.091396426584911 0 18.091396426584911 35.320539081163702 0 0 0 0 -13.042845387445352 16.457305296887569 0 16.457305296887569 42.993224554036004 0 0 0 0 -23.642645021287997 12.366814110316483 0 12.366814110316483 55.429046307482146 0 0 0 0 -21.119541622665565 11.512189251234304 0 11.512189251234304 27.656702807114925 0 0 0 0 57.284703745139268 63.724902125890367 0 63.724902125890367 6.4726081239787163 0 0 0 0 -5.5060725328975124 0.81250648800925163 0 0.81250648800925163 4.9292986440726736 0 0 0 0 -11.683806744695175 -60.048108735053574 0 -60.048108735053574 176.94933870248497 0 0 0 0 -57.298240211355733 -16.603945300463238 0 -16.603945300463238 4.6839587852200566 0 0 0 0 -70.956568766252531 20.254771389169036 0 20.254771389169036 347.88773936634607 0 0 0 0 27.772564300545127 3.8843122427133494 0 3.8843122427133494 -32.285933218266109 0 0 0 0 16.754520296107444 -8.9839581246415037 0 -8.9839581246415037 -16.635404501196717 0 0 0 0 -52.251889528689503 16.979178938927362 0 16.979178938927362 170.38333612399583 0 0 0 0 -14.606687680621064 5.4503496465913486 0 5.4503496465913486 171.48480665162788 0 0 0 0 -19.926699342724532 38.576379265796277 0 38.576379265796277 257.14175654519931 0 0 0 0 -99.55769234348935 -57.407670582528226 0 -57.407670582528226 464.43392200471135 0 0 0 0 44.517923803133044 -36.284041485188936 0 -36.284041485188936 167.15908137337647 0 0 0 0 -31.420599772913192 54.429826717918331 0 54.429826717918331 180.67912106239237 0 0 0 0 1.4334407833441034 -3.5791012943550982 0 -3.5791012943550982 7.3817282486757243 0 0 0 0 -7.6887629495666943 40.132400054055324 0 40.132400054055324 39.7054601280106 0 0 0 0 -17.083913107859757 21.196236227748159 0 21.196236227748159 6.1804254002490779 0 0 0 0 11.34890618377603 -5.5565039597962311 0 -5.5565039597962311 -0.54630370939000628 0 0 0 0 45.661058121851511 19.133428563909547 0 19.133428563909547 0.55281133568496443 0 0 0 0 59.302488620623762 -17.725055797534878 0 -17.725055797534878 -63.883156066614902 0 0 0 0 37.466195939321096 -31.019969081462477 0 -31.019969081462477 72.003990498851635 0 0 0 0 163.05900225300695 192.39941986487429 0 192.39941986487429 282.24085078330245 0 0 0 0 97.806458014887767 59.209253207431175 0 59.209253207431175 42.756189243315021 0 0 0 0 33.586035239899957 -77.00975135799672 0 -77.00975135799672 223.95075758345774 0 0 0 0 -17.280714418863681 41.880826386746776 0 41.880826386746776 142.12894101794518 0 0 0 0 21.043713952244616 15.484523666993482 0 15.484523666993482 67.277815754961921 0 0 0 0 21.029758259610389 40.189871535854763 0 40.189871535854763 35.234819041113951 0 0 0 0 -3.4220081593296845 17.267310672618635 0 17.267310672618635 45.210465532050137 0 0 0 0 -12.382748553361353 11.201975669635431 0 11.201975669635431 78.068541353291948 0 0 0 0 -2.3315226898289891 -1.6143184336524996 0 -1.6143184336524996 31.477205451896229 0 0 0 0 -6.073393742342887 52.559390357593657 0 52.559390357593657 45.103126149173477 0 0 0 0 1.4518901363337462 3.1442653752870768 0 3.1442653752870768 2.2586430908553439 0 0 0 0 18.938601593319618 39.884340072079794 0 39.884340072079794 46.15343260980444 0 0 0 0 11.022867078444733 6.641815202376165 0 6.641815202376165 -3.9240496406564489 0 0 0 0 -1.0141200270164048 9.3867153130545375 0 9.3867153130545375 43.433897554999731 0 0 0 0 -146.56281724879318 13.290092898692819 0 13.290092898692819 61.515431318373885 0 0 0 0 9.4031359592356161 11.834196838900965 0 11.834196838900965 25.05274917249659 0 0 0 0 32.938486166231996 -33.291158396030369 0 -33.291158396030369 71.549154111286043 0 0 0 0 65.253182224211287 9.2476088133553276 0 9.2476088133553276 20.0485714408278 0 0 0 0 -0.56899679978619133 -2.886384778728825 0 -2.886384778728825 62.599934953395859 0 0 0 0 0.41619552572046548 6.3269900248820932 0 6.3269900248820932 38.996155781597167 0 0 0 0 -4.2448526912794478 0.28784038085723296 0 0.28784038085723296 22.825966303786117 0 0 0 0 0.73362814110329655 0.84070900975331142 0 0.84070900975331142 44.809601344666476 0 0 0 0 -20.272297542625196 12.510477749714113 0 12.510477749714113 61.77960979893632 0 0 0 0 -2.096063503228379 -2.3774353069456993 0 -2.3774353069456993 76.568575457554289 0 0 0 0 -17.923388289696504 110.85883727458167 0 110.85883727458167 33.168226011301158 0 0 0 0 5.899508275918989 -5.8870492201787101 0 -5.8870492201787101 46.814615421706606 0 0 0 0 14.094823928131117 -44.490388001741934 0 -44.490388001741934 100.5799335349854 0 0 0 0 20.175190546008707 109.59654852489621 0 109.59654852489621 30.208439686350175 0 0 0 0 -32.640829377795626 -425.73027532871674 0 -425.73027532871674 53.560881667304784 0 0 0 0 -376.61201967984925 -171.11916578409728 0 -171.11916578409728 478.76038776600763 0 0 0 0 87.869627925873147 161.47828781927092 0 161.47828781927092 -180.37468349053233 0 0 0 0 39.791617534306624 -23.852932029789372 0 -23.852932029789372 38.970066769892583 0 0 0 0 -1.167260515137762 -18.322769422641557 0 -18.322769422641557 16.995509090395103 0 0 0 0 193.07438887527417 -96.806304430938326 0 -96.806304430938326 68.188206989179889 0 0 0 0 206.47619670547488 322.03989513550187 0 322.03989513550187 104.22384001037426 0 0 0 0 57.13333598687359 -152.75188832500135 0 -152.75188832500135 -149.90229699548217 0 0 0 0 -200.02761289479031 -89.369079938980576 0 -89.369079938980576 60.290475736284861 0 0 0 0 -101.57791953449851 -16.691496106242994 0 -16.691496106242994 65.102724894195489 0 0 0 0 1.0456424843975469 -87.321356894532073 0 -87.321356894532073 -9.6493812558474019 0 0 0 0 -11.501481372606293 -36.46890157096459 0 -36.46890157096459 52.011679387855111 0 0 0 0 89.227257246011618 -17.242068786086747 0 -17.242068786086747 -36.229926521598827 0 0 0 0 62.492759662751723 -29.453538143090555 0 -29.453538143090555 -39.975760715606157 0 0 0 0 118.57248578702433 -97.888454045532853 0 -97.888454045532853 -34.507667005527765 0 0 0 0 196.60549882049077 -12.845770316867856 0 -12.845770316867856 -47.7692781108708 0 0 0 0 131.2700157856487 16.713637619119254 0 16.713637619119254 106.49049925792497 0 0 0 0 267.10505347313062 115.16631953605975 0 115.16631953605975 104.25240660493728 0 0 0 0 186.41466783681381 36.73554949532263 0 36.73554949532263 67.683566569598042 0 0 0 0 249.86510200560258 29.126544974598801 0 29.126544974598801 -20.414203833905049 0 0 0 0 291.63454917844069 242.2795488400443 0 242.2795488400443 338.44088169562747 0 0 0 0 213.81464198996969 199.44394187620492 0 199.44394187620492 457.5264168982103 0 0 0 0 131.09187081023447 208.66455547642545 0 208.66455547642545 444.65656376883271 0 0 0 0 311.9370474244771 351.39537825269508 0 351.39537825269508 506.33456547002424 0 0 0 0 113.49418607427032 317.69146632224874 0 317.69146632224874 807.78992587415269 0 0 0 0 24.825144169837813 274.79243484308245 0 274.79243484308245 639.44340009712323 0 0 0 0 160.83283110527714 381.08842936641304 0 381.08842936641304 681.72859877641895 0 0 0 0 -17.840844166527518 241.73698487371439 0 241.73698487371439 482.97524685176904 0 0 0 0 76.314602053522151 283.43275374862424 0 283.43275374862424 466.49295376017108 0 0 0 0 201.34974868606901 269.43540417820623 0 269.43540417820623 353.38748000058695 0 0 0 0 -48.209954440076785 106.10326646488102 0 106.10326646488102 276.82332071797282 0 0 0 0 -28.829652520271566 230.80362662456173 0 230.80362662456173 651.35132827605412 0 0 0 0 -20.627236936905661 231.01099146340857 0 231.01099146340857 716.65147537743178 0 0 0 0 -2.9386197864230326 316.17182235044311 0 316.17182235044311 680.12537356411485 0 0 0 0 -54.12773909999612 253.9084706811409 0 253.9084706811409 642.05044254940003 0 0 0 0 12.240073219479939 241.9141662655602 0 241.9141662655602 468.8930977898417 0 0 0 0 -69.415258984422167 -3.4406477554625781 0 -3.4406477554625781 244.3198349493905 0 0 0 0 78.573736287528675 57.723050039960071 0 57.723050039960071 97.775063854496693 0 0 0 0 0.93428964255818125 -0.46178080366667018 0 -0.46178080366667018 1.6368557360197897 0 0 0 0 14.80247201189627 218.99373674055096 0 218.99373674055096 482.10291371571657 0 0 0 0 9.7802620148816182 144.54957771179215 0 144.54957771179215 247.27632552251453 0 0 0 0 155.19821681364229 5.5008360250503756 0 5.5008360250503756 -20.834412493713899 0 0 0 0 97.75690940576817 174.42551314368029 0 174.42551314368029 64.843423071928555 0 0 0 0 39.227388209325881 252.58448566076549 0 252.58448566076549 211.24655193864601 0 0 0 0 -26.132884273714751 3.1569138940540142 0 3.1569138940540142 79.1233267186999 0 0 0 0 3.2407278066901468 -1.4763701478435394 0 -1.4763701478435394 -1.0497246360112626 0 0 0 0 -74.880242365598974 41.751713394129183 0 41.751713394129183 -19.88923339464327 0 0 0 0 -6.397340476899501 -4.0583992330066394 0 -4.0583992330066394 15.594089255304425 0 0 0 0 2.692082941794526 -8.2037998902819531 0 -8.2037998902819531 13.367570602957585 0 0 0 0 -6.8765964840656579 -4.5846557406621287 0 -4.5846557406621287 17.104903078688039 0 0 0 0 0.42317218913285615 0.74715339604153996 0 0.74715339604153996 13.912972713151248 0 0 0 0 -9.3052466660853668 1.2376360355265206 0 1.2376360355265206 13.967878755793208 0 0 0 0 -10.664558369211505 -6.67512910089863 0 -6.67512910089863 14.63312268233858 0 0 0 0 -9.1329704614109914 1.5528596549265785 0 1.5528596549265785 12.699345476168673 0 0 0 0 -17.019485654331447 3.0823445959249511 0 3.0823445959249511 12.40999650334561 0 0 0 0 -19.319069662281208 -6.0725192790559959 0 -6.0725192790559959 14.662913489708444 0 0 0 0 -79.609580088826533 -112.85217088433274 0 -112.85217088433274 27.591914286807878 0 0 0 0 243.09126369890964 -36.214739196526352 0 -36.214739196526352 -143.65819871018175 0 0 0 0 2.2568256146150674 1.4642549981508637 0 1.4642549981508637 9.4968086887784011 0 0 0 0 -0.58119197677559298 4.1391191187694858 0 4.1391191187694858 11.18433689759695 0 0 0 0 -3.5643521500807651 7.203014394181082 0 7.203014394181082 7.6699079915451875 0 0 0 0 -3.877581349945558 4.2290940894017695 0 4.2290940894017695 16.602525674374192 0 0 0 0 -3.4414652488095498 -0.60767117113343261 0 -0.60767117113343261 7.3926841836309336 0 0 0 0 -0.72516954583841198 3.4008775037582382 0 3.4008775037582382 12.402984209213173 0 0 0 0 0.098508064445928412 -0.17913052114565176 0 -0.17913052114565176 2.5097551401044598 0 0 0 0 5.4843318737987374 108.23909516382264 0 108.23909516382264 843.4747193363346 0 0 0 0 126.44596585904185 298.12367179748253 0 298.12367179748253 865.74591516604414 0 0 0 0 -1.7861799538662826 1.1438997543000369 0 1.1438997543000369 1.6952136615689515 0 0 0 0 -77.556549376841758 164.33614897215466 0 164.33614897215466 609.55234817854944 0 0 0 0 69.558804205258184 -107.43632759204775 0 -107.43632759204775 171.16493273077867 0 0 0 0 88.877612807510786 241.92664864464314 0 241.92664864464314 538.08665578460204 0 0 0 0 -34.335264331336248 278.04182947569643 0 278.04182947569643 591.27077490760712 0 0 0 0 151.29727289614982 137.42776036804571 0 137.42776036804571 591.45969291825895 0 0 0 0 -0.96203355547572755 166.61778360976314 0 166.61778360976314 601.3500263152855 0 0 0 0 27.65638493409233 235.56853342463728 0 235.56853342463728 614.45854748623969 0 0 0 0 -86.91710243578882 76.859975581144681 0 76.859975581144681 590.3999637256652 0 0 0 0 43.649869500351883 160.47301416208211 0 160.47301416208211 590.92161431533168 0 0 0 0 -132.35475877091039 90.992367812745215 0 90.992367812745215 536.76142990806693 0 0 0 0 -60.985003174944367 91.188673165699583 0 91.188673165699583 536.08116870724189 0 0 0 0 -3.5841509786715733 151.93346532369469 0 151.93346532369469 525.29253419725683 0 0 0 0 1.399387618617554 0.98885495221176711 0 0.98885495221176711 1.7271735227669502 0 0 0 0 -25.526847143023247 160.24378177274048 0 160.24378177274048 801.78533587690617 0 0 0 0 -80.20628411957631 182.04549038537516 0 182.04549038537516 794.1791170956858 0 0 0 0 -0.38410684135897577 -0.90696159489186812 0 -0.90696159489186812 2.4968706109160621 0 0 0 0 -18.225738125780566 243.16997907491168 0 243.16997907491168 916.71561967101297 0 0 0 0 -0.10736484841893693 -133.63086593506159 0 -133.63086593506159 58.956656732611009 0 0 0 0 -35.483983296610546 95.946434332654462 0 95.946434332654462 500.39622601879819 0 0 0 0 0.2723056851483962 -87.8158557982606 0 -87.8158557982606 569.2722465998304 0 0 0 0 8.3250184116975277 78.723615668714046 0 78.723615668714046 276.59227576525882 0 0 0 0 -37.24551950527362 -20.921570470512961 0 -20.921570470512961 487.37077037363269 0 0 0 0 -11.680261894656837 27.260053918835183 0 27.260053918835183 114.20142771187966 0 0 0 0 -57.784669692508416 -62.673580737013253 0 -62.673580737013253 200.19883052881778 0 0 0 0 -0.016060916193388099 -58.514571489278751 0 -58.514571489278751 83.230540571239544 0 0 0 0 -14.492264690758361 11.885263671087159 0 11.885263671087159 6.6264875650222166 0 0 0 0 48.240760674172748 109.19106278898835 0 109.19106278898835 86.308712953497889 0 0 0 0 -21.088670967621397 -64.062956483794551 0 -64.062956483794551 66.039091603890483 0 0 0 0 2.6695058467348787 2.6397255190513533 0 2.6397255190513533 11.932393408598728 0 0 0 0 2.8980609444041008 0.44360666061641041 0 0.44360666061641041 2.1768738210067617 0 0 0 0 -2.2058888799438963 -1.9148870491628998 0 -1.9148870491628998 8.320955686310981 0 0 0 0 237.25529315707183 192.98311290140555 0 192.98311290140555 -142.30428826307616 0 0 0 0 -44.916438585039714 9.8480446861503879 0 9.8480446861503879 637.38647114054766 0 0 0 0 -103.97677187478371 27.390012934381957 0 27.390012934381957 384.47131777902541 0 0 0 0 24.66682553004604 -3.665325806956389 0 -3.665325806956389 -136.25850004871609 0 0 0 0 -3.3460728992558213 -2.8600665188278072 0 -2.8600665188278072 19.537151439333684 0 0 0 0 -0.2489217581700347 -0.26161442984067662 0 -0.26161442984067662 -0.18330083179850476 0 0 0 0 41.946408976697526 -14.381372465813911 0 -14.381372465813911 -63.728132329764776 0 0 0 0 -1.1418272213843808 -0.67062852964903641 0 -0.67062852964903641 2.8653026498345113 0 0 0 0 0.60675503836787026 -2.5780214599222688 0 -2.5780214599222688 6.2648066456644074 0 0 0 0 -43.526606980259032 36.760327359894291 0 36.760327359894291 205.04886338755023 0 0 0 0 -2.0745004969325169 -4.2947496487977332 0 -4.2947496487977332 11.21905195240015 0 0 0 0 1.2764446368779314 -1.2834901577734854 0 -1.2834901577734854 1.9764388459152542 0 0 0 0 -2.0745004969324636 -0.28422544772911351 0 -0.28422544772911351 11.000458963972051 0 0 0 0 0.0048722345549292159 -3.8593312288649031 0 -3.8593312288649031 10.513131321291439 0 0 0 0 -0.0073456827402408643 -4.7052039755144506 0 -4.7052039755144506 1.6156956774684659 0 0 0 0 27.730290890791792 134.55117820219675 0 134.55117820219675 243.66617779427906 0 0 0 0 160.32188110818726 354.77796478716482 0 354.77796478716482 281.79595178016461 0 0 0 0 -0.057786245235539588 -0.50647769480588067 0 -0.50647769480588067 2.6596672096870861 0 0 0 0 -71.719632329889237 -263.37175782342092 0 -263.37175782342092 150.02979906836117 0 0 0 0 60.413150085830807 -261.05101739117526 0 -261.05101739117526 77.015733319014544 0 0 0 0 -126.15334907351826 -320.21470617227897 0 -320.21470617227897 139.56448010593886 0 0 0 0 -0.20384352553348062 -0.041822125776533881 0 -0.041822125776533881 4.6583060750102732 0 0 0 0 29.80186786477816 203.50636644587212 0 203.50636644587212 150.23300995117461 0 0 0 0 49.550240960099018 165.13932134061179 0 165.13932134061179 -25.864070478244685 0 0 0 0 -287.68321269072356 -44.535377470660023 0 -44.535377470660023 183.44725138167269 0 0 0 0 34.164178830878996 201.38083098953939 0 201.38083098953939 91.655304231448099 0 0 0 0 102.56578664595125 -147.52169161310121 0 -147.52169161310121 273.08845662832027 0 0 0 0 -17.272340330472503 -335.09608098224271 0 -335.09608098224271 45.94107179105049 0 0 0 0 -8.2592879809028545 103.93216255264269 0 103.93216255264269 619.20770816260483 0 0 0 0 24.948466708053843 88.558089794423722 0 88.558089794423722 269.79463502185536 0 0 0 0 -63.766495872943892 13.559785913399537 0 13.559785913399537 61.09184046597511 0 0 0 0 1.4629946324941585 -1.8721040590634743 0 -1.8721040590634743 1.7817144442153108 0 0 0 0 49.029108536333695 -207.43197115527983 0 -207.43197115527983 -171.22450460545952 0 0 0 0 4.6699428141640986 -4.7845320904085042 0 -4.7845320904085042 3.6903902462295264 0 0 0 0 -97.191778273585953 -91.6328734701965 0 -91.6328734701965 -36.468675424490357 0 0 0 0 -58.513905258832892 -2.1989550419384614 0 -2.1989550419384614 301.2761175888154 0 0 0 0 -11.851057434035283 84.59148327591538 0 84.59148327591538 343.15246877379832 0 0 0 0 56.688133498394791 204.36856605301728 0 204.36856605301728 420.00954287193599 0 0 0 0 6.5327781932828657 98.997429518960416 0 98.997429518960416 201.03818063860308 0 0 0 0 -66.315388595247214 -70.558554542194543 0 -70.558554542194543 230.88789909353363 0 0 0 0 183.01535187450963 62.128172930126311 0 62.128172930126311 70.122845819365466 0 0 0 0 34.215034389116227 277.57164840585028 0 277.57164840585028 318.53329103125361 0 0 0 0 0.70760984187470455 -0.27191905709200981 0 -0.27191905709200981 3.866102844905015 0 0 0 0 -19.623806715142564 256.00420473134 0 256.00420473134 422.84502155560767 0 0 0 0 82.67111360412423 -85.153676262467343 0 -85.153676262467343 89.887144015403464 0 0 0 0 -51.59590038909073 37.902991505048703 0 37.902991505048703 420.80098767315894 0 0 0 0 5.798504247693189 -6.6894969636142889 0 -6.6894969636142889 7.4137931058063771 0 0 0 0 -67.351012413483062 -39.587764221796533 0 -39.587764221796533 121.50403899696539 0 0 0 0 6.7612554844054102 -37.592091076687211 0 -37.592091076687211 -23.110628605063539 0 0 0 0 -87.932731299157297 61.758765342632614 0 61.758765342632614 -0.11737609223928303 0 0 0 0 -4.3504410225675656 -0.38786162673471836 0 -0.38786162673471836 4.9739035763965944 0 0 0 0 -21.709414513484944 -414.41259817167884 0 -414.41259817167884 -305.81500449537998 0 0 0 0 -26.444929807538458 -5.5635200662200077 0 -5.5635200662200077 19.578671560389921 0 0 0 0 1.1678390538771819 -8.1251048188258572 0 -8.1251048188258572 17.758294932895353 0 0 0 0 -164.20621263475914 76.970476937705826 0 76.970476937705826 205.16191174793494 0 0 0 0 -15.734347957506884 55.987731127377629 0 55.987731127377629 -125.54725580106606 0 0 0 0 -31.424926121393128 -5.6439538282720605 0 -5.6439538282720605 46.76515499263769 0 0 0 0 -13.03994922041062 14.217787989364297 0 14.217787989364297 -5.9915255504311062 0 0 0 0 0.2012851842732879 0.062865752082188919 0 0.062865752082188919 0.12124297692062314 0 0 0 0 -32.091896060360682 11.425989866896998 0 11.425989866896998 4.5873054552648682 0 0 0 0 -14.136151320739032 1.5176388157269685 0 1.5176388157269685 9.8202056660084054 0 0 0 0 -7.1981548707516367 10.597819145677931 0 10.597819145677931 -3.8900920708256308 0 0 0 0 -0.31687075682452814 1.8651244303182466 0 1.8651244303182466 6.5961928248743789 0 0 0 0 0.36225162586561055 3.0493743288752739 0 3.0493743288752739 8.4465615642257035 0 0 0 0 1.410810647294511 0.54146529662546072 0 0.54146529662546072 -0.031225354018545204 0 0 0 0 -106.0716292916469 31.954506229783874 0 31.954506229783874 142.96950232316703 0 0 0 0 -102.70554012499431 4.6047132393523498 0 4.6047132393523498 84.832181325706188 0 0 0 0 50.193971362826574 5.703600784909213 0 5.703600784909213 2.4064844182867091 0 0 0 0 0.38312983006003787 2.0400337721805712 0 2.0400337721805712 11.317611875550909 0 0 0 0 -513.86781526564687 101.84486552837734 0 101.84486552837734 -5.256716578907799 0 0 0 0 -397.32696767602783 40.491993810868735 0 40.491993810868735 -401.30401452154911 0 0 0 0 878.02011142045785 -686.19783157929851 0 -686.19783157929851 403.36920119112256 0 0 0 0 392.39772234806219 -305.78242789876276 0 -305.78242789876276 153.49252922930464 0 0 0 0 444.01552376905784 -195.80772819460981 0 -195.80772819460981 320.58611549939087 0 0 0 0 309.23218858758548 -126.63884172199334 0 -126.63884172199334 10.664069889404345 0 0 0 0 306.49947707604196 56.460524815822282 0 56.460524815822282 27.732206558226608 0 0 0 0 243.94166076561396 -34.673273437234457 0 -34.673273437234457 -76.932031707503484 0 0 0 0 100.87010722780542 -22.078916730904893 0 -22.078916730904893 -37.589143337092537 0 0 0 0 152.75011089460349 -290.86235874656995 0 -290.86235874656995 -656.75467772474803 0 0 0 0 -59.909729905867607 -61.221630436913983 0 -61.221630436913983 884.92678461370815 0 0 0 0 -14.769104683673504 394.7254445308281 0 394.7254445308281 -284.13386684085708 0 0 0 0 -1.6126084998328238 2.6742381988965391 0 2.6742381988965391 -2.2368474632905304 0 0 0 0 -1379.902738192467 -1019.6372629982361 0 -1019.6372629982361 1419.5307642288826 0 0 0 0 276.32306953225418 -44.773591711498739 0 -44.773591711498739 132.55969742912566 0 0 0 0 -48.457340299205953 158.42212489550002 0 158.42212489550002 5.5957521372038173 0 0 0 0 38.649158397292467 -105.68700814562908 0 -105.68700814562908 284.24899265267595 0 0 0 0 -341.56917844901795 244.56586119959684 0 244.56586119959684 -20.745104817586252 0 0 0 0 -278.99326771960489 -364.77927791007096 0 -364.77927791007096 457.69795897459426 0 0 0 0 -7.422521294148396 -288.82998467877769 0 -288.82998467877769 313.11103631259175 0 0 0 0 28.549074224525611 -156.91993593786901 0 -156.91993593786901 258.00815487551154 0 0 0 0 104.7276757524582 -191.12065094460195 0 -191.12065094460195 246.67932653150638 0 0 0 0 54.862384148663821 -46.331551649287505 0 -46.331551649287505 30.784461716610281 0 0 0 0 52.065158848517967 -113.12940360132779 0 -113.12940360132779 -72.412891591957305 0 0 0 0 1007.1883883785632 -661.2345878993583 0 -661.2345878993583 -108.94583871511168 0 0 0 0 938.79706907300852 -338.25458096205693 0 -338.25458096205693 -8.845124245097395 0 0 0 0 421.86316748329364 -640.32113319495693 0 -640.32113319495693 432.10837290264681 0 0 0 0 -0.69961028351899901 1.8647191872988671 0 1.8647191872988671 6.9772742396697538 0 0 0 0 -183.84044888509925 432.41604178816488 0 432.41604178816488 -7.0400268073162806 0 0 0 0 167.28745439044087 267.71590279399243 0 267.71590279399243 -32.463458532700315 0 0 0 0 -104.27929870917342 -18.308254914616555 0 -18.308254914616555 190.76346430717967 0 0 0 0 550.29552174565515 -134.99580261552182 0 -134.99580261552182 -24.580837681074627 0 0 0 0 400.35713218753403 -73.147719060551026 0 -73.147719060551026 -39.386765141382057 0 0 0 0 -21.062653904482431 -70.879774899469339 0 -70.879774899469339 173.56082050695841 0 0 0 0 -6.7868679826610219 0.28974288773682133 0 0.28974288773682133 18.626884984602782 0 0 0 0 -176.66859321127777 -40.548115533434611 0 -40.548115533434611 184.01897629727318 0 0 0 0 9.5137558447645461 -12.400291120753536 0 -12.400291120753536 -48.950620639545377 0 0 0 0 62.942377702832118 -280.59262572323496 0 -280.59262572323496 196.93859450500895 0 0 0 0 121.8736062167261 -159.08952763914567 0 -159.08952763914567 151.42509009390778 0 0 0 0 462.52767044469283 -392.77775717610893 0 -392.77775717610893 267.16906781092985 0 0 0 0 105.00878940965595 -253.12844851338014 0 -253.12844851338014 156.7420396013149 0 0 0 0 406.08570235454204 -101.8913693210543 0 -101.8913693210543 99.29055378594785 0 0 0 0 -524.60404284442836 7.8247826833321596 0 7.8247826833321596 135.74427011424268 0 0 0 0 -144.19288797815807 -223.69277286307624 0 -223.69277286307624 151.62878838398501 0 0 0 0 107.67042856161765 -155.50639195647091 0 -155.50639195647091 106.97293317680669 0 0 0 0 55.31932896440037 -116.7576448374748 0 -116.7576448374748 88.625488682126161 0 0 0 0 -27.493018693015845 -3.7107460263815426 0 -3.7107460263815426 6.4918050854699345 0 0 0 0 47.409704546485273 -230.30219845759711 0 -230.30219845759711 90.773509085987712 0 0 0 0 -27.689816239165339 -4.805677381264104 0 -4.805677381264104 3.0080065309884958 0 0 0 0 -10.239025397761495 3.1193200963219851 0 3.1193200963219851 5.2282752062678526 0 0 0 0 338.44814489321311 -133.09324283116075 0 -133.09324283116075 56.353438874793937 0 0 0 0 -20.929537468874514 16.601814440917224 0 16.601814440917224 5.4517226239258889 0 0 0 0 -14.668167807954127 -3.9062549773673538 0 -3.9062549773673538 9.9274384193198273 0 0 0 0 -25.455520553590759 -22.686922772896651 0 -22.686922772896651 -25.735821031405067 0 0 0 0 -8.0445173534972767 3.9532504281882552 0 3.9532504281882552 1.3132785640647171 0 0 0 0 -4.2125447585698197 -0.2358251885289846 0 -0.2358251885289846 7.4855533781529857 0 0 0 0 -42.336239572429804 -11.635092011583765 0 -11.635092011583765 -32.754118736134842 0 0 0 0 -44.593692579979688 4.6062000697857002 0 4.6062000697857002 22.512706084060483 0 0 0 0 -41.385142251059278 7.2299212360449019 0 7.2299212360449019 -17.974234383524163 0 0 0 0 -28.420989556096174 2.9192403551242023 0 2.9192403551242023 -47.835573971562553 0 0 0 0 -10.803985199570889 -5.1591090096044354 0 -5.1591090096044354 -46.184398752175184 0 0 0 0 -34.348696496075434 -6.6317132147141962 0 -6.6317132147141962 3.1094134467475669 0 0 0 0 -13.209809504518489 45.104037159966538 0 45.104037159966538 -67.742964887780545 0 0 0 0 -74.398988602290956 -189.7321321326599 0 -189.7321321326599 246.32463930184531 0 0 0 0 -367.42602113048997 143.61228849616418 0 143.61228849616418 -7.9630163565598195 0 0 0 0 -62.860296988603523 4.8593568825144757 0 4.8593568825144757 139.72722830448765 0 0 0 0 -154.77362099020684 -79.116545285764005 0 -79.116545285764005 65.635308199074643 0 0 0 0 558.66444021186317 -394.20595103774758 0 -394.20595103774758 117.64295414689332 0 0 0 0 -322.9373043572914 116.37223663322584 0 116.37223663322584 112.39019904000452 0 0 0 0 1.5885783907084843 7.4475290782143659 0 7.4475290782143659 33.046868374607982 0 0 0 0 398.07429170287696 -207.26046691715965 0 -207.26046691715965 190.18209257308627 0 0 0 0 47.950547004863438 -1.708941230448545 0 -1.708941230448545 -36.757919563584437 0 0 0 0 91.497489809966282 -181.75708505843795 0 -181.75708505843795 221.5871913336523 0 0 0 0 268.95198948956931 -382.3576149306391 0 -382.3576149306391 254.96496116752678 0 0 0 0 335.95649248502775 -354.20087539177075 0 -354.20087539177075 160.83464466418081 0 0 0 0 113.22061137051514 -324.35206075452879 0 -324.35206075452879 422.10514994997357 0 0 0 0 253.47901289607375 -373.88077543691907 0 -373.88077543691907 192.39251338224858 0 0 0 0 268.3681729164806 -389.74898618740417 0 -389.74898618740417 174.61401183398266 0 0 0 0 316.47653858762828 -123.67212302290864 0 -123.67212302290864 -38.440064534883277 0 0 0 0 599.93508379091099 -738.92853625807766 0 -738.92853625807766 516.80675487354893 0 0 0 0 838.33962516376778 -80.94820513331797 0 -80.94820513331797 49.692001510426053 0 0 0 0 107.61847859630711 -267.6585520873341 0 -267.6585520873341 150.48885831607913 0 0 0 0 -112.37239465074526 -42.27717783566186 0 -42.27717783566186 1.7258342299464857 0 0 0 0 -91.351752102627614 -241.60875313049564 0 -241.60875313049564 75.815889557095943 0 0 0 0 221.17067913008714 -136.05097941691929 0 -136.05097941691929 98.268696638147958 0 0 0 0 302.87092603123051 -387.12563115969169 0 -387.12563115969169 128.09252976613061 0 0 0 0 6.8282999615210009 -2.5232186998067618 0 -2.5232186998067618 0.74672636753274446 0 0 0 0 -111.80759457605291 208.0862598392705 0 208.0862598392705 1379.744086835839 0 0 0 0 -690.05437462997907 -411.91775126712309 0 -411.91775126712309 -386.73320127445186 0 0 0 0 2.0430480752803515 -14.040263582354854 0 -14.040263582354854 32.601486098953842 0 0 0 0 -1102.6374085076684 -906.57921624940445 0 -906.57921624940445 919.81054171331925 0 0 0 0 -723.67618048462327 -109.06535652769526 0 -109.06535652769526 250.30949380349921 0 0 0 0 -13.227747410371876 329.09341602032146 0 329.09341602032146 91.08288949058624 0 0 0 0 -97.734511548606065 -194.58218754242034 0 -194.58218754242034 -138.36918090346444 0 0 0 0 -287.62445847553317 -174.23874384490045 0 -174.23874384490045 -254.32672644110426 0 0 0 0 -945.9660288127443 -227.59566880154034 0 -227.59566880154034 -177.35011038978701 0 0 0 0 -718.4982180153529 -122.02003410881298 0 -122.02003410881298 -227.73055534754531 0 0 0 0 -190.3425930702515 -359.32853182273175 0 -359.32853182273175 -390.70157162872783 0 0 0 0 -305.00034863007954 -277.35919082504643 0 -277.35919082504643 -124.88091255925247 0 0 0 0 2.652383276535625 -12.979286366415781 0 -12.979286366415781 24.436477961731867 0 0 0 0 -636.02126974929797 -144.75183968420606 0 -144.75183968420606 38.098350344756909 0 0 0 0 -106.04412162116341 -13.178677751115174 0 -13.178677751115174 -165.85429876505623 0 0 0 0 -209.9788572936659 29.88236872478592 0 29.88236872478592 -137.27979531950223 0 0 0 0 -117.32335459215983 -159.65185137435765 0 -159.65185137435765 -195.96261196137493 0 0 0 0 -118.79005938244245 -120.28453445278865 0 -120.28453445278865 -3.3657661250108504 0 0 0 0 163.77771332148905 -23.408242141733353 0 -23.408242141733353 310.23301448779603 0 0 0 0 114.9642112868363 17.650975136144552 0 17.650975136144552 -32.042362357835373 0 0 0 0 142.11508720684947 -234.46053396703792 0 -234.46053396703792 5.9945195195396082 0 0 0 0 -134.26988624179191 -77.942825841289959 0 -77.942825841289959 -10.255755097721703 0 0 0 0 70.818749928375837 30.614102217259642 0 30.614102217259642 -60.882445006234775 0 0 0 0 175.78215908524368 -92.490461932842663 0 -92.490461932842663 33.717348748454242 0 0 0 0 235.23507093160038 60.703375642508036 0 60.703375642508036 -41.437113341944496 0 0 0 0 199.25978868587711 6.7965493098317893 0 6.7965493098317893 -63.666733257152373 0 0 0 0 201.95581952384509 -8.7645399664324941 0 -8.7645399664324941 -81.586931438665488 0 0 0 0 208.8426915936875 -48.967633531639876 0 -48.967633531639876 -45.010523367092901 0 0 0 0 160.51987746400494 17.834026647658902 0 17.834026647658902 -63.572322928652284 0 0 0 0 147.46011603125112 -27.695709968047595 0 -27.695709968047595 -47.876162710948847 0 0 0 0 71.656916453359827 -61.259146555945335 0 -61.259146555945335 27.779450411627749 0 0 0 0 -116.18639987032111 -99.431805409145454 0 -99.431805409145454 30.798542489021202 0 0 0 0 45.383310779246131 -55.52139782316226 0 -55.52139782316226 98.929978567088256 0 0 0 0 205.07915595503437 -223.61396470697946 0 -223.61396470697946 179.95137328585406 0 0 0 0 211.04848309287269 -43.878305818893068 0 -43.878305818893068 -3.0549967250408372 0 0 0 0 120.10648765763858 -49.121070356864948 0 -49.121070356864948 2.7954254328797106 0 0 0 0 623.30570454418989 -377.32025062602133 0 -377.32025062602133 56.736044952151133 0 0 0 0 1.7968957410249433 -6.9462080405298536 0 -6.9462080405298536 8.5277433355001904 0 0 0 0 -848.22123412766996 -169.08760718241319 0 -169.08760718241319 357.20350511222932 0 0 0 0 -252.18137628458067 -539.54754284194678 0 -539.54754284194678 565.39522233649768 0 0 0 0 91.293591566432951 -747.50896794596338 0 -747.50896794596338 508.00222517491602 0 0 0 0 -515.94514687935043 203.58796045557392 0 203.58796045557392 -100.78991134963871 0 0 0 0 -34.815527279640264 -486.25117524243251 0 -486.25117524243251 -14.917210011335555 0 0 0 0 -173.57783408287628 -721.58953142179962 0 -721.58953142179962 797.47455035460007 0 0 0 0 15.635899240357503 -484.82077292649046 0 -484.82077292649046 382.02487563769682 0 0 0 0 2.6726215751800737 -397.65057756923852 0 -397.65057756923852 1550.170007673456 0 0 0 0 107.15416267794399 316.72865775606624 0 316.72865775606624 431.23679711954901 0 0 0 0 -479.21032178243513 -15.591932603441819 0 -15.591932603441819 884.1490650200285 0 0 0 0 -465.70215356835092 -27.829800277049799 0 -27.829800277049799 279.07915252583916 0 0 0 0 -941.8265986350707 362.74271812083316 0 362.74271812083316 482.01275839773007 0 0 0 0 -1133.477152340015 142.23657994890527 0 142.23657994890527 478.28171004370961 0 0 0 0 10.94841069616341 0.068977623421005774 0 0.068977623421005774 1.4608081336868111 0 0 0 0 20.422098127874278 -122.90312710168655 0 -122.90312710168655 47.376367233358906 0 0 0 0 22.03065932700224 -63.860682397586061 0 -63.860682397586061 81.751761332601745 0 0 0 0 227.57251164940195 80.107975636368792 0 80.107975636368792 -199.70716869862372 0 0 0 0 968.09625020205794 -301.52465932528139 0 -301.52465932528139 -72.863454618593096 0 0 0 0 213.06579954726112 -987.16061195139628 0 -987.16061195139628 898.07084772926464 0 0 0 0 -115.91551626407727 -296.39559261500108 0 -296.39559261500108 1103.5662670104139 0 0 0 0 1627.2264699780276 -484.30918266511435 0 -484.30918266511435 792.83596470652992 0 0 0 0 239.30049276031787 -1316.1898918712031 0 -1316.1898918712031 3126.6054401670262 0 0 0 0 -899.02378709429831 -66.981524761118635 0 -66.981524761118635 1934.1315083502068 0 0 0 0 548.29582031601421 -617.9533572594446 0 -617.9533572594446 1849.9370031546714 0 0 0 0 38.644795835278835 -8.5767650796645114 0 -8.5767650796645114 5.8693243804379733 0 0 0 0 52.072288367005058 -84.057788449601503 0 -84.057788449601503 -57.088312951691478 0 0 0 0 1329.835809643122 -1676.798643361748 0 -1676.798643361748 2118.6166207077258 0 0 0 0 141.65585261029537 -1054.3703579912726 0 -1054.3703579912726 1798.1745853371103 0 0 0 0 -490.12591388456531 271.83211031564133 0 271.83211031564133 2512.5409120638215 0 0 0 0 2.3420380672137089 2.2406322950816886 0 2.2406322950816886 6.4105753936331666 0 0 0 0 445.31230787180539 149.18259153452527 0 149.18259153452527 1453.9066959018528 0 0 0 0 -18.801189400617517 4.0864832931624733 0 4.0864832931624733 17.130864723628576 0 0 0 0 -127.6443997712704 -90.757094870059518 0 -90.757094870059518 110.48237724816863 0 0 0 0 -171.39060207128932 209.07147667858226 0 209.07147667858226 -12.809996867938025 0 0 0 0 277.50575603949255 -350.28109316830523 0 -350.28109316830523 1687.0221301647398 0 0 0 0 -170.68364036594721 -95.348805313660705 0 -95.348805313660705 151.25793893681839 0 0 0 0 45.706715095795516 -199.63730229949579 0 -199.63730229949579 165.63546307798242 0 0 0 0 -134.28269188064587 -73.927569691993995 0 -73.927569691993995 164.09488011425128 0 0 0 0 -78.601488383053947 -66.19412407931668 0 -66.19412407931668 40.777183591941139 0 0 0 0 36.832236701693432 -73.617896129575456 0 -73.617896129575456 22.703746198661975 0 0 0 0 22.969563854500585 -51.698036203604005 0 -51.698036203604005 55.703707220027411 0 0 0 0 28.3560046864377 -87.62237085828383 0 -87.62237085828383 39.338155001132691 0 0 0 0 -54.584992742844406 -112.87932699415978 0 -112.87932699415978 42.405017956494703 0 0 0 0 66.128661139939595 -115.11402454585914 0 -115.11402454585914 -64.352486344068893 0 0 0 0 -33.020776443208888 -158.96430544713803 0 -158.96430544713803 40.122998911800096 0 0 0 0 -49.616526555022233 -83.758646608191157 0 -83.758646608191157 70.843876462226035 0 0 0 0 33.049887167106725 -59.430958809307185 0 -59.430958809307185 54.78793451786126 0 0 0 0 23.42677896477835 -172.76167668859125 0 -172.76167668859125 19.02713932667757 0 0 0 0 59.832714818167005 -129.97136448761739 0 -129.97136448761739 21.751850150001701 0 0 0 0 -7.0654071543067403 -116.50577438345499 0 -116.50577438345499 13.277330941462424 0 0 0 0 13.514390710453881 -145.93473652230023 0 -145.93473652230023 25.579807879170403 0 0 0 0 -65.638729652978327 -212.27015812422178 0 -212.27015812422178 -193.59418304448627 0 0 0 0 -15.26561129154403 -12.383947111533473 0 -12.383947111533473 15.771990814296458 0 0 0 0 25.295267115026945 -113.34616464955616 0 -113.34616464955616 -13.043899364594836 0 0 0 0 19.206107806289108 -7.6181386117070815 0 -7.6181386117070815 -21.529877623727543 0 0 0 0 113.70006589247032 -73.059791438121465 0 -73.059791438121465 -168.16239445178508 0 0 0 0 -409.48824288891228 -386.74287202606138 0 -386.74287202606138 -201.29544666886795 0 0 0 0 179.72015559543388 -110.92239233723376 0 -110.92239233723376 -281.18647801726183 0 0 0 0 185.09810849745054 -10.907180682719627 0 -10.907180682719627 -86.193362818885362 0 0 0 0 196.87623669358047 -31.955380705696371 0 -31.955380705696371 -130.88958398098475 0 0 0 0 67.301118440133905 -118.17476886751683 0 -118.17476886751683 -75.49935529094364 0 0 0 0 -64.257329749514057 -177.93512702363955 0 -177.93512702363955 -89.778830056893639 0 0 0 0 83.390916648942948 -75.041264006802521 0 -75.041264006802521 -69.8012859186274 0 0 0 0 85.76003918745846 -88.233854447753401 0 -88.233854447753401 -8.3896963972511003 0 0 0 0 51.281507318446529 -78.018929618672701 0 -78.018929618672701 -15.027492040884681 0 0 0 0 92.482118208019529 -43.725208786505391 0 -43.725208786505391 -1.9718297170693404 0 0 0 0 71.90755230801841 -59.655008712167898 0 -59.655008712167898 36.274717434035608 0 0 0 0 147.09930605463342 -9.663825051036838 0 -9.663825051036838 -358.52288374364434 0 0 0 0 48.184868086580536 -125.98408134021156 0 -125.98408134021156 -17.560924668956432 0 0 0 0 29.065837529604323 -113.11831345660175 0 -113.11831345660175 -10.770598058268661 0 0 0 0 55.372867919737473 -61.532604869731585 0 -61.532604869731585 -29.110860933869844 0 0 0 0 103.00370807270519 -105.91545704368036 0 -105.91545704368036 -10.073326689616806 0 0 0 0 60.475767375522992 -125.09668226175563 0 -125.09668226175563 10.729907023778651 0 0 0 0 62.219160882195865 -128.33667168556713 0 -128.33667168556713 -9.2986269536049804 0 0 0 0 62.83946843553349 -138.04553635517368 0 -138.04553635517368 42.366605329327285 0 0 0 0 137.31852429406717 -116.23801569014904 0 -116.23801569014904 7.2722849186611711 0 0 0 0 118.11420294275285 -63.139011765995747 0 -63.139011765995747 53.243141527404077 0 0 0 0 74.477994332693925 -72.603034425370424 0 -72.603034425370424 15.864115521020722 0 0 0 0 130.7922062230864 -83.609410190154449 0 -83.609410190154449 17.260319451685064 0 0 0 0 84.100955797188362 -54.890532689736574 0 -54.890532689736574 23.542680588681833 0 0 0 0 109.20706071211771 -19.689613862601618 0 -19.689613862601618 53.83608506177552 0 0 0 0 94.517272186778428 -64.472072067226691 0 -64.472072067226691 93.601324008661322 0 0 0 0 119.39399080595285 7.1265090962133399 0 7.1265090962133399 184.58101738046389 0 0 0 0 161.52508617584681 -65.134693573461846 0 -65.134693573461846 52.160944593517343 0 0 0 0 201.13016417947438 116.49192591762403 0 116.49192591762403 231.44163617363665 0 0 0 0 -41.137242934441019 33.08895219219994 0 33.08895219219994 273.92469003582664 0 0 0 0 79.734088977736974 29.112372549032443 0 29.112372549032443 182.30233938232413 0 0 0 0 72.535809236891509 -136.08518051424471 0 -136.08518051424471 94.342833487753524 0 0 0 0 204.35367125819175 -135.67075267984183 0 -135.67075267984183 32.775288017561252 0 0 0 0 160.53885513603745 -34.994816182210343 0 -34.994816182210343 104.46410392053076 0 0 0 0 301.83392005504356 -26.878984663206211 0 -26.878984663206211 99.361470762873068 0 0 0 0 275.94198869785032 -18.569161772422376 0 -18.569161772422376 144.93190213668277 0 0 0 0 398.46562096783236 -207.80387645748851 0 -207.80387645748851 98.397729305666871 0 0 0 0 -11.265869274073339 -293.75309282336093 0 -293.75309282336093 317.33886395224545 0 0 0 0 2.4198774041122419 13.68993923089792 0 13.68993923089792 8.0462542408067605 0 0 0 0 -370.11526935487927 -516.01936213270528 0 -516.01936213270528 2072.8652604475137 0 0 0 0 810.40616556432724 -345.46188289462589 0 -345.46188289462589 -157.44700543463841 0 0 0 0 458.14025284823583 -488.82021018580417 0 -488.82021018580417 397.38641765518696 0 0 0 0 -888.12858103025792 -124.18613506344263 0 -124.18613506344263 1216.5536852952209 0 0 0 0 703.1896165613507 -35.499448483635206 0 -35.499448483635206 144.28725580369974 0 0 0 0 36.432105750918709 67.093618650527787 0 67.093618650527787 274.57847776524432 0 0 0 0 224.34284438767645 116.14766405857517 0 116.14766405857517 286.9664059382776 0 0 0 0 122.63333061057347 -347.88548729210743 0 -347.88548729210743 10.232966501476767 0 0 0 0 11.073941322503231 0.20898568689761987 0 0.20898568689761987 0.057931140702869754 0 0 0 0 1238.9027331726611 125.22969605290564 0 125.22969605290564 -370.25605453598109 0 0 0 0 24.626907953690406 1.7525346978482048 0 1.7525346978482048 -0.12747561587830702 0 0 0 0 -725.83196898076858 108.12658551427012 0 108.12658551427012 602.02975285670254 0 0 0 0 -26.527344227488356 -64.785023160591663 0 -64.785023160591663 333.51484100052039 0 0 0 0 1258.5098319926001 389.64007333743939 0 389.64007333743939 -255.22737921883527 0 0 0 0 -54.919055489990569 -32.971570451147272 0 -32.971570451147272 299.59644238854526 0 0 0 0 76.267668089702056 -177.1039060386247 0 -177.1039060386247 203.34757033785536 0 0 0 0 3.337668357660732 -54.758472981244267 0 -54.758472981244267 228.47959004362929 0 0 0 0 94.67770665745411 -143.75433581719699 0 -143.75433581719699 310.90654036804335 0 0 0 0 979.26421069698517 -40.932970730871602 0 -40.932970730871602 -45.236411121775745 0 0 0 0 44.655876542772603 -143.51632583365426 0 -143.51632583365426 340.04294886210846 0 0 0 0 179.31104843417415 -88.363016686183983 0 -88.363016686183983 277.66489113999705 0 0 0 0 489.97733951426744 -475.9734063537253 0 -475.9734063537253 653.37913282084628 0 0 0 0 -902.3327575763833 453.72099351100042 0 453.72099351100042 1212.9478237975272 0 0 0 0 141.02744529602933 50.45510908808501 0 50.45510908808501 199.46605774843192 0 0 0 0 961.50958087380059 606.28071510806694 0 606.28071510806694 1039.7943195956759 0 0 0 0 46.269444762263447 -466.17036026927235 0 -466.17036026927235 202.06273648918432 0 0 0 0 -689.94461582270378 267.16661857772124 0 267.16661857772124 1489.213264048798 0 0 0 0 -119.58718614038662 470.31844993366394 0 470.31844993366394 1417.4223312326721 0 0 0 0 13.637009482618232 2.2471872350792523 0 2.2471872350792523 1.0301266709117414 0 0 0 0 -420.90934254483545 671.84048077067564 0 671.84048077067564 1611.6237026420713 0 0 0 0 -86.961993293021806 910.65491325315088 0 910.65491325315088 1642.0450907112609 0 0 0 0 117.02733042802356 719.92547596233635 0 719.92547596233635 1388.244713608161 0 0 0 0 339.71468167723924 -352.76074657819481 0 -352.76074657819481 631.21494107590115 0 0 0 0 681.14667740733421 -271.86899818301754 0 -271.86899818301754 1181.7877513477142 0 0 0 0 769.31851910303158 479.27090381107701 0 479.27090381107701 1384.9543006582389 0 0 0 0 931.13146423407852 -77.583757620333927 0 -77.583757620333927 91.147590538079385 0 0 0 0 3.1996186446558657 -5.4953894267937073 0 -5.4953894267937073 5.8586094863903782 0 0 0 0 26.298955400572595 -591.40574239054695 0 -591.40574239054695 601.75029731949144 0 0 0 0 -610.85038923552202 -380.91297844069049 0 -380.91297844069049 623.69522590703855 0 0 0 0 296.45465535927906 -147.40303475433757 0 -147.40303475433757 -281.39063120845822 0 0 0 0 -6.363306594516871 202.22918893719543 0 202.22918893719543 57.170850457245251 0 0 0 0 -126.72402515839349 -222.45418109751336 0 -222.45418109751336 -96.10110878488922 0 0 0 0 6.2819150776526307 -14.076603192156632 0 -14.076603192156632 14.882151822455398 0 0 0 0 340.56536397358923 -48.461377641364379 0 -48.461377641364379 -116.85154915192106 0 0 0 0 347.56926265854781 -22.488177084778727 0 -22.488177084778727 -21.615434910258045 0 0 0 0 145.32573143368609 -30.034288636088604 0 -30.034288636088604 0.93851503641053569 0 0 0 0 71.767927284595316 -39.328081090199703 0 -39.328081090199703 -12.997634039609693 0 0 0 0 76.250851128803333 -50.49439307886496 0 -50.49439307886496 5.6199706316547235 0 0 0 0 94.803230022102071 -1.8774090645893011 0 -1.8774090645893011 -8.9108659434186848 0 0 0 0 95.95068743293632 -38.306906150166469 0 -38.306906150166469 42.829552712821169 0 0 0 0 95.881568007147393 -47.217715703543945 0 -47.217715703543945 40.719585593615193 0 0 0 0 92.412374449471827 -25.303545740200207 0 -25.303545740200207 17.553445347279194 0 0 0 0 639.99308376006957 158.06447490650316 0 158.06447490650316 -93.682821014008368 0 0 0 0 -0.0054033121868566902 -1.6337409983443685 0 -1.6337409983443685 -2.2131585613745415 0 0 0 0 262.33898488890009 -17.383534687505744 0 -17.383534687505744 39.086172067705775 0 0 0 0 -4.7842663648536927 1.8428919454145216 0 1.8428919454145216 -81.921116668570903 0 0 0 0 -98.756348093799261 111.99744468599238 0 111.99744468599238 146.0526571879891 0 0 0 0 -83.083539476360784 -137.25870786649466 0 -137.25870786649466 430.5561855593478 0 0 0 0 -124.02640073845851 -232.37626168549468 0 -232.37626168549468 944.98255255429831 0 0 0 0 -238.28788335388253 -43.873661584497313 0 -43.873661584497313 597.99629806351732 0 0 0 0 -58.606973882383954 -110.51891921329661 0 -110.51891921329661 49.471660202296334 0 0 0 0 -35.584725518679988 56.955666481509979 0 56.955666481509979 616.49745562096359 0 0 0 0 7.7457483484413387 54.880227406480117 0 54.880227406480117 1048.6884380718366 0 0 0 0 18.348283923755844 -119.20489284036012 0 -119.20489284036012 532.19327358195733 0 0 0 0 121.00108400682984 -334.52853229425091 0 -334.52853229425091 933.73434019100387 0 0 0 0 58.467564689661231 -93.266119894498843 0 -93.266119894498843 1407.7322388172397 0 0 0 0 502.58497854382722 562.90998698734256 0 562.90998698734256 766.06636301567778 0 0 0 0 257.36671457286047 67.304299019469909 0 67.304299019469909 205.70389689300646 0 0 0 0 343.45258985364649 169.08262382422208 0 169.08262382422208 -40.514200289966539 0 0 0 0 137.94543806997899 -13.525210507243173 0 -13.525210507243173 -113.72309699153629 0 0 0 0 185.77033611526804 65.505115198375279 0 65.505115198375279 -69.328707742446568 0 0 0 0 83.799046105054003 144.50123828201322 0 144.50123828201322 21.840622471710958 0 0 0 0 106.21983203684249 113.7594424011113 0 113.7594424011113 37.422796438331716 0 0 0 0 249.28452034150928 238.76301713231169 0 238.76301713231169 146.64038371955394 0 0 0 0 -166.79600224894875 106.53603272154578 0 106.53603272154578 85.961124330744497 0 0 0 0 6.4418329869240551 260.41301341678627 0 260.41301341678627 86.386504318581501 0 0 0 0 -18.944199454882437 98.092057142268459 0 98.092057142268459 85.093544672736698 0 0 0 0 -81.993510125934336 0.33504507213365287 0 0.33504507213365287 188.7010112018645 0 0 0 0 -3.2385053577197027 2.9171939494356423 0 2.9171939494356423 0.25187318616623511 0 0 0 0 -6.2427928067529592 -84.026192841738521 0 -84.026192841738521 119.81207259443181 0 0 0 0 -20.03873655144298 -40.616350218682783 0 -40.616350218682783 196.3041542773426 0 0 0 0 14.726280268008022 34.133829808663478 0 34.133829808663478 23.142085143109767 0 0 0 0 70.681102205589013 163.81626067274919 0 163.81626067274919 106.87849202018697 0 0 0 0 -26.012630286681542 68.07009177409418 0 68.07009177409418 -3.1520622089883545 0 0 0 0 14.753336742196097 72.752151406872144 0 72.752151406872144 -44.735711254790658 0 0 0 0 -11.212281005649061 -29.82074548298624 0 -29.82074548298624 114.93534144520527 0 0 0 0 6.6251603361597518 -4.9644870209740475 0 -4.9644870209740475 132.98591849970398 0 0 0 0 26.665257465375191 37.934144794177143 0 37.934144794177143 23.590342328629873 0 0 0 0 41.052309938154849 60.045364108989816 0 60.045364108989816 -68.170772478581057 0 0 0 0 64.906024888106913 96.340210566762835 0 96.340210566762835 -78.677155671095534 0 0 0 0 88.350712529996599 14.52026134829066 0 14.52026134829066 -53.832449206456658 0 0 0 0 59.421832896920023 10.377188325481256 0 10.377188325481256 -45.833579224767163 0 0 0 0 37.338704101984646 39.730392787649663 0 39.730392787649663 36.248696587238484 0 0 0 0 53.200794057730917 7.87991828934355 0 7.87991828934355 131.68500451694126 0 0 0 0 68.807978427967441 27.07666708267061 0 27.07666708267061 112.36887870554347 0 0 0 0 65.737380491869544 15.482430252264749 0 15.482430252264749 83.571170127528603 0 0 0 0 49.186312467884363 13.215808135220868 0 13.215808135220868 111.41297422860225 0 0 0 0 56.142091882233785 9.993245743053194 0 9.993245743053194 107.29987595295825 0 0 0 0 21.567004608704337 -14.586345332652854 0 -14.586345332652854 118.71008784237529 0 0 0 0 36.468137199575949 -8.7869447895245685 0 -8.7869447895245685 78.273094213742297 0 0 0 0 21.204036467972799 0.4032646101222781 0 0.4032646101222781 78.797125147393672 0 0 0 0 27.870266514496052 10.961694707089919 0 10.961694707089919 94.411462774784013 0 0 0 0 14.996479113181294 13.626841374847572 0 13.626841374847572 54.154032771853963 0 0 0 0 -2.9099809489221116 -5.3198367483782931 0 -5.3198367483782931 70.599547750156489 0 0 0 0 22.978973149343972 -17.982635079350075 0 -17.982635079350075 37.39958195950021 0 0 0 0 20.120059890784503 -21.029657192535524 0 -21.029657192535524 71.017349650181131 0 0 0 0 3.1020961093039023 -1.1877878595741649 0 -1.1877878595741649 24.075867877046903 0 0 0 0 7.4901366774302929 -1.3219538062765253 0 -1.3219538062765253 3.3089985386601768 0 0 0 0 158.54395267659856 -236.88497554168134 0 -236.88497554168134 406.29157743585529 0 0 0 0 662.92898698451791 505.77768396252941 0 505.77768396252941 -580.13123276428087 0 0 0 0 -298.84761102752418 -230.9811117570498 0 -230.9811117570498 -20.642195794156578 0 0 0 0 -503.6601361495932 -88.871347879157838 0 -88.871347879157838 326.30713942211878 0 0 0 0 25.890822364821251 -32.455417788623393 0 -32.455417788623393 29.517613685544603 0 0 0 0 -429.29440467220775 3.040379787387792 0 3.040379787387792 360.29980494135816 0 0 0 0 56.333467019414456 -38.169792838358262 0 -38.169792838358262 -15.848389002054319 0 0 0 0 64.606940705179113 -34.552160238479701 0 -34.552160238479701 -47.384807996342715 0 0 0 0 -471.56689938580712 84.610223906427564 0 84.610223906427564 213.61768031088286 0 0 0 0 11.482657932820075 -67.660554210138798 0 -67.660554210138798 -18.18444551320863 0 0 0 0 223.5027989956557 42.155086668434166 0 42.155086668434166 -51.151630993728759 0 0 0 0 373.17864304509203 212.86325882094388 0 212.86325882094388 131.89795285547007 0 0 0 0 4.9302258273997834 -6.5075869993344817 0 -6.5075869993344817 -6.6066589864238381 0 0 0 0 451.12757975809109 127.51297497274936 0 127.51297497274936 -168.82333569252114 0 0 0 0 117.1034654885334 -19.689741917096399 0 -19.689741917096399 -57.678494274368859 0 0 0 0 66.29448892257733 -8.0277068918912846 0 -8.0277068918912846 -55.65740138819092 0 0 0 0 12.084592194773963 -9.2766508771970635 0 -9.2766508771970635 24.341768852067332 0 0 0 0 -52.437337015020148 -282.33152948258248 0 -282.33152948258248 490.89770654706808 0 0 0 0 41.529257993064675 -8.6903139174246462 0 -8.6903139174246462 -43.581177424428461 0 0 0 0 251.97575540597927 438.43985128644181 0 438.43985128644181 -281.79095437670185 0 0 0 0 494.45082143186755 -475.24409294038378 0 -475.24409294038378 -46.076096431614133 0 0 0 0 542.47451349635594 -320.93276138943475 0 -320.93276138943475 -254.96380875578325 0 0 0 0 1.4958328014798496 -0.07582968536378587 0 -0.07582968536378587 0.21888214931905736 0 0 0 0 112.68158570095875 105.52588895713052 0 105.52588895713052 180.09198796347482 0 0 0 0 -5.1949564424757737 1.6637348204973605 0 1.6637348204973605 97.012606152207923 0 0 0 0 -6.1139269737268478 -21.415232868486783 0 -21.415232868486783 47.455916010228975 0 0 0 0 -2.3905182168249866 -0.21328611889543936 0 -0.21328611889543936 22.045194078918144 0 0 0 0 46.208188160060672 22.81847950493102 0 22.81847950493102 73.421684452856425 0 0 0 0 -43.032207817820108 -36.667995475736461 0 -36.667995475736461 142.37715902656782 0 0 0 0 37.294641779495578 32.328388407775492 0 32.328388407775492 151.06378185164067 0 0 0 0 -29.888616325958537 -38.201314828929753 0 -38.201314828929753 230.04699631396215 0 0 0 0 151.97127779267066 141.61786122866033 0 141.61786122866033 312.32813745670137 0 0 0 0 138.56948871370514 82.377821329508151 0 82.377821329508151 161.48288661920742 0 0 0 0 381.51497135408681 51.905102828903182 0 51.905102828903182 66.455892754136585 0 0 0 0 508.03508592169601 244.19761932160327 0 244.19761932160327 354.10719538354897 0 0 0 0 774.15115844927186 -22.902307778753311 0 -22.902307778753311 -18.182747791724978 0 0 0 0 467.77488462137262 -136.50877413123089 0 -136.50877413123089 581.79359141609893 0 0 0 0 400.87660080026399 55.2286333412776 0 55.2286333412776 166.44149106946134 0 0 0 0 0.79697667676698025 2.0604259038945898 0 2.0604259038945898 6.7306766767724753 0 0 0 0 520.71061199529322 -256.10133920644876 0 -256.10133920644876 285.46100188449782 0 0 0 0 892.35275627923806 -331.69132238606915 0 -331.69132238606915 -100.3320437335351 0 0 0 0 577.85536606357527 -219.4555213575004 0 -219.4555213575004 -26.96639399396372 0 0 0 0 -3.2082225676637037 -5.5519370400540566 0 -5.5519370400540566 -0.52990527776040608 0 0 0 0 -49.545132947561797 -79.435465490620118 0 -79.435465490620118 -47.06427464573062 0 0 0 0 -1027.2107628319973 651.40308674298285 0 651.40308674298285 -106.45916204784589 0 0 0 0 -484.91624645066258 -427.07909118806128 0 -427.07909118806128 269.37865239114035 0 0 0 0 -0.2790603161083709 384.06743824318983 0 384.06743824318983 227.23687859464553 0 0 0 0 -192.53285095781757 111.46381922770524 0 111.46381922770524 -119.0905368311378 0 0 0 0 -809.53464778940724 -66.493833372980589 0 -66.493833372980589 235.21287989356642 0 0 0 0 -425.99851279868835 274.28784307032038 0 274.28784307032038 254.90800550431595 0 0 0 0 -353.12720356151112 18.684294426275301 0 18.684294426275301 837.26322696596617 0 0 0 0 167.57155227997646 -509.77435520823929 0 -509.77435520823929 399.55231021632062 0 0 0 0 50.068023467174498 -215.16035576775903 0 -215.16035576775903 -216.17801360449812 0 0 0 0 -32.945908424984736 -25.175952200428583 0 -25.175952200428583 -17.208457690336218 0 0 0 0 -2.3776992943889432 1.3794312345936248 0 1.3794312345936248 4.5035691311827293 0 0 0 0 0.20989583288086155 -3.5929939183920112 0 -3.5929939183920112 3.4431997673513024 0 0 0 0 -556.7377482253778 -403.83294698649115 0 -403.83294698649115 56.558035918700625 0 0 0 0 -59.638888818341002 -15.603814378417155 0 -15.603814378417155 -111.24259357187839 0 0 0 0 -0.53543215929464161 -1.3708245555434928 0 -1.3708245555434928 4.2116938901622234 0 0 0 0 159.79559886849347 -300.53198500889994 0 -300.53198500889994 -7.2479579970022314 0 0 0 0 169.12192426186812 109.6404118385617 0 109.6404118385617 96.140033970004879 0 0 0 0 -0.37102526903051736 -1.1890399809223737 0 -1.1890399809223737 -1.2290551139519152 0 0 0 0 -146.9114003605946 21.840422784232942 0 21.840422784232942 152.23538420753903 0 0 0 0 152.21641746528257 -129.50688191708468 0 -129.50688191708468 -187.26850193387872 0 0 0 0 -55.34114159514138 -27.495513500529341 0 -27.495513500529341 177.71438805903745 0 0 0 0 127.48839415670955 -147.19848047542473 0 -147.19848047542473 69.72902171707392 0 0 0 0 18.190418674901593 -208.78369649819797 0 -208.78369649819797 157.95045764562383 0 0 0 0 174.06760680919342 -184.27376464686313 0 -184.27376464686313 -67.855792556481902 0 0 0 0 258.93622242316633 -60.788513877210789 0 -60.788513877210789 -117.78547873858042 0 0 0 0 250.64907150226645 -251.38122052502877 0 -251.38122052502877 -115.13630438364635 0 0 0 0 39.208815160162885 -223.77608848184536 0 -223.77608848184536 -49.174637999298284 0 0 0 0 470.68518450920237 110.14194428282644 0 110.14194428282644 26.46865992344101 0 0 0 0 211.06530240545635 -52.392883241493109 0 -52.392883241493109 -59.935123521485366 0 0 0 0 156.28141757448793 66.593049694318324 0 66.593049694318324 90.969701402842475 0 0 0 0 225.85673328662688 -18.049960314026976 0 -18.049960314026976 18.669743430713424 0 0 0 0 36.169505934216801 19.618279766930755 0 19.618279766930755 77.036023554726853 0 0 0 0 35.709451521810209 5.5629322390327616 0 5.5629322390327616 101.86441781392932 0 0 0 0 70.856092915984846 -69.54851903609233 0 -69.54851903609233 26.297141832900707 0 0 0 0 94.309163423179598 -23.706491600409208 0 -23.706491600409208 107.19119975704962 0 0 0 0 25.066257626743209 -1.4605886908902903 0 -1.4605886908902903 122.06553991172586 0 0 0 0 -7.6858034988072177 25.878492504976748 0 25.878492504976748 99.582325843439321 0 0 0 0 22.732201572464589 19.41634317560397 0 19.41634317560397 106.19259752501239 0 0 0 0 -12.63079012934304 -24.493682881646237 0 -24.493682881646237 96.726137166740955 0 0 0 0 51.141835253139106 -71.52169927063369 0 -71.52169927063369 -54.558902045479044 0 0 0 0 31.783951686498767 0.47873090161010623 0 0.47873090161010623 34.960565339250024 0 0 0 0 15.273125367765594 -4.7799688848500637 0 -4.7799688848500637 -2.520079502719998 0 0 0 0 -55.963667764503498 -18.370001177550876 0 -18.370001177550876 69.049153970539919 0 0 0 0 -12.127711550335334 -116.94974170090427 0 -116.94974170090427 22.518576069607661 0 0 0 0 65.73039963981455 -32.889904839375959 0 -32.889904839375959 -181.04966396785312 0 0 0 0 332.73496926676398 -155.61289527240297 0 -155.61289527240297 281.27485232607432 0 0 0 0 -92.996216964224004 -22.590452033990005 0 -22.590452033990005 503.07586929826357 0 0 0 0 12.182034808802541 -3.3568247889851932 0 -3.3568247889851932 0.83687846803588606 0 0 0 0 -78.082762145728339 219.34791945114557 0 219.34791945114557 356.98858579518856 0 0 0 0 -136.63198903144803 -15.196317875335808 0 -15.196317875335808 304.94605735340156 0 0 0 0 56.896586549162748 -308.5356453243221 0 -308.5356453243221 374.90139993448975 0 0 0 0 -120.03270761587555 -94.458067419705912 0 -94.458067419705912 501.01878756783844 0 0 0 0 2.8557489911782254 -0.15026305015493335 0 -0.15026305015493335 0.25017230711299376 0 0 0 0 66.793418970276264 -11.532394246172771 0 -11.532394246172771 42.955240851064445 0 0 0 0 84.233127356348064 34.899110940692481 0 34.899110940692481 -36.854921624999406 0 0 0 0 -0.22401011581030161 20.82473157455388 0 20.82473157455388 86.493359918516944 0 0 0 0 -3.1686147927791808 16.955734868715808 0 16.955734868715808 83.464029174261668 0 0 0 0 39.537687062134182 -11.587769715682953 0 -11.587769715682953 63.839579581850558 0 0 0 0 -2.5983618301585238 83.79787011658118 0 83.79787011658118 115.84698424924864 0 0 0 0 1.2408544348958217 0.0049426134972918589 0 0.0049426134972918589 0.12561113831367976 0 0 0 0 -0.45104594233077933 93.530036506934266 0 93.530036506934266 159.94098664683406 0 0 0 0 46.193751816752979 109.7479280991829 0 109.7479280991829 143.55568116984523 0 0 0 0 119.65826029509344 48.600259736078442 0 48.600259736078442 97.464990915963426 0 0 0 0 105.40657675678221 -24.678415570728248 0 -24.678415570728248 61.737470937616308 0 0 0 0 92.308016192274067 40.542847056152823 0 40.542847056152823 91.160437729000478 0 0 0 0 81.550207013204954 3.5494308018751326 0 3.5494308018751326 60.183317882867414 0 0 0 0 -8.8930922184298566 -2.9328362880589864 0 -2.9328362880589864 99.068302883178433 0 0 0 0 -31.978115916688694 13.98208674894704 0 13.98208674894704 122.45096018573531 0 0 0 0 20.628797218080194 45.454135545929603 0 45.454135545929603 158.8741794613743 0 0 0 0 -7.1401520465772261 -3.8070246496462516 0 -3.8070246496462516 101.35320781592554 0 0 0 0 10.998056065845049 19.115917763669131 0 19.115917763669131 123.18766470474657 0 0 0 0 15.126082409123089 -2.3330605127964361 0 -2.3330605127964361 22.358726335958831 0 0 0 0 3.6078787929609462 -58.96571152798424 0 -58.96571152798424 92.957090803440678 0 0 0 0 -1.5420168335630491 4.1190623639561181 0 4.1190623639561181 30.493063851726109 0 0 0 0 7.8597183704695226 -21.649799914921459 0 -21.649799914921459 119.39215030157357 0 0 0 0 15.754111617409421 27.701915109195397 0 27.701915109195397 121.84006370583666 0 0 0 0 -13.798293683999532 18.97356288298397 0 18.97356288298397 151.02951404252963 0 0 0 0 -95.944981086360713 77.563053718637093 0 77.563053718637093 182.46781774970441 0 0 0 0 -73.777203156525246 185.63795488997494 0 185.63795488997494 232.11587443581084 0 0 0 0 -104.26534912568081 29.747942646892625 0 29.747942646892625 147.78476621197296 0 0 0 0 -104.03782773635919 -89.168822086285218 0 -89.168822086285218 413.08863891873625 0 0 0 0 234.61098532051881 287.04561590022058 0 287.04561590022058 220.87695131143846 0 0 0 0 417.76699121893023 -39.850192813319154 0 -39.850192813319154 150.61275033847778 0 0 0 0 45.139795191253484 103.96031567716636 0 103.96031567716636 419.94809917997918 0 0 0 0 81.405947597596992 -83.940938728861511 0 -83.940938728861511 422.55566595307164 0 0 0 0 189.4173795570656 148.18433453931357 0 148.18433453931357 136.80457660640241 0 0 0 0 118.00521185310981 12.761161800066475 0 12.761161800066475 160.39251209686336 0 0 0 0 92.494494993768285 61.443216094965464 0 61.443216094965464 99.596905774320476 0 0 0 0 -23.393731428612682 -11.879023722598504 0 -11.879023722598504 90.235347761888988 0 0 0 0 -3.1506464549167958 2.5700783946740557 0 2.5700783946740557 95.557451615095488 0 0 0 0 -7.3596785306287522 -1.675749802364777 0 -1.675749802364777 88.750922539291309 0 0 0 0 -4.9642667038171266 -10.197468360576607 0 -10.197468360576607 21.732981690066282 0 0 0 0 133.58862548590832 -117.17857956633816 0 -117.17857956633816 132.27662865509046 0 0 0 0 8.6094572799773914 -5.5199358032405144 0 -5.5199358032405144 33.967482865089551 0 0 0 0 145.36181507320589 174.16691227231786 0 174.16691227231786 234.13577752716083 0 0 0 0 2.5657051474227712 1.6282262667858092 0 1.6282262667858092 6.6036601958209644 0 0 0 0 28.779902800833156 -50.944045096548507 0 -50.944045096548507 60.691023596940795 0 0 0 0 10.793778797003608 6.0775720115634613 0 6.0775720115634613 95.65472322707501 0 0 0 0 3.7017343381221437 -2.2875944230545429 0 -2.2875944230545429 86.942283102340298 0 0 0 0 3.2036054353117276 -10.754984478827851 0 -10.754984478827851 33.615924339309615 0 0 0 0 -35.70880986647262 -52.665055294735794 0 -52.665055294735794 52.112113069633779 0 0 0 0 -4.0765260393264517 -6.0452819899698511 0 -6.0452819899698511 83.129726144030428 0 0 0 0 -29.58497349262143 -26.037711002358265 0 -26.037711002358265 109.61002626369009 0 0 0 0 -12.526568728445909 -7.4155357578638359 0 -7.4155357578638359 142.17142183378746 0 0 0 0 -1.6045710847180239 -14.930673457290972 0 -14.930673457290972 109.11868238618177 0 0 0 0 -0.5135094004635441 2.7968457634224251 0 2.7968457634224251 26.713843647090584 0 0 0 0 -33.136924737429126 -17.527317630876496 0 -17.527317630876496 179.05952130869991 0 0 0 0 -51.515811189668966 -52.463812622096157 0 -52.463812622096157 125.18141060005291 0 0 0 0 -90.940276928006369 -47.875400307792006 0 -47.875400307792006 133.50418247972266 0 0 0 0 -10.93584657325755 35.498433460299566 0 35.498433460299566 162.91854502319075 0 0 0 0 -3.3583082295235727 43.773872141791799 0 43.773872141791799 114.67860964556894 0 0 0 0 -22.496841988668621 -9.1133845534532156 0 -9.1133845534532156 99.999290579173248 0 0 0 0 -11.444199971051603 5.1698333427702892 0 5.1698333427702892 116.6228439257975 0 0 0 0 -14.348691136507114 5.7532286138957716 0 5.7532286138957716 127.24465645323471 0 0 0 0 -10.49121578023901 -2.9290037626103498 0 -2.9290037626103498 22.62258248790738 0 0 0 0 -31.40601670171236 -12.242786803761192 0 -12.242786803761192 99.857689160256996 0 0 0 0 -25.671908138612253 15.772156547827763 0 15.772156547827763 133.2878502365129 0 0 0 0 4.0063019571005043 -3.6383436028954748 0 -3.6383436028954748 99.997852775180945 0 0 0 0 -8.2642308688330033 -8.6842061427462625 0 -8.6842061427462625 88.162692738398448 0 0 0 0 5.5728651381623422 4.5742014711722732 0 4.5742014711722732 89.515517997067946 0 0 0 0 -23.734641067409939 2.7084198497832404 0 2.7084198497832404 133.76164703818722 0 0 0 0 -6.3130457735805905 -9.8396573983168736 0 -9.8396573983168736 88.727777126181763 0 0 0 0 -6.6487716538872519 11.287220935133519 0 11.287220935133519 135.8642449981453 0 0 0 0 -4.3127956150237612 -1.8386952351791308 0 -1.8386952351791308 33.296318596512947 0 0 0 0 -2.5015894759922048 10.039045256111422 0 10.039045256111422 142.61888057800388 0 0 0 0 0.12496274766376558 -6.546011256864773 0 -6.546011256864773 34.767953194009237 0 0 0 0 2.5906018216003304 -8.2340367635479197 0 -8.2340367635479197 79.467875895090401 0 0 0 0 1.8379756681194976 14.965911512146704 0 14.965911512146704 92.418205367794144 0 0 0 0 -28.913032047288652 -54.230407079943689 0 -54.230407079943689 302.03288621301544 0 0 0 0 -9.843551914865202 -55.714286808150064 0 -55.714286808150064 330.87147198354796 0 0 0 0 9.6484001925055054 -30.126838203555963 0 -30.126838203555963 308.40486515692646 0 0 0 0 37.85202327017123 -7.3018491294860723 0 -7.3018491294860723 337.00793314707698 0 0 0 0 -50.225179486155866 -45.131550476580742 0 -45.131550476580742 357.68944807976368 0 0 0 0 -28.224324068573424 -15.266205308140343 0 -15.266205308140343 362.41241062166227 0 0 0 0 -2.6343215313418114 -42.200092525567015 0 -42.200092525567015 221.57988312610541 0 0 0 0 11.898679157131482 -13.864640156816677 0 -13.864640156816677 82.579326918741572 0 0 0 0 33.047729132424138 -117.25294858552661 0 -117.25294858552661 200.175813097645 0 0 0 0 -33.955253024561898 -73.205679625614721 0 -73.205679625614721 214.86092332018598 0 0 0 0 6.8749399934104076 -66.140562857613986 0 -66.140562857613986 229.79913484856661 0 0 0 0 25.592163243263713 -51.472412787552457 0 -51.472412787552457 66.418114552853694 0 0 0 0 -8.3709367907722481 -14.510105404060596 0 -14.510105404060596 214.52798045905365 0 0 0 0 69.586717780478466 -52.456365338875912 0 -52.456365338875912 50.780477772532322 0 0 0 0 27.622649939828989 -79.325066154578963 0 -79.325066154578963 126.44768700411078 0 0 0 0 49.52591009243497 -78.527766930950747 0 -78.527766930950747 110.68160817368334 0 0 0 0 85.824971756528612 30.000816296611447 0 30.000816296611447 223.85198322671931 0 0 0 0 -74.541785694029841 8.2759118994254095 0 8.2759118994254095 275.53636003755673 0 0 0 0 -0.37086986480971973 -103.04514216077223 0 -103.04514216077223 475.64107927208534 0 0 0 0 5.5920194243881269 -33.124863770899537 0 -33.124863770899537 284.91041853578645 0 0 0 0 0.79359005691877904 0.49716361624773242 0 0.49716361624773242 0.6686913726754824 0 0 0 0 -15.014816626390257 15.873344407100376 0 15.873344407100376 44.391415712030721 0 0 0 0 17.686039968910336 27.424698790622642 0 27.424698790622642 -10.065666971226165 0 0 0 0 -5.0627982585447171 -28.770974390386982 0 -28.770974390386982 32.065663820736518 0 0 0 0 -11.879909801753287 -6.3020359982683232 0 -6.3020359982683232 3.0419529656956001 0 0 0 0 -11.463237262187864 -6.4224416580031374 0 -6.4224416580031374 0.68675825871216034 0 0 0 0 37.163195275063117 94.034488921541197 0 94.034488921541197 163.04611271127214 0 0 0 0 -21.931887829250627 -12.633599753004091 0 -12.633599753004091 108.02752494749438 0 0 0 0 -21.367482676287068 -9.4032816061389894 0 -9.4032816061389894 69.439264468717738 0 0 0 0 -19.238799053018738 -41.435793190779805 0 -41.435793190779805 94.889076180064876 0 0 0 0 16.542700485410023 -40.108413947949884 0 -40.108413947949884 53.113891118179708 0 0 0 0 -24.540865967611808 -13.570609939413771 0 -13.570609939413771 50.971199438688927 0 0 0 0 1.1011330450232961 2.5089611087924197 0 2.5089611087924197 4.8274511327156091 0 0 0 0 -9.7043650866093358 -3.3584230873014036 0 -3.3584230873014036 0.64341108956193693 0 0 0 0 -8.2792684599844506 -24.029817592090694 0 -24.029817592090694 17.246262961494722 0 0 0 0 11.080269543955183 1.8394107020176307 0 1.8394107020176307 5.70770312698005 0 0 0 0 2.8996119176772055 -2.2146107028228954 0 -2.2146107028228954 0.43397418178770408 0 0 0 0 2.6825075022643432 -44.166863096950692 0 -44.166863096950692 34.017536298717459 0 0 0 0 -8.9915315798371012 -21.058199757506372 0 -21.058199757506372 82.813720456768351 0 0 0 0 1.1695020945990109 -3.0037805860192748 0 -3.0037805860192748 -11.298821017080627 0 0 0 0 -7.9814011889156973 29.25085814299382 0 29.25085814299382 4.8506592571211513 0 0 0 0 -3.3770433007618053 -0.68599568364631125 0 -0.68599568364631125 -0.29133948056941961 0 0 0 0 -59.700703622821493 -112.63683857753495 0 -112.63683857753495 285.13034731021617 0 0 0 0 -107.28247205503885 2.2487265728341299 0 2.2487265728341299 140.35873867137707 0 0 0 0 22.953134416493413 -78.425431473951903 0 -78.425431473951903 70.906874434105703 0 0 0 0 3.2895159903314379 -30.90003417222033 0 -30.90003417222033 -39.080698197249149 0 0 0 0 22.905309959342958 -68.603323031056789 0 -68.603323031056789 328.53321452322416 0 0 0 0 78.462123572221572 89.385202966728684 0 89.385202966728684 -6.2592328232567525 0 0 0 0 27.797219442300047 -110.13872889000777 0 -110.13872889000777 -29.365788044829969 0 0 0 0 -107.3106745289645 -165.16771464616914 0 -165.16771464616914 251.45290924129949 0 0 0 0 51.583464620548511 -266.99908240510558 0 -266.99908240510558 313.18128987723321 0 0 0 0 -5.7730879795144574 -110.69483167157523 0 -110.69483167157523 267.05323017510818 0 0 0 0 14.334445107842839 -83.843889496609336 0 -83.843889496609336 284.1411285636641 0 0 0 0 9.4061552915818538 -197.27375285772359 0 -197.27375285772359 199.5789588977641 0 0 0 0 22.947948897886818 -160.830760982215 0 -160.830760982215 236.59704134122512 0 0 0 0 50.862818570271884 -190.53585688446765 0 -190.53585688446765 268.15389642628725 0 0 0 0 23.919946984994567 -228.54735635814359 0 -228.54735635814359 -137.28361848153872 0 0 0 0 0.85648151578792664 -1.0740774608899812 0 -1.0740774608899812 1.2003160301407831 0 0 0 0 50.3579401877696 56.836956175386149 0 56.836956175386149 442.19265497769447 0 0 0 0 44.216608673771589 8.1384038776486705 0 8.1384038776486705 87.025162112302496 0 0 0 0 8.3390799816952494 2.1111422268659226 0 2.1111422268659226 95.412017819791799 0 0 0 0 1.2944008841536103 0.39455327240902704 0 0.39455327240902704 0.20586532724093587 0 0 0 0 -61.376225583872383 21.024402174076386 0 21.024402174076386 643.75437140477879 0 0 0 0 50.571855933965708 -137.72657138425711 0 -137.72657138425711 375.02553441663622 0 0 0 0 59.700236721188816 -33.371536150159613 0 -33.371536150159613 320.22425560360716 0 0 0 0 16.919620806495004 -26.09817752132949 0 -26.09817752132949 333.78232555468276 0 0 0 0 0.86335545249130519 -118.27025780345866 0 -118.27025780345866 311.87349024451578 0 0 0 0 -5.1938288950786955 -13.074491983599728 0 -13.074491983599728 280.89428450221749 0 0 0 0 61.279486679690308 -135.37472992020048 0 -135.37472992020048 59.535828567539284 0 0 0 0 -30.145571969423543 29.096774098100013 0 29.096774098100013 -17.36662735385471 0 0 0 0 -62.14263896325042 61.552407742418836 0 61.552407742418836 340.44844379059214 0 0 0 0 -88.332653209716227 -107.16332290775972 0 -107.16332290775972 627.1805550911813 0 0 0 0 4.5842073353170036 -1.0191071765824802 0 -1.0191071765824802 0.30336852770115463 0 0 0 0 125.67990029276189 -17.66795487611671 0 -17.66795487611671 -240.83015914554562 0 0 0 0 120.00311009553116 -42.053091401270649 0 -42.053091401270649 -154.5723605605649 0 0 0 0 -265.18811902240304 -316.06583128469356 0 -316.06583128469356 111.72068024450709 0 0 0 0 63.764509937156618 86.352298289864848 0 86.352298289864848 54.364741978315578 0 0 0 0 1.6413573146013789 -2.5370623119518427 0 -2.5370623119518427 2.3383456449341224 0 0 0 0 0.4311564869879021 -37.095041827413297 0 -37.095041827413297 2.654805551705067 0 0 0 0 56.69496002807864 49.878428484694268 0 49.878428484694268 -26.646503789961571 0 0 0 0 -236.71931718863163 -60.226856284229143 0 -60.226856284229143 48.026585930361762 0 0 0 0 -243.06007917974603 34.820235191960819 0 34.820235191960819 139.94477666504827 0 0 0 0 -4.4285484639796859 2.7221357617820701 0 2.7221357617820701 11.265637376004179 0 0 0 0 279.45878266268483 -173.28233880703192 0 -173.28233880703192 173.85009731727769 0 0 0 0 7.2650397358756891 112.02537366202887 0 112.02537366202887 101.63068575196189 0 0 0 0 14.400532968382777 -14.678715637854111 0 -14.678715637854111 122.82031982741319 0 0 0 0 30.773731935763408 46.980818253599864 0 46.980818253599864 50.601076018589083 0 0 0 0 -72.720081964485871 66.129276350067812 0 66.129276350067812 66.277453379429062 0 0 0 0 -55.022010888635123 105.75928250103607 0 105.75928250103607 78.307775606670475 0 0 0 0 -177.11524520055355 67.717311527885613 0 67.717311527885613 98.021463970449986 0 0 0 0 -76.394769530372287 59.764676628685265 0 59.764676628685265 59.467723412410123 0 0 0 0 -0.32106009452763828 -87.674084267629951 0 -87.674084267629951 109.38405896507493 0 0 0 0 -175.85964086529339 47.778170464076993 0 47.778170464076993 21.814207299423288 0 0 0 0 0.54582418370813457 -6.4781876845661657 0 -6.4781876845661657 12.091299599477168 0 0 0 0 -66.348088514127085 50.944554953959596 0 50.944554953959596 26.246978872397449 0 0 0 0 -39.184851922251873 -15.462894130880869 0 -15.462894130880869 19.919462197355813 0 0 0 0 -3.1919373195023368 14.614191475121537 0 14.614191475121537 53.538862900935442 0 0 0 0 163.17116546366606 -128.55596437257918 0 -128.55596437257918 233.69857510866132 0 0 0 0 -165.09076457664924 -26.671214520305512 0 -26.671214520305512 186.53524363070755 0 0 0 0 -107.53483400528785 -16.004850846715271 0 -16.004850846715271 106.58014591794472 0 0 0 0 -80.758888804348317 50.520247967084288 0 50.520247967084288 55.135339690652472 0 0 0 0 -23.35153553690634 23.827749603828124 0 23.827749603828124 57.970380542086787 0 0 0 0 3.328574112681963 42.495022043054632 0 42.495022043054632 18.508065300746239 0 0 0 0 -68.870058115920074 -2.6285061115922872 0 -2.6285061115922872 -8.5429434389079688 0 0 0 0 35.672431622009753 14.413438002855401 0 14.413438002855401 -19.525684940050269 0 0 0 0 -7.0319791016672752 -36.284927765442262 0 -36.284927765442262 31.701196989160962 0 0 0 0 -19.615964712533241 -8.4458061577897752 0 -8.4458061577897752 -16.722084899440233 0 0 0 0 -76.731683661742863 -75.235391916423396 0 -75.235391916423396 9.4077909648476634 0 0 0 0 -15.110369564943539 -52.081693768304831 0 -52.081693768304831 138.54253772523953 0 0 0 0 27.326347572560735 17.058826796484936 0 17.058826796484936 60.814899254764896 0 0 0 0 -55.182841926758556 -21.727302534403862 0 -21.727302534403862 343.54624977814092 0 0 0 0 -21.895824619732593 6.4630094432213809 0 6.4630094432213809 -20.730914503081294 0 0 0 0 -43.786123049695334 61.391118527379149 0 61.391118527379149 162.65638150688028 0 0 0 0 86.093088889911087 -78.856374205701286 0 -78.856374205701286 143.09144324855879 0 0 0 0 12.649267949065688 14.174174086176208 0 14.174174086176208 166.67001141229321 0 0 0 0 54.019802013059234 34.193120286581689 0 34.193120286581689 111.90266116612474 0 0 0 0 52.872958397347247 5.9378663305542432 0 5.9378663305542432 56.115518852137029 0 0 0 0 -740.15018240035556 290.812182134061 0 290.812182134061 620.01605768739864 0 0 0 0 1.6657761255380121 -7.3091967259605681 0 -7.3091967259605681 16.923553645574913 0 0 0 0 -34.355052435163543 105.77672943074867 0 105.77672943074867 544.47619537843639 0 0 0 0 -160.75869749133744 291.33617919522294 0 291.33617919522294 415.20674066915308 0 0 0 0 164.825619343006 343.94487782973317 0 343.94487782973317 212.49478955951054 0 0 0 0 40.684409066516309 -277.33713398537657 0 -277.33713398537657 966.12496226821895 0 0 0 0 307.35082621840388 -335.58344605773527 0 -335.58344605773527 -1110.1325736365543 0 0 0 0 -303.76552741654098 708.29018470773008 0 708.29018470773008 76.024854547264113 0 0 0 0 650.38600776167254 -694.21314494173203 0 -694.21314494173203 150.80904393209494 0 0 0 0 385.7410425977132 -334.27966074443975 0 -334.27966074443975 -281.08512744697873 0 0 0 0 331.01601334685711 -479.06231823792041 0 -479.06231823792041 825.3172203857248 0 0 0 0 2.9563006273095724 -1.1234330200371971 0 -1.1234330200371971 6.6780329008004173 0 0 0 0 491.32703567383328 -654.54607652955747 0 -654.54607652955747 -28.164742409295286 0 0 0 0 404.15101778825783 -773.29091211908963 0 -773.29091211908963 301.44186896187603 0 0 0 0 -3.035833088554682 -147.83334542276862 0 -147.83334542276862 298.20757093602151 0 0 0 0 -3.888493631549522 16.568598677197489 0 16.568598677197489 0.39272909565931968 0 0 0 0 -163.88770491290552 -120.95091128735658 0 -120.95091128735658 375.88423032701394 0 0 0 0 72.076708913256766 -218.78323439500673 0 -218.78323439500673 323.28647803721833 0 0 0 0 15.730427267230795 -310.91187011917646 0 -310.91187011917646 933.91739956881065 0 0 0 0 60.688383333711982 90.897553510709258 0 90.897553510709258 612.22253055000328 0 0 0 0 -83.784387210730529 -171.13216512642975 0 -171.13216512642975 380.13553278595646 0 0 0 0 -12.954517257611315 -7.691710283561406 0 -7.691710283561406 29.983772761654109 0 0 0 0 58.166799223309283 194.3991802382734 0 194.3991802382734 51.357887970974843 0 0 0 0 -6.1417695217271504 2.0656543532467708 0 2.0656543532467708 33.92178442146465 0 0 0 0 -30.387774333473029 7.5002903204284976 0 7.5002903204284976 36.842548677063604 0 0 0 0 -20.037191280841398 -3.3602369129293947 0 -3.3602369129293947 32.584274473614641 0 0 0 0 -66.058615786485461 3.3444474745192565 0 3.3444474745192565 26.110006069764495 0 0 0 0 -18.52098237020293 -3.7514009702179756 0 -3.7514009702179756 37.351327553833187 0 0 0 0 -4.7835095527108749 -13.733960025998186 0 -13.733960025998186 24.1974009583856 0 0 0 0 -492.37426144733081 -244.56853515657349 0 -244.56853515657349 70.484580035292311 0 0 0 0 -1.1023713524831482 -13.224702981720696 0 -13.224702981720696 38.918047194184226 0 0 0 0 -492.37426144733007 -244.56853515659668 0 -244.56853515659668 70.484580035175895 0 0 0 0 -808.32582628611226 -62.697254630809766 0 -62.697254630809766 157.15950131210047 0 0 0 0 -492.37426144733854 -244.56853515660623 0 -244.56853515660623 70.484580035219551 0 0 0 0 -13.901776772119039 -8.9470272826981514 0 -8.9470272826981514 52.036427835780103 0 0 0 0 -589.59469291721234 -140.57703974846299 0 -140.57703974846299 -76.143999015039299 0 0 0 0 -15.329888391477652 -13.811808680729882 0 -13.811808680729882 44.046100145991659 0 0 0 0 -32.388776356863445 11.298132384837544 0 11.298132384837544 61.604750441598213 0 0 0 0 -4.3649631717686788 -31.32109535079865 0 -31.32109535079865 42.566202468852538 0 0 0 0 554.44008984022184 -879.24852284741792 0 -879.24852284741792 229.02623697143281 0 0 0 0 -413.88674242113552 -150.11508371068885 0 -150.11508371068885 50.997525603233953 0 0 0 0 84.236354213943741 -453.59647816154757 0 -453.59647816154757 226.38902839216462 0 0 0 0 -548.1433681101322 58.600882779515814 0 58.600882779515814 475.37128080888215 0 0 0 0 182.69626744196194 -816.51907868451963 0 -816.51907868451963 965.49428631100454 0 0 0 0 -223.621158183641 76.343091371752962 0 76.343091371752962 1384.2848566435459 0 0 0 0 45.101799416724077 -47.657934834307525 0 -47.657934834307525 87.864893364945601 0 0 0 0 500.2071574546635 757.47761915269075 0 757.47761915269075 552.82565976248588 0 0 0 0 -481.39073384914309 828.11035425514638 0 828.11035425514638 57.646584687077848 0 0 0 0 4.996432313657639 -1.6354694923549928 0 -1.6354694923549928 20.921927670911316 0 0 0 0 -282.08602653544676 378.70503464357171 0 378.70503464357171 87.835731672988913 0 0 0 0 -297.89675369824363 207.3458076541865 0 207.3458076541865 -296.35877374561096 0 0 0 0 -757.62711780393192 215.91488553692398 0 215.91488553692398 320.36644755332964 0 0 0 0 -3.5618525355519037 2.3005452643236692 0 2.3005452643236692 36.445340579711626 0 0 0 0 -15.929425959021447 -8.0748375091947544 0 -8.0748375091947544 48.130437024288511 0 0 0 0 -75.513832190039466 13.379927577541821 0 13.379927577541821 54.229127817947301 0 0 0 0 -71.588715996172141 51.04660972216152 0 51.04660972216152 56.861226476918091 0 0 0 0 -65.68306440837614 -31.662841709136046 0 -31.662841709136046 99.553823603666387 0 0 0 0 -159.29926523152972 81.872200804682507 0 81.872200804682507 99.261314003933592 0 0 0 0 45.744868282004973 -81.608695863105822 0 -81.608695863105822 128.89752208723803 0 0 0 0 81.036442326096676 -41.630917790997046 0 -41.630917790997046 4.6011116077497718 0 0 0 0 3.83664023401343 311.67985638241589 0 311.67985638241589 -448.7618129176999 0 0 0 0 134.33935649148725 -80.139835541849607 0 -80.139835541849607 -151.99628003437101 0 0 0 0 0.86158669795671194 5.6164069235830993 0 5.6164069235830993 7.9956271002873081 0 0 0 0 53.113189975438672 -455.09119841482243 0 -455.09119841482243 1124.3235104910127 0 0 0 0 462.4464469052009 -194.441516328734 0 -194.441516328734 -331.85379826110329 0 0 0 0 923.47077296765247 -4.6304930243459239 0 -4.6304930243459239 -259.19671353147714 0 0 0 0 -80.844029602776573 -69.980017478747868 0 -69.980017478747868 169.02444195919816 0 0 0 0 -28.840137754893931 -68.268131107604859 0 -68.268131107604859 160.11862558706889 0 0 0 0 -52.018855110635741 435.70843416254502 0 435.70843416254502 -17.85435614103335 0 0 0 0 25.508269954242678 25.572810935249436 0 25.572810935249436 -159.80798068403237 0 0 0 0 95.347845486433016 -194.87883654099824 0 -194.87883654099824 134.80252922170621 0 0 0 0 -0.18044085507336227 1.5154594529469634 0 1.5154594529469634 3.748451093820222 0 0 0 0 34.423136374444312 -16.718632136089582 0 -16.718632136089582 131.08568014997581 0 0 0 0 126.66382225221878 -79.02016901186289 0 -79.02016901186289 75.721376898916787 0 0 0 0 14.610917396485092 -89.136422034775023 0 -89.136422034775023 119.56768752147036 0 0 0 0 33.93454867579203 -55.990949226543307 0 -55.990949226543307 23.300606485747267 0 0 0 0 -109.17385903827335 27.333344689890509 0 27.333344689890509 98.514548915703926 0 0 0 0 -48.542868004288721 -106.33326629714065 0 -106.33326629714065 95.732775204571226 0 0 0 0 -33.447154748461799 -16.413726310289348 0 -16.413726310289348 68.119150876405911 0 0 0 0 -34.59917726786346 -120.26519271481789 0 -120.26519271481789 176.40109093471983 0 0 0 0 -15.24939683705853 -12.682549679103953 0 -12.682549679103953 85.246721557389805 0 0 0 0 5.9950139522484278 3.8372386732480663 0 3.8372386732480663 17.826618269071332 0 0 0 0 601.52291617261653 -145.77665906547918 0 -145.77665906547918 -10.090984608308645 0 0 0 0 -22.917227130140418 -18.990718850552263 0 -18.990718850552263 93.123354148330321 0 0 0 0 -147.64621653864651 15.243482397134358 0 15.243482397134358 114.94176324342698 0 0 0 0 -248.98776649283172 -46.941078680407372 0 -46.941078680407372 -79.170699473193963 0 0 0 0 -197.0451123164803 -157.52001153640595 0 -157.52001153640595 -263.93277172965463 0 0 0 0 0.20468325792038478 1.5238647822214251 0 1.5238647822214251 27.50381551911795 0 0 0 0 -11.248163090769461 -0.19526485646931135 0 -0.19526485646931135 61.923940568334586 0 0 0 0 -41.867447040487605 8.892449351522373 0 8.892449351522373 -85.835256532445783 0 0 0 0 -29.747260450899148 -7.3668013116948714 0 -7.3668013116948714 127.65220545977354 0 0 0 0 -57.038275977846524 136.86651441513777 0 136.86651441513777 -373.33047856763005 0 0 0 0 272.57786166143342 46.33909642965591 0 46.33909642965591 -645.86456528017879 0 0 0 0 -23.464259792234316 -65.513725716427871 0 -65.513725716427871 114.98535034523229 0 0 0 0 -428.32122364184761 96.237378857562362 0 96.237378857562362 1177.9143420469627 0 0 0 0 821.1550306730478 -318.46595300234912 0 -318.46595300234912 -572.16857648693258 0 0 0 0 39.687118943168571 -390.22331310466143 0 -390.22331310466143 -108.45333018118981 0 0 0 0 250.71815735655946 -652.87467587143328 0 -652.87467587143328 81.039157049002824 0 0 0 0 155.08227927226108 -177.10891960981826 0 -177.10891960981826 74.67033902602634 0 0 0 0 12.717724961972365 26.468372361504976 0 26.468372361504976 1.1308764930290636 0 0 0 0 237.25521597774696 -306.09291857510834 0 -306.09291857510834 276.51192179397185 0 0 0 0 0.021015787281089437 0.86744534470879664 0 0.86744534470879664 11.132948861519736 0 0 0 0 -115.51662749897787 350.23039460054497 0 350.23039460054497 441.07239065155773 0 0 0 0 -162.50235233439594 442.94963113821814 0 442.94963113821814 271.05004253480001 0 0 0 0 152.727330975737 -154.88326174057693 0 -154.88326174057693 -75.655858257261571 0 0 0 0 -2.827390932704331 -17.209189778516972 0 -17.209189778516972 18.570220127719693 0 0 0 0 166.11614303553324 -773.21352286163165 0 -773.21352286163165 139.66547464445739 0 0 0 0 3.0182285276627532 -30.899920485694004 0 -30.899920485694004 92.22102173896252 0 0 0 0 103.80110944020265 350.59404107469277 0 350.59404107469277 50.892930677451659 0 0 0 0 41.820216671729213 171.71868802357494 0 171.71868802357494 543.92385486662897 0 0 0 0 14.847593105865144 -203.26013203570983 0 -203.26013203570983 681.74399734530016 0 0 0 0 -10.81030860780993 -19.371353565839854 0 -19.371353565839854 296.36832085476817 0 0 0 0 -4.4280384473249796 -9.219690561132893 0 -9.219690561132893 180.23269206170153 0 0 0 0 -16.468077873176753 10.996188240573474 0 10.996188240573474 199.09672042258535 0 0 0 0 -11.673245237109995 -9.665595113305983 0 -9.665595113305983 197.68282990128137 0 0 0 0 -13.868322226833101 -48.841572572812368 0 -48.841572572812368 153.60193757818627 0 0 0 0 -76.501607177142432 -111.91651179251312 0 -111.91651179251312 298.73933560105797 0 0 0 0 -31.831863743729311 -41.032637274364049 0 -41.032637274364049 38.762637573260093 0 0 0 0 49.294629481162701 63.431640300341314 0 63.431640300341314 161.36073698825567 0 0 0 0 27.841476057503542 -66.771436232191945 0 -66.771436232191945 197.31615287832392 0 0 0 0 19.830511533335084 7.6957853171170427 0 7.6957853171170427 179.41470039189335 0 0 0 0 -28.708425630782585 17.379431385545104 0 17.379431385545104 185.32252859931714 0 0 0 0 -33.72981320166582 -53.760063678832012 0 -53.760063678832012 199.62712934637534 0 0 0 0 11.444262697755221 -41.351412784902095 0 -41.351412784902095 153.44661102013561 0 0 0 0 6.1896840627659913 -40.968708806502491 0 -40.968708806502491 182.38406635993488 0 0 0 0 7.612744541353095 -4.0466877903845671 0 -4.0466877903845671 98.211047025840344 0 0 0 0 -25.785207751356211 -39.716848029162065 0 -39.716848029162065 156.69181647212645 0 0 0 0 20.434377606043654 -35.461919079639074 0 -35.461919079639074 134.14857820838188 0 0 0 0 -100.14362424029969 -21.296238215879384 0 -21.296238215879384 176.3773346734115 0 0 0 0 -31.395138109392065 -62.803052756190937 0 -62.803052756190937 85.652944584595389 0 0 0 0 2.0287111838615894 12.951345431362949 0 12.951345431362949 72.680760664834935 0 0 0 0 -147.32703766371924 28.14771345501731 0 28.14771345501731 124.70103486789503 0 0 0 0 6.7698614474284113 -15.735446922253686 0 -15.735446922253686 54.313636865841545 0 0 0 0 6.5848631863652827 24.281993252614711 0 24.281993252614711 166.54050786278094 0 0 0 0 -2.2809309657022823 -22.278445031074853 0 -22.278445031074853 44.715963322338212 0 0 0 0 0.96258890945874143 6.8656481573138706 0 6.8656481573138706 54.520086082642848 0 0 0 0 -84.821842940738861 109.95953586845917 0 109.95953586845917 102.57180841818376 0 0 0 0 234.17997177016605 -42.902041068913604 0 -42.902041068913604 -10.806327538004552 0 0 0 0 -17.996265318475707 35.411425309900096 0 35.411425309900096 161.25894409233115 0 0 0 0 -1.5618443690435937 -2.0263364229970877 0 -2.0263364229970877 7.3171326630838678 0 0 0 0 -127.43751598909057 1.6505117181513924 0 1.6505117181513924 75.564843583153561 0 0 0 0 52.485726484682345 -19.194159822405709 0 -19.194159822405709 115.6607209494141 0 0 0 0 48.429671403873726 -41.801393875857684 0 -41.801393875857684 -9.3335458780984482 0 0 0 0 -60.446333954190777 -43.158956762243179 0 -43.158956762243179 105.86845099172569 0 0 0 0 -2.0571163474925243 -65.265676089100452 0 -65.265676089100452 77.180483717573225 0 0 0 0 14.453792894423714 -15.487803271013036 0 -15.487803271013036 116.40719970570717 0 0 0 0 151.59539341426193 -59.648332341566856 0 -59.648332341566856 46.742201245149772 0 0 0 0 -1.4217881432248216 -3.4764730428192117 0 -3.4764730428192117 97.744241978859435 0 0 0 0 34.174532775869693 -70.44111128098757 0 -70.44111128098757 60.599187732157588 0 0 0 0 -23.484369281275576 -184.03397131589736 0 -184.03397131589736 -31.091784681695572 0 0 0 0 254.68726361094195 80.133889560624084 0 80.133889560624084 -210.43066125071346 0 0 0 0 10.190577790335293 -46.193181169596556 0 -46.193181169596556 84.913804553700871 0 0 0 0 194.67977129980318 60.026679838032578 0 60.026679838032578 -8.3442745460779406 0 0 0 0 24.202543768522446 30.470996247622679 0 30.470996247622679 157.05672514595062 0 0 0 0 -126.65494165602604 -14.346195225631163 0 -14.346195225631163 160.20899189522606 0 0 0 0 -24.734041707261895 108.89585928281303 0 108.89585928281303 90.974600333634953 0 0 0 0 26.683748102230311 5.8008847850069287 0 5.8008847850069287 144.36890704347752 0 0 0 0 10.995308278723314 12.953987847358803 0 12.953987847358803 162.82866725234362 0 0 0 0 151.43922257308623 26.798895524349064 0 26.798895524349064 121.48490177439817 0 0 0 0 41.828731352872637 38.141003903379897 0 38.141003903379897 128.51009450651691 0 0 0 0 -0.86309372114816707 -31.065517503692135 0 -31.065517503692135 13.209789785494735 0 0 0 0 -56.686488885307881 -95.446297849048278 0 -95.446297849048278 50.021329620718461 0 0 0 0 -39.815050952173806 -23.011165416262884 0 -23.011165416262884 169.00430435199814 0 0 0 0 -21.8423812074343 -71.026095760185854 0 -71.026095760185854 154.23264433948134 0 0 0 0 10.225022561465721 -83.922682214164524 0 -83.922682214164524 174.1200503805303 0 0 0 0 -29.445872402928217 -49.629159140391494 0 -49.629159140391494 179.89968961296836 0 0 0 0 -13.017874765535453 -24.11093286495452 0 -24.11093286495452 129.84581739456917 0 0 0 0 -12.084853712871336 -49.33281480470032 0 -49.33281480470032 191.96209747581452 0 0 0 0 -7.3821397549181711 -64.582955675032281 0 -64.582955675032281 194.02210982670294 0 0 0 0 -14.230611872015288 -55.282490951187356 0 -55.282490951187356 182.4604072838265 0 0 0 0 51.803281445419998 -61.827010097389575 0 -61.827010097389575 185.14863956328918 0 0 0 0 -18.688087629197071 -56.412931892482447 0 -56.412931892482447 244.99073050532024 0 0 0 0 23.371116723059458 -18.50248593348806 0 -18.50248593348806 93.497344332616194 0 0 0 0 15.682044900195251 43.043660552415531 0 43.043660552415531 212.85544526400918 0 0 0 0 14.459471751168167 -51.889595746193663 0 -51.889595746193663 100.81940643461712 0 0 0 0 10.667589661943566 -37.027768446423579 0 -37.027768446423579 188.36169517629605 0 0 0 0 18.750879164521393 -41.35864770774424 0 -41.35864770774424 113.56287785687891 0 0 0 0 28.369057168690233 -72.145744337780343 0 -72.145744337780343 157.41131870492973 0 0 0 0 12.095923369197408 -31.942794731839967 0 -31.942794731839967 113.22769781814577 0 0 0 0 0.73958080485044331 -17.4043125440731 0 -17.4043125440731 17.715388826951923 0 0 0 0 12.360512097220322 -42.608198120619136 0 -42.608198120619136 89.056940864831091 0 0 0 0 75.118046265609337 -147.3797328066903 0 -147.3797328066903 -1.8550873821368441 0 0 0 0 49.758592577765739 -12.682666641303513 0 -12.682666641303513 116.67217024380079 0 0 0 0 17.932296981074614 -82.12708882825973 0 -82.12708882825973 220.89642349115456 0 0 0 0 -81.614240882831382 -180.1244811046472 0 -180.1244811046472 94.356111386732664 0 0 0 0 17.988169598070581 -50.245080624273314 0 -50.245080624273314 97.359279240590155 0 0 0 0 -62.777121399698899 -82.450945041051455 0 -82.450945041051455 100.66512306541199 0 0 0 0 15.363748144414576 -31.022352616237349 0 -31.022352616237349 -14.55940557028876 0 0 0 0 358.04862704441894 -161.81182663778964 0 -161.81182663778964 24.533288149552391 0 0 0 0 -7.8307809716679913 -67.900070580570173 0 -67.900070580570173 72.768442433905875 0 0 0 0 37.134475565680987 -223.61292770172849 0 -223.61292770172849 121.62508891344623 0 0 0 0 236.7170356311708 -112.23251607329985 0 -112.23251607329985 109.15601772367881 0 0 0 0 -156.06233136749469 -103.75337919883896 0 -103.75337919883896 173.86911682013306 0 0 0 0 -143.1807653908877 -361.10720358764047 0 -361.10720358764047 83.658628537705226 0 0 0 0 -444.64872037705288 0.21333877377674071 0 0.21333877377674071 137.27810950482308 0 0 0 0 -4.760581499388997 -12.709065478353796 0 -12.709065478353796 29.178115049706051 0 0 0 0 109.47482199232036 3.5975859012160072 0 3.5975859012160072 -35.610555395689516 0 0 0 0 -10.090826114448646 -19.349030207426949 0 -19.349030207426949 39.05438970772957 0 0 0 0 2.2675836382285866 -2.317161495609227 0 -2.317161495609227 11.220372406415777 0 0 0 0 6.9956205573757373 -25.1790732971496 0 -25.1790732971496 80.191960963900229 0 0 0 0 -9.1796991164055726 -23.828283950151672 0 -23.828283950151672 55.088112553828978 0 0 0 0 3.8303700827828884 -14.771522446170408 0 -14.771522446170408 85.848133598094662 0 0 0 0 8.2118475459510663 -17.263217056336572 0 -17.263217056336572 54.325075387914382 0 0 0 0 -172.66421358604453 -224.95005944439345 0 -224.95005944439345 -4.2524157531188393 0 0 0 0 2.273676284972328 -22.256460255910778 0 -22.256460255910778 149.21034794543357 0 0 0 0 -120.81355375473868 51.881565416668309 0 51.881565416668309 220.49741241826632 0 0 0 0 0.91322997216916946 -4.8861401010993291 0 -4.8861401010993291 16.701706602650603 0 0 0 0 -7.763894334435463 1.7239350904128514 0 1.7239350904128514 31.478884887141248 0 0 0 0 42.340920462160284 89.349283190822462 0 89.349283190822462 146.50282270331081 0 0 0 0 46.646803896599522 31.318244664504164 0 31.318244664504164 103.91532962922793 0 0 0 0 3.8591941049899834 -29.984163523527094 0 -29.984163523527094 166.7559376884625 0 0 0 0 -607.61705139282276 -259.84644726919487 0 -259.84644726919487 239.45312075095353 0 0 0 0 -429.10846596050123 -1.791979943143815 0 -1.791979943143815 326.57944425832829 0 0 0 0 134.54026663079151 -146.68369560617259 0 -146.68369560617259 387.39118605995463 0 0 0 0 -255.61329662764092 -23.180075280388337 0 -23.180075280388337 229.20988567629684 0 0 0 0 -201.33381863412274 -250.27496563527166 0 -250.27496563527166 55.498704430119687 0 0 0 0 79.317820106487943 173.36321800807127 0 173.36321800807127 280.85816535400863 0 0 0 0 66.921395150069884 36.771530875036433 0 36.771530875036433 412.41551494919622 0 0 0 0 88.285888416201487 8.0425564755096275 0 8.0425564755096275 90.837346488980984 0 0 0 0 273.21840805229385 -175.91229038164465 0 -175.91229038164465 224.73227559328552 0 0 0 0 180.98361124686744 18.263058176521554 0 18.263058176521554 222.09539114403742 0 0 0 0 199.81043583883365 -74.191923512805488 0 -74.191923512805488 642.40383686140558 0 0 0 0 301.9389791077665 -430.57311613118054 0 -430.57311613118054 952.23839841903055 0 0 0 0 0.93637565188866034 1.1954473737350959 0 1.1954473737350959 12.330866631247204 0 0 0 0 342.15573528920504 67.823436954623503 0 67.823436954623503 34.929516479035556 0 0 0 0 820.56337223692935 301.70692000615873 0 301.70692000615873 113.19731859954481 0 0 0 0 1.3189282082670122 5.3596679684702817 0 5.3596679684702817 34.26480459584613 0 0 0 0 253.20159378160201 -39.992227447090272 0 -39.992227447090272 58.910631148541142 0 0 0 0 179.34659199337102 135.94649151016336 0 135.94649151016336 6.9774728001320909 0 0 0 0 198.93409888944734 163.74037855455208 0 163.74037855455208 37.449704316736188 0 0 0 0 87.58626443938374 -10.187877642387321 0 -10.187877642387321 82.056559067108537 0 0 0 0 79.406311077511646 -44.046945768019214 0 -44.046945768019214 -33.582986638215516 0 0 0 0 41.798872301431402 -30.124204851943432 0 -30.124204851943432 227.93828896692787 0 0 0 0 673.8697707729807 -348.65601655892715 0 -348.65601655892715 61.789564390746818 0 0 0 0 -1.0734667378839102 -3.7857922821931105 0 -3.7857922821931105 3.69057136008459 0 0 0 0 -90.73390356376467 102.43297504586644 0 102.43297504586644 103.24484545317318 0 0 0 0 9.4142950367190359 -39.4498408844143 0 -39.4498408844143 138.12584544792611 0 0 0 0 72.754884535495876 -34.936950976021762 0 -34.936950976021762 89.846123806143169 0 0 0 0 8.9862525570936036 11.427206143697532 0 11.427206143697532 55.552779962818221 0 0 0 0 16.997223331635496 -101.9788568494987 0 -101.9788568494987 98.459297913411319 0 0 0 0 -386.0734187562839 22.244683454231563 0 22.244683454231563 243.71919792731933 0 0 0 0 7.3671016254161072 -26.660165458318318 0 -26.660165458318318 141.96670417214256 0 0 0 0 -156.63357856954462 86.269024530847673 0 86.269024530847673 160.81609012278204 0 0 0 0 -145.06544429599035 121.51458463286326 0 121.51458463286326 184.82988659515104 0 0 0 0 -14.382813654085169 5.2207152038071456 0 5.2207152038071456 103.66248674917847 0 0 0 0 5.1692871140937768 6.8840784218918998 0 6.8840784218918998 86.419841844006442 0 0 0 0 -39.442396039990399 -8.5211156088189455 0 -8.5211156088189455 94.535207020206144 0 0 0 0 -6.7844080502774471 5.1489267727736632 0 5.1489267727736632 97.379725126680967 0 0 0 0 2.211894040480729 12.186382091207633 0 12.186382091207633 112.91722254828346 0 0 0 0 0.89800800174270989 9.1398592378209287 0 9.1398592378209287 112.74951078592858 0 0 0 0 -7.6498993156455981 4.3364261309543508 0 4.3364261309543508 135.90065503900405 0 0 0 0 29.164571614334818 35.983827458781889 0 35.983827458781889 117.98474500182783 0 0 0 0 -26.291665829610793 19.563463661037531 0 19.563463661037531 132.90907347698885 0 0 0 0 -8.9163009717610748 -3.4305418667481717 0 -3.4305418667481717 104.55044128891313 0 0 0 0 -26.816300413264742 4.1449582338656228 0 4.1449582338656228 119.02399470520322 0 0 0 0 -42.970848545026456 -0.48934781113348436 0 -0.48934781113348436 124.73378761121785 0 0 0 0 -49.972469647307662 5.9806326366597204 0 5.9806326366597204 119.0470432812308 0 0 0 0 -51.268704637362134 12.626875760890471 0 12.626875760890471 90.204514900149661 0 0 0 0 -17.718063030464236 16.402782073026174 0 16.402782073026174 59.866348756790103 0 0 0 0 7.8342688655055213 19.295387438979134 0 19.295387438979134 33.433564691799404 0 0 0 0 -46.827274812232645 35.885792987581226 0 35.885792987581226 55.338744130142913 0 0 0 0 -68.517556712492478 28.376216315111378 0 28.376216315111378 81.61977431748528 0 0 0 0 -44.186014685440568 25.808478704959271 0 25.808478704959271 44.102566404064419 0 0 0 0 -67.690645320718431 9.7692639339111338 0 9.7692639339111338 89.270961855552741 0 0 0 0 -81.581279267576065 36.887766857409588 0 36.887766857409588 49.555923627558514 0 0 0 0 -94.791544262093339 -4.539219167731062 0 -4.539219167731062 61.537530797078944 0 0 0 0 -103.31250607881066 46.674993916898529 0 46.674993916898529 105.13967784552369 0 0 0 0 -82.505856478962698 -17.027394202378332 0 -17.027394202378332 190.13185530238843 0 0 0 0 -84.76501676996304 26.384582299298927 0 26.384582299298927 103.11363710023215 0 0 0 0 -72.216782362585491 -0.75832689015805954 0 -0.75832689015805954 144.18796031670354 0 0 0 0 -47.687994205794894 -20.798324003393645 0 -20.798324003393645 140.79062962661556 0 0 0 0 -38.117924900303478 -23.292908382893074 0 -23.292908382893074 110.39767321967884 0 0 0 0 -40.006019841738635 -16.134949772887012 0 -16.134949772887012 127.0362021659821 0 0 0 0 -53.282936518335191 -28.826056587451603 0 -28.826056587451603 129.67933318898577 0 0 0 0 -34.305451411026297 -31.977654002552299 0 -31.977654002552299 130.14172652259003 0 0 0 0 -45.266705414575426 -43.788693838410836 0 -43.788693838410836 156.33596415902139 0 0 0 0 -1.1999899380080024 -53.826647087284073 0 -53.826647087284073 156.61275035054859 0 0 0 0 -13.41912587089405 -20.303966371403476 0 -20.303966371403476 196.25555892055854 0 0 0 0 -23.386608020603489 -36.164486969353675 0 -36.164486969353675 98.772814227457275 0 0 0 0 -4.3628552069330908 -61.726550717954524 0 -61.726550717954524 163.32337009253388 0 0 0 0 5.8904386575068202 -61.815330715035088 0 -61.815330715035088 109.62010964774527 0 0 0 0 33.597879118387937 -42.888389596526395 0 -42.888389596526395 79.184158712906537 0 0 0 0 36.322733045399218 -63.201932222662435 0 -63.201932222662435 186.8647326147111 0 0 0 0 -107.61015920321825 76.332879084078741 0 76.332879084078741 -10.822244703173055 0 0 0 0 -0.31583783060248294 0.32136863537090221 0 0.32136863537090221 1.1877258984317223 0 0 0 0 55.796177323422853 -183.83560821902211 0 -183.83560821902211 354.93470711965711 0 0 0 0 -65.127150307359443 9.913462756518129 0 9.913462756518129 40.459721792769415 0 0 0 0 -58.982250640972779 -1.1102558154598228 0 -1.1102558154598228 30.326741442673665 0 0 0 0 33.196755310486651 -110.21506909645768 0 -110.21506909645768 219.63959976112528 0 0 0 0 0.013101203057622968 1.3219516437334136 0 1.3219516437334136 1.898160175221534 0 0 0 0 -10.844607421851549 -9.7986716478940252 0 -9.7986716478940252 24.661787184850255 0 0 0 0 -58.127447611615025 -4.0794221905161976 0 -4.0794221905161976 28.338299054817981 0 0 0 0 -87.182307461212531 -5.6530497511757858 0 -5.6530497511757858 50.234015593974618 0 0 0 0 -70.922702574672712 -47.350181939228605 0 -47.350181939228605 8.625848434807267 0 0 0 0 -6.0916323351930259 -16.170301239601258 0 -16.170301239601258 7.5249076714680996 0 0 0 0 40.655135102721914 298.93822090521314 0 298.93822090521314 355.37332003681513 0 0 0 0 -0.38392396953444319 -2.5182973057648042 0 -2.5182973057648042 6.6587024711877802 0 0 0 0 -32.088264105325834 -5.5081038119569712 0 -5.5081038119569712 7.4053167668674291 0 0 0 0 232.33419311146918 118.16464181026095 0 118.16464181026095 181.01001874661961 0 0 0 0 -1.0071244173392415 -0.040379066547288289 0 -0.040379066547288289 2.7690053969287476 0 0 0 0 290.54279396628499 500.5885825231926 0 500.5885825231926 370.52069883726654 0 0 0 0 -202.45772879608558 64.52050417495775 0 64.52050417495775 -34.429667571974278 0 0 0 0 -33.432649471826835 -28.791862851084829 0 -28.791862851084829 -3.5360020811494906 0 0 0 0 -219.4781986427115 -64.340592017462768 0 -64.340592017462768 28.32720821732255 0 0 0 0 -191.38011991506437 -39.011916280107471 0 -39.011916280107471 -98.023023857705994 0 0 0 0 -209.60275966453264 123.3697412712645 0 123.3697412712645 -248.46887533163681 0 0 0 0 43.849815854287954 -49.107337737143098 0 -49.107337737143098 366.69434120766527 0 0 0 0 138.47970036610968 -346.369608054938 0 -346.369608054938 606.69334457609511 0 0 0 0 232.52761957754228 -269.32538476592163 0 -269.32538476592163 261.65411022505941 0 0 0 0 -280.74383400098964 75.689606811161866 0 75.689606811161866 7.4889891478233039 0 0 0 0 2.0232044434110499 9.5528353051762025 0 9.5528353051762025 22.903072831220868 0 0 0 0 -92.485011157106726 20.78167246581819 0 20.78167246581819 35.906924036542478 0 0 0 0 -114.68123474450931 46.515725732882856 0 46.515725732882856 6.8728567343519558 0 0 0 0 -143.84190474731622 -8.2315623437498289 0 -8.2315623437498289 50.194307969803049 0 0 0 0 -91.837612799537141 64.975635274453737 0 64.975635274453737 13.069916888853186 0 0 0 0 120.5142590132532 -93.920540625342255 0 -93.920540625342255 46.73062787220988 0 0 0 0 219.02861372828255 -108.92433497862112 0 -108.92433497862112 49.014910555735696 0 0 0 0 4.560900974985973 14.018794959466888 0 14.018794959466888 31.102420851031951 0 0 0 0 132.9399158969768 49.690034067829401 0 49.690034067829401 85.336079442167829 0 0 0 0 15.479064787606831 -134.51695461506279 0 -134.51695461506279 514.07253189524636 0 0 0 0 201.06983556693444 -213.37439071241897 0 -213.37439071241897 158.97483672300586 0 0 0 0 76.343039541738108 -348.9573241261387 0 -348.9573241261387 993.96464371892216 0 0 0 0 57.620502921099614 -260.33996658242904 0 -260.33996658242904 601.35175062478811 0 0 0 0 103.07636550478492 -264.09302655781357 0 -264.09302655781357 421.70057511951018 0 0 0 0 341.52536742314237 -308.62544323245447 0 -308.62544323245447 476.5121713472181 0 0 0 0 275.36107647791005 20.522086191762355 0 20.522086191762355 517.8287418879554 0 0 0 0 127.38954222270058 -80.740435908388463 0 -80.740435908388463 261.66530880732898 0 0 0 0 36.207374895100429 -238.47099405427434 0 -238.47099405427434 664.78331557083584 0 0 0 0 24.911348299083784 -213.39770591456909 0 -213.39770591456909 610.98062884951287 0 0 0 0 -157.23585510486441 -410.78952313027912 0 -410.78952313027912 1344.9540669597045 0 0 0 0 2.2968806226504044 4.4677797876525602 0 4.4677797876525602 5.9497499862552559 0 0 0 0 96.156659857104529 -199.70782039280311 0 -199.70782039280311 608.35498261690373 0 0 0 0 20.993988977980734 53.687571821239544 0 53.687571821239544 303.6931316272894 0 0 0 0 118.3592387505214 -170.52029880712507 0 -170.52029880712507 90.294853251602035 0 0 0 0 -67.726491449431705 -61.210520178789011 0 -61.210520178789011 64.802212259543012 0 0 0 0 108.15617586541748 -84.410193643670937 0 -84.410193643670937 261.01040924829613 0 0 0 0 -79.892747318579836 -178.14029686052345 0 -178.14029686052345 55.818262127235357 0 0 0 0 -121.23925064900641 -35.130408105909737 0 -35.130408105909737 773.57437838174974 0 0 0 0 -264.87545642267133 -112.97725833247114 0 -112.97725833247114 153.03412750329881 0 0 0 0 -251.12553940556836 -256.24626908578693 0 -256.24626908578693 397.57569083794078 0 0 0 0 -133.67964941659943 -19.440731729664549 0 -19.440731729664549 -42.594544307998149 0 0 0 0 -301.16722532345921 462.35174782485774 0 462.35174782485774 350.51025253227203 0 0 0 0 4.4185079338472333 11.392621978929796 0 11.392621978929796 13.326013830058713 0 0 0 0 24.091698231012742 154.48554161074571 0 154.48554161074571 480.06223260037586 0 0 0 0 -217.19267512033116 418.01475946457867 0 418.01475946457867 -430.08827382119489 0 0 0 0 14.848891105866642 17.5055862131303 0 17.5055862131303 -6.0652403030198911 0 0 0 0 3.5986639040172097 11.041126912808195 0 11.041126912808195 20.833989136509388 0 0 0 0 -0.90698808342134374 0.12863483646198404 0 0.12863483646198404 7.3049116611129534 0 0 0 0 360.32415981440499 -567.83922256961523 0 -567.83922256961523 627.95265853614546 0 0 0 0 68.079142771260308 -13.685249491802097 0 -13.685249491802097 5.6883199878939195 0 0 0 0 29.23430516157805 -333.07110395743075 0 -333.07110395743075 677.4034943309307 0 0 0 0 279.04267048305064 -387.2456676501024 0 -387.2456676501024 255.33221624385624 0 0 0 0 -69.123541060651405 51.392563096924277 0 51.392563096924277 214.30103950741841 0 0 0 0 3.1306898505663208 6.1886575436720719 0 6.1886575436720719 12.799598584547795 0 0 0 0 -12.044793280359954 -37.29652344819624 0 -37.29652344819624 25.296222304528783 0 0 0 0 -247.83638360145119 198.09932300322544 0 198.09932300322544 -56.828172110668675 0 0 0 0 -269.45828984854279 39.767774266278138 0 39.767774266278138 398.8972014850151 0 0 0 0 -157.52678079637781 -198.68579100859642 0 -198.68579100859642 205.5672980893869 0 0 0 0 -114.9368271121931 -31.418306240590027 0 -31.418306240590027 87.046347999683348 0 0 0 0 84.88055525739901 -168.28422554628924 0 -168.28422554628924 169.55503864282946 0 0 0 0 59.922908482897583 151.82341897646256 0 151.82341897646256 89.585670298409241 0 0 0 0 -203.95167742119884 116.75860458214083 0 116.75860458214083 111.50441225713439 0 0 0 0 23.319600665799499 -4.187192097226216 0 -4.187192097226216 30.82716208412603 0 0 0 0 -1.3893923052079695 7.0674337514066963 0 7.0674337514066963 27.411184984872534 0 0 0 0 17.943812020008409 -7.1257360696326941 0 -7.1257360696326941 38.102823738212464 0 0 0 0 72.135705085840527 54.054895415971259 0 54.054895415971259 -94.987974343897804 0 0 0 0 11.138842103397572 5.4066255505617988 0 5.4066255505617988 11.529472420871372 0 0 0 0 193.81531877653151 -173.27741501323908 0 -173.27741501323908 31.953632626886247 0 0 0 0 -48.544481713756795 80.808040598501975 0 80.808040598501975 338.21558175657992 0 0 0 0 52.680210593302945 176.52213337519061 0 176.52213337519061 -100.0794780583019 0 0 0 0 9.0581420250230344 9.7038767030504829 0 9.7038767030504829 14.659920520039037 0 0 0 0 23.858257449093344 -168.61889664198316 0 -168.61889664198316 210.71661174421024 0 0 0 0 98.784136048280743 -217.82619521436573 0 -217.82619521436573 241.88817103708061 0 0 0 0 56.467344827246052 -47.750603069049248 0 -47.750603069049248 528.90706124861026 0 0 0 0 67.347880903742407 -313.78928867636569 0 -313.78928867636569 477.61401426351404 0 0 0 0 28.902300867855558 -358.13362255132552 0 -358.13362255132552 622.836469382426 0 0 0 0 55.454177389966389 -422.79005389304166 0 -422.79005389304166 897.53716103096667 0 0 0 0 -52.881128071803687 478.69751662838826 0 478.69751662838826 181.72048674774123 0 0 0 0 0.25946219420353955 2.9357657106259651 0 2.9357657106259651 9.5807995030478423 0 0 0 0 471.76325533087584 -532.32367524858637 0 -532.32367524858637 538.36442989259376 0 0 0 0 426.9380363980431 -748.2646471770604 0 -748.2646471770604 846.15492798043124 0 0 0 0 163.55634056018516 -60.541962450064602 0 -60.541962450064602 544.34111762064276 0 0 0 0 139.24391588434241 -123.5115781345994 0 -123.5115781345994 1261.0930226074561 0 0 0 0 521.76490593298468 -475.84336341245921 0 -475.84336341245921 385.87055839085951 0 0 0 0 570.96824000235756 -2.7190896560859983 0 -2.7190896560859983 213.13446768946596 0 0 0 0 49.850586214855866 -311.46569221018581 0 -311.46569221018581 345.38992139003676 0 0 0 0 -130.7151709474474 380.9066971882221 0 380.9066971882221 359.50652819868992 0 0 0 0 -44.727151227563809 133.26414740095061 0 133.26414740095061 783.92684668403672 0 0 0 0 -72.541565329705918 -8.4677259422751376 0 -8.4677259422751376 130.61573094588312 0 0 0 0 -202.74000468235022 213.24572479635162 0 213.24572479635162 364.15190722726402 0 0 0 0 -452.84769034834062 173.69836952210244 0 173.69836952210244 219.20134873221104 0 0 0 0 15.47533227924032 -364.89482451487493 0 -364.89482451487493 -225.60783758788602 0 0 0 0 -237.68531057733708 -439.26765901763792 0 -439.26765901763792 641.25299443288532 0 0 0 0 -49.560005313962392 -456.89253533590818 0 -456.89253533590818 201.30935426904762 0 0 0 0 33.004163789929407 -251.66077781569038 0 -251.66077781569038 154.50715162945562 0 0 0 0 243.72072985190607 -33.15417721747508 0 -33.15417721747508 249.83295274816555 0 0 0 0 222.65095494650632 -370.06207272536267 0 -370.06207272536267 194.85514577337744 0 0 0 0 91.520917297659253 -330.50027900563873 0 -330.50027900563873 267.49662216290017 0 0 0 0 91.104247279667106 -129.20197651229682 0 -129.20197651229682 -13.923060474793601 0 0 0 0 -78.6360002014153 -55.99879622561275 0 -55.99879622561275 237.21699238749625 0 0 0 0 93.036198285840825 -392.51243644528284 0 -392.51243644528284 -86.896842440837645 0 0 0 0 7.2726153932014199 -2.8691554602968665 0 -2.8691554602968665 0.97392333675441023 0 0 0 0 -95.936779449722962 1159.0832760748744 0 1159.0832760748744 -802.18204280655482 0 0 0 0 -95.996556754565518 -43.617374342386029 0 -43.617374342386029 740.94071344497206 0 0 0 0 -353.6777070201324 -259.77671752338574 0 -259.77671752338574 72.205171307956334 0 0 0 0 3.3555787901929652 -26.54400055550456 0 -26.54400055550456 148.75647379604248 0 0 0 0 2.2649384928063228 -79.905891163407432 0 -79.905891163407432 38.884617005140171 0 0 0 0 35.663791459283857 -1.6854691451590043 0 -1.6854691451590043 25.319626544136554 0 0 0 0 97.495731110552668 1.1782527610041882 0 1.1782527610041882 -45.314346870669397 0 0 0 0 19.905035032656173 -9.726619577304902 0 -9.726619577304902 7.1808784473960259 0 0 0 0 1.4905965511344352 -2.3013944785243723 0 -2.3013944785243723 3.4409423803215873 0 0 0 0 22.977253670405048 -31.620162956307468 0 -31.620162956307468 -25.534985623642569 0 0 0 0 29.957864425411344 -47.375024532408133 0 -47.375024532408133 -5.3031740649021231 0 0 0 0 6.6381432604357542 -79.4036951333037 0 -79.4036951333037 -9.2551492240017978 0 0 0 0 24.121554046185338 -70.511323359212838 0 -70.511323359212838 -30.924717378609785 0 0 0 0 7.2080833255895413 -71.014881094233715 0 -71.014881094233715 20.100157246997696 0 0 0 0 15.59888229103862 -53.281805168597202 0 -53.281805168597202 28.076172218468855 0 0 0 0 -1.620511865183289 -60.442709680079133 0 -60.442709680079133 48.259045055121533 0 0 0 0 4.4185172339899506 -16.538456254485375 0 -16.538456254485375 104.00425914940439 0 0 0 0 -36.953207048813056 -66.333031788162771 0 -66.333031788162771 72.245550592590007 0 0 0 0 -1.4443881220761341 -60.942599361274461 0 -60.942599361274461 39.011905546722119 0 0 0 0 362.06195750686697 -464.85475174694238 0 -464.85475174694238 264.03491359184409 0 0 0 0 2002.6856609715887 1145.0697540282417 0 1145.0697540282417 -494.90845158607044 0 0 0 0 5.3993195422569853 -1.4842426809652665 0 -1.4842426809652665 20.055418072248802 0 0 0 0 1242.0370020173982 -1410.8139298362948 0 -1410.8139298362948 1362.0193290113748 0 0 0 0 2998.1038732352572 3068.2972227864248 0 3068.2972227864248 3215.013490510064 0 0 0 0 6.9217553980650894 -0.41561024286269088 0 -0.41561024286269088 24.337433402313806 0 0 0 0 -929.54378421542276 -834.26400216780894 0 -834.26400216780894 4991.8865107480233 0 0 0 0 -392.54179651598622 -234.91366721355735 0 -234.91366721355735 2263.3355785029125 0 0 0 0 331.84266149110636 -793.96220710707348 0 -793.96220710707348 696.91141800180776 0 0 0 0 175.53865441469827 282.15085699814517 0 282.15085699814517 66.73489649775729 0 0 0 0 525.86140187536535 -189.41413898649625 0 -189.41413898649625 -205.05208759638481 0 0 0 0 7.2617082581848402 -9.05407775690162 0 -9.05407775690162 15.476921009281263 0 0 0 0 18.37648597151383 -49.369832447715453 0 -49.369832447715453 53.082542929743795 0 0 0 0 -18.043379323840554 -40.549159196227265 0 -40.549159196227265 105.46960548893549 0 0 0 0 -1.5531800192392597 -15.286123621980423 0 -15.286123621980423 -1.0403807174079205 0 0 0 0 11.179992011221202 -59.665005033775742 0 -59.665005033775742 65.030387646809686 0 0 0 0 1.462439934417489 -17.895644209929742 0 -17.895644209929742 -168.14442915991822 0 0 0 0 -70.593842143076046 -55.433872482363768 0 -55.433872482363768 165.25053796088469 0 0 0 0 44.393496562976907 -454.36871997168055 0 -454.36871997168055 147.56786060193554 0 0 0 0 -4.9990182339255913 -7.9772113583415702 0 -7.9772113583415702 8.9105975283329144 0 0 0 0 -404.0330935294171 -341.35701205332589 0 -341.35701205332589 850.33004661906307 0 0 0 0 436.91779615793928 -80.045351537628449 0 -80.045351537628449 -119.0153966491489 0 0 0 0 -129.55796847785427 -348.94312539177918 0 -348.94312539177918 238.74570287371171 0 0 0 0 -156.00823633578511 463.72814895466581 0 463.72814895466581 779.49021382641149 0 0 0 0 -965.67292777821444 724.20138213929386 0 724.20138213929386 4993.1993851075094 0 0 0 0 -944.31384326296939 32.026675296510803 0 32.026675296510803 2254.8152378333953 0 0 0 0 -250.25957037698947 13.133441024001513 0 13.133441024001513 1381.9875194903871 0 0 0 0 644.58610764311447 1616.3009834360055 0 1616.3009834360055 1968.019895069956 0 0 0 0 1185.8913510657801 -3523.4103002081338 0 -3523.4103002081338 4993.6320170888321 0 0 0 0 4.4668046968166708 3.433531933076722 0 3.433531933076722 19.675508474194999 0 0 0 0 1097.0815980011571 822.43004137014577 0 822.43004137014577 361.51344448786404 0 0 0 0 -301.6668949089094 -122.64542905983399 0 -122.64542905983399 139.73316160817194 0 0 0 0 9.8293275787588783 -25.295375478813838 0 -25.295375478813838 -6.2310620516250594 0 0 0 0 7.5829446801882643 -1.4094189710539879 0 -1.4094189710539879 51.799814327580464 0 0 0 0 103.85975127665097 -30.664753595701768 0 -30.664753595701768 -90.486062911884801 0 0 0 0 -2.0624020780534567 -10.669503227248583 0 -10.669503227248583 15.826097226235248 0 0 0 0 215.2240004364005 -402.63472689480113 0 -402.63472689480113 58.89216658584337 0 0 0 0 537.06568230952303 214.43776188758056 0 214.43776188758056 315.22756141078571 0 0 0 0 -28.429491808392413 -102.84515156021371 0 -102.84515156021371 76.541445484108408 0 0 0 0 1.569074027762257 -43.579604004817739 0 -43.579604004817739 34.488859728040268 0 0 0 0 -2.6648793317758557 -27.609403954603209 0 -27.609403954603209 11.003945949866875 0 0 0 0 1.2651598967797533 -17.719143608590585 0 -17.719143608590585 28.750360362677895 0 0 0 0 -0.65806122379035514 -25.179132922654389 0 -25.179132922654389 21.810812759766122 0 0 0 0 -1.4155811201562756 -76.737871035496937 0 -76.737871035496937 54.028789074218366 0 0 0 0 -3.9750554133663543 -48.178922239032133 0 -48.178922239032133 86.125390537427478 0 0 0 0 5.586033045675606 -54.896954425279546 0 -54.896954425279546 86.170041497447528 0 0 0 0 6.0715129327578552 -61.828181054918105 0 -61.828181054918105 39.532375218652305 0 0 0 0 6.8163203862148656 -35.342502504183273 0 -35.342502504183273 32.039225180170007 0 0 0 0 6.8861005695712265 -31.966871619173617 0 -31.966871619173617 11.34281518010539 0 0 0 0 2.949768439287709 -38.856802524176601 0 -38.856802524176601 29.284148615519371 0 0 0 0 14.961515647174565 -47.574779368387681 0 -47.574779368387681 43.905373918372788 0 0 0 0 16.139095479854348 -57.556711415182008 0 -57.556711415182008 37.114325204966008 0 0 0 0 -8.4399026826522281 -24.954832534343808 0 -24.954832534343808 26.704640746009829 0 0 0 0 21.702392570751499 -41.877571370210262 0 -41.877571370210262 28.333544724344392 0 0 0 0 17.224205018799694 -12.488850401015952 0 -12.488850401015952 30.661986330655054 0 0 0 0 22.353628282750456 -19.235942753828041 0 -19.235942753828041 21.760693795353959 0 0 0 0 17.2453192071589 -9.4097070062998682 0 -9.4097070062998682 31.084659141110023 0 0 0 0 -106.98003638965201 -113.49848560956889 0 -113.49848560956889 164.01500285268412 0 0 0 0 -120.0745843866826 3.8874042756988274 0 3.8874042756988274 105.07504685624735 0 0 0 0 -0.13367505315100914 -1.37469059173754 0 -1.37469059173754 38.823553564113013 0 0 0 0 16.942313163855943 -11.524441149755148 0 -11.524441149755148 33.199142474884866 0 0 0 0 465.45854566349936 -1945.7524196926825 0 -1945.7524196926825 4998.9577623669984 0 0 0 0 -1.0807360954388514 -194.63437418805552 0 -194.63437418805552 162.17555566133524 0 0 0 0 159.07021672987366 -190.61937913623115 0 -190.61937913623115 68.131804760851082 0 0 0 0 -1.3976426639990112 -3.246049994032802 0 -3.246049994032802 5.8550112360650814 0 0 0 0 -5.3811751337345868 19.216435275084223 0 19.216435275084223 100.59607775695622 0 0 0 0 -4.3582022486802998 -67.245092503981141 0 -67.245092503981141 273.08030082003825 0 0 0 0 -40.082617990445669 -188.29462842169596 0 -188.29462842169596 202.89371989662868 0 0 0 0 -8.1808262097806548 -3.2520906892109309 0 -3.2520906892109309 9.4863424136184875 0 0 0 0 -23.132334100141634 -93.221582593279891 0 -93.221582593279891 -19.197731406682578 0 0 0 0 2012.0161655271058 -425.5096494127647 0 -425.5096494127647 37.914490516981459 0 0 0 0 1093.0870389971046 -470.88844222760235 0 -470.88844222760235 741.72292048517556 0 0 0 0 -10.11465966293458 -10.285103369409171 0 -10.285103369409171 -1.7047965338201152 0 0 0 0 9.0726792288878642 -19.498032252755365 0 -19.498032252755365 -5.130545923137106 0 0 0 0 1759.1299099184398 -616.29071342338284 0 -616.29071342338284 81.506963946249016 0 0 0 0 101.569517859592 -55.821921079113963 0 -55.821921079113963 42.071078030450735 0 0 0 0 12.069656959256463 -45.063769744941965 0 -45.063769744941965 62.876027027319651 0 0 0 0 -24.06726303707585 -22.405752045636277 0 -22.405752045636277 36.341932589444781 0 0 0 0 -2.341559014926025 -35.258524775931313 0 -35.258524775931313 44.877872413161754 0 0 0 0 22.2344207343574 76.38433958382484 0 76.38433958382484 3826.2202830423412 0 0 0 0 -2031.1196266269121 647.61945251211 0 647.61945251211 -49.215814123002929 0 0 0 0 2250.0840968747352 -737.36909775707318 0 -737.36909775707318 218.12667550183505 0 0 0 0 19.078395094139573 -14.511739789368789 0 -14.511739789368789 18.166617598752381 0 0 0 0 2168.5973217699157 -3106.5811859868518 0 -3106.5811859868518 3969.7918086370482 0 0 0 0 -0.83626034918637004 -3.4452733350996994 0 -3.4452733350996994 11.341189041583135 0 0 0 0 2867.3613751458784 -1892.750681351883 0 -1892.750681351883 5222.8860642758518 0 0 0 0 1030.7526299837687 -2982.175466660141 0 -2982.175466660141 5661.4973100594725 0 0 0 0 3314.3380436032448 -2521.1568397384171 0 -2521.1568397384171 1295.3103970723751 0 0 0 0 3203.0562848862883 -1670.7188744610685 0 -1670.7188744610685 548.79066208089353 0 0 0 0 2308.789507612737 -1453.4081316300767 0 -1453.4081316300767 1482.6240079176787 0 0 0 0 2240.1454589476798 -456.64694035932189 0 -456.64694035932189 68.770957731292583 0 0 0 0 814.47764637472505 -2235.672078736352 0 -2235.672078736352 2444.422023858162 0 0 0 0 693.95975018443096 -1726.0945461880037 0 -1726.0945461880037 2967.9463344687101 0 0 0 0 -1.1146323539633418 -2.4961817368241555 0 -2.4961817368241555 8.2796396576967481 0 0 0 0 380.27785134236484 -2363.6351320245521 0 -2363.6351320245521 3868.6910423967347 0 0 0 0 803.03944942645114 -1854.5302417660387 0 -1854.5302417660387 1504.7242047813634 0 0 0 0 364.0392068112385 -1636.5935054041838 0 -1636.5935054041838 2447.3199614620667 0 0 0 0 731.99910874591285 -1432.415608266685 0 -1432.415608266685 406.12244219316199 0 0 0 0 727.26008465296252 -2319.2615255097344 0 -2319.2615255097344 2221.2915588740434 0 0 0 0 9.3802833433201158 -347.20182590986224 0 -347.20182590986224 608.53030647059495 0 0 0 0 -4.4801179906393784 -2.1895964603247791 0 -2.1895964603247791 -0.48339055194867342 0 0 0 0 936.146928630292 -1018.2560635065529 0 -1018.2560635065529 774.93359952121682 0 0 0 0 223.5020426208834 -1030.5438629576893 0 -1030.5438629576893 1672.1210680739387 0 0 0 0 520.98684427477679 -1294.710745666227 0 -1294.710745666227 554.77845607874406 0 0 0 0 -126.32627995304847 212.8907394809703 0 212.8907394809703 252.07568102031109 0 0 0 0 27.935952417625451 12.561926263361469 0 12.561926263361469 5.2675510059939334 0 0 0 0 29.300662452934375 314.57930354241944 0 314.57930354241944 84.970497484279804 0 0 0 0 648.96903680940432 -72.567382060140517 0 -72.567382060140517 81.791386710989173 0 0 0 0 -18.668173241467343 450.43725370387983 0 450.43725370387983 795.75919221963977 0 0 0 0 0.48624836338857547 -1.6407189867534342 0 -1.6407189867534342 2.9565196015442794 0 0 0 0 25.698202937389397 -404.94822405029845 0 -404.94822405029845 268.82633655265818 0 0 0 0 -109.36016561029123 -231.11292499384763 0 -231.11292499384763 806.49571670769365 0 0 0 0 -466.25690753983736 -629.88847510041887 0 -629.88847510041887 435.95275368876901 0 0 0 0 -170.10535039100526 152.65577076695126 0 152.65577076695126 8.5646694252172892 0 0 0 0 140.70928774408458 150.59269454805781 0 150.59269454805781 -435.77482542576763 0 0 0 0 -144.77661402140427 -240.79339511680155 0 -240.79339511680155 823.93814742346649 0 0 0 0 2.4706440060539636 2.9868825224495978 0 2.9868825224495978 2.381728572535641 0 0 0 0 35.285156509525308 11.172871093392137 0 11.172871093392137 4.2239813482668112 0 0 0 0 40.824032211548015 8.8666399262476148 0 8.8666399262476148 1.5741641138017268 0 0 0 0 199.60027214104048 -0.3254504506039666 0 -0.3254504506039666 -519.81900640175445 0 0 0 0 -0.48793944636737852 -2.8048154854249461 0 -2.8048154854249461 0.20037940538434462 0 0 0 0 22.535368429285086 -57.460372881376998 0 -57.460372881376998 -124.15770781805259 0 0 0 0 258.76750933533185 209.98646667339017 0 209.98646667339017 95.05926669531982 0 0 0 0 32.482315898310503 251.7846242280757 0 251.7846242280757 57.342865575817996 0 0 0 0 282.21973992347012 114.46934751575554 0 114.46934751575554 63.906980576447495 0 0 0 0 26.073872814612514 322.76473177273692 0 322.76473177273692 621.92263254402496 0 0 0 0 127.05829339428055 56.888486812598785 0 56.888486812598785 567.38506074105862 0 0 0 0 237.62628174633937 -323.1742095184818 0 -323.1742095184818 1095.8547170351176 0 0 0 0 693.41028282773641 29.279938741166461 0 29.279938741166461 493.60383920062486 0 0 0 0 223.05083871615352 400.61187290790531 0 400.61187290790531 1132.4130552115596 0 0 0 0 97.867249361085669 151.37627477689466 0 151.37627477689466 638.38671229250394 0 0 0 0 34.442374016814028 255.66215974196348 0 255.66215974196348 600.06768237559675 0 0 0 0 43.405732841203644 230.70267306940968 0 230.70267306940968 253.94305507999456 0 0 0 0 -53.702996436943977 145.48701119293219 0 145.48701119293219 289.8649070245483 0 0 0 0 -71.333632867976348 317.3859767939316 0 317.3859767939316 601.01274387888407 0 0 0 0 126.51921506494364 317.47308323792868 0 317.47308323792868 599.48320569437055 0 0 0 0 183.02005234738863 280.2384520241867 0 280.2384520241867 359.82600912544967 0 0 0 0 111.9321335845334 181.39452546936718 0 181.39452546936718 243.13779552370579 0 0 0 0 718.23773422012709 672.86991031226353 0 672.86991031226353 443.68360302325891 0 0 0 0 -40.214059040546125 312.72488150359015 0 312.72488150359015 1196.2854013885899 0 0 0 0 -770.0673497561429 -164.93704491026438 0 -164.93704491026438 290.40848551775707 0 0 0 0 -175.69018709476461 -4.6193914064256205 0 -4.6193914064256205 55.756171882065246 0 0 0 0 -834.52662046994806 -162.81954797450089 0 -162.81954797450089 324.99060657843074 0 0 0 0 125.26001510641223 -360.78596455363424 0 -360.78596455363424 17.701928996939387 0 0 0 0 340.80639801034704 -526.24846295926818 0 -526.24846295926818 278.71891631403469 0 0 0 0 3.3932754252885511 -31.532227622219168 0 -31.532227622219168 179.88904219556139 0 0 0 0 -669.60128454114238 -505.72687307549495 0 -505.72687307549495 1805.7038291042554 0 0 0 0 -566.67061529824332 -11.603609785131994 0 -11.603609785131994 249.3409085595431 0 0 0 0 -326.76221215349869 -653.37398288035183 0 -653.37398288035183 137.68792832874897 0 0 0 0 3.7591643371676202 -31.244602703397106 0 -31.244602703397106 176.25834034053494 0 0 0 0 264.62901298921633 694.03787620515368 0 694.03787620515368 598.31483623450913 0 0 0 0 332.16114198212381 427.67877017560386 0 427.67877017560386 269.65857200653778 0 0 0 0 597.07241030478122 -75.489172506913746 0 -75.489172506913746 39.708765211832542 0 0 0 0 11.161605896599095 4.7915906211148354 0 4.7915906211148354 2.7637200573645906 0 0 0 0 441.64020255689661 281.75608978372929 0 281.75608978372929 94.415082011617869 0 0 0 0 843.44232358585532 206.57769681693571 0 206.57769681693571 108.37976097254796 0 0 0 0 30.515826535551696 -55.943826804294986 0 -55.943826804294986 267.30488453531507 0 0 0 0 1.1634282716380806 -3.3711397237367997 0 -3.3711397237367997 6.4164898591078838 0 0 0 0 421.96605297250096 283.46891343062816 0 283.46891343062816 560.58236867995765 0 0 0 0 -103.42766926459944 135.72724507291969 0 135.72724507291969 1181.973648354282 0 0 0 0 154.51935730089025 691.73852517888736 0 691.73852517888736 1690.2909072501152 0 0 0 0 0.92863521454560494 -2.1588820201979004 0 -2.1588820201979004 6.9301613321717284 0 0 0 0 54.657440603940813 397.07850212760968 0 397.07850212760968 1282.0786626907829 0 0 0 0 -327.84877058831154 -26.312213397492542 0 -26.312213397492542 306.32033557203613 0 0 0 0 388.24282510387081 341.24765108649899 0 341.24765108649899 402.557698285078 0 0 0 0 579.82120734674459 695.85880185466885 0 695.85880185466885 521.97498528109281 0 0 0 0 395.38253643243661 516.54205413181262 0 516.54205413181262 1028.0090209859045 0 0 0 0 903.87832397798002 944.69974975839432 0 944.69974975839432 684.19073510504313 0 0 0 0 769.42263788387118 410.09084313808307 0 410.09084313808307 -237.22714933612951 0 0 0 0 617.68955187035635 1205.508636530456 0 1205.508636530456 1036.5029375412014 0 0 0 0 848.81831061704997 992.13675011727173 0 992.13675011727173 1667.4122403393339 0 0 0 0 -0.79409877941664941 -0.52623760964108612 0 -0.52623760964108612 5.5982336785584721 0 0 0 0 2824.0941431044362 3189.194818183918 0 3189.194818183918 2268.2563156307151 0 0 0 0 282.26670210658307 1403.1702002435732 0 1403.1702002435732 3084.7965311645239 0 0 0 0 544.39131960184079 1707.3605787301801 0 1707.3605787301801 3054.6502074483469 0 0 0 0 -481.60227469919499 1247.9984585606244 0 1247.9984585606244 4999.8549171530285 0 0 0 0 1671.4942824739251 2800.8968374345241 0 2800.8968374345241 4992.8062051729794 0 0 0 0 564.55251622455978 1468.2949308921943 0 1468.2949308921943 3408.463127781406 0 0 0 0 6.1343404752559536 848.31645734703216 0 848.31645734703216 2779.6933437955777 0 0 0 0 -656.10344029392911 613.30071840811615 0 613.30071840811615 2873.8372948652468 0 0 0 0 -936.97148824733699 181.90276879582007 0 181.90276879582007 5000.8118774763516 0 0 0 0 -718.01410098246345 -361.07545369707077 0 -361.07545369707077 2376.1338303943539 0 0 0 0 -673.68585603522195 -1914.9076541127902 0 -1914.9076541127902 4988.1901973175882 0 0 0 0 -276.35614032244791 -283.02923183649273 0 -283.02923183649273 2376.9887222098259 0 0 0 0 -766.18648812444042 -267.74820613211523 0 -267.74820613211523 2806.4043040195447 0 0 0 0 -340.55001029250138 412.31087636685515 0 412.31087636685515 2678.7839507867548 0 0 0 0 -337.25164287053371 120.68823194284914 0 120.68823194284914 1427.4182327194667 0 0 0 0 -64.726862929069227 33.564189458012834 0 33.564189458012834 854.09241150023081 0 0 0 0 -75.985063355273496 82.948059339726456 0 82.948059339726456 1035.2691240847162 0 0 0 0 -96.208479840021113 -141.39552485245096 0 -141.39552485245096 988.12598407772748 0 0 0 0 -96.731789346044494 -202.87992748535044 0 -202.87992748535044 741.59923961596724 0 0 0 0 -166.4023515559702 104.56539653281652 0 104.56539653281652 1425.9839647714211 0 0 0 0 36.14694310572412 277.28495678379795 0 277.28495678379795 429.122808095246 0 0 0 0 639.13988145007647 -103.87551940535832 0 -103.87551940535832 150.68448860488934 0 0 0 0 -581.88474839194669 -224.82438128540161 0 -224.82438128540161 1348.6393390568492 0 0 0 0 -129.12433430982867 -462.67827327415262 0 -462.67827327415262 1295.012235851962 0 0 0 0 -365.95351028242391 0.47349849172769609 0 0.47349849172769609 1449.587933539091 0 0 0 0 -108.00870890809561 -51.474801971068928 0 -51.474801971068928 1429.4074821131144 0 0 0 0 -174.01877901450342 -1026.656539749838 0 -1026.656539749838 2809.1280259919276 0 0 0 0 3.098223985936492 -7.3966044588389099 0 -7.3966044588389099 11.711560043195874 0 0 0 0 -713.35790698623282 203.92600901158153 0 203.92600901158153 2236.0057635109388 0 0 0 0 -533.27538893035103 743.24172098981307 0 743.24172098981307 197.94221779332111 0 0 0 0 -306.96307795994727 -1838.794753036409 0 -1838.794753036409 736.15043803222682 0 0 0 0 1.8540019071686666 -7.0588735935081468 0 -7.0588735935081468 12.803783001319466 0 0 0 0 -642.94144204619442 -98.559837885129298 0 -98.559837885129298 416.50488379630997 0 0 0 0 -1425.5802147156874 -133.05881580360995 0 -133.05881580360995 4994.681982197766 0 0 0 0 849.9697149049764 -2844.0297350102269 0 -2844.0297350102269 4986.73572905932 0 0 0 0 2213.205981630364 -768.30992857012188 0 -768.30992857012188 -212.08052599003304 0 0 0 0 13.1682912182922 -14.317919954057686 0 -14.317919954057686 26.975508447902829 0 0 0 0 310.44476511578341 -76.288015570721655 0 -76.288015570721655 -38.196987282910413 0 0 0 0 34.870789088893972 -2127.5347759270921 0 -2127.5347759270921 581.07752385286403 0 0 0 0 1296.3428115300794 2054.0337075554803 0 2054.0337075554803 3144.0587710938926 0 0 0 0 25.310690162693078 1921.4603282733715 0 1921.4603282733715 4999.6748325220924 0 0 0 0 1821.8542752895999 3103.4528617647302 0 3103.4528617647302 4996.3499120679917 0 0 0 0 813.94606707588002 1517.631703079639 0 1517.631703079639 3036.7738667725062 0 0 0 0 27.488813463316013 -45.377560207305173 0 -45.377560207305173 69.231784140550985 0 0 0 0 -146.59794531859916 -337.34293327661771 0 -337.34293327661771 -47.918703159742108 0 0 0 0 -171.21272372359232 -255.2488313380768 0 -255.2488313380768 444.80003042692442 0 0 0 0 -119.58728839922605 37.918455547996018 0 37.918455547996018 252.59328954612647 0 0 0 0 4.3259087285725641 3.4359963904788344 0 3.4359963904788344 -1.7126545350971352 0 0 0 0 -64.833922828734785 118.86609017400906 0 118.86609017400906 350.0400210950138 0 0 0 0 -59.363734703210866 35.363146187293751 0 35.363146187293751 196.87215508117288 0 0 0 0 -122.37962905618588 -34.854024555841534 0 -34.854024555841534 945.8190483942426 0 0 0 0 1096.3501254682258 -1100.0234061495598 0 -1100.0234061495598 961.27491966820344 0 0 0 0 100.16956242931587 -6.2811277711498406 0 -6.2811277711498406 905.60276069607062 0 0 0 0 192.35460086282956 -67.671749448548326 0 -67.671749448548326 144.38476924162023 0 0 0 0 317.83606069450389 242.58874997623934 0 242.58874997623934 -134.70560685393866 0 0 0 0 -165.20133222403729 -402.12018354554129 0 -402.12018354554129 692.99855282952558 0 0 0 0 -225.42682108271583 30.857116720653721 0 30.857116720653721 180.73501575986666 0 0 0 0 324.15665186452316 143.84592589793647 0 143.84592589793647 175.9289787592752 0 0 0 0 1622.8620518924238 -313.24896943753174 0 -313.24896943753174 646.85688617170672 0 0 0 0 215.28707089796444 141.20076846141092 0 141.20076846141092 -630.86052201343455 0 0 0 0 74.578946146793896 -210.68658306440557 0 -210.68658306440557 -158.07685189523181 0 0 0 0 -64.378390584464796 140.70711016756195 0 140.70711016756195 -275.88016582704586 0 0 0 0 94.04964032118005 -133.04631846642769 0 -133.04631846642769 -80.195152137168407 0 0 0 0 171.5602359975743 -210.1170868127187 0 -210.1170868127187 214.75920849581962 0 0 0 0 -76.497578740491008 64.463979595285309 0 64.463979595285309 93.689370678500381 0 0 0 0 194.88583900516642 76.06805848534168 0 76.06805848534168 -271.10091592188473 0 0 0 0 91.813104057682722 -86.881971557973884 0 -86.881971557973884 -462.0447246769188 0 0 0 0 26.657768630829988 4.5151641910692213 0 4.5151641910692213 0.15249706147321884 0 0 0 0 -9.7339642970478053 -153.87909406299377 0 -153.87909406299377 67.253488503412882 0 0 0 0 -13.307548727190351 -145.75395537661461 0 -145.75395537661461 50.142750715604052 0 0 0 0 76.673321978796594 -37.981935198787141 0 -37.981935198787141 -268.28449550683422 0 0 0 0 98.005241415965429 -33.766819191757349 0 -33.766819191757349 130.89156021224153 0 0 0 0 -20.243047574334923 -34.934638301730956 0 -34.934638301730956 725.94884555155841 0 0 0 0 81.973847103465232 -213.28823213197848 0 -213.28823213197848 327.53064068061485 0 0 0 0 -14.153642361476159 -114.41034132660707 0 -114.41034132660707 350.20394248844786 0 0 0 0 42.329684730635563 -61.645354549842523 0 -61.645354549842523 322.3256205850048 0 0 0 0 194.14854185090007 92.177790512872889 0 92.177790512872889 451.02640521121521 0 0 0 0 44.021388113995272 195.81028024398029 0 195.81028024398029 444.18298210007742 0 0 0 0 -18.53795187727701 200.27696378252131 0 200.27696378252131 632.88980701345372 0 0 0 0 -69.675968927063877 226.73101259607301 0 226.73101259607301 1125.5911362753272 0 0 0 0 353.11957640161927 47.349796036439329 0 47.349796036439329 434.61934383217249 0 0 0 0 35.520365190371649 -241.18116166632399 0 -241.18116166632399 833.07001281445264 0 0 0 0 -9.960215382633578 -132.78489280324402 0 -132.78489280324402 243.79519081210128 0 0 0 0 17.843874773167045 -121.16843199730556 0 -121.16843199730556 195.53127729725566 0 0 0 0 -28.141731191863983 -100.52982552439835 0 -100.52982552439835 186.57398537528388 0 0 0 0 -51.309639091281497 -44.888101659372296 0 -44.888101659372296 194.55490093454955 0 0 0 0 -5.1334277493351692 -90.947840335123146 0 -90.947840335123146 240.17656700943508 0 0 0 0 -63.033717890419211 -69.512964121817276 0 -69.512964121817276 311.7853297642132 0 0 0 0 -3.0032517699055461 -72.851383073925717 0 -72.851383073925717 349.87137818930933 0 0 0 0 106.30554470232164 -109.02189090121647 0 -109.02189090121647 348.81917723820152 0 0 0 0 75.40017816989257 -71.472013009128204 0 -71.472013009128204 306.4589688511478 0 0 0 0 16.84993981131629 -180.68042547349523 0 -180.68042547349523 230.08937068983505 0 0 0 0 25.015638544326066 -153.78817598609658 0 -153.78817598609658 276.80085194906223 0 0 0 0 42.312120816221523 -156.75193209142731 0 -156.75193209142731 115.9315349611461 0 0 0 0 35.273781277115631 -120.28370971905497 0 -120.28370971905497 144.24947230806629 0 0 0 0 73.691656482050348 -145.73699039291751 0 -145.73699039291751 121.07272931175976 0 0 0 0 15.864169227650564 -89.831840767274116 0 -89.831840767274116 95.387928907878631 0 0 0 0 49.094877485589677 -137.02524502344477 0 -137.02524502344477 -59.418977535049635 0 0 0 0 4.1781641761172068 -105.06926791691967 0 -105.06926791691967 58.364609839291006 0 0 0 0 47.284178679396973 -153.19660439989502 0 -153.19660439989502 58.380912982387599 0 0 0 0 42.052090453087658 -122.00615493114674 0 -122.00615493114674 86.210637444508393 0 0 0 0 -11.103932526282733 -66.105516607214668 0 -66.105516607214668 22.530432159291195 0 0 0 0 39.836910297068243 -113.41255757337603 0 -113.41255757337603 29.657279532693792 0 0 0 0 34.003003247334618 -139.49526406601444 0 -139.49526406601444 59.075484431588848 0 0 0 0 13.035959009568614 -105.31103056601205 0 -105.31103056601205 65.941487696024069 0 0 0 0 52.710205294086336 -110.53213850275642 0 -110.53213850275642 68.93504300567929 0 0 0 0 36.16063081833272 -120.18815200567133 0 -120.18815200567133 129.67326523968222 0 0 0 0 46.794578635728612 -127.36935984945922 0 -127.36935984945922 79.863597434562507 0 0 0 0 18.601397384865777 -146.55651875598869 0 -146.55651875598869 193.63749374471536 0 0 0 0 16.504223947419632 -129.38943723087823 0 -129.38943723087823 130.04978145474342 0 0 0 0 7.8852302205359592 -126.14330419610178 0 -126.14330419610178 179.70681096287763 0 0 0 0 -1.6367584352828999 -104.45350268600578 0 -104.45350268600578 136.84203129581329 0 0 0 0 30.172754466947481 -99.870853440355859 0 -99.870853440355859 86.342805180327559 0 0 0 0 26.720180154714399 -93.560537032880347 0 -93.560537032880347 138.76702958679016 0 0 0 0 1494.4116198786505 288.83384997701796 0 288.83384997701796 -279.75442011340783 0 0 0 0 -87.838698620827699 -25.072547565538116 0 -25.072547565538116 1934.37807793916 0 0 0 0 -11.845413415206341 -2.6408068271088538 0 -2.6408068271088538 20.129843150143245 0 0 0 0 -151.29341047532216 315.80910611787112 0 315.80910611787112 663.78717280965066 0 0 0 0 -373.88583073869449 2.8311051865111949 0 2.8311051865111949 227.62720746778359 0 0 0 0 -320.93512606013701 -169.8314853448519 0 -169.8314853448519 2255.2435532726522 0 0 0 0 -322.09815023995316 -161.09174913384595 0 -161.09174913384595 2210.9436837530957 0 0 0 0 52.173396694024632 -110.91895507531808 0 -110.91895507531808 74.438324704256047 0 0 0 0 46.965962129850915 -90.203944383628496 0 -90.203944383628496 30.136028721626332 0 0 0 0 -111.50051081076253 111.28885498593081 0 111.28885498593081 2078.7146169500411 0 0 0 0 -14.369529306295306 269.6859161606626 0 269.6859161606626 1613.8314142961171 0 0 0 0 -417.01830098371522 300.26496431976375 0 300.26496431976375 3098.3752837274697 0 0 0 0 -43.97497618248326 241.06617840976833 0 241.06617840976833 2323.0891349988378 0 0 0 0 -265.74283797298835 334.11490756159037 0 334.11490756159037 2348.4535019255263 0 0 0 0 -528.71855522001306 14.425368358777632 0 14.425368358777632 2501.6146665045821 0 0 0 0 -524.56688556988956 -56.019105665518509 0 -56.019105665518509 2857.2109623790675 0 0 0 0 -337.96842626248372 -118.96658547953666 0 -118.96658547953666 2281.1034900205268 0 0 0 0 -338.76798788688393 -112.05343549755344 0 -112.05343549755344 2222.3463367457152 0 0 0 0 -294.66153673846839 36.03319363389528 0 36.03319363389528 2498.0640334269265 0 0 0 0 -18.519404315819607 -8.8799270580385041 0 -8.8799270580385041 22.834999583594449 0 0 0 0 51.15952040045886 -66.941947754528883 0 -66.941947754528883 -94.094988305037987 0 0 0 0 -106.5023807660441 -152.75107577792812 0 -152.75107577792812 167.89978982858338 0 0 0 0 40.838301562986373 -74.418239940915726 0 -74.418239940915726 85.096701433981693 0 0 0 0 209.27827575758874 -79.233576705097221 0 -79.233576705097221 -196.89139508390326 0 0 0 0 37.279640276360674 -87.02022799908957 0 -87.02022799908957 27.596914812970937 0 0 0 0 41.245833251377917 -117.06747920798261 0 -117.06747920798261 69.396919461221842 0 0 0 0 282.11365475292047 523.21791240898347 0 523.21791240898347 1210.2824635019715 0 0 0 0 1.2479604869041303 -0.97749052810983983 0 -0.97749052810983983 -19.041298148340303 0 0 0 0 -239.93790182757698 407.52437029111934 0 407.52437029111934 2555.8654267953589 0 0 0 0 31.607750441826511 618.99208762620947 0 618.99208762620947 2308.8669571468854 0 0 0 0 317.93916421716102 335.06755505684305 0 335.06755505684305 1549.6016685361501 0 0 0 0 -172.7901363416097 1101.0557083008043 0 1101.0557083008043 3678.5953571348309 0 0 0 0 800.53284688375368 1389.0039886995455 0 1389.0039886995455 1973.8792483480152 0 0 0 0 -177.8262280963549 984.71852480242887 0 984.71852480242887 3042.5728357160478 0 0 0 0 -816.75197761285983 1011.6742484834258 0 1011.6742484834258 4998.6732638957983 0 0 0 0 -434.64889239713114 1118.7954776378083 0 1118.7954776378083 3679.5624604525783 0 0 0 0 -889.74686070055805 -108.74784656902921 0 -108.74784656902921 3305.9257246967936 0 0 0 0 -878.18913954769118 38.183032113641389 0 38.183032113641389 3542.1163132283982 0 0 0 0 -1009.1713690725752 259.73220685941328 0 259.73220685941328 3911.7727596032928 0 0 0 0 -987.5385448776849 385.76651536501595 0 385.76651536501595 3989.6934682014635 0 0 0 0 -1432.9658659129248 -111.37850053565307 0 -111.37850053565307 4999.4960159494622 0 0 0 0 -1367.966872950336 -692.35077056544833 0 -692.35077056544833 3835.4502501016468 0 0 0 0 -1348.2455463846197 -416.58610127428256 0 -416.58610127428256 3138.3908335935739 0 0 0 0 -1063.5621680929339 398.78813563444055 0 398.78813563444055 2194.5281030196329 0 0 0 0 -6.4745418549872706 -0.55220085425666809 0 -0.55220085425666809 8.1017328635593415 0 0 0 0 149.30040806033108 -1535.0067915664695 0 -1535.0067915664695 3400.5726785257248 0 0 0 0 -1356.9262345669836 -830.31167103078224 0 -830.31167103078224 4998.4851459058154 0 0 0 0 168.0611315670165 -1438.4754207925507 0 -1438.4754207925507 3760.0886621280697 0 0 0 0 1064.4575321402754 -2492.1764051379359 0 -2492.1764051379359 4998.6143607183549 0 0 0 0 -224.32940783602427 -508.03388299480139 0 -508.03388299480139 2476.8720074209759 0 0 0 0 -7.1984990066905192 -1.0684968181268886 0 -1.0684968181268886 12.587086270446207 0 0 0 0 556.96126476329528 -1365.240725730524 0 -1365.240725730524 1994.0610535877786 0 0 0 0 299.04606142218745 -1176.3247363769697 0 -1176.3247363769697 2802.6798144418062 0 0 0 0 333.94805202567494 -1220.59920094257 0 -1220.59920094257 1464.5033879946423 0 0 0 0 223.48500355501301 -1496.0929972671074 0 -1496.0929972671074 2459.6865673428983 0 0 0 0 341.09812306849562 -1700.6715772287171 0 -1700.6715772287171 3166.0994561370826 0 0 0 0 -12.803873930242576 -0.54621775309762199 0 -0.54621775309762199 14.625642428192492 0 0 0 0 925.15504786629117 -969.08560614446469 0 -969.08560614446469 2425.7774392673782 0 0 0 0 514.65247375190938 -1213.9222189832981 0 -1213.9222189832981 2307.1115910170629 0 0 0 0 89.440292510377162 -1321.7088136622974 0 -1321.7088136622974 2428.3308655100118 0 0 0 0 312.07241573466291 -547.77420639251159 0 -547.77420639251159 1240.6493005755328 0 0 0 0 -269.74318109589558 364.52745928713557 0 364.52745928713557 1753.0957693469245 0 0 0 0 551.40235639480693 -478.46591211233317 0 -478.46591211233317 604.11678051504714 0 0 0 0 255.24505595447391 60.152371346417567 0 60.152371346417567 -170.04806339956849 0 0 0 0 -96.702593623400389 -845.36565743864048 0 -845.36565743864048 2072.2748561133085 0 0 0 0 -296.90849259757442 -410.11162650598271 0 -410.11162650598271 1354.6684050376771 0 0 0 0 9.930141597179249 9.8115286521641565 0 9.8115286521641565 2.9003288236473175 0 0 0 0 0.18749895426115515 1.2797664468501893 0 1.2797664468501893 -0.74873741871144972 0 0 0 0 35.008747107298063 -21.383751973341532 0 -21.383751973341532 -35.524318875104655 0 0 0 0 -20.713728988754156 4.2873156788700726 0 4.2873156788700726 158.8037851280169 0 0 0 0 66.419412591806577 -78.156741974489705 0 -78.156741974489705 92.728458776460684 0 0 0 0 12.040782005946113 7.5990730210992865 0 7.5990730210992865 6.0730013486110437 0 0 0 0 8.6613566641659645 31.753068218669796 0 31.753068218669796 17.322958427168487 0 0 0 0 21.058617633749691 -14.351265944860643 0 -14.351265944860643 32.697473250686016 0 0 0 0 401.06882628495623 -85.149680223450559 0 -85.149680223450559 -73.265219374421577 0 0 0 0 0.26536816954109099 83.67428188919439 0 83.67428188919439 107.72511349072738 0 0 0 0 -6.4386476067821263 -7.3875609320311924 0 -7.3875609320311924 51.955270605507394 0 0 0 0 11.389720709606763 -8.0367894078153768 0 -8.0367894078153768 37.809570656598225 0 0 0 0 2.5231068392417431 -0.098679257582844571 0 -0.098679257582844571 5.2126814533118129 0 0 0 0 7.4267006820792849 -4.6440659649560132 0 -4.6440659649560132 25.257774979197876 0 0 0 0 537.13815910080666 -792.16172583331718 0 -792.16172583331718 1273.8652222984456 0 0 0 0 -2.5514854244229355 5.092153843746928 0 5.092153843746928 56.145575515001838 0 0 0 0 10.209125727049013 4.2390671326684242 0 4.2390671326684242 28.003011820524989 0 0 0 0 637.9891120215907 -905.32651177436856 0 -905.32651177436856 1326.047991214069 0 0 0 0 -1.1494092848333821 16.552608260979468 0 16.552608260979468 52.025316531147837 0 0 0 0 434.39729995612288 -514.75305957670207 0 -514.75305957670207 1383.8189824972142 0 0 0 0 -3.0237639877993008 1.0376753654494664 0 1.0376753654494664 0.35351799657495242 0 0 0 0 409.08013074284463 -610.41197687757813 0 -610.41197687757813 1476.2674145562196 0 0 0 0 439.46944920627197 -425.94142980222023 0 -425.94142980222023 466.47582197560405 0 0 0 0 3.9335505437038361 1.5955066324925298 0 1.5955066324925298 -0.1826032893353009 0 0 0 0 670.37508739156465 -607.94102269275027 0 -607.94102269275027 555.17210096318377 0 0 0 0 9.513774003412891 -306.71947237111453 0 -306.71947237111453 1282.9799126563885 0 0 0 0 -342.7557734860693 -186.25914352849213 0 -186.25914352849213 2289.8837792454433 0 0 0 0 -326.52198482007475 -807.02437989012105 0 -807.02437989012105 3352.2624788504618 0 0 0 0 -515.10627242911187 -345.42829984281343 0 -345.42829984281343 2313.4090346049179 0 0 0 0 -473.68679706832881 -245.44674633440081 0 -245.44674633440081 2533.4303470958075 0 0 0 0 396.56099671356515 -2054.3901723218114 0 -2054.3901723218114 4325.686049533062 0 0 0 0 1063.0987036499837 -1461.7093840851849 0 -1461.7093840851849 2819.8844047358871 0 0 0 0 3.6423290320466357 -0.86967987268932134 0 -0.86967987268932134 3.8769078473601724 0 0 0 0 423.11282423213288 -993.33644765620193 0 -993.33644765620193 2694.8493939117179 0 0 0 0 648.00534359357243 -1109.9017402430836 0 -1109.9017402430836 1825.983459459927 0 0 0 0 9.4082047705714906 1.5557337850006832 0 1.5557337850006832 8.2250303533697604 0 0 0 0 -207.04197186130318 406.64866239123876 0 406.64866239123876 577.49140211747726 0 0 0 0 -294.4334610484093 152.4253609426014 0 152.4253609426014 -44.590519102253893 0 0 0 0 -683.34859295902174 587.89258204450016 0 587.89258204450016 4985.3674420574243 0 0 0 0 7.4009540054425242 -6.2179945822261971 0 -6.2179945822261971 8.7512273145631809 0 0 0 0 1100.6868208945289 -882.41009365575155 0 -882.41009365575155 -426.45777960679698 0 0 0 0 -412.68186902236749 -1414.2431812750692 0 -1414.2431812750692 4992.7224166107553 0 0 0 0 1202.2094565425084 -1799.3009494638172 0 -1799.3009494638172 1146.1596031969093 0 0 0 0 -134.6015166088346 -359.07996540583099 0 -359.07996540583099 1551.9094696263928 0 0 0 0 622.34655750000218 80.470348093305802 0 80.470348093305802 -338.4915541091359 0 0 0 0 -58.749760604035146 1109.2098231925484 0 1109.2098231925484 2005.3020674043291 0 0 0 0 5.2265289531018304 -10.174131370059698 0 -10.174131370059698 20.596241692866158 0 0 0 0 -71.335982346323505 -543.77149019962962 0 -543.77149019962962 227.54002538739223 0 0 0 0 -704.3894077887104 666.56918350166598 0 666.56918350166598 4234.8153467122465 0 0 0 0 -145.9705601097057 -886.95160391764512 0 -886.95160391764512 3130.2893379191955 0 0 0 0 -246.89327816421277 -1768.5585521202725 0 -1768.5585521202725 5936.8391334468906 0 0 0 0 2651.8523342890517 -1240.3983364015658 0 -1240.3983364015658 4996.6779968992341 0 0 0 0 1205.403089871686 -2747.9304295213442 0 -2747.9304295213442 3419.289340729807 0 0 0 0 -399.04809295252812 -682.71911863781861 0 -682.71911863781861 5592.6816614820127 0 0 0 0 2694.2575879093902 -1721.0454686192134 0 -1721.0454686192134 536.71828778437339 0 0 0 0 740.85167385948535 157.05483016504877 0 157.05483016504877 28.616912849960499 0 0 0 0 816.02953127185356 -1202.6403175146879 0 -1202.6403175146879 1388.8700702438873 0 0 0 0 -80.385027712357441 -371.0931421847381 0 -371.0931421847381 702.23455210330758 0 0 0 0 198.90313815817876 313.07607906517296 0 313.07607906517296 -65.822149681858718 0 0 0 0 2.0940246587823754 3.6170886821553694 0 3.6170886821553694 20.48802738351597 0 0 0 0 11.326079536614088 -9.3989842798619065 0 -9.3989842798619065 102.66493857601017 0 0 0 0 -0.56469098682828189 -19.938309842629678 0 -19.938309842629678 116.2528378310999 0 0 0 0 20.38263551120383 -13.689431026992679 0 -13.689431026992679 74.652956602083577 0 0 0 0 -0.30914470748259149 2.7649534661986621 0 2.7649534661986621 3.1989336327114017 0 0 0 0 6.4695991084020044 -13.436170115664952 0 -13.436170115664952 55.773549812266168 0 0 0 0 7.361509378302344 -17.24896360009825 0 -17.24896360009825 104.63628828286892 0 0 0 0 23.231334522759425 -30.410912079931222 0 -30.410912079931222 78.602902157206699 0 0 0 0 9.4409652697567719 -19.407253516299178 0 -19.407253516299178 51.303549265220767 0 0 0 0 3.6548827135447937 24.969736751525488 0 24.969736751525488 -1.6332567772060429 0 0 0 0 -370.55586532038706 -133.52496636106662 0 -133.52496636106662 353.38561193057467 0 0 0 0 22.371503040301832 -1.6095921083579015 0 -1.6095921083579015 65.353677291059284 0 0 0 0 16.970584526988212 3.5984835294042057 0 3.5984835294042057 11.457115945017819 0 0 0 0 10.247931884999844 -10.421434884000519 0 -10.421434884000519 84.028540184473968 0 0 0 0 18.284868400321102 -10.658199687582965 0 -10.658199687582965 74.051341062920983 0 0 0 0 4.6618956303755112 1.3939293467046809 0 1.3939293467046809 89.88046359904547 0 0 0 0 57.385655756844244 10.795595887211675 0 10.795595887211675 71.163674058028846 0 0 0 0 52.519796399175902 -15.114251902065007 0 -15.114251902065007 40.733454653915032 0 0 0 0 20.439212257628355 -11.403025389459344 0 -11.403025389459344 59.807412514877797 0 0 0 0 101.16027007550474 21.801039179466898 0 21.801039179466898 38.107047605495609 0 0 0 0 104.82646832773685 -14.524617591245715 0 -14.524617591245715 -2.7957827706704848 0 0 0 0 75.742258610665885 -24.637526118647656 0 -24.637526118647656 44.166026319089724 0 0 0 0 -11.843559354419085 18.617947142894991 0 18.617947142894991 71.51071740428597 0 0 0 0 1.4806421392693281 0.54916254116079699 0 0.54916254116079699 -0.28186735582577782 0 0 0 0 38.247152572762388 -52.052400952450625 0 -52.052400952450625 211.11521381299099 0 0 0 0 21.204979012347394 -5.8410094350183499 0 -5.8410094350183499 88.653054623064236 0 0 0 0 59.806765227663163 32.485908714053949 0 32.485908714053949 99.272055580113374 0 0 0 0 -14.382343138902797 -25.75530004112079 0 -25.75530004112079 128.00117285018496 0 0 0 0 3.8719805027998682 -1.6695728996915449 0 -1.6695728996915449 22.553624681232989 0 0 0 0 3.1195148927380174 -22.048222495508682 0 -22.048222495508682 92.005723591942598 0 0 0 0 -259.43053584615791 -148.49886943846013 0 -148.49886943846013 341.21611988323275 0 0 0 0 -30.344044036692139 -9.4147481114123366 0 -9.4147481114123366 111.61229700974945 0 0 0 0 -108.10467229704045 -45.307727600204089 0 -45.307727600204089 97.495439332018805 0 0 0 0 -53.350413329635785 245.22556693852539 0 245.22556693852539 557.24060471537814 0 0 0 0 14.352069326902512 -16.44905898237441 0 -16.44905898237441 22.29924389777084 0 0 0 0 22.921279184671221 -7.4420760661414533 0 -7.4420760661414533 47.055524779454572 0 0 0 0 46.913244868208494 -224.34138846332826 0 -224.34138846332826 -444.85024785348287 0 0 0 0 55.795284471589184 -737.14854627571185 0 -737.14854627571185 709.3777133631811 0 0 0 0 17.949853760794582 -13.734577869168369 0 -13.734577869168369 -0.51807594309263472 0 0 0 0 354.47727710884783 808.26162720717775 0 808.26162720717775 172.37719402618677 0 0 0 0 -192.52688850374216 -56.63705818609742 0 -56.63705818609742 786.31181204584573 0 0 0 0 324.79244466978071 185.53784225883646 0 185.53784225883646 106.28350431136641 0 0 0 0 373.46488481714732 -310.24960905193416 0 -310.24960905193416 266.6577559047364 0 0 0 0 0.20134208469499892 -0.91471734703333851 0 -0.91471734703333851 14.529011810092584 0 0 0 0 76.46102906635133 -41.831764985940936 0 -41.831764985940936 59.245110500076407 0 0 0 0 20.853490306106323 20.840039838953089 0 20.840039838953089 47.620337439817376 0 0 0 0 0.93577561999380254 2.5751056408665214 0 2.5751056408665214 42.208617277280169 0 0 0 0 8.1940546014739084 26.091902627793388 0 26.091902627793388 52.430462025815359 0 0 0 0 14.022286283261565 26.192118502698577 0 26.192118502698577 48.74800456907542 0 0 0 0 77.843337815211271 36.817195777319284 0 36.817195777319284 42.707314651339402 0 0 0 0 21.21223664405079 114.27445842466113 0 114.27445842466113 106.25032517541001 0 0 0 0 -83.245053663317776 48.413521914394551 0 48.413521914394551 103.52606275675862 0 0 0 0 3.707954220628487 -13.920890291919291 0 -13.920890291919291 93.05012384133984 0 0 0 0 8.1655443020881648 26.960464951860558 0 26.960464951860558 106.06530867156835 0 0 0 0 10.307763462130886 20.32271163894994 0 20.32271163894994 35.665586246162924 0 0 0 0 8.5422445409724936 14.081512753730848 0 14.081512753730848 53.568217092986728 0 0 0 0 132.66727826702891 86.084700300169061 0 86.084700300169061 -14.170676093286602 0 0 0 0 97.693304898855786 104.43856234010309 0 104.43856234010309 -43.30312297927594 0 0 0 0 3.9588857035185683 -0.10839219432503455 0 -0.10839219432503455 -0.37037972328880642 0 0 0 0 -52.077447605621728 -84.099196501496408 0 -84.099196501496408 198.46241344578448 0 0 0 0 -23.392908458443799 -59.418879453910904 0 -59.418879453910904 159.12279745055002 0 0 0 0 5.8595122351016471 -89.909925735923025 0 -89.909925735923025 159.08648634605925 0 0 0 0 -28.004296095568861 -79.349096649813873 0 -79.349096649813873 169.81265911764513 0 0 0 0 31.601256107305446 -82.661136111837081 0 -82.661136111837081 48.92367160083807 0 0 0 0 18.02978468782203 -84.128773785119847 0 -84.128773785119847 135.51719841266913 0 0 0 0 930.86679206276767 -417.63600252187825 0 -417.63600252187825 -591.47876138110223 0 0 0 0 13.947821085766009 -78.99097726471814 0 -78.99097726471814 145.57607771992843 0 0 0 0 -143.58288060182781 -294.34628138405969 0 -294.34628138405969 -474.14778011292947 0 0 0 0 40.299062476728068 -62.922108474445849 0 -62.922108474445849 -164.16483024494119 0 0 0 0 13.559818999212332 -70.54772776549747 0 -70.54772776549747 59.615973258406079 0 0 0 0 11.837462773346051 0.35182816143690587 0 0.35182816143690587 4.8260941128409982 0 0 0 0 -4.0668061361176342 83.816555135410908 0 83.816555135410908 -73.705533224194369 0 0 0 0 -3.0667590905705993 -39.544782960901102 0 -39.544782960901102 176.5445054868469 0 0 0 0 16.501095111599785 -30.495402005629423 0 -30.495402005629423 -4.6708516174276156 0 0 0 0 -54.821482549403299 52.864603237390838 0 52.864603237390838 -40.171077488394076 0 0 0 0 12.781610166993691 -11.997260704306711 0 -11.997260704306711 4.2062433275958639 0 0 0 0 -6.6325133612218838 -6.3315754056900175 0 -6.3315754056900175 26.083127044939772 0 0 0 0 10.999191077136857 -38.785409927251749 0 -38.785409927251749 58.6622620797134 0 0 0 0 292.22820261178822 189.1924651998379 0 189.1924651998379 -696.78251581232462 0 0 0 0 -146.93060297631928 112.60682143928352 0 112.60682143928352 114.49932343310502 0 0 0 0 -164.46478427472357 63.910231086972999 0 63.910231086972999 219.95175453872798 0 0 0 0 -17.821493701558211 -160.18794504286416 0 -160.18794504286416 279.76859959492663 0 0 0 0 -86.400855032414256 13.824651476563304 0 13.824651476563304 190.14158357830274 0 0 0 0 -145.72180622842734 29.670871393404013 0 29.670871393404013 286.06038222194911 0 0 0 0 -3.2939406458035587 -20.029488155936214 0 -20.029488155936214 140.64875399044269 0 0 0 0 -197.70637122499465 -7.7904299005676876 0 -7.7904299005676876 252.10041864891537 0 0 0 0 -198.2399924032502 -15.952518748061266 0 -15.952518748061266 134.40031225642997 0 0 0 0 -145.1846163849832 -5.6218883627989271 0 -5.6218883627989271 133.56184886698475 0 0 0 0 -124.78296565789742 -91.121607751108968 0 -91.121607751108968 136.149162202968 0 0 0 0 0.6100334011383679 -9.2072979043825125 0 -9.2072979043825125 120.23987032616381 0 0 0 0 -81.038738702870432 -31.226988868000262 0 -31.226988868000262 84.181127701878722 0 0 0 0 103.79303232259736 -54.295571413889775 0 -54.295571413889775 77.763893486568122 0 0 0 0 -6.331045623845057 -20.835214880370586 0 -20.835214880370586 86.736406759788224 0 0 0 0 18.978691289093149 -58.909047069073495 0 -58.909047069073495 80.760648554846739 0 0 0 0 -61.5540903001895 -21.381030006589526 0 -21.381030006589526 135.40829776944702 0 0 0 0 -63.774249762605905 13.482080547271835 0 13.482080547271835 125.37401274912213 0 0 0 0 -62.23455753789176 -16.748672471651389 0 -16.748672471651389 149.54298947148709 0 0 0 0 -20.460072394126655 -42.603653985430356 0 -42.603653985430356 136.49613580321056 0 0 0 0 -18.771626615164905 -90.377615683648173 0 -90.377615683648173 178.85288015117476 0 0 0 0 -45.888470451700869 -40.655177505054326 0 -40.655177505054326 162.95129396176526 0 0 0 0 -107.71749257381816 7.7139032676132047 0 7.7139032676132047 177.34094639378441 0 0 0 0 -74.93338630229573 -50.36402565741173 0 -50.36402565741173 210.97287979130715 0 0 0 0 -103.0739424056776 22.13425617146288 0 22.13425617146288 86.49613903707359 0 0 0 0 -45.549212712891858 175.48462740690411 0 175.48462740690411 -162.22444536184821 0 0 0 0 -52.761571441293199 7.038203126992812 0 7.038203126992812 -16.948870689900104 0 0 0 0 -88.727773796112842 76.759519478126663 0 76.759519478126663 63.796975188030046 0 0 0 0 -1.7965099757468899 -1.6906470985415929 0 -1.6906470985415929 19.623856121256161 0 0 0 0 -188.15326310716227 -45.080038473383865 0 -45.080038473383865 356.86267242631766 0 0 0 0 -54.370639280443271 21.494067746176995 0 21.494067746176995 82.76626605045567 0 0 0 0 -87.918744336331656 28.255329827224159 0 28.255329827224159 130.00411690975852 0 0 0 0 -64.590725866033608 14.956727313258853 0 14.956727313258853 125.08407521254776 0 0 0 0 -44.231565440893746 33.502930660825768 0 33.502930660825768 80.89254221439387 0 0 0 0 -21.938888010340634 14.5388896929353 0 14.5388896929353 96.327102329968511 0 0 0 0 0.57555993294470875 -6.4826864152958183 0 -6.4826864152958183 96.572073745291704 0 0 0 0 -21.531948219532751 -45.853541724508432 0 -45.853541724508432 85.070143569544371 0 0 0 0 10.873328414631942 -17.60622819784021 0 -17.60622819784021 89.731191910990674 0 0 0 0 10.101067921190406 -7.6211378181251348 0 -7.6211378181251348 119.00883536681795 0 0 0 0 0.63169907077746501 8.7399053363872241 0 8.7399053363872241 33.523961811656378 0 0 0 0 -0.75382764049106044 33.784722207699964 0 33.784722207699964 61.72563470850114 0 0 0 0 9.8330301932546718 -7.4990926412609724 0 -7.4990926412609724 119.0696484205273 0 0 0 0 120.22400541620209 140.45069192994561 0 140.45069192994561 70.477026693537482 0 0 0 0 -4.9343326861188039 -5.1446404752034054 0 -5.1446404752034054 39.062191485755172 0 0 0 0 59.082544606499994 -39.1560631872469 0 -39.1560631872469 192.97016402932786 0 0 0 0 9.3651524380743254 17.641529111601248 0 17.641529111601248 93.240097290406453 0 0 0 0 -85.356690802114827 -49.46101171954524 0 -49.46101171954524 203.20623591062213 0 0 0 0 -81.685640210729957 -50.772815327474632 0 -50.772815327474632 188.25018563716549 0 0 0 0 -3.4354184691696128 3.4281985793533405 0 3.4281985793533405 164.87764943081558 0 0 0 0 -202.45321568607937 34.143744240124761 0 34.143744240124761 454.56954319088254 0 0 0 0 243.20616719047302 -190.01409280959888 0 -190.01409280959888 89.535430959971563 0 0 0 0 -19.16561558128069 19.220622534434597 0 19.220622534434597 148.32837501165784 0 0 0 0 -19.355137230424589 45.504562927561892 0 45.504562927561892 205.57017706792419 0 0 0 0 33.395901309892906 40.179051801810601 0 40.179051801810601 198.88711088804848 0 0 0 0 54.494864282597064 48.085110686641713 0 48.085110686641713 206.19627334558845 0 0 0 0 -3.5405265015242549 95.746470542258749 0 95.746470542258749 261.5087432799337 0 0 0 0 0.16921717917621848 -0.60519391901664932 0 -0.60519391901664932 -2.7001161045037225 0 0 0 0 68.377364374273839 -171.61633730882716 0 -171.61633730882716 475.68698079433943 0 0 0 0 0.73959448505206637 12.767954515639303 0 12.767954515639303 418.26307323480341 0 0 0 0 -114.96817382214977 22.983796500649987 0 22.983796500649987 297.40562107888854 0 0 0 0 153.3467269588125 7.1146580484291917 0 7.1146580484291917 135.29391999879408 0 0 0 0 -125.52540629223222 52.729048444096406 0 52.729048444096406 146.58967373256746 0 0 0 0 -5.3636300033438644 13.461301005188997 0 13.461301005188997 85.761156085887819 0 0 0 0 -8.834626473049866 61.541163165858961 0 61.541163165858961 86.117797372833593 0 0 0 0 4.7345268593130925 28.807957537847912 0 28.807957537847912 111.06988293465881 0 0 0 0 1.0672304180937999 187.03628804379332 0 187.03628804379332 107.67489763369667 0 0 0 0 -366.49582536705202 -90.74523566202879 0 -90.74523566202879 288.81989868415985 0 0 0 0 -21.164824812854931 -110.80177796341013 0 -110.80177796341013 159.22331452371873 0 0 0 0 4.4408137591250281 6.6203188557104333 0 6.6203188557104333 94.726919824987789 0 0 0 0 4.316135704236526 21.096337010475253 0 21.096337010475253 96.635450538653743 0 0 0 0 -168.80632775741014 159.75985890398078 0 159.75985890398078 442.54880847303866 0 0 0 0 1966.8732754111406 328.86685999325709 0 328.86685999325709 63.280931113811675 0 0 0 0 79.20655668884865 117.57114682969404 0 117.57114682969404 80.814303230497899 0 0 0 0 2.8974901073660355 -5.5757061020333261 0 -5.5757061020333261 7.119694993982165 0 0 0 0 307.37145516575038 349.15919126776498 0 349.15919126776498 202.15770811490074 0 0 0 0 -115.43685588562039 -139.24710229086486 0 -139.24710229086486 243.66817440001614 0 0 0 0 -49.901442034906722 128.9066615212796 0 128.9066615212796 109.97543594915624 0 0 0 0 -4.9524227344117957 9.2709415217539384 0 9.2709415217539384 35.752404897465595 0 0 0 0 -23.823990098842842 -155.98763391814646 0 -155.98763391814646 142.41255742239991 0 0 0 0 1.7003422651687288 -34.278450204230467 0 -34.278450204230467 117.93024694963788 0 0 0 0 13.368701772391432 23.795268539510289 0 23.795268539510289 52.798212782832707 0 0 0 0 3.0512304036875335 21.582440235257621 0 21.582440235257621 20.501712471291299 0 0 0 0 1382.3214744677898 -1623.1609684875548 0 -1623.1609684875548 -518.34906621239497 0 0 0 0 -193.84576208366343 -154.51639363991126 0 -154.51639363991126 148.60592730319331 0 0 0 0 -106.85186509058303 -38.400297402238721 0 -38.400297402238721 127.25911630492192 0 0 0 0 -7.1290955478471005 14.300078644031601 0 14.300078644031601 49.462343108229106 0 0 0 0 -8.1358175115965423 0.57780127010482829 0 0.57780127010482829 52.665999547811225 0 0 0 0 20.791865988547215 22.204357285969309 0 22.204357285969309 13.777338582382072 0 0 0 0 -1.5032398107305971 38.152533914888828 0 38.152533914888828 29.375130362600316 0 0 0 0 -1.5350388107582162 0.49070076999083767 0 0.49070076999083767 8.6415361157366135 0 0 0 0 -2.0696034579947167 3.43818373888978 0 3.43818373888978 6.3945374093255225 0 0 0 0 214.17693591137652 -192.14064680704246 0 -192.14064680704246 161.19039572624024 0 0 0 0 260.13533268414176 112.03710430393949 0 112.03710430393949 -5.2247252917914011 0 0 0 0 -141.57152386577945 -14.553219463410642 0 -14.553219463410642 467.99372721623513 0 0 0 0 -171.25735494354194 97.277348488688403 0 97.277348488688403 144.71652492709836 0 0 0 0 -71.599073221138269 -7.1407937056173978 0 -7.1407937056173978 99.007593170688779 0 0 0 0 -17.33149701061172 3.0028604997821589 0 3.0028604997821589 78.892715024464465 0 0 0 0 -14.068696693389988 20.809068632290838 0 20.809068632290838 110.22567232019907 0 0 0 0 79.891039533557887 233.20846063545105 0 233.20846063545105 50.957465116676758 0 0 0 0 -179.7855655029598 37.785022972151637 0 37.785022972151637 231.47583197463246 0 0 0 0 91.683744825471194 213.1354208335847 0 213.1354208335847 162.12502916352241 0 0 0 0 130.80121832463192 137.03045750383171 0 137.03045750383171 122.58887968577619 0 0 0 0 66.252356381468417 -28.069874897730188 0 -28.069874897730188 131.66898811065766 0 0 0 0 -58.175653921713092 4.2745413280390494 0 4.2745413280390494 147.37940562197764 0 0 0 0 -6.1355573944321087 2.9720418972412546 0 2.9720418972412546 18.071114394135719 0 0 0 0 -512.9004839145523 7.7624841516044398 0 7.7624841516044398 433.50581432355102 0 0 0 0 -11.875232239903752 4.7815217044164271 0 4.7815217044164271 119.02074079634278 0 0 0 0 43.023381625231195 -11.594639576724148 0 -11.594639576724148 88.046804788320514 0 0 0 0 -11.485349732514806 4.8438811733067269 0 4.8438811733067269 91.183718526439407 0 0 0 0 -25.057989644353313 -42.203338784279367 0 -42.203338784279367 122.34321347980585 0 0 0 0 -103.15607438115381 -20.345790150648099 0 -20.345790150648099 128.85048431887117 0 0 0 0 4.7395285501715989 4.2404948740222608 0 4.2404948740222608 110.37547599356913 0 0 0 0 -5.8968150922473672 23.21043029602707 0 23.21043029602707 89.817222722501981 0 0 0 0 7.6673738818135462 -19.328224623817732 0 -19.328224623817732 98.835713186032081 0 0 0 0 -93.694387616489621 159.93166661871146 0 159.93166661871146 18.492275341845016 0 0 0 0 60.583207768790089 -38.846360263947645 0 -38.846360263947645 99.234656873919448 0 0 0 0 1.0331664195427415 36.338633343058177 0 36.338633343058177 107.09415345574058 0 0 0 0 66.658251838116712 48.33653199411583 0 48.33653199411583 167.41157244767237 0 0 0 0 -0.9099800354570462 -3.7722382588169694 0 -3.7722382588169694 33.874392319376511 0 0 0 0 41.334917882981244 16.279628332544235 0 16.279628332544235 243.0005809115537 0 0 0 0 77.640410807277931 -30.945328961284758 0 -30.945328961284758 300.13860502705211 0 0 0 0 70.957595558054891 52.139821106793534 0 52.139821106793534 252.60155985958045 0 0 0 0 46.317391756687357 66.165070164068311 0 66.165070164068311 215.46598114572771 0 0 0 0 104.34368545435359 24.017623797599299 0 24.017623797599299 196.68431581323966 0 0 0 0 17.360100813977624 67.058376338827657 0 67.058376338827657 184.03801024935251 0 0 0 0 -16.639978506569605 -1.8940219459436776 0 -1.8940219459436776 184.64152676856611 0 0 0 0 50.277504917055637 -51.086093431120844 0 -51.086093431120844 169.0433168720192 0 0 0 0 14.933078136321456 48.402400787843362 0 48.402400787843362 241.86390888559981 0 0 0 0 -33.115035454915187 25.059797578594953 0 25.059797578594953 140.5515621260347 0 0 0 0 -93.916247016293539 -4.2273135544091929 0 -4.2273135544091929 166.38905357611657 0 0 0 0 -10.610667836685758 2.4993024552113852 0 2.4993024552113852 127.15025952261573 0 0 0 0 75.93471183354086 67.769060450017207 0 67.769060450017207 141.54871579478504 0 0 0 0 73.626543588924505 41.360253566730989 0 41.360253566730989 159.01684188685351 0 0 0 0 27.091791237518464 61.335258610851042 0 61.335258610851042 161.7197095240399 0 0 0 0 56.582227245827255 51.403395876422934 0 51.403395876422934 153.37397752308379 0 0 0 0 -88.469453481129563 14.325404015787797 0 14.325404015787797 175.89256945423188 0 0 0 0 -3.1290478422418788 -0.7118739443112343 0 -0.7118739443112343 146.4350240726709 0 0 0 0 20.034200578457785 -85.194153042697508 0 -85.194153042697508 46.262182260712507 0 0 0 0 17.014136209880235 105.44810804923873 0 105.44810804923873 60.849529012200037 0 0 0 0 10.646664133106214 4.8312377181976984 0 4.8312377181976984 135.60810680776581 0 0 0 0 0.16081688837221009 55.754286782349141 0 55.754286782349141 155.63480695170682 0 0 0 0 -45.316633305289315 50.930961670622779 0 50.930961670622779 277.52171911257233 0 0 0 0 -30.583642478827585 51.860422375344456 0 51.860422375344456 208.22201221993123 0 0 0 0 -1.8969114570813113 16.967335310550812 0 16.967335310550812 131.4530151672314 0 0 0 0 57.978769936313256 41.813712991977809 0 41.813712991977809 67.997354425664525 0 0 0 0 81.188582774953829 -45.574744489356817 0 -45.574744489356817 469.91032222667127 0 0 0 0 41.434652889784047 -13.36260139602382 0 -13.36260139602382 567.92243100318592 0 0 0 0 1.5198537633282925 53.416961862479695 0 53.416961862479695 200.52675721261855 0 0 0 0 251.26171905752562 136.03728647122625 0 136.03728647122625 -329.34109862905461 0 0 0 0 20.875393097560057 20.593098516843753 0 20.593098516843753 -31.854866432112914 0 0 0 0 -227.61266691826677 -105.81876375358843 0 -105.81876375358843 373.79243334060448 0 0 0 0 1.427658554100792 31.033651538995635 0 31.033651538995635 169.18407748935937 0 0 0 0 85.936254338233994 95.163272248966678 0 95.163272248966678 228.68532880197745 0 0 0 0 28.642759092523395 44.05827799328172 0 44.05827799328172 61.43277085430249 0 0 0 0 305.99307358501574 73.07847809715895 0 73.07847809715895 -33.182227943361795 0 0 0 0 -31.420711733081134 76.967957030488151 0 76.967957030488151 176.42325726488798 0 0 0 0 -76.983612872394588 -71.46231041278952 0 -71.46231041278952 315.19540557456639 0 0 0 0 14.384058108784927 9.1181995128242885 0 9.1181995128242885 -10.823416517100535 0 0 0 0 45.87153382536102 52.857649392841964 0 52.857649392841964 39.502476094007825 0 0 0 0 -135.37939978087525 129.73576152703481 0 129.73576152703481 257.27435660183846 0 0 0 0 201.06169204125217 124.96622993945573 0 124.96622993945573 -26.713356018404738 0 0 0 0 57.506393639094767 3.025371931098789 0 3.025371931098789 202.22511067695041 0 0 0 0 74.547837129734489 67.193670713605513 0 67.193670713605513 176.45229186932406 0 0 0 0 56.540629778571201 -26.623488899414369 0 -26.623488899414369 261.80108258370842 0 0 0 0 33.471098525089474 32.645629470979145 0 32.645629470979145 292.17049503602141 0 0 0 0 -82.30785625506428 -6.9394876287759928 0 -6.9394876287759928 349.3343781060853 0 0 0 0 136.14126844925522 189.1238854236442 0 189.1238854236442 -147.5332246968278 0 0 0 0 -17.236459245447804 -112.93263276563448 0 -112.93263276563448 216.04376695378778 0 0 0 0 271.20157232754354 191.29543386509113 0 191.29543386509113 136.31294285692547 0 0 0 0 -20.770286142537543 91.809886743332271 0 91.809886743332271 270.56644530529525 0 0 0 0 -13.415181018534895 46.144150003040068 0 46.144150003040068 329.87850908481801 0 0 0 0 121.52174092854011 17.927467688959027 0 17.927467688959027 109.32545259639181 0 0 0 0 0.067528332654131162 -2.1114649492794619 0 -2.1114649492794619 3.7612211067019854 0 0 0 0 61.670151037398682 83.879387905212752 0 83.879387905212752 124.42074406142541 0 0 0 0 45.030762937104555 76.616526910917628 0 76.616526910917628 135.9533928294818 0 0 0 0 52.361428207035033 58.299497790159592 0 58.299497790159592 95.117646201930256 0 0 0 0 39.155722742667422 119.95161173570432 0 119.95161173570432 151.04288580737358 0 0 0 0 54.782161112798349 94.605639470697952 0 94.605639470697952 134.84716511981674 0 0 0 0 47.009959522649297 96.248016418925317 0 96.248016418925317 153.61955975408773 0 0 0 0 47.869656782303537 81.109817559331532 0 81.109817559331532 156.16150868653085 0 0 0 0 49.304232141974353 85.238429680215631 0 85.238429680215631 164.53233576325374 0 0 0 0 3.4990130617895474 -1.5741078925986187 0 -1.5741078925986187 4.54006449187081 0 0 0 0 89.766125931346323 37.44767786921102 0 37.44767786921102 44.380452049854284 0 0 0 0 105.29097510506654 -839.315089815688 0 -839.315089815688 -100.39935726366974 0 0 0 0 48.177368455855685 95.749698982198197 0 95.749698982198197 123.76352910644891 0 0 0 0 59.00023088612943 55.613347646933562 0 55.613347646933562 72.635408077501779 0 0 0 0 69.954309278798974 99.569734171594177 0 99.569734171594177 102.70524232728712 0 0 0 0 3.506831762715418 -4.8957639862887508 0 -4.8957639862887508 5.0445367142052469 0 0 0 0 -481.79674700391297 72.430793782328237 0 72.430793782328237 1244.1901543914573 0 0 0 0 403.71668380446681 909.49239002491663 0 909.49239002491663 362.51796703257185 0 0 0 0 -0.12415827626919551 -1.4896137343838305 0 -1.4896137343838305 22.049606652831962 0 0 0 0 -270.05627020498014 -345.66786950340111 0 -345.66786950340111 -205.10369650295434 0 0 0 0 -0.18007255537050249 -0.62211105983180204 0 -0.62211105983180204 8.8342322289878723 0 0 0 0 0.4619698268541228 -2.4643472282148515 0 -2.4643472282148515 9.8167417201727805 0 0 0 0 192.4168203506033 215.49518213038016 0 215.49518213038016 168.8399512672313 0 0 0 0 -477.13600562083434 -27.856546942078012 0 -27.856546942078012 -620.94926513874634 0 0 0 0 80.024684452920155 -54.789775350260527 0 -54.789775350260527 147.33329697952354 0 0 0 0 104.14626040846088 218.50650558549711 0 218.50650558549711 356.48900974947247 0 0 0 0 -626.75832453454768 -493.63429557950849 0 -493.63429557950849 429.13933790133797 0 0 0 0 0.12534079721515212 -7.3996525851346959 0 -7.3996525851346959 31.153369705699777 0 0 0 0 308.51792009533892 304.3188899805366 0 304.3188899805366 208.25454467397026 0 0 0 0 122.40114356651247 192.80382240765994 0 192.80382240765994 335.72782369230481 0 0 0 0 99.439241183990816 76.304876848669664 0 76.304876848669664 422.9548595255601 0 0 0 0 104.92569012048625 76.94606871850101 0 76.94606871850101 214.93568655336117 0 0 0 0 151.25245452908712 143.78243528028179 0 143.78243528028179 227.36289909771904 0 0 0 0 142.89492312783204 109.67899459851469 0 109.67899459851469 127.49806775975048 0 0 0 0 229.66649158263863 121.2290584023358 0 121.2290584023358 123.39700553926309 0 0 0 0 188.05087774819731 178.23947966387186 0 178.23947966387186 79.740071595626432 0 0 0 0 140.99562504307687 172.41374664026171 0 172.41374664026171 149.78278801134547 0 0 0 0 187.19239268290767 128.88898351119406 0 128.88898351119406 -37.40580678533297 0 0 0 0 148.85532724049517 170.14321772056064 0 170.14321772056064 150.23735890691387 0 0 0 0 66.600542805657824 -13.385157315848119 0 -13.385157315848119 136.73111472905475 0 0 0 0 64.770793839974431 8.3964986732880789 0 8.3964986732880789 166.4055404587516 0 0 0 0 84.828155477831388 39.188797399280702 0 39.188797399280702 169.35427054286845 0 0 0 0 136.50551756697678 18.002279239388372 0 18.002279239388372 119.29262351238231 0 0 0 0 163.35605370863595 79.603306013651491 0 79.603306013651491 171.61643698048834 0 0 0 0 109.42301497670451 22.228041504368775 0 22.228041504368775 127.07761151922386 0 0 0 0 113.62706790059929 -12.090159625932756 0 -12.090159625932756 89.817189718937698 0 0 0 0 122.77261136138623 29.505787299688564 0 29.505787299688564 67.330324103950261 0 0 0 0 129.58574715665782 77.763444843713842 0 77.763444843713842 213.44717942150146 0 0 0 0 419.21261701202002 43.880667353390436 0 43.880667353390436 117.11474475828982 0 0 0 0 260.36914055202215 -5.8437950074876426 0 -5.8437950074876426 107.7414521652754 0 0 0 0 222.08231948794082 105.3257958949232 0 105.3257958949232 98.99280095200811 0 0 0 0 211.04210835626327 -31.913555149761578 0 -31.913555149761578 361.07699066669102 0 0 0 0 -163.42589250413403 -14.985357207367088 0 -14.985357207367088 166.54461120400811 0 0 0 0 100.2259889571269 88.479261329942346 0 88.479261329942346 130.6406170075079 0 0 0 0 -61.094770997025989 -75.053152026345288 0 -75.053152026345288 -16.304938858929745 0 0 0 0 103.01981249934397 88.346040264045769 0 88.346040264045769 111.46926752741365 0 0 0 0 289.84994339550576 225.58398307686639 0 225.58398307686639 193.4004823287105 0 0 0 0 22.381240412920306 98.991286868693351 0 98.991286868693351 389.34070646844339 0 0 0 0 34.030745323734664 -134.6949134896895 0 -134.6949134896895 283.22432710796602 0 0 0 0 -139.18491682305648 64.726632130529197 0 64.726632130529197 102.53552000338095 0 0 0 0 12.023979621004401 -106.08207515162394 0 -106.08207515162394 190.80582594465614 0 0 0 0 1.4391855297853908 -45.974780380266566 0 -45.974780380266566 -26.18450209607181 0 0 0 0 -58.620685465604765 -12.664756260530339 0 -12.664756260530339 155.08136965803124 0 0 0 0 55.79830760425375 58.369068715045159 0 58.369068715045159 124.54921804169135 0 0 0 0 -137.66029501055527 55.913625867149676 0 55.913625867149676 141.25390177888039 0 0 0 0 -7.3601247430397052 -45.76655944369395 0 -45.76655944369395 70.270175525540253 0 0 0 0 -51.288575657061301 40.978080290231446 0 40.978080290231446 -101.02171432125033 0 0 0 0 -51.288575657119509 40.978080290275102 0 40.978080290275102 -101.02171432127216 0 0 0 0 -51.288575657046749 40.978080290240541 0 40.978080290240541 -101.02171432130854 0 0 0 0 0.14072651132362068 0.72099601896706034 0 0.72099601896706034 18.402525040262468 0 0 0 0 8.1147098302026279 -118.29894314226749 0 -118.29894314226749 6.8915608894203615 0 0 0 0 32.978940607506956 -92.12356700035707 0 -92.12356700035707 -69.405230991995268 0 0 0 0 57.657811658418723 -140.63325498944505 0 -140.63325498944505 18.573324507400685 0 0 0 0 155.67703698311016 -120.59451846850789 0 -120.59451846850789 -25.189820107211744 0 0 0 0 52.30063027381766 -143.93387075105966 0 -143.93387075105966 6.7129488680911891 0 0 0 0 67.398481651071961 -129.41052471325111 0 -129.41052471325111 -25.691558614798851 0 0 0 0 152.08252420049246 -154.99376554882519 0 -154.99376554882519 -116.69252378775309 0 0 0 0 358.34073392809114 -160.49587315670033 0 -160.49587315670033 52.530917097656129 0 0 0 0 87.682629890364296 -61.906549495809031 0 -61.906549495809031 20.328177955501815 0 0 0 0 190.60965270125143 181.22573409951747 0 181.22573409951747 70.771512251772947 0 0 0 0 5.0637784693853973 -231.9892416036555 0 -231.9892416036555 44.267463970441895 0 0 0 0 -0.028760522398858512 0.031715417052115669 0 0.031715417052115669 5.1856419019500635 0 0 0 0 272.9832024633015 295.37220408264784 0 295.37220408264784 228.89793082084248 0 0 0 0 -332.9070727956032 -18.195822120767843 0 -18.195822120767843 281.96551877794627 0 0 0 0 -164.71091254951716 161.12334308328082 0 161.12334308328082 100.9906186608082 0 0 0 0 309.32606647452639 473.6914768758752 0 473.6914768758752 136.89495136612641 0 0 0 0 -0.70984714848676322 -0.11090480042710738 0 -0.11090480042710738 12.319974210766219 0 0 0 0 94.010085509180044 533.84635748923415 0 533.84635748923415 681.35636417774913 0 0 0 0 -0.362986934387731 0.01547106169940804 0 0.01547106169940804 7.1825377738914824 0 0 0 0 -211.52671642642872 -482.94445459350118 0 -482.94445459350118 282.90534191617553 0 0 0 0 -56.37965848587919 -35.227979768271325 0 -35.227979768271325 1443.5977975428004 0 0 0 0 0.40550024071153246 0.21873629871712552 0 0.21873629871712552 6.5165210293881728 0 0 0 0 43.38525627416675 185.7307468544318 0 185.7307468544318 865.87683929768536 0 0 0 0 88.733419224609861 12.441956334860606 0 12.441956334860606 16.193770312764173 0 0 0 0 452.05430244593481 271.27319195235759 0 271.27319195235759 458.04421827424994 0 0 0 0 136.73044524166289 8.2026431543636136 0 8.2026431543636136 444.22054886109618 0 0 0 0 370.99470985436847 -128.20242543792619 0 -128.20242543792619 522.01670686814577 0 0 0 0 84.759670997660578 137.71808492286391 0 137.71808492286391 818.72715377686336 0 0 0 0 85.802167018719047 149.5738592254279 0 149.5738592254279 392.44385706931189 0 0 0 0 35.931500446997234 77.424286394416413 0 77.424286394416413 296.64288997142194 0 0 0 0 94.595623501731552 -104.13728949455094 0 -104.13728949455094 354.61396705606785 0 0 0 0 -8.7573512705912435 11.253261050113906 0 11.253261050113906 508.04177724832834 0 0 0 0 -6.5221593199355539 -14.363163842327594 0 -14.363163842327594 249.94416908372841 0 0 0 0 -121.63896902103806 80.350333134885659 0 80.350333134885659 199.24472203580808 0 0 0 0 -87.842716896730053 -37.282721468005548 0 -37.282721468005548 220.78280906452528 0 0 0 0 -165.81438678051836 118.57682028358886 0 118.57682028358886 274.0402168797209 0 0 0 0 -41.04581146845203 37.208901528252227 0 37.208901528252227 155.96550857722286 0 0 0 0 -157.55723421462517 214.46024772029887 0 214.46024772029887 60.724320405661729 0 0 0 0 -28.701604110060543 93.931206304220723 0 93.931206304220723 364.70419423012117 0 0 0 0 16.134797718123082 148.65588192101495 0 148.65588192101495 243.35684135337851 0 0 0 0 18.353044110032215 145.03474339443807 0 145.03474339443807 203.68942100029835 0 0 0 0 -6.8711106268325466 123.57319999678546 0 123.57319999678546 216.10413620545569 0 0 0 0 37.262822293856516 118.31415212751608 0 118.31415212751608 210.33771402714638 0 0 0 0 67.697455519105461 157.0839562672395 0 157.0839562672395 199.35146841097139 0 0 0 0 107.05084403734691 114.04975845496142 0 114.04975845496142 96.592316325954016 0 0 0 0 92.903258650147109 107.93878362603186 0 107.93878362603186 118.536684881974 0 0 0 0 120.21011968289986 93.764739360349267 0 93.764739360349267 107.48901053619738 0 0 0 0 112.73407443372525 107.64504444501881 0 107.64504444501881 99.525304431948371 0 0 0 0 134.4193478595007 80.796168015748208 0 80.796168015748208 39.178931486797069 0 0 0 0 491.25739292319827 399.35672013958845 0 399.35672013958845 327.76040755808572 0 0 0 0 154.53568278459079 86.961767372726172 0 86.961767372726172 91.236006797914342 0 0 0 0 208.22296376237136 169.56455745760968 0 169.56455745760968 127.23609159499699 0 0 0 0 74.17891848481031 223.2014459533134 0 223.2014459533134 313.13240906554347 0 0 0 0 0.0010954871331009808 5.2919960931903915 0 5.2919960931903915 14.53603878429567 0 0 0 0 1.1697529363060815 5.5473594037539442 0 5.5473594037539442 13.611035841808189 0 0 0 0 1.2656452655866985 5.1116089119750541 0 5.1116089119750541 14.579327441577334 0 0 0 0 1.093199370792644 4.8328468195904861 0 4.8328468195904861 14.17202668369282 0 0 0 0 -2.8256295501242601 2.8268139261986391 0 2.8268139261986391 13.23676726990675 0 0 0 0 1.7409275092076815 5.4943043080274947 0 5.4943043080274947 13.804883345263079 0 0 0 0 0.37741628402272909 9.7089302141830558 0 9.7089302141830558 15.261517313672812 0 0 0 0 -4.5233577053600129 8.2494180633620999 0 8.2494180633620999 18.708055429160595 0 0 0 0 2.8628276824392742 12.887042079179082 0 12.887042079179082 17.504505899632932 0 0 0 0 2.0081817523428072 14.057803778305242 0 14.057803778305242 17.171438157049124 0 0 0 0 4.4976804927592866 18.742304332912681 0 18.742304332912681 24.525636989681516 0 0 0 0 1.0908205032010301 -2.2172663802775787 0 -2.2172663802775787 21.547401854142663 0 0 0 0 -3.0137668003508225 8.3264492959860945 0 8.3264492959860945 33.574357313715154 0 0 0 0 -2.219171815812615 10.969850317051169 0 10.969850317051169 20.24742233537836 0 0 0 0 -3.6058060349355401 4.3850405868288362 0 4.3850405868288362 15.335719071823405 0 0 0 0 -8.6664829926489801 0.15006126729713287 0 0.15006126729713287 18.468784283089917 0 0 0 0 -1.4339435948941173 -0.4052002954413183 0 -0.4052002954413183 13.871106147707906 0 0 0 0 -6.0323411611561824 4.9816200405766722 0 4.9816200405766722 8.3220205664110836 0 0 0 0 -2.1871683000906383 6.967834475813703 0 6.967834475813703 3.0040526411671067 0 0 0 0 -0.95582074248159188 1.2741995762044098 0 1.2741995762044098 18.742133510531858 0 0 0 0 0.67624924715711998 0.9920407145619663 0 0.9920407145619663 -0.63144605996441783 0 0 0 0 -2.3339550531109126 5.4377359620702919 0 5.4377359620702919 -9.1068744419462746 0 0 0 0 27.610252652052623 27.2341108211549 0 27.2341108211549 31.456439243578643 0 0 0 0 18.970075194059518 7.5596315595830674 0 7.5596315595830674 18.048613722188747 0 0 0 0 16.77951755226286 32.537467287540494 0 32.537467287540494 47.860337210106081 0 0 0 0 0.018507826807763195 -5.4459207801264711 0 -5.4459207801264711 90.590181656469213 0 0 0 0 6.34083824643767 17.855108917487087 0 17.855108917487087 91.844867060222896 0 0 0 0 0.18783528787674442 -0.13884604022103986 0 -0.13884604022103986 1.5439858032148095 0 0 0 0 8.8080748122292789 -9.1187988689634949 0 -9.1187988689634949 48.487598099687602 0 0 0 0 3.1478427766887762 -35.869572133407928 0 -35.869572133407928 59.185561480713659 0 0 0 0 -0.18234254813767437 -1.1270634348554793 0 -1.1270634348554793 0.25470998649086596 0 0 0 0 -1.6746900505731901 5.6251279262360185 0 5.6251279262360185 10.175279097515158 0 0 0 0 -11.82357421814595 19.146779322123621 0 19.146779322123621 27.404816457652487 0 0 0 0 -4.205854477995171 3.096714855523004 0 3.096714855523004 9.163013917209021 0 0 0 0 -21.443365327522315 13.585506587049167 0 13.585506587049167 38.30723024555482 0 0 0 0 0.14122968158653748 10.356129102713481 0 10.356129102713481 11.745829649863225 0 0 0 0 -19.927082107250499 0.77935194704332389 0 0.77935194704332389 47.420519836683525 0 0 0 0 -12.120595645369576 -5.4105004446173552 0 -5.4105004446173552 44.886225091671804 0 0 0 0 0.21827494317039964 6.3948894301429391 0 6.3948894301429391 45.037430936121382 0 0 0 0 -10.081298812790919 -6.7246778285480104 0 -6.7246778285480104 45.616148484941732 0 0 0 0 2.2775935298009244 10.417870194054558 0 10.417870194054558 52.538254429819062 0 0 0 0 -7.1765250547105097 2.4281600710819475 0 2.4281600710819475 71.278108527592849 0 0 0 0 -11.699261752173697 -4.1366520312731154 0 -4.1366520312731154 36.156681058870163 0 0 0 0 -2.8264545811568498 -0.47113740862585018 0 -0.47113740862585018 14.187488549550039 0 0 0 0 -11.413603904240517 6.4457904637674801 0 6.4457904637674801 42.85863526846515 0 0 0 0 -3.956384267734002 1.4597646035344241 0 1.4597646035344241 18.591377211031386 0 0 0 0 -1.0952194457713631 11.604101825942053 0 11.604101825942053 32.196059821115341 0 0 0 0 -9.6066502627776345 -2.1875660382211208 0 -2.1875660382211208 49.956498739426024 0 0 0 0 1.1396651922841556 -3.2351339500892209 0 -3.2351339500892209 19.613233842508635 0 0 0 0 -0.41796548110737142 1.5207884928640283 0 1.5207884928640283 12.392341157544593 0 0 0 0 -2.3497491671423631 2.7627639853017172 0 2.7627639853017172 7.8033052370883524 0 0 0 0 2.0960346638170222 2.5802612652478274 0 2.5802612652478274 10.954606919898652 0 0 0 0 -0.36015893977517055 0.17582231552114536 0 0.17582231552114536 3.6797825326520126 0 0 0 0 -5.4805130343358996 -11.250874515855685 0 -11.250874515855685 39.069928667886415 0 0 0 0 9.2444914465165198 7.1042446051142178 0 7.1042446051142178 23.698313337459695 0 0 0 0 -0.27272437693542706 4.9218045729070354 0 4.9218045729070354 16.079897089770952 0 0 0 0 -0.46460852866632152 0.99262865004359924 0 0.99262865004359924 2.8861710339326692 0 0 0 0 3.2978873456101496 5.3695701114193071 0 5.3695701114193071 54.187671687861439 0 0 0 0 2.3451877298422135 7.215637346046492 0 7.215637346046492 13.330540445183544 0 0 0 0 -10.353696959574791 1.5972435785079142 0 1.5972435785079142 17.402988924324745 0 0 0 0 -3.6065958184639149 3.1198446591146052 0 3.1198446591146052 12.395671991801976 0 0 0 0 4.5182620071466246 5.3217018543218728 0 5.3217018543218728 11.281362458190415 0 0 0 0 2.8063381522379331 6.6609383585528121 0 6.6609383585528121 10.24394533575105 0 0 0 0 0.0028725618026155999 6.3396275711565977 0 6.3396275711565977 13.073124796486809 0 0 0 0 -22.639202288645492 6.878097994311247 0 6.878097994311247 49.534652557436857 0 0 0 0 0.081675961637495909 0.66231189207493912 0 0.66231189207493912 2.0564719126784965 0 0 0 0 0.03899816573319323 28.661762568925042 0 28.661762568925042 -2.4432359437196283 0 0 0 0 29.62454626087461 32.47794555145083 0 32.47794555145083 -10.14611484008492 0 0 0 0 0.35159404477340317 -13.043588843400357 0 -13.043588843400357 46.796460531099001 0 0 0 0 -0.1926748874334539 -0.069835003213711389 0 -0.069835003213711389 -0.081045501713447266 0 0 0 0 0.18256987724189994 0.050906499425821039 0 0.050906499425821039 0.18802470096653678 0 0 0 0 -2.8916396330293423 -26.242205758870114 0 -26.242205758870114 83.741874524625018 0 0 0 0 17.506865015169694 -38.334599171386799 0 -38.334599171386799 13.914939060021425 0 0 0 0 -0.18631003176970509 68.520598926843377 0 68.520598926843377 73.941403799894033 0 0 0 0 -1.3340941357656153 -0.01853163565573368 0 -0.01853163565573368 4.7478777573509774 0 0 0 0 -5.9562573031564625 -2.960357888150611 0 -2.960357888150611 31.996477844339097 0 0 0 0 -2.755962846867817 5.8615595032606507 0 5.8615595032606507 17.854856275080238 0 0 0 0 -1.0751830750890576 -1.2220717966265511 0 -1.2220717966265511 21.989511414663866 0 0 0 0 -19.834240811561529 3.77452907449333 0 3.77452907449333 35.613339875199017 0 0 0 0 -4.8818902891074778 1.5901770267519169 0 1.5901770267519169 29.32722531730542 0 0 0 0 -5.4011884681567039 -1.340512152386566 0 -1.340512152386566 4.7555902539080037 0 0 0 0 -2.7547784937071924 -1.0305568644980667 0 -1.0305568644980667 23.724656442645937 0 0 0 0 223.12405232557944 -107.38525135222153 0 -107.38525135222153 -375.1331733452098 0 0 0 0 -30.414294856652077 -65.601737404322193 0 -65.601737404322193 247.89134561907849 0 0 0 0 0.066139530645999728 6.3439797943574376 0 6.3439797943574376 37.654893518672907 0 0 0 0 470.96876950993556 474.12758527077676 0 474.12758527077676 -118.13385174883115 0 0 0 0 -0.65198290694025829 -0.63502225772714382 0 -0.63502225772714382 -0.4576215047994836 0 0 0 0 1.5025225578213168 91.968030013769749 0 91.968030013769749 1202.5382993528765 0 0 0 0 952.16243184050791 348.34558053566434 0 348.34558053566434 277.15980178177597 0 0 0 0 143.64545167556321 -154.43980388864293 0 -154.43980388864293 864.16110772773391 0 0 0 0 -89.217431182778853 1830.0540131250382 0 1830.0540131250382 4983.7533512183727 0 0 0 0 1245.2734170852193 1352.7018169888761 0 1352.7018169888761 698.61322537928936 0 0 0 0 -83.830549259783325 319.84258786642386 0 319.84258786642386 2546.9304922349256 0 0 0 0 398.99381905937838 512.99376835377188 0 512.99376835377188 351.07217824253894 0 0 0 0 -960.51321864655222 -1182.0759396370559 0 -1182.0759396370559 4949.8240625232575 0 0 0 0 -804.83375869749023 -329.07446530499146 0 -329.07446530499146 4975.6878162171324 0 0 0 0 492.09186053482404 644.39539961755509 0 644.39539961755509 2053.9541788009228 0 0 0 0 -0.42612188128145073 3.4272533048658715 0 3.4272533048658715 7.0965585310538017 0 0 0 0 -201.59300120927566 -933.37576051981887 0 -933.37576051981887 2585.1820454975241 0 0 0 0 790.61754261381111 314.64112995789037 0 314.64112995789037 -520.07584299278096 0 0 0 0 4.6247682159416872 5.0963926384632074 0 5.0963926384632074 1.2739327293837732 0 0 0 0 7.4811989578080942 5.5906439784856445 0 5.5906439784856445 8.7514994420938592 0 0 0 0 9.1738227867060935 22.453024550282862 0 22.453024550282862 4979.0133491175211 0 0 0 0 773.41312432421546 609.32046495124814 0 609.32046495124814 -1493.3081809919095 0 0 0 0 -0.98840037963860938 3.4188218909113459 0 3.4188218909113459 17.412557072985749 0 0 0 0 0.21121750907910075 8.4395036831431014 0 8.4395036831431014 14.838593678657105 0 0 0 0 -6.9968939892936532 7.7268303287419258 0 7.7268303287419258 10.859319796378259 0 0 0 0 0.54704387760235762 9.8748764720736766 0 9.8748764720736766 19.749235098334395 0 0 0 0 97.6966833086924 80.98910362107199 0 80.98910362107199 -26.329219439590815 0 0 0 0 -763.06246344146712 75.303281625681848 0 75.303281625681848 683.14552953114617 0 0 0 0 -5.0295217969253372 1.4039419886812539 0 1.4039419886812539 34.020158042156254 0 0 0 0 -1.9344308315588554 2.4844919604233269 0 2.4844919604233269 11.991715051533731 0 0 0 0 -6.1173483349639923 8.3062378846807405 0 8.3062378846807405 35.296074428886641 0 0 0 0 -0.84676495749234704 9.8891524080663658 0 9.8891524080663658 32.015671440487495 0 0 0 0 -10.291936559004967 4.6910864742094418 0 4.6910864742094418 32.47635017966968 0 0 0 0 -6.3828058178544183 7.6019643732261102 0 7.6019643732261102 27.159939983073855 0 0 0 0 -4.4709352579845474 5.6767978127508343 0 5.6767978127508343 11.542536527147654 0 0 0 0 -5.6924114873052076 0.82188123732339591 0 0.82188123732339591 30.663077357690781 0 0 0 0 -7.4924271210517368 4.3835855125189482 0 4.3835855125189482 21.550135852876565 0 0 0 0 -272.61155874450606 -312.18147558676719 0 -312.18147558676719 72.951927487010835 0 0 0 0 -10.501664867032007 3.6871748436460621 0 3.6871748436460621 13.534976176859345 0 0 0 0 -3.6459450612038444 5.7371047039873275 0 5.7371047039873275 19.957519602412049 0 0 0 0 -3.3959043124632253 3.0535238224481276 0 3.0535238224481276 20.016595570922277 0 0 0 0 -5.6027437590107452 2.8043627344938216 0 2.8043627344938216 23.862725742056455 0 0 0 0 -5.5020165986762777 2.922100703297474 0 2.922100703297474 17.132059971743729 0 0 0 0 -4.1581408525798196 -0.49393564313196237 0 -0.49393564313196237 15.537755511329919 0 0 0 0 -4.1054411853623094 -4.1248562694090651 0 -4.1248562694090651 27.077466840331908 0 0 0 0 -3.191369438646916 3.8883962979598437 0 3.8883962979598437 16.747647328011226 0 0 0 0 -4.1719855088478788 3.9463914451500699 0 3.9463914451500699 12.074329442945384 0 0 0 0 -4.6649507336746865 4.4475895688519813 0 4.4475895688519813 18.22613773482226 0 0 0 0 -3.9987820451716329 -2.8641458860307694 0 -2.8641458860307694 8.2149490368396982 0 0 0 0 0.69051011612464208 -9.0469731515622698 0 -9.0469731515622698 22.382680211565457 0 0 0 0 -3.5414687368865998 1.8179771306167822 0 1.8179771306167822 9.8495140057639219 0 0 0 0 -2.561910795859605 1.6770855688304778 0 1.6770855688304778 9.6345882318628355 0 0 0 0 -3.6792263889007017 4.313112264368101 0 4.313112264368101 16.895677698194049 0 0 0 0 -2.9533372451815012 3.1387206167419208 0 3.1387206167419208 14.284723653981928 0 0 0 0 -2.5018322979200174 1.8507050652588077 0 1.8507050652588077 18.269628743561356 0 0 0 0 -1.4420401325824059 1.1429782314226031 0 1.1429782314226031 7.9023106901440769 0 0 0 0 -3.2757405513083659 -2.6931621613379235 0 -2.6931621613379235 11.607690451165922 0 0 0 0 -3.8377056144024664 11.965149795252728 0 11.965149795252728 15.735778497619322 0 0 0 0 -3.0925018188727336 4.8525803961965721 0 4.8525803961965721 12.807640420422103 0 0 0 0 -2.9689060781849603 4.2922696765229489 0 4.2922696765229489 8.5393040596824221 0 0 0 0 -5.3730993315402884 -0.089083837796351872 0 -0.089083837796351872 8.586345197778428 0 0 0 0 -2.8564660063001925 0.8376109897576427 0 0.8376109897576427 7.5941094300295617 0 0 0 0 6.1077577338674018 6.3131267411517911 0 6.3131267411517911 0.67809616195154376 0 0 0 0 -8.5912181395183325 2.8634788040017156 0 2.8634788040017156 11.533115153841209 0 0 0 0 21.410596057592329 26.389028132827661 0 26.389028132827661 14.758902561443392 0 0 0 0 -13.038805630089882 11.610093449358828 0 11.610093449358828 27.719030752021354 0 0 0 0 3.5732781565993719 15.383461312208965 0 15.383461312208965 16.161914317155606 0 0 0 0 -2.2180111845798454 7.0201752038652785 0 7.0201752038652785 5.2950942962847165 0 0 0 0 -0.52803395858403279 5.5238722369679039 0 5.5238722369679039 17.534884555024348 0 0 0 0 0.32463694643255447 7.1991275324567212 0 7.1991275324567212 14.038607286032573 0 0 0 0 -4.443421906607 3.5090354295316502 0 3.5090354295316502 31.178660949066398 0 0 0 0 -10.848893937214598 9.0910060689566308 0 9.0910060689566308 8.9122978133082142 0 0 0 0 -14.115029150634427 13.34998667822947 0 13.34998667822947 27.654685215384234 0 0 0 0 -5.1119685778440616 4.619712879231173 0 4.619712879231173 25.774142318112148 0 0 0 0 -13.988786964254217 5.4781475455529289 0 5.4781475455529289 24.031331020451034 0 0 0 0 -5.0682144472278106 8.2058622609301004 0 8.2058622609301004 10.421103252555099 0 0 0 0 -4.292688931483621 10.335463996567796 0 10.335463996567796 8.7308993501614154 0 0 0 0 -3.9050201016830215 8.8591908972593956 0 8.8591908972593956 11.272514366031828 0 0 0 0 -1.3932675602382005 8.132827662397176 0 8.132827662397176 8.5479308352805674 0 0 0 0 -1.9302216577998124 10.927246219890321 0 10.927246219890321 5.6691911730612787 0 0 0 0 -7.1651211238765882 3.886743246941478 0 3.886743246941478 47.031734190073621 0 0 0 0 -8.1074963829112221 -5.4440053231428465 0 -5.4440053231428465 67.628144137444906 0 0 0 0 -4.1189060959800372 7.7605485706008039 0 7.7605485706008039 21.824060428705707 0 0 0 0 -5.785700373054901 -1.5565672056741846 0 -1.5565672056741846 17.103404584449606 0 0 0 0 -1.1108278305591739 6.2403931909357198 0 6.2403931909357198 28.687212454795372 0 0 0 0 -0.77898493734323893 4.559045246707683 0 4.559045246707683 28.230492920120014 0 0 0 0 -2.2688245469464841 3.6147494545505765 0 3.6147494545505765 7.5022342603810301 0 0 0 0 -3.6125357684669579 6.9514720876138654 0 6.9514720876138654 21.796726733760124 0 0 0 0 -15.031520457843953 18.061881936733698 0 18.061881936733698 68.050917358777951 0 0 0 0 -3.6890824160282567 -0.68852993710203236 0 -0.68852993710203236 10.987495337141382 0 0 0 0 -14.128638714325007 -48.032579898295808 0 -48.032579898295808 248.885378396546 0 0 0 0 0.60312152590872237 8.7011261351931921 0 8.7011261351931921 25.00572886593659 0 0 0 0 -134.5160195577476 167.02167249696868 0 167.02167249696868 339.81887210681452 0 0 0 0 -19.199036719141532 3.1558778168837307 0 3.1558778168837307 32.821461246734543 0 0 0 0 -66.064261493815167 -4.3324694656039355 0 -4.3324694656039355 -27.015266968490323 0 0 0 0 -1.5013941501436285 4.3927345767195334 0 4.3927345767195334 8.1074359959378057 0 0 0 0 -15.958341374482018 26.052651375270216 0 26.052651375270216 45.44028945203172 0 0 0 0 17.304587747135201 3.1139033196668606 0 3.1139033196668606 30.38690930447774 0 0 0 0 -33.017096687402329 19.854274403551244 0 19.854274403551244 43.42144061831641 0 0 0 0 73.669047333448759 -162.82689820493397 0 -162.82689820493397 -71.94803160399897 0 0 0 0 -678.19320732666813 179.45621302213112 0 179.45621302213112 4990.3836760933773 0 0 0 0 221.62231636213926 941.4993865689321 0 941.4993865689321 3153.4070488290017 0 0 0 0 439.09110749043072 252.11191904680163 0 252.11191904680163 -77.061236452021149 0 0 0 0 0.70120156986607807 1.7587895707662824 0 1.7587895707662824 2.7832810166559909 0 0 0 0 -192.68355850180376 54.183062268944923 0 54.183062268944923 2906.1919681987783 0 0 0 0 -914.14603001766773 -715.02863895444898 0 -715.02863895444898 3288.8888227729622 0 0 0 0 552.48379077443803 -2108.8157052166353 0 -2108.8157052166353 3646.2083178044995 0 0 0 0 -1067.7170664530458 -1052.5943995638227 0 -1052.5943995638227 4995.5216478699294 0 0 0 0 0.81456292828907528 0.95596012607202852 0 0.95596012607202852 13.445396928773619 0 0 0 0 241.68565138433161 620.81069000381831 0 620.81069000381831 571.97921445171232 0 0 0 0 281.42972866574007 -2094.9470106300651 0 -2094.9470106300651 4996.0278610010282 0 0 0 0 283.09890842979934 135.81393638025475 0 135.81393638025475 -36.654074339356157 0 0 0 0 3.9738621837838766 5.273547832474776 0 5.273547832474776 15.549294599608857 0 0 0 0 26.462497907800071 1020.8203419178317 0 1020.8203419178317 4298.0366799524199 0 0 0 0 187.06057813964043 1209.0955968904018 0 1209.0955968904018 3796.4714390183217 0 0 0 0 0.75988526984147597 9.6167639337727451 0 9.6167639337727451 32.472806100471644 0 0 0 0 -19.268619560499623 47.840978535958129 0 47.840978535958129 -4.0587768370314734 0 0 0 0 -72.901285674148312 -6.2990350483087241 0 -6.2990350483087241 174.9060787495182 0 0 0 0 -4.6804893034411084 2.053318914994378 0 2.053318914994378 6.7350007488782353 0 0 0 0 -1.5631985083939712 2.2513788606619585 0 2.2513788606619585 6.2617102124218178 0 0 0 0 0.779609447276159 8.7439873620754156 0 8.7439873620754156 34.762444699808839 0 0 0 0 -32.354459897079437 12.054732417866035 0 12.054732417866035 57.182083415144007 0 0 0 0 17.151785462680834 22.557968057371909 0 22.557968057371909 -5.0943747101700865 0 0 0 0 -20.193686097858574 21.558640369279601 0 21.558640369279601 54.24662542596343 0 0 0 0 -8.9709127388784751 3.042654038049335 0 3.042654038049335 2.9223693333766647 0 0 0 0 -0.2297728528118288 -1.2673894797152627 0 -1.2673894797152627 3.0838024629562568 0 0 0 0 -12.586747711863779 3.5594246580440085 0 3.5594246580440085 36.111836559051881 0 0 0 0 -14.429326246405708 5.8197437235503457 0 5.8197437235503457 34.949973931854402 0 0 0 0 -16.140352384697508 5.6100482112087775 0 5.6100482112087775 34.935934778040973 0 0 0 0 13.160847772181228 19.902820209372294 0 19.902820209372294 11.796664379071444 0 0 0 0 -15.638027697498728 7.6166963650903199 0 7.6166963650903199 35.866093557368004 0 0 0 0 -17.619065619669925 7.3461052291095257 0 7.3461052291095257 35.83968645852292 0 0 0 0 -1.6957100115812409 10.179378405711759 0 10.179378405711759 26.896562362075201 0 0 0 0 -9.2835356392188562 4.8478578462491413 0 4.8478578462491413 19.914286205891131 0 0 0 0 -12.4463833008449 10.608704312617192 0 10.608704312617192 31.322592451120727 0 0 0 0 -0.63063651545484767 6.3486660158056907 0 6.3486660158056907 4.0106975613573113 0 0 0 0 -4.1272437485085902 11.334574833832448 0 11.334574833832448 12.327956185501534 0 0 0 0 1.0513902826655794 7.8851466869673459 0 7.8851466869673459 13.847692460942199 0 0 0 0 -13.948773375269184 2.8039980624853342 0 2.8039980624853342 15.419234003173187 0 0 0 0 -9.4221109878490097 5.466755406363518 0 5.466755406363518 16.488365290573711 0 0 0 0 -3.0020567129086793 4.0894211663937625 0 4.0894211663937625 12.850829036453092 0 0 0 0 -10.382721407842837 6.6156696871403255 0 6.6156696871403255 14.393162939231843 0 0 0 0 -5.9476640205130336 6.3620723743364493 0 6.3620723743364493 9.9628549381080234 0 0 0 0 -9.3007906590086744 2.4522876102037969 0 2.4522876102037969 13.592291332288383 0 0 0 0 -10.743796928632946 9.3416676530614495 0 9.3416676530614495 16.728432427982625 0 0 0 0 -12.595663901126045 9.6032567355432548 0 9.6032567355432548 25.612307708041044 0 0 0 0 -12.22170877966505 11.598896871728357 0 11.598896871728357 23.400750706641702 0 0 0 0 -11.03550082897047 6.0062947032765805 0 6.0062947032765805 31.137238409195561 0 0 0 0 -11.484006953304004 9.8210082027444514 0 9.8210082027444514 25.60169305713498 0 0 0 0 -9.3622042065817368 4.8960601842991309 0 4.8960601842991309 26.263785615365123 0 0 0 0 -1.1318402586262035 5.2920678456654002 0 5.2920678456654002 15.081227848837216 0 0 0 0 -10.456811319834742 8.6649759973806795 0 8.6649759973806795 5.9398412148002535 0 0 0 0 -0.13318548503036531 7.2590942866296295 0 7.2590942866296295 9.7833730050933241 0 0 0 0 -8.1682305313599954 1.8359735506746802 0 1.8359735506746802 19.883850962971337 0 0 0 0 -3.9262054373471074 26.408450981070928 0 26.408450981070928 51.254232527426211 0 0 0 0 -13.480602031604576 -4.5988589077023789 0 -4.5988589077023789 45.041262755887146 0 0 0 0 12.595580937486375 23.638318827361218 0 23.638318827361218 1.4431694206650718 0 0 0 0 0.10652403342198191 0.28536444910238856 0 0.28536444910238856 0.38030349608388292 0 0 0 0 -2.9019454180684079 6.1080813491571462 0 6.1080813491571462 -9.8625474050058983 0 0 0 0 -4.2037955951817647 6.7871282914321398 0 6.7871282914321398 4.7443641917760786 0 0 0 0 -2.1549515093802567 5.7248716222384992 0 5.7248716222384992 18.266868229869544 0 0 0 0 -31.797464729102956 26.490750818939887 0 26.490750818939887 34.556307045830181 0 0 0 0 -15.605655407362974 9.1580455775838345 0 9.1580455775838345 14.332550676837855 0 0 0 0 -7.6636138726783045 2.3047597115110534 0 2.3047597115110534 28.811496296735434 0 0 0 0 -19.172986235997087 -13.977810847980436 0 -13.977810847980436 32.591527303987277 0 0 0 0 -44.197358906918907 9.5106177971028956 0 9.5106177971028956 26.449197022127919 0 0 0 0 -0.57271982249926623 -2.4490215344922035 0 -2.4490215344922035 67.293997390603181 0 0 0 0 12.17640738974842 26.463210373098264 0 26.463210373098264 42.13301780558686 0 0 0 0 16.396123866839957 6.3170739103607048 0 6.3170739103607048 14.117526242218446 0 0 0 0 -3.3323932419425546 2.3187864521896699 0 2.3187864521896699 17.881887630457641 0 0 0 0 1.3555239026804884 14.004269486220437 0 14.004269486220437 17.040521586633986 0 0 0 0 5.2617009997174478 11.075472243063814 0 11.075472243063814 19.234003727848176 0 0 0 0 -46.608693826079616 -11.2339504287811 0 -11.2339504287811 21.180732246080879 0 0 0 0 -16.66757206936677 3.8592134167083714 0 3.8592134167083714 24.059608663665131 0 0 0 0 -0.57672850573426881 4.0470139794711883 0 4.0470139794711883 3.8303686972020046 0 0 0 0 -14.927890579775521 -0.21873963778489269 0 -0.21873963778489269 19.608902932581259 0 0 0 0 -20.004547198935143 4.5675630069163162 0 4.5675630069163162 23.928260484914063 0 0 0 0 -4.292451984592887 6.50469720454001 0 6.50469720454001 18.416711181620542 0 0 0 0 183.05559236841145 -103.12169399281993 0 -103.12169399281993 -63.893908225370978 0 0 0 0 -3.8524519621742002 -21.534818609783542 0 -21.534818609783542 15.120869909413159 0 0 0 0 -21.848535131010522 15.626518191456853 0 15.626518191456853 27.484276139759459 0 0 0 0 -41.367121277806291 12.471379691538459 0 12.471379691538459 45.387065158996847 0 0 0 0 -10.288484667544274 0.36196190575310538 0 0.36196190575310538 12.541604087081396 0 0 0 0 3.1451452597975731 60.08484318137198 0 60.08484318137198 89.513717287889449 0 0 0 0 -98.513364409541282 274.57096870803798 0 274.57096870803798 81.583056836323522 0 0 0 0 -47.679682066604755 4.923889830497501 0 4.923889830497501 30.192182551487349 0 0 0 0 -5.3071811388225569 11.680078465218685 0 11.680078465218685 22.272403904964449 0 0 0 0 -4.9117413776709782 11.47654906500793 0 11.47654906500793 11.166132993850624 0 0 0 0 -0.93887303869468663 1.5038426493934374 0 1.5038426493934374 14.622464159514038 0 0 0 0 -0.41399599957134292 1.5139839170983009 0 1.5139839170983009 1.3930023688790243 0 0 0 0 42.549251023307079 21.912170497689658 0 21.912170497689658 2.9400779281859286 0 0 0 0 -12.743952603165667 9.6515225072052999 0 9.6515225072052999 16.802953053382225 0 0 0 0 -2.3281667925142209 7.0832374828711977 0 7.0832374828711977 15.711459235066968 0 0 0 0 -9.9605745933279195 7.9773891464719782 0 7.9773891464719782 107.64181418603403 0 0 0 0 -25.412108754982 13.041509654358379 0 13.041509654358379 106.13992626982508 0 0 0 0 -24.103643485923612 -23.36459040649811 0 -23.36459040649811 57.441323648701655 0 0 0 0 -17.92756664623721 38.76496641022095 0 38.76496641022095 70.095228133217461 0 0 0 0 -21.554561194928283 -20.968222830226296 0 -20.968222830226296 55.018706800678046 0 0 0 0 -12.207806440734203 78.819524571226793 0 78.819524571226793 82.396998100455676 0 0 0 0 -15.148268565942089 82.503011350549059 0 82.503011350549059 112.48157315609569 0 0 0 0 -40.487474919917986 17.040256892680191 0 17.040256892680191 170.78215042655938 0 0 0 0 -33.6736948842522 101.34970971247822 0 101.34970971247822 155.15049729979364 0 0 0 0 -16.381434919499213 91.300691117525275 0 91.300691117525275 111.90234617990791 0 0 0 0 0.64484115189070601 2.8543556487699746 0 2.8543556487699746 2.088672293319064 0 0 0 0 102.70055546799216 118.66603062930699 0 118.66603062930699 78.950327258178731 0 0 0 0 114.83294047938421 -126.93772021040786 0 -126.93772021040786 94.481338011391927 0 0 0 0 -9.7034765832742096 128.70606880600099 0 128.70606880600099 268.4596828743297 0 0 0 0 -100.06696675367262 -6.6265062922601601 0 -6.6265062922601601 186.25109930432518 0 0 0 0 -48.487117835619756 41.123698641371448 0 41.123698641371448 43.703453240806994 0 0 0 0 -52.335486740762917 8.0011602459198912 0 8.0011602459198912 335.57283941461355 0 0 0 0 -85.980235947573419 -145.96501313521003 0 -145.96501313521003 137.06850547627982 0 0 0 0 163.24043442192192 -25.137167672808573 0 -25.137167672808573 61.15022858401062 0 0 0 0 118.9244018265822 130.67791441213922 0 130.67791441213922 103.51459858137241 0 0 0 0 6.7892573995819703 -46.076100296464574 0 -46.076100296464574 281.33214690460591 0 0 0 0 31.746988402802572 43.458640612036106 0 43.458640612036106 27.770819897559704 0 0 0 0 44.092938036490295 42.019572180259274 0 42.019572180259274 -13.161064819112653 0 0 0 0 35.642583239292122 -5.2937704034811759 0 -5.2937704034811759 -20.274830740410835 0 0 0 0 -22.959830314394452 73.292798097981631 0 73.292798097981631 64.703651920892298 0 0 0 0 -24.001791719419998 51.283723169792211 0 51.283723169792211 60.242609167871706 0 0 0 0 15.523303881099196 -8.5523611243897903 0 -8.5523611243897903 43.87172407899925 0 0 0 0 4.3398620273610504 3.3599830545390432 0 3.3599830545390432 54.569335364780272 0 0 0 0 3.5786549875208493 35.089375908923103 0 35.089375908923103 -14.010582927854557 0 0 0 0 2.8317946736153079 13.443450669213746 0 13.443450669213746 27.688484350234091 0 0 0 0 -12.718530693223101 10.628387727767404 0 10.628387727767404 3.8356509346631356 0 0 0 0 -12.71853069321628 10.628387727745576 0 10.628387727745576 3.8356509346049279 0 0 0 0 -6.3551024477419471 5.3882298118185474 0 5.3882298118185474 8.9743709590147773 0 0 0 0 -12.718530693212415 10.62838772777468 0 10.62838772777468 3.8356509347795509 0 0 0 0 -2.2061717200731437 11.61886276028963 0 11.61886276028963 18.284059697922203 0 0 0 0 1.508791278819217 18.10372580328476 0 18.10372580328476 24.930665125139058 0 0 0 0 2.2299828521304335 16.512316633255978 0 16.512316633255978 21.633969537739176 0 0 0 0 -2.3116327490628379 13.584990128118079 0 13.584990128118079 23.21151251187257 0 0 0 0 -7.5374599197123189 -4.4397802333114669 0 -4.4397802333114669 -0.80084103353874525 0 0 0 0 -0.37471063203926125 0.54279227964320853 0 0.54279227964320853 2.6784215136390088 0 0 0 0 -6.6535476826958577 4.4557471871352163 0 4.4557471871352163 4.9438712403903082 0 0 0 0 -9.1086898003438819 12.290693054921576 0 12.290693054921576 11.20943902907311 0 0 0 0 -10.645386135518379 -7.0457350406140904 0 -7.0457350406140904 -60.052203552331775 0 0 0 0 -28.365383558910025 -48.030889988702256 0 -48.030889988702256 67.643489604568458 0 0 0 0 -10.035620865017272 -0.11023156551823377 0 -0.11023156551823377 14.959016197604342 0 0 0 0 0.75580597110603076 5.5719840217595902 0 5.5719840217595902 2.3600595805872473 0 0 0 0 -1.8926276894062539 12.587418832801632 0 12.587418832801632 18.213189202606372 0 0 0 0 1.6304485751634274 11.387334012062638 0 11.387334012062638 23.465387863208889 0 0 0 0 -1.1951962943486194 10.773757743778333 0 10.773757743778333 21.51320314212353 0 0 0 0 -9.2527678935618987 4.9870212986384246 0 4.9870212986384246 21.98793167792212 0 0 0 0 -14.348217373999205 8.8417756897615618 0 8.8417756897615618 25.798876104796364 0 0 0 0 -5.3931199899157036 11.190375235819374 0 11.190375235819374 22.900331427706988 0 0 0 0 -4.4445810530762593 14.451376430934033 0 14.451376430934033 24.134339674201328 0 0 0 0 7.0632436479235867 10.187720267388585 0 10.187720267388585 18.253860710045075 0 0 0 0 -0.64968668659607687 13.159332169328593 0 13.159332169328593 24.692213995876955 0 0 0 0 -0.17095509819253829 13.005879706807562 0 13.005879706807562 19.738801017511889 0 0 0 0 1.0601949070869523 16.64490451956226 0 16.64490451956226 25.982700927794212 0 0 0 0 -0.63463566285881079 14.252340766295674 0 14.252340766295674 22.538527245749719 0 0 0 0 -262.18766917889519 -322.35184604330425 0 -322.35184604330425 13.934471690736245 0 0 0 0 -128.33303767692342 28.256852081414763 0 28.256852081414763 58.770719253079733 0 0 0 0 -1.1372251241361473 13.169312045569328 0 13.169312045569328 23.721552356323173 0 0 0 0 0.078081283053551331 0.81361946604974378 0 0.81361946604974378 12.45985603662767 0 0 0 0 267.51627666256871 -69.163821244495921 0 -69.163821244495921 -140.32153505695169 0 0 0 0 -192.2571038756127 -356.00009897704513 0 -356.00009897704513 21.503163270419464 0 0 0 0 -138.20446944912692 -253.54517747084901 0 -253.54517747084901 100.14463605015771 0 0 0 0 -9.9069588723796187 16.173984786262736 0 16.173984786262736 27.305709190288326 0 0 0 0 -4.2047153533779085 3.0583100326893202 0 3.0583100326893202 19.623139389643256 0 0 0 0 4.5153891248228319 -1.79175288391707 0 -1.79175288391707 31.735940350015881 0 0 0 0 -2.5661297657774416 5.8844261040358106 0 5.8844261040358106 41.264726289471746 0 0 0 0 -8.912000185818215 12.840815364470473 0 12.840815364470473 32.408556639660674 0 0 0 0 -1.4022643639603074 13.563136241968323 0 13.563136241968323 28.376337389778769 0 0 0 0 -6.8177836139887855 17.947560628001924 0 17.947560628001924 38.145924268449448 0 0 0 0 28.136578749684475 -165.66414480602543 0 -165.66414480602543 2179.5450588053336 0 0 0 0 5.2267636703218159 27.729728518810589 0 27.729728518810589 41.140859789215028 0 0 0 0 8.0919243099836464 17.700171391435347 0 17.700171391435347 33.281615523436699 0 0 0 0 1.3199627456659861 7.7588064087190247 0 7.7588064087190247 9.363986638758945 0 0 0 0 297.63908398153058 -177.53179654989799 0 -177.53179654989799 177.57798391918186 0 0 0 0 -22.312933156106681 190.71910836175084 0 190.71910836175084 -18.630437239771709 0 0 0 0 131.6985253506457 9.9489614015328698 0 9.9489614015328698 370.04835348075721 0 0 0 0 118.80672883206745 -649.42951678931058 0 -649.42951678931058 -181.25835058759549 0 0 0 0 441.65709943641787 -240.19220157618111 0 -240.19220157618111 -104.68440300888324 0 0 0 0 335.17691493039018 244.37540793098378 0 244.37540793098378 -27.150949830072932 0 0 0 0 165.15709343038145 -458.32954825442721 0 -458.32954825442721 889.12397414582665 0 0 0 0 260.68661578556771 940.72353116006707 0 940.72353116006707 2181.6793753873208 0 0 0 0 -206.01181992404554 -135.96706410527258 0 -135.96706410527258 3056.5336678142121 0 0 0 0 -952.2109946921272 731.02447454207868 0 731.02447454207868 4992.6048838280112 0 0 0 0 -233.47548124219537 -294.55508661475324 0 -294.55508661475324 2156.7746154545403 0 0 0 0 -227.74032034880349 -131.26794350931232 0 -131.26794350931232 4972.234946934499 0 0 0 0 4.0952686362627446 6.4752190289826359 0 6.4752190289826359 12.774612252127326 0 0 0 0 341.31577549258941 1693.79485560787 0 1693.79485560787 2555.2716987618478 0 0 0 0 -720.88738602273133 358.82831625386461 0 358.82831625386461 4908.3164102900173 0 0 0 0 -0.82279545176648872 3.4965765734760659 0 3.4965765734760659 8.6759414443919809 0 0 0 0 -239.99304094998408 -710.02383556087989 0 -710.02383556087989 19.734285692655249 0 0 0 0 169.30573826381692 46.909634261366591 0 46.909634261366591 -27.633289695615531 0 0 0 0 401.13481337349867 260.37331668573825 0 260.37331668573825 1.0446868301587529 0 0 0 0 -139.31348424927 47.723414281470468 0 47.723414281470468 311.05568738387592 0 0 0 0 -51.577356580768082 -136.07532221994188 0 -136.07532221994188 186.68366565263568 0 0 0 0 -542.87951785421387 -507.66550273543544 0 -507.66550273543544 148.23406260553747 0 0 0 0 572.99480017847259 489.52174565412497 0 489.52174565412497 311.10704732323939 0 0 0 0 -0.48452445387887222 1.4734772962853739 0 1.4734772962853739 8.0705843375967561 0 0 0 0 6.0003296193222013 7.7276873942901148 0 7.7276873942901148 47.178092421992915 0 0 0 0 27.565094570427391 -4.4388600844104076 0 -4.4388600844104076 19.687416831351584 0 0 0 0 757.61120985089872 531.69100607073051 0 531.69100607073051 302.05683149240213 0 0 0 0 -536.15633035001338 -45.424057514421293 0 -45.424057514421293 891.56625351401453 0 0 0 0 5.6497486392538638 10.365332246239774 0 10.365332246239774 7.5794351914480558 0 0 0 0 20.986150386452209 -104.11838166059169 0 -104.11838166059169 -9.7390695216017775 0 0 0 0 -49.896402440110251 -71.010090680661961 0 -71.010090680661961 36.4939265998255 0 0 0 0 -80.865164859356355 -208.97183871984453 0 -208.97183871984453 24.057498145499267 0 0 0 0 64.289360261163438 -45.61780421056028 0 -45.61780421056028 41.946371416037437 0 0 0 0 2.2024739216858507 8.7649725646479055 0 8.7649725646479055 112.06892516999505 0 0 0 0 -6.226665140431578 -18.9538169454936 0 -18.9538169454936 31.769929352056351 0 0 0 0 -77.433186605873743 -26.165928783833806 0 -26.165928783833806 99.810013353504473 0 0 0 0 -33.280937731617087 -38.883021919682506 0 -38.883021919682506 49.341391691457829 0 0 0 0 2.1613466472616434 9.2594611471704003 0 9.2594611471704003 51.012480065770376 0 0 0 0 -25.080090596742593 9.722780656775285 0 9.722780656775285 65.379251464590197 0 0 0 0 25.807824381814612 -8.3873728267208207 0 -8.3873728267208207 33.677406163100386 0 0 0 0 11.614870344766373 -19.773543721195097 0 -19.773543721195097 53.885460743025732 0 0 0 0 7.4323733447798777 -0.78057843063074017 0 -0.78057843063074017 46.621309112382733 0 0 0 0 22.727921669872217 28.718294382379099 0 28.718294382379099 11.981140617324854 0 0 0 0 -125.19387560885139 173.72347560592607 0 173.72347560592607 -43.333728117548162 0 0 0 0 59.256793651022008 -27.715920670852938 0 -27.715920670852938 -143.1190040356305 0 0 0 0 -150.93119971456235 106.3201724140672 0 106.3201724140672 111.53446374787382 0 0 0 0 2.8738975638988351 5.6341639488170792 0 5.6341639488170792 38.907278893397859 0 0 0 0 13.484665120722525 -12.701156672395882 0 -12.701156672395882 91.616058706771582 0 0 0 0 7.2190605146292484 10.293027129950275 0 10.293027129950275 31.355548766692095 0 0 0 0 511.36792370229415 250.87301478748486 0 250.87301478748486 91.6160587068198 0 0 0 0 312.89038821654867 237.99945924596977 0 237.99945924596977 -296.601100189102 0 0 0 0 443.27294671470656 -193.92375309973977 0 -193.92375309973977 -75.058573610731401 0 0 0 0 498.50129500879183 -830.01362324738875 0 -830.01362324738875 1243.7923246411956 0 0 0 0 506.21735796421729 -657.60352077256903 0 -657.60352077256903 305.52662464947207 0 0 0 0 846.36616076415544 -456.4198607838407 0 -456.4198607838407 -104.06559492820816 0 0 0 0 -621.36765355904629 4.9444372280922835 0 4.9444372280922835 3412.8049739329945 0 0 0 0 -682.90820309708261 -826.53527509509149 0 -826.53527509509149 4992.0133651223587 0 0 0 0 1004.7634945110896 -1273.6225902757978 0 -1273.6225902757978 2224.5542486350314 0 0 0 0 0.96340462809872329 -1.8022219937082227 0 -1.8022219937082227 16.50698974940434 0 0 0 0 623.42102157768932 -647.6575136696556 0 -647.6575136696556 535.1790093528034 0 0 0 0 299.47199869975975 71.411245261399017 0 71.411245261399017 30.54457903385628 0 0 0 0 3.2204777591604485 -3.6095476204461363 0 -3.6095476204461363 13.886175736300316 0 0 0 0 15.323493853258723 -14.21182175276364 0 -14.21182175276364 16.770226183833074 0 0 0 0 -729.1541197513078 428.15309778011942 0 428.15309778011942 1797.9876127136231 0 0 0 0 -794.67194465940702 610.98156168610149 0 610.98156168610149 4994.0192510075967 0 0 0 0 1220.2477360352259 1690.9388382733741 0 1690.9388382733741 2412.6543552379881 0 0 0 0 -1.0674674171162979 -4.6809219073846009 0 -4.6809219073846009 12.462575926211372 0 0 0 0 -384.69266684059085 -74.703881818088121 0 -74.703881818088121 294.8510179133882 0 0 0 0 -436.10684011080468 324.40428764505987 0 324.40428764505987 9.4573058374517132 0 0 0 0 7.2923877327056008 -15.057824441201234 0 -15.057824441201234 25.676017397458054 0 0 0 0 -441.68643864166643 184.36014240272925 0 184.36014240272925 1928.8872309020371 0 0 0 0 138.89607051912049 -265.4628546328313 0 -265.4628546328313 192.01655769747231 0 0 0 0 91.847227260534055 -147.40016596484929 0 -147.40016596484929 -88.277057473809691 0 0 0 0 -9.3843531187993481 -1.532505539388751 0 -1.532505539388751 12.983252972644124 0 0 0 0 -479.70278566225534 -345.10594270785805 0 -345.10594270785805 65.232462422864046 0 0 0 0 22.399944040668743 -36.321944606832403 0 -36.321944606832403 40.205826537152461 0 0 0 0 26.680398313394107 -22.922411909952643 0 -22.922411909952643 42.569783681370609 0 0 0 0 -0.6129040822843308 -9.8234607709164266 0 -9.8234607709164266 14.421594210638432 0 0 0 0 10.437710056659899 -14.545765373538231 0 -14.545765373538231 29.848522424315917 0 0 0 0 10.040654516901057 -19.953020599196208 0 -19.953020599196208 45.931165842023603 0 0 0 0 22.350512439475551 -41.227819932006241 0 -41.227819932006241 38.985775174965966 0 0 0 0 4.1969338749677263 -41.127482485317159 0 -41.127482485317159 45.910860195894202 0 0 0 0 4.1092808704497656 -237.27748043298925 0 -237.27748043298925 14.136860249564052 0 0 0 0 -120.93967715749727 -90.078676438584807 0 -90.078676438584807 37.146428806823678 0 0 0 0 14.035730488611822 -27.067380185824703 0 -27.067380185824703 51.869378524739091 0 0 0 0 -13.783773673544601 -18.24992629704866 0 -18.24992629704866 96.859074521242292 0 0 0 0 -24.633659376872856 -43.303360846903161 0 -43.303360846903161 71.608552550635068 0 0 0 0 63.686607531029949 -24.402340370834281 0 -24.402340370834281 39.362443644576842 0 0 0 0 39.368083664905953 -24.469866157463912 0 -24.469866157463912 64.045049030522932 0 0 0 0 145.27640964789134 -20.698509918671334 0 -20.698509918671334 63.146978048995152 0 0 0 0 18.786667813003987 56.818508279859088 0 56.818508279859088 183.27938215420727 0 0 0 0 46.049034948922781 -84.819687679875642 0 -84.819687679875642 165.76117842058011 0 0 0 0 130.62259894602789 17.047666978242887 0 17.047666978242887 32.332120810446213 0 0 0 0 112.29036812737468 -75.960753895386006 0 -75.960753895386006 55.04823600819509 0 0 0 0 -20.424103498675322 -13.639031664832146 0 -13.639031664832146 50.059812370636791 0 0 0 0 52.798540854037128 -58.645563583901094 0 -58.645563583901094 -5.4285034652566537 0 0 0 0 5.3531787824159522 -2.3298211982034331 0 -2.3298211982034331 14.421765222338252 0 0 0 0 -19.578791223319058 -13.659080811790773 0 -13.659080811790773 140.02226941486879 0 0 0 0 34.088196373428673 64.080370345493066 0 64.080370345493066 -14.536843157708063 0 0 0 0 18.091201218285278 5.9966978077900421 0 5.9966978077900421 21.288314189412631 0 0 0 0 -4.5370704844985461 16.594250408649742 0 16.594250408649742 40.125787812559736 0 0 0 0 3.9157110454821122 1.1155929894703149 0 1.1155929894703149 68.456503702371265 0 0 0 0 -5.0002746075893203 5.2348649222370796 0 5.2348649222370796 53.630231720562534 0 0 0 0 -26.850430187546408 -15.803245654846251 0 -15.803245654846251 69.488071050724102 0 0 0 0 -41.369581452504917 31.784239029191667 0 31.784239029191667 111.79103920531634 0 0 0 0 1.323691514496204 -6.6533473242816399 0 -6.6533473242816399 68.736189035465941 0 0 0 0 1.0815091300584765 15.224065626209949 0 15.224065626209949 54.002427419050974 0 0 0 0 -14.944510848836217 19.640357469485025 0 19.640357469485025 32.026181824272498 0 0 0 0 0.50568006016783329 -1.5424022206352674 0 -1.5424022206352674 81.878505309083266 0 0 0 0 -2.6272841177426027 -4.5152100618052202 0 -4.5152100618052202 50.278043511959538 0 0 0 0 -6.303217473046665 4.0445340374447873 0 4.0445340374447873 30.759753363308164 0 0 0 0 -14.017863450259028 1.2105584011296742 0 1.2105584011296742 26.426948959939182 0 0 0 0 -18.468556850567438 6.4052166391920764 0 6.4052166391920764 21.5622131730197 0 0 0 0 -10.63818480040668 13.429625215451182 0 13.429625215451182 43.373175741703221 0 0 0 0 -10.229549589350274 15.494090687045542 0 15.494090687045542 78.738330298931572 0 0 0 0 -14.142621135998066 5.7066269706398209 0 5.7066269706398209 45.464037326460527 0 0 0 0 -49.238104392104788 -32.7888671389519 0 -32.7888671389519 56.374734998506028 0 0 0 0 -15.132891125789287 -13.136760515604323 0 -13.136760515604323 69.321590383699515 0 0 0 0 11.754993503222067 -54.445024560729507 0 -54.445024560729507 97.815466469095554 0 0 0 0 -46.943283819248791 -22.530076427996391 0 -22.530076427996391 131.43866722694656 0 0 0 0 -1.2843672245005937 4.4744824548166662 0 4.4744824548166662 21.374795315248917 0 0 0 0 0.083510451953770826 3.3267285713081947 0 3.3267285713081947 65.823338240690646 0 0 0 0 -1.128559088255729 -4.3463870534367572 0 -4.3463870534367572 10.20436349755019 0 0 0 0 11.235539503806649 11.099046035145875 0 11.099046035145875 58.402200960816117 0 0 0 0 4.9215593726766658 18.844555147271848 0 18.844555147271848 40.700133002628263 0 0 0 0 -2.3061212176914982 7.4404424061169436 0 7.4404424061169436 34.330246791308582 0 0 0 0 -0.69832203077885424 13.867861358514347 0 13.867861358514347 53.727092578455995 0 0 0 0 -16.58876701310156 23.693321622694384 0 23.693321622694384 33.027673019707436 0 0 0 0 -1.747448468586299 8.7863080513852765 0 8.7863080513852765 58.689095662707587 0 0 0 0 -2.7708738791504071 3.4009274440086479 0 3.4009274440086479 38.576571803603485 0 0 0 0 -83.764320206935736 -28.090058370944462 0 -28.090058370944462 55.705914269841742 0 0 0 0 6.368752148655485 -4.940152541151889 0 -4.940152541151889 34.262247436818882 0 0 0 0 -16.293918151139223 -49.571340119378874 0 -49.571340119378874 34.698267931264127 0 0 0 0 -2.5239103284994142 10.83193837218667 0 10.83193837218667 24.203895977027202 0 0 0 0 3.0703109605324244 23.393523584716604 0 23.393523584716604 50.915102195307554 0 0 0 0 -9.5410187572206269 -28.606013506287127 0 -28.606013506287127 43.304795435084088 0 0 0 0 -25.10495807589524 -49.512621546884475 0 -49.512621546884475 25.217075475375168 0 0 0 0 -77.733183715562063 36.400243672454963 0 36.400243672454963 49.68037215534423 0 0 0 0 -144.90779812118041 10.524535769996874 0 10.524535769996874 101.25592146016425 0 0 0 0 -1.1368273887615854 8.4641076063121741 0 8.4641076063121741 28.934164630991347 0 0 0 0 -55.571575652388674 -29.81623043084619 0 -29.81623043084619 181.34813417639816 0 0 0 0 -32.486631571474391 -5.7267375768351485 0 -5.7267375768351485 54.737164684265736 0 0 0 0 -103.62079138683202 89.322134076413931 0 89.322134076413931 -36.696196339878952 0 0 0 0 -108.7993303876865 -0.10026426393233123 0 -0.10026426393233123 114.98161058437836 0 0 0 0 -40.42210298089563 -35.024819299957244 0 -35.024819299957244 67.084656636056025 0 0 0 0 -13.951688378235891 -0.71341439648389837 0 -0.71341439648389837 74.444571409332013 0 0 0 0 -7.9327497527546935 -8.3403484031462654 0 -8.3403484031462654 18.889827936668979 0 0 0 0 -38.100353959367567 -83.878694272432767 0 -83.878694272432767 15.031273356202291 0 0 0 0 68.685070908537995 -9.0377506906515919 0 -9.0377506906515919 0.44925903495459352 0 0 0 0 -10.815464368665744 -47.086710627831053 0 -47.086710627831053 32.739010685967514 0 0 0 0 -10.441763288048605 -51.939422077630297 0 -51.939422077630297 33.481746503093746 0 0 0 0 -100.04924210575217 -7.1045854838575906 0 -7.1045854838575906 20.088797444943339 0 0 0 0 0.77544859561650581 5.1452275186699037 0 5.1452275186699037 21.024551079848891 0 0 0 0 -0.56136614642872473 7.5752906631532824 0 7.5752906631532824 29.987013355683303 0 0 0 0 108.68340247711427 -50.793982393901388 0 -50.793982393901388 -8.6424984511977527 0 0 0 0 -7.4826673350783892 55.96782247118972 0 55.96782247118972 41.684028554271208 0 0 0 0 31.715891371552061 69.042162556601397 0 69.042162556601397 4.9759076738846488 0 0 0 0 -48.966804741393389 11.447112690511858 0 11.447112690511858 16.508752121939324 0 0 0 0 -2.1747010267427718 -2.2114936560155911 0 -2.2114936560155911 5.7922370916894295 0 0 0 0 33.975228624588453 53.740844571431808 0 53.740844571431808 25.983655520802131 0 0 0 0 32.441625574996579 55.475475825645844 0 55.475475825645844 24.073662814713316 0 0 0 0 43.883884418188245 52.597800043775351 0 52.597800043775351 10.095099738944555 0 0 0 0 56.052658125144262 32.183675543063146 0 32.183675543063146 32.076681699516485 0 0 0 0 10.627521524527765 9.5442137020945665 0 9.5442137020945665 36.908880629300256 0 0 0 0 21.053755350234496 46.005537565448321 0 46.005537565448321 30.165145695787942 0 0 0 0 14.471998098955737 66.535817431897158 0 66.535817431897158 73.779948425864859 0 0 0 0 -68.175133680419094 -152.93722223684745 0 -152.93722223684745 196.80914456497521 0 0 0 0 24.781875754848443 24.823913166848797 0 24.823913166848797 94.394162941724062 0 0 0 0 2.3524096377797967 22.683023926125429 0 22.683023926125429 66.787198571108775 0 0 0 0 -24.574167551580103 46.02634483660222 0 46.02634483660222 63.68597213983594 0 0 0 0 -7.9110946539331053 27.534029855887638 0 27.534029855887638 7.5992101445735898 0 0 0 0 -57.082547449932463 130.25384213013785 0 130.25384213013785 103.86606615062919 0 0 0 0 3.6400345956315725 18.259429254585683 0 18.259429254585683 47.271119820533613 0 0 0 0 3.194769095204034 -11.118064452545454 0 -11.118064452545454 50.837874898056555 0 0 0 0 7.5035798488879433 23.920994494569683 0 23.920994494569683 34.229637516002271 0 0 0 0 -125.51198959796966 11.183682012881036 0 11.183682012881036 291.06781549702282 0 0 0 0 97.260568772198894 -27.09363917063456 0 -27.09363917063456 -23.674114229535917 0 0 0 0 -13.093517459015857 -137.33818084165978 0 -137.33818084165978 300.98169855869492 0 0 0 0 1.1320596773012852 0.8818012634948218 0 0.8818012634948218 0.86845894038016525 0 0 0 0 75.453431841235215 -17.249637266719219 0 -17.249637266719219 37.863116193562746 0 0 0 0 4.4553066639410979 11.564491664307752 0 11.564491664307752 47.057600096048162 0 0 0 0 113.41016595562087 113.24045437118912 0 113.24045437118912 127.72905968670966 0 0 0 0 55.702520311184344 -69.636967555314186 0 -69.636967555314186 61.789793388554244 0 0 0 0 107.18859948181034 43.154481620207662 0 43.154481620207662 11.428477492921957 0 0 0 0 36.752616440684506 100.8399282799146 0 100.8399282799146 96.62612286338117 0 0 0 0 4.0185558582098722 -6.9459485351451633 0 -6.9459485351451633 18.888839739981506 0 0 0 0 65.643053789080113 1.4619692920387024 0 1.4619692920387024 35.886523718014359 0 0 0 0 -36.910009759509194 -80.064071192267875 0 -80.064071192267875 182.63940506341169 0 0 0 0 32.563265497799875 235.20395174729492 0 235.20395174729492 356.69205934231286 0 0 0 0 -69.020928080261001 76.252006907088798 0 76.252006907088798 150.31050592389056 0 0 0 0 -70.645922504276314 85.337741024628485 0 85.337741024628485 117.09999794667237 0 0 0 0 -48.055261167215576 47.925386157130561 0 47.925386157130561 145.64263977856899 0 0 0 0 -49.667089784334166 60.626746667403495 0 60.626746667403495 86.509363804507302 0 0 0 0 73.968225881567378 85.723012617701897 0 85.723012617701897 38.521492613304872 0 0 0 0 7.8440554045537283 123.09193217317807 0 123.09193217317807 144.55994733933949 0 0 0 0 38.555283887134664 40.70098591788701 0 40.70098591788701 22.265702409567893 0 0 0 0 -1.4032280503120091 -81.408634736799286 0 -81.408634736799286 39.856911048671464 0 0 0 0 -15.406050056061758 -42.219653446547454 0 -42.219653446547454 47.087834106758237 0 0 0 0 60.254431133329263 -75.355403808600386 0 -75.355403808600386 29.52401976211695 0 0 0 0 -29.165070943822229 -46.604884452121041 0 -46.604884452121041 55.323073740932159 0 0 0 0 -3.1231833782701415 -147.62443401992641 0 -147.62443401992641 394.31564736866858 0 0 0 0 301.94636402301001 165.22821203885542 0 165.22821203885542 75.923999805865606 0 0 0 0 0.89783817031090751 3.9100031386858909 0 3.9100031386858909 6.7943869090671569 0 0 0 0 287.73559576221464 -78.373117685856414 0 -78.373117685856414 33.501228251330758 0 0 0 0 341.62356919491356 -223.18308477979735 0 -223.18308477979735 116.45965189748676 0 0 0 0 42.024128441555831 236.84582509687607 0 236.84582509687607 387.09972169848436 0 0 0 0 -41.723904587079915 69.735408283002471 0 69.735408283002471 94.693194951134501 0 0 0 0 383.67728542885766 143.56415148069209 0 143.56415148069209 -14.572354757401627 0 0 0 0 45.208671986794855 54.572914062358905 0 54.572914062358905 5.6332027824246325 0 0 0 0 -88.088035272679917 -293.86615159625217 0 -293.86615159625217 26.745740867149863 0 0 0 0 -123.68712566174509 -12.356142247401294 0 -12.356142247401294 28.396707830484957 0 0 0 0 -71.572460466630218 -143.29221930362837 0 -143.29221930362837 480.44524580353755 0 0 0 0 -85.007450272157257 1.9997891924358555 0 1.9997891924358555 27.988321132332203 0 0 0 0 -262.07732648985257 -56.987930955860065 0 -56.987930955860065 169.98061472429254 0 0 0 0 -7.6007934822070986 -6.3088085302341455 0 -6.3088085302341455 65.31973925181444 0 0 0 0 -9.8406645007524034 -11.000247316164717 0 -11.000247316164717 37.712745238072415 0 0 0 0 -7.7875933767136303 -10.868284302661777 0 -10.868284302661777 -19.22435628256062 0 0 0 0 279.47687006457863 133.12920771490462 0 133.12920771490462 75.524884870101232 0 0 0 0 -2.3609664444967304 -2.3311468237839676 0 -2.3311468237839676 17.948872611968909 0 0 0 0 -13.632057811556933 40.817731130424363 0 40.817731130424363 0.3382236130637466 0 0 0 0 -58.654921644955266 35.277264445699984 0 35.277264445699984 543.32461254487862 0 0 0 0 40.027224385252339 -103.98438555758185 0 -103.98438555758185 184.59659744222881 0 0 0 0 -2.0789311390272971 3.0151339210774353 0 3.0151339210774353 8.2278781883156853 0 0 0 0 651.5489788787504 412.78494464817413 0 412.78494464817413 150.76794488466112 0 0 0 0 -39.207066376473449 355.46239339522435 0 355.46239339522435 408.80648555815424 0 0 0 0 -397.30053350530056 -110.34778500306675 0 -110.34778500306675 192.0776320885634 0 0 0 0 153.58624818130465 -219.52843103154009 0 -219.52843103154009 131.71589028490052 0 0 0 0 95.094749980219149 188.85647865306964 0 188.85647865306964 112.53715462076252 0 0 0 0 258.0227386290407 367.8359604071311 0 367.8359604071311 296.9006466857536 0 0 0 0 -114.49791264421009 182.25811919038097 0 182.25811919038097 116.37023759381555 0 0 0 0 27.737451658530063 17.552888555721438 0 17.552888555721438 79.167163859427092 0 0 0 0 215.39238295004952 153.52070994594396 0 153.52070994594396 88.789110033263569 0 0 0 0 99.501430094098055 270.13349545469828 0 270.13349545469828 56.072573698183987 0 0 0 0 107.67173755918509 238.05049948362284 0 238.05049948362284 24.491529992839787 0 0 0 0 87.60705429294029 230.80768231823549 0 230.80768231823549 133.13728034951782 0 0 0 0 36.340508542096359 141.09719921730721 0 141.09719921730721 212.5283497276323 0 0 0 0 -35.606853658595355 68.469779721504892 0 68.469779721504892 108.34780269049224 0 0 0 0 -6.990311502524694 -8.7154784605824176 0 -8.7154784605824176 35.217127862404254 0 0 0 0 -2.2017501868806635 0.55638754688678205 0 0.55638754688678205 9.1303672278595513 0 0 0 0 13.122701956759556 -0.80181226589775179 0 -0.80181226589775179 -6.6551010313705774 0 0 0 0 0.82450777584699608 25.46459929010598 0 25.46459929010598 -14.661584883113392 0 0 0 0 4.2896166666560021 23.823759682898526 0 23.823759682898526 -13.984632218925981 0 0 0 0 13.560622644241448 67.057371550527023 0 67.057371550527023 107.2256012155849 0 0 0 0 14.752051447520145 -109.11296975493678 0 -109.11296975493678 167.80990399850998 0 0 0 0 -7.0594736027665821 -14.86909996962811 0 -14.86909996962811 32.698555866009883 0 0 0 0 195.16388730126837 -4.2675058883396559 0 -4.2675058883396559 -181.86047524935566 0 0 0 0 5.1020355964961368 -117.92534732581407 0 -117.92534732581407 -139.84175646216318 0 0 0 0 10.668744790858909 114.83415552366205 0 114.83415552366205 70.583132576197386 0 0 0 0 78.557328561891836 68.425051125654136 0 68.425051125654136 -46.543948125749012 0 0 0 0 -4.2530233107269737 25.988905817794148 0 25.988905817794148 -11.181234760704683 0 0 0 0 -2.3505514073412996 24.306440974112775 0 24.306440974112775 -10.464441664313199 0 0 0 0 -33.043505789833944 53.465958587694331 0 53.465958587694331 32.031512465146079 0 0 0 0 -88.643030546472119 81.537818069530658 0 81.537818069530658 83.485691564332228 0 0 0 0 -411.45274912866626 0.36887374172511045 0 0.36887374172511045 207.97602013495634 0 0 0 0 -0.12386039722207776 4.2908806037412006 0 4.2908806037412006 81.466176217498855 0 0 0 0 -223.44517646950135 92.454823066625977 0 92.454823066625977 92.004416365860379 0 0 0 0 -283.65596728667578 -8.7716653240377127 0 -8.7716653240377127 81.220994242088636 0 0 0 0 -154.78806161213561 -46.123939506040188 0 -46.123939506040188 29.192603377014166 0 0 0 0 -0.43493243864828335 2.7047082477300002 0 2.7047082477300002 62.922873504545009 0 0 0 0 -30.476973282869039 -13.443412215849094 0 -13.443412215849094 27.465546264902514 0 0 0 0 4.3359059017057007 15.90138855103578 0 15.90138855103578 49.642017689468048 0 0 0 0 59.335289603800447 -78.168264303800242 0 -78.168264303800242 42.663021242711693 0 0 0 0 -160.30430734377478 -18.947359951591352 0 -18.947359951591352 44.275533976760926 0 0 0 0 -191.77264208045017 -23.903844915876107 0 -23.903844915876107 66.677621407579863 0 0 0 0 -220.51059062965396 -41.090771063114516 0 -41.090771063114516 56.44204487328534 0 0 0 0 24.246410514699164 -91.865471840748796 0 -91.865471840748796 34.500335636093951 0 0 0 0 0.0871679437450672 -5.3552951773313744 0 -5.3552951773313744 43.554907635203563 0 0 0 0 -6.4120442339016277 -4.1933229437373427 0 -4.1933229437373427 42.581762101624065 0 0 0 0 -47.717023118081215 80.381642818138062 0 80.381642818138062 72.836411232117825 0 0 0 0 192.76958562803839 116.73369149279824 0 116.73369149279824 38.696958183092647 0 0 0 0 -140.4852002076841 33.150063335924642 0 33.150063335924642 34.736739175212278 0 0 0 0 -73.111757205249887 20.267181720380904 0 20.267181720380904 36.44277973413773 0 0 0 0 -181.758508737189 34.189683842807426 0 34.189683842807426 82.592671935912222 0 0 0 0 -160.67049534918678 -11.679049694387004 0 -11.679049694387004 55.072210897080367 0 0 0 0 -18.803002463421763 -15.214956782241643 0 -15.214956782241643 30.442236924209283 0 0 0 0 -57.925829674664556 2.7485446171958756 0 2.7485446171958756 24.731888859852916 0 0 0 0 -85.818686880458699 -8.1936937499413034 0 -8.1936937499413034 90.496134805784095 0 0 0 0 -83.233789775750893 -0.59283517341100378 0 -0.59283517341100378 91.992723565868801 0 0 0 0 -155.8029440154196 7.6370916094674612 0 7.6370916094674612 112.67184540256858 0 0 0 0 -76.428471395416636 7.5811936841782881 0 7.5811936841782881 43.214562425906479 0 0 0 0 -55.044440260413467 51.613579911470879 0 51.613579911470879 130.22037296606868 0 0 0 0 25.221429053361135 318.95451460490585 0 318.95451460490585 394.97267110664689 0 0 0 0 -141.35624348370811 104.52638361164281 0 104.52638361164281 441.61610839131754 0 0 0 0 -4.6171238539009209 98.949327277383418 0 98.949327277383418 144.65756127943314 0 0 0 0 -83.869968795039313 -28.407951142376987 0 -28.407951142376987 122.10052550668479 0 0 0 0 -166.44542959597766 -12.139691328040499 0 -12.139691328040499 185.58844665938523 0 0 0 0 17.55408046552202 -34.720093003998045 0 -34.720093003998045 86.500534695398528 0 0 0 0 -169.55406726907984 -194.98856860046908 0 -194.98856860046908 -49.958269567519892 0 0 0 0 -143.59427121531553 -25.544463920858107 0 -25.544463920858107 257.93765313405311 0 0 0 0 218.00688521490883 598.09702175211714 0 598.09702175211714 -435.05060257570585 0 0 0 0 -471.82855634664173 -567.66125770682265 0 -567.66125770682265 101.8641409961856 0 0 0 0 -656.32044912610445 -260.13530420148163 0 -260.13530420148163 1580.9508537672809 0 0 0 0 244.05436842910058 97.020346009696368 0 97.020346009696368 -193.22970737682772 0 0 0 0 5.9399181509425034 141.78624825444422 0 141.78624825444422 -123.3377380407037 0 0 0 0 -12.66907251575833 101.63700244914799 0 101.63700244914799 -80.995554126886418 0 0 0 0 -55.935177071882208 160.09386352397269 0 160.09386352397269 -89.928866297617787 0 0 0 0 124.17707203983809 56.48965643486008 0 56.48965643486008 -74.782344165403629 0 0 0 0 21.754584746737237 110.82892358404206 0 110.82892358404206 -54.721040574193466 0 0 0 0 -276.16924501393868 105.95864301161055 0 105.95864301161055 17.063316629384644 0 0 0 0 -133.42023107518662 222.8777319403307 0 222.8777319403307 -187.78914640430594 0 0 0 0 -5.6197474152834319 3.9167642030222396 0 3.9167642030222396 -2.4196730070792682 0 0 0 0 299.8560741147852 -30.97051726790005 0 -30.97051726790005 59.333493195648771 0 0 0 0 316.10765522068687 410.47184850971098 0 410.47184850971098 214.95060134804226 0 0 0 0 96.881167397499212 85.680043604039383 0 85.680043604039383 118.55891177215381 0 0 0 0 -116.06371347852564 112.52158831813722 0 112.52158831813722 198.01437781385903 0 0 0 0 -122.75919271110797 36.492490379998344 0 36.492490379998344 -28.797907636355376 0 0 0 0 -39.177650731166523 68.652739347933675 0 68.652739347933675 63.873730492981849 0 0 0 0 -212.90681454947207 57.422797384191654 0 57.422797384191654 229.51635396601341 0 0 0 0 -154.43908551138065 179.83790086754016 0 179.83790086754016 159.4403133358428 0 0 0 0 -4.6673480326385146 12.729326447560652 0 12.729326447560652 12.274761739012945 0 0 0 0 -252.38119079842181 135.39992010877177 0 135.39992010877177 247.65207591273793 0 0 0 0 -15.473317095424642 14.813426184945115 0 14.813426184945115 -3.8390573156438563 0 0 0 0 49.390717365453384 123.60582493024413 0 123.60582493024413 70.510434129857458 0 0 0 0 -2.1600105268886116 3.5472103136126778 0 3.5472103136126778 97.44825732498407 0 0 0 0 -219.92202116196438 -30.53323885188729 0 -30.53323885188729 0.56794836904737167 0 0 0 0 -12.840858734541641 5.3432512617373504 0 5.3432512617373504 36.09655128189479 0 0 0 0 -14.112214829498029 -10.317922603117944 0 -10.317922603117944 42.085870831473528 0 0 0 0 -78.685575406536486 -20.922793313715374 0 -20.922793313715374 -10.909861084888689 0 0 0 0 -223.85781453024265 -109.9854037788391 0 -109.9854037788391 123.68999092254671 0 0 0 0 -9.8182903214609762 0.91108142228476652 0 0.91108142228476652 56.800650625755907 0 0 0 0 -114.28642332500021 -127.05064246359689 0 -127.05064246359689 110.10360012992169 0 0 0 0 -12.267640796591394 11.248034042219444 0 11.248034042219444 48.268654319032805 0 0 0 0 -14.193799095766705 -7.7029620456268901 0 -7.7029620456268901 69.890019180867625 0 0 0 0 -35.833237052760921 -8.6629391897549795 0 -8.6629391897549795 28.09980719719897 0 0 0 0 -144.51065847523296 -3.3629053540644236 0 -3.3629053540644236 71.566996715497226 0 0 0 0 -141.03118415268409 -191.77226288127713 0 -191.77226288127713 -1.8904119188955519 0 0 0 0 1.0222098833001541 9.2757703938469831 0 9.2757703938469831 13.884073386082548 0 0 0 0 -6.8675958803723622 3.7441764206268289 0 3.7441764206268289 6.7062121587048864 0 0 0 0 -30.507112795846979 -30.848713955543644 0 -30.848713955543644 10.288635686825728 0 0 0 0 -46.629760576862736 9.1046160000551026 0 9.1046160000551026 16.100038160744589 0 0 0 0 -22.483956504844798 4.2392670712724794 0 4.2392670712724794 0.72007452044636011 0 0 0 0 -30.300242389605046 76.63088135945145 0 76.63088135945145 104.48029456772929 0 0 0 0 -60.943744347370739 47.949228076540749 0 47.949228076540749 27.11577781442611 0 0 0 0 -8.1003240066812054 91.824582389021089 0 91.824582389021089 58.127116386895068 0 0 0 0 -44.902593263863764 116.57928020758845 0 116.57928020758845 38.519686844287207 0 0 0 0 -35.911235938375626 110.79501680747217 0 110.79501680747217 91.857381908950629 0 0 0 0 -9.468718521099845 118.25924234687045 0 118.25924234687045 46.718344279448502 0 0 0 0 -22.412527566185418 87.301148110345821 0 87.301148110345821 67.948308252467541 0 0 0 0 -16.326527202592843 123.56790676372475 0 123.56790676372475 -25.255273648857838 0 0 0 0 0.10422856620016319 89.723153302264109 0 89.723153302264109 44.096528093126835 0 0 0 0 1.5366782557211991 91.22525242442498 0 91.22525242442498 -29.642227765085408 0 0 0 0 -81.498672275236459 105.79257739789318 0 105.79257739789318 7.3729354634712365 0 0 0 0 -179.98357607986281 102.91776466649026 0 102.91776466649026 7.3718783978256397 0 0 0 0 -151.29899434373829 43.203264008167025 0 43.203264008167025 3.8138006385997869 0 0 0 0 -112.11128993021703 44.529937772080302 0 44.529937772080302 3.6825876403872826 0 0 0 0 -112.92692753510164 59.364747028637794 0 59.364747028637794 28.669048582378309 0 0 0 0 -63.524253961777049 89.026431250058522 0 89.026431250058522 22.895788408786757 0 0 0 0 -3.9614789449835683 1.6115083248919309 0 1.6115083248919309 1.9177733107422341 0 0 0 0 -18.694050880915711 -12.251586953847436 0 -12.251586953847436 8.5940130211383803 0 0 0 0 189.92100935911549 102.05242024274776 0 102.05242024274776 36.053877227386693 0 0 0 0 56.560272955531218 91.041229432063119 0 91.041229432063119 70.915149735868908 0 0 0 0 123.67458663097477 59.590325304969156 0 59.590325304969156 27.563150982372463 0 0 0 0 55.190942744306994 79.187108210317092 0 79.187108210317092 -25.084541796415579 0 0 0 0 61.672807570929308 80.776516036337853 0 80.776516036337853 40.11647947858728 0 0 0 0 55.921437532051641 77.222866289077501 0 77.222866289077501 65.427566172416846 0 0 0 0 -10.377384983061043 3.5731396964226576 0 3.5731396964226576 11.456057837689059 0 0 0 0 -15.512754967960518 9.4594008112617303 0 9.4594008112617303 18.860074312175129 0 0 0 0 -16.10719750033968 11.410816487565171 0 11.410816487565171 20.326969684421783 0 0 0 0 -24.372310521802774 10.694485748710576 0 10.694485748710576 22.280189040349796 0 0 0 0 -13.068308172739307 9.1912154464953346 0 9.1912154464953346 18.886862775922054 0 0 0 0 -2.5458074666494213 10.333068120380631 0 10.333068120380631 14.867951936976169 0 0 0 0 -8.4338209492339047 15.46060090316314 0 15.46060090316314 11.650872752041323 0 0 0 0 -3.0561568012878979 17.059016849136242 0 17.059016849136242 5.6281934977741912 0 0 0 0 -7.3219555811178907 11.524033883761149 0 11.524033883761149 9.4425498808996053 0 0 0 0 -18.410303960501622 8.2350170890956917 0 8.2350170890956917 11.922287896334808 0 0 0 0 57.177083062334532 65.280747974818951 0 65.280747974818951 123.50298074496095 0 0 0 0 -39.644974698524493 15.955360145955638 0 15.955360145955638 47.392020134400809 0 0 0 0 57.336622097740474 185.06806741874607 0 185.06806741874607 -27.264290178456577 0 0 0 0 31.896656507980197 13.539283288381426 0 13.539283288381426 3.224614751344518 0 0 0 0 -18.603985282914529 15.8399791187868 0 15.8399791187868 6.897648674686593 0 0 0 0 -20.519589932964664 47.983025099041697 0 47.983025099041697 -8.9419772825785913 0 0 0 0 5.8325280757757785 5.0913197146924745 0 5.0913197146924745 3.4157146927935855 0 0 0 0 -3.7432315621135785 -27.839440385447233 0 -27.839440385447233 14.201046512229368 0 0 0 0 21.528906539739182 74.324507340024866 0 74.324507340024866 189.40797111330903 0 0 0 0 25.708229823737838 124.00998160734889 0 124.00998160734889 61.098155917548866 0 0 0 0 109.12746144983021 102.41239424941887 0 102.41239424941887 106.51407812080288 0 0 0 0 41.506044561833733 73.057232755149016 0 73.057232755149016 194.45875572346267 0 0 0 0 46.867928861703604 31.389260704847402 0 31.389260704847402 453.02065684655099 0 0 0 0 26.623109162612991 -132.11895004056851 0 -132.11895004056851 -15.08220823193551 0 0 0 0 80.884585208154022 50.204701420021593 0 50.204701420021593 132.65948296213173 0 0 0 0 69.650522771436954 5.5536487821373157 0 5.5536487821373157 -41.666271693626186 0 0 0 0 94.992330638274325 24.307052492818912 0 24.307052492818912 -91.453791255422402 0 0 0 0 210.94262089604786 -18.417138574790442 0 -18.417138574790442 -123.00712583641871 0 0 0 0 12.321657679270816 2.9096066820450801 0 2.9096066820450801 1.5162311901221983 0 0 0 0 -125.08849160086538 105.36730770312715 0 105.36730770312715 909.70503194125922 0 0 0 0 156.58994987073493 -50.967899971321458 0 -50.967899971321458 -128.87982986938005 0 0 0 0 50.508364966064619 519.2088061497052 0 519.2088061497052 611.27894682434271 0 0 0 0 21.990585880808794 36.668197663253522 0 36.668197663253522 126.66324819047622 0 0 0 0 122.88394552743011 181.52174388863205 0 181.52174388863205 108.98094778502127 0 0 0 0 70.770939418683611 264.21424786177886 0 264.21424786177886 333.02166505975765 0 0 0 0 18.270111848192755 142.74878929197439 0 142.74878929197439 257.30829888809239 0 0 0 0 11.45976744573295 114.58289740793134 0 114.58289740793134 297.89339994179318 0 0 0 0 -36.869635764302984 -28.282697301801818 0 -28.282697301801818 102.17566790569981 0 0 0 0 25.274136041864608 24.039946901633812 0 24.039946901633812 91.441455125313951 0 0 0 0 -31.15998528244927 -9.7342921534291236 0 -9.7342921534291236 100.11760657457853 0 0 0 0 23.07611759861652 -5.2642135350615717 0 -5.2642135350615717 -19.900612576006097 0 0 0 0 -41.904258729774028 46.769934915893828 0 46.769934915893828 -21.264830815062169 0 0 0 0 -137.4749620180155 86.424733157276933 0 86.424733157276933 115.91679372896033 0 0 0 0 0.045612846021669817 1.8712669367757115 0 1.8712669367757115 5.2743286157076454 0 0 0 0 -20.713891436700123 11.41520130988647 0 11.41520130988647 -10.795668034421396 0 0 0 0 0.89978815401866541 17.225431352446321 0 17.225431352446321 335.09273811905587 0 0 0 0 32.482040683518562 -87.092149312389665 0 -87.092149312389665 104.49669908098804 0 0 0 0 74.012008271051855 148.63117499531654 0 148.63117499531654 8.127247308693768 0 0 0 0 17.198434970899825 207.66881359833496 0 207.66881359833496 315.28808554777061 0 0 0 0 69.948182375166652 263.12496212525002 0 263.12496212525002 100.5066300051476 0 0 0 0 -0.15226601076899104 0.92740128835241364 0 0.92740128835241364 2.8951605917964685 0 0 0 0 -48.984655883228015 51.930071762737498 0 51.930071762737498 347.08376379244146 0 0 0 0 108.81976235523507 213.48759510356467 0 213.48759510356467 291.69766431863536 0 0 0 0 21.271436087323167 215.33877053576316 0 215.33877053576316 346.24570523141301 0 0 0 0 155.11379683505663 116.48798651122343 0 116.48798651122343 171.10193974038702 0 0 0 0 0.40207101013163538 63.972319182983483 0 63.972319182983483 303.46982902115269 0 0 0 0 -0.41206310052609751 108.74698695804545 0 108.74698695804545 166.84355706436327 0 0 0 0 -31.280174809548726 90.552586741890991 0 90.552586741890991 207.92493943555019 0 0 0 0 84.77859396566987 120.49059947277419 0 120.49059947277419 76.565911957048229 0 0 0 0 94.313472763569166 208.74762329515943 0 208.74762329515943 245.9823337650123 0 0 0 0 69.869593386920599 79.970351236229362 0 79.970351236229362 162.47588429629104 0 0 0 0 0.21692988067766361 0.37255565056153728 0 0.37255565056153728 0.11905399755062263 0 0 0 0 -51.14161513993821 117.88218786573998 0 117.88218786573998 198.65759034900111 0 0 0 0 49.257039570236657 139.62283451207622 0 139.62283451207622 268.28999703886802 0 0 0 0 82.489476148592217 105.25499308715553 0 105.25499308715553 196.01652135350741 0 0 0 0 58.755924821965635 66.720620694914032 0 66.720620694914032 267.82277440029429 0 0 0 0 1.4741101314169214 88.331081308297144 0 88.331081308297144 496.79988253672491 0 0 0 0 15.494722330918194 11.4834380895918 0 11.4834380895918 315.20824125756189 0 0 0 0 -0.24659772313822437 101.37331094493857 0 101.37331094493857 605.50206364947371 0 0 0 0 87.796583494141373 74.11711259024014 0 74.11711259024014 544.77392517164117 0 0 0 0 63.827519952492366 5.3807015488418983 0 5.3807015488418983 535.44255472366058 0 0 0 0 47.879552107933591 173.99183630073094 0 173.99183630073094 404.53733113098133 0 0 0 0 -0.021930806684369752 0.2309190892640629 0 0.2309190892640629 0.61032040912442653 0 0 0 0 0.10227420237392852 101.37196527016204 0 101.37196527016204 235.63852535682963 0 0 0 0 0.042248325742121673 0.17641254223894975 0 0.17641254223894975 0.77511794417983992 0 0 0 0 30.187263714178044 78.014672362471174 0 78.014672362471174 198.28752255892323 0 0 0 0 41.564572729964141 162.92288899924461 0 162.92288899924461 258.21447476529283 0 0 0 0 48.193560356485818 109.55072707053478 0 109.55072707053478 37.958834018761991 0 0 0 0 16.271035872751668 86.288629106406006 0 86.288629106406006 162.29281063275266 0 0 0 0 -0.03449441360775593 119.69993249209801 0 119.69993249209801 157.16505507771217 0 0 0 0 23.089344422315445 55.362764871606487 0 55.362764871606487 64.829980833339505 0 0 0 0 -0.070529618968615343 11.531731598770421 0 11.531731598770421 -195.80422149947844 0 0 0 0 -24.473353342648767 115.96853964588081 0 115.96853964588081 -23.673613545281114 0 0 0 0 -33.612611770401429 85.469175058999099 0 85.469175058999099 58.492705219476193 0 0 0 0 26.857958993189129 76.094050678701024 0 76.094050678701024 -29.06130070250947 0 0 0 0 10.73641394870009 93.928186563374766 0 93.928186563374766 -38.069513365917373 0 0 0 0 48.665941042457803 33.180495316337328 0 33.180495316337328 -128.74510846278281 0 0 0 0 14.968675893013735 101.24651793742669 0 101.24651793742669 -167.36635764985112 0 0 0 0 -21.98721757267586 -36.793178393621929 0 -36.793178393621929 -66.812397989073361 0 0 0 0 1.4307294884462205 1.7066323527672438 0 1.7066323527672438 -0.59647270119580753 0 0 0 0 34.516532485486664 -4.8165382314327871 0 -4.8165382314327871 -224.11012714880053 0 0 0 0 -5.5341823579402085 30.096116662669374 0 30.096116662669374 -86.244742242968641 0 0 0 0 -24.754847064414349 -54.419421426631743 0 -54.419421426631743 -106.59455477527808 0 0 0 0 29.196937981661833 11.799076401061029 0 11.799076401061029 -95.612895234371535 0 0 0 0 35.200413356010358 3.279595220592455 0 3.279595220592455 -74.78861186352151 0 0 0 0 30.815888007168766 9.8628526401480485 0 9.8628526401480485 -62.820179631962674 0 0 0 0 34.335964606798598 0.011201362562132999 0 0.011201362562132999 -116.72096203872934 0 0 0 0 51.001453586052094 30.068956181072281 0 30.068956181072281 -25.882992880840902 0 0 0 0 49.986068832254432 55.16946101404028 0 55.16946101404028 -65.474230815847477 0 0 0 0 15.173446087330461 93.03015578088889 0 93.03015578088889 47.514862085983623 0 0 0 0 57.834098654847494 77.966128899955947 0 77.966128899955947 -6.8288706961029675 0 0 0 0 8.1992050073565679 45.691130560604506 0 45.691130560604506 65.785749429123825 0 0 0 0 -67.605738491206012 32.342765711211541 0 32.342765711211541 160.00230740528787 0 0 0 0 34.209227334890556 53.540159855605452 0 53.540159855605452 0.24767153360062366 0 0 0 0 -6.3139931421264919 60.853415046789451 0 60.853415046789451 -0.014636547109603271 0 0 0 0 5.1286466347902966 12.223384369271002 0 12.223384369271002 5.8792161513205201 0 0 0 0 28.819831604526371 20.425267372382223 0 20.425267372382223 -45.000803886134236 0 0 0 0 31.522244097148928 42.04708477119857 0 42.04708477119857 -67.126186775421957 0 0 0 0 5.1937543015692427 12.987018593594257 0 12.987018593594257 12.710728695659782 0 0 0 0 8.0259752103376076 9.5355648591701367 0 9.5355648591701367 4.6750209019453735 0 0 0 0 4.448714349810416 12.022188821681993 0 12.022188821681993 14.085094666210352 0 0 0 0 4.32220501007032 11.294944843553822 0 11.294944843553822 9.9133594244776759 0 0 0 0 1.7722783498300032 16.34014673582351 0 16.34014673582351 11.74559440970188 0 0 0 0 2.8516238988950136 13.785503182793036 0 13.785503182793036 17.243798682960914 0 0 0 0 7.0870155979546325 8.8091109600572963 0 8.8091109600572963 17.620084855152527 0 0 0 0 8.2532219938630078 10.366210789681645 0 10.366210789681645 15.048211770052148 0 0 0 0 7.9074901138035329 10.706544056065468 0 10.706544056065468 17.944784421677468 0 0 0 0 -0.75928017107724788 4.4240532147960039 0 4.4240532147960039 14.089421400909487 0 0 0 0 -2.37392057397975 4.5130043407843914 0 4.5130043407843914 15.421478098607622 0 0 0 0 -2.2050023515566233 3.596525165683957 0 3.596525165683957 14.673030163753765 0 0 0 0 -0.0048418714671581717 5.2126131360419095 0 5.2126131360419095 14.433862258912995 0 0 0 0 -0.0187411096807212 -0.27053951393463649 0 -0.27053951393463649 20.688499072857667 0 0 0 0 -0.9705839684288271 1.1447233874255289 0 1.1447233874255289 4.1905702040003803 0 0 0 0 -1.7607625339233648 6.0509655844653025 0 6.0509655844653025 16.640590327209793 0 0 0 0 8.3352300549579788 10.549781393268375 0 10.549781393268375 6.0719796533978467 0 0 0 0 -3.3686953008427736 -11.509632454581151 0 -11.509632454581151 -33.650274625921156 0 0 0 0 6.720394369072892 9.1260209619649686 0 9.1260209619649686 20.403063026285963 0 0 0 0 4.0914423529706685 9.0640309057343984 0 9.0640309057343984 -1.5123635722266044 0 0 0 0 -0.021352809880530156 -0.31277402193677517 0 -0.31277402193677517 1.8027765034785261 0 0 0 0 -1.810900648073259 -7.9964617469086079 0 -7.9964617469086079 34.252228766301414 0 0 0 0 0.06421267142038406 0.76500141759606777 0 0.76500141759606777 8.2717963376635453 0 0 0 0 34.570799185749102 -47.359807979970356 0 -47.359807979970356 54.636543929984327 0 0 0 0 10.091719422540217 -0.89092773193260655 0 -0.89092773193260655 10.448614303721115 0 0 0 0 -14.399512955818537 0.1430993128742557 0 0.1430993128742557 21.398999174896744 0 0 0 0 -0.10072823258852479 -0.29863465579314408 0 -0.29863465579314408 5.5166557334973163 0 0 0 0 13.750205724741306 43.461450755348778 0 43.461450755348778 34.955851833397901 0 0 0 0 6.4792620297373844 33.426131675834768 0 33.426131675834768 42.479868515540147 0 0 0 0 10.631726644778951 25.441452442155423 0 25.441452442155423 51.505407120042946 0 0 0 0 26.039234800557097 16.109146249866171 0 16.109146249866171 42.235097765689716 0 0 0 0 5.8161891916366812 17.263903578117606 0 17.263903578117606 40.01131619719672 0 0 0 0 17.32900775736789 26.874545423066593 0 26.874545423066593 45.113561441394268 0 0 0 0 38.132648363828991 28.924187884404091 0 28.924187884404091 31.092172611941351 0 0 0 0 0.13694715409783553 -0.52108595006930614 0 -0.52108595006930614 1.926339288775381 0 0 0 0 10.167219939163495 20.21400708136207 0 20.21400708136207 -5.914798658748623 0 0 0 0 -13.150449455109509 -3.4204732193684322 0 -3.4204732193684322 25.361075865330349 0 0 0 0 0.0215919025289826 -0.77239616993408333 0 -0.77239616993408333 8.4923852999430665 0 0 0 0 -0.089951307475343967 -0.75003904214827344 0 -0.75003904214827344 11.933420830173418 0 0 0 0 7.2314896228174348 -9.0613251308095641 0 -9.0613251308095641 46.637332040138972 0 0 0 0 1.788681576042336 5.1748114552610787 0 5.1748114552610787 12.977795009617694 0 0 0 0 40.283489895988623 9.244493871985469 0 9.244493871985469 19.527103085943963 0 0 0 0 1.7266396615387407 -6.2234941941642319 0 -6.2234941941642319 7.781808942942007 0 0 0 0 17.388027668239829 -7.3469546822889242 0 -7.3469546822889242 5.790301267959876 0 0 0 0 4.5887690971449659 2.4074454403793482 0 2.4074454403793482 3.4333805050305841 0 0 0 0 5.3337106573626443 -19.063694551208755 0 -19.063694551208755 37.003699626395246 0 0 0 0 1.6292306589186474 3.5462238878753851 0 3.5462238878753851 14.784835763770388 0 0 0 0 0.63844011034488712 -0.34933986533659578 0 -0.34933986533659578 11.648575553437922 0 0 0 0 0.95219745187422244 2.2956292518501868 0 2.2956292518501868 13.092294409506394 0 0 0 0 0.17520802530142809 -1.4396709936700063 0 -1.4396709936700063 12.790672874005395 0 0 0 0 -0.019190847271683537 -1.3872959588643425 0 -1.3872959588643425 21.644656622404 0 0 0 0 0.01757555355663952 0.0033841756488186547 0 0.0033841756488186547 -0.031854723827507314 0 0 0 0 0.0045661283824247161 2.4421061489119893 0 2.4421061489119893 16.374124296635273 0 0 0 0 1.0809846301490902 1.8142774952866603 0 1.8142774952866603 14.879245216681738 0 0 0 0 1.0306019952839678 1.3228353474632968 0 1.3228353474632968 10.774511168376193 0 0 0 0 -0.00070941739447424315 3.0033727678601281 0 3.0033727678601281 14.292006279032648 0 0 0 0 1.0254699493019541 1.1220426954841969 0 1.1220426954841969 15.56445702057681 0 0 0 0 -0.0014044906637911269 3.5314879629295319 0 3.5314879629295319 9.8733615761375404 0 0 0 0 -0.098927339933921471 1.3725821179936304 0 1.3725821179936304 4.1536454639029898 0 0 0 0 65.648018174310195 -432.50083996172179 0 -432.50083996172179 1385.2747111144126 0 0 0 0 172.58245108308253 -278.74677928679557 0 -278.74677928679557 695.17547686526086 0 0 0 0 95.844145583515825 93.419765824950446 0 93.419765824950446 617.42055787853315 0 0 0 0 -8.1284771866900201 -53.730201257421868 0 -53.730201257421868 825.23112698076875 0 0 0 0 1.3165470407196496 51.103409295013989 0 51.103409295013989 871.16633276599168 0 0 0 0 85.012149279722195 -42.182580791093642 0 -42.182580791093642 742.73493671609322 0 0 0 0 -33.125143014792002 -49.608317259851901 0 -49.608317259851901 544.35729603226355 0 0 0 0 19.111044958852403 -74.485109831613954 0 -74.485109831613954 536.00923906818207 0 0 0 0 30.388200139426317 -211.42410996468971 0 -211.42410996468971 558.8844299539569 0 0 0 0 -66.135660665808103 -177.53284109409651 0 -177.53284109409651 594.82907839489053 0 0 0 0 -103.42874123518652 -80.023266601696378 0 -80.023266601696378 605.85393411925179 0 0 0 0 106.66537073801419 -180.49991894100094 0 -180.49991894100094 592.57275021516762 0 0 0 0 0.11329950761125929 -111.60806961586059 0 -111.60806961586059 628.30251075024717 0 0 0 0 6.7867838832480629 -110.45834859769093 0 -110.45834859769093 608.904765874031 0 0 0 0 25.12187976501616 -185.90719955175882 0 -185.90719955175882 606.57734123420596 0 0 0 0 57.742048602635691 -165.52081771679514 0 -165.52081771679514 598.96575859398581 0 0 0 0 4.8171631941332862 -291.23416791640921 0 -291.23416791640921 668.86273838288616 0 0 0 0 140.25269804180107 -253.62077169798431 0 -253.62077169798431 502.08031768660294 0 0 0 0 1.1055632119407826 4.7510752270341072 0 4.7510752270341072 9.2031006057599143 0 0 0 0 -145.76501348196814 90.928039814716612 0 90.928039814716612 316.69513845909387 0 0 0 0 0.53038238436496821 3.0715166445781961 0 3.0715166445781961 0.52073712505739422 0 0 0 0 37.026530072372225 -216.0201529989863 0 -216.0201529989863 672.53042163397186 0 0 0 0 93.986347960505327 8.2034033256059047 0 8.2034033256059047 18.233114316564752 0 0 0 0 0.59596841839464076 1.2727584319512175 0 1.2727584319512175 1.9129197539381835 0 0 0 0 52.411947724337324 -21.135864153242437 0 -21.135864153242437 36.383358285180293 0 0 0 0 20.448351782745704 -53.925540204450954 0 -53.925540204450954 296.43064031281392 0 0 0 0 2.4475947730034022 -107.06134642772668 0 -107.06134642772668 357.89694557865732 0 0 0 0 62.042572689294389 -172.97029344834664 0 -172.97029344834664 473.85864173964364 0 0 0 0 -19.749143761824598 -38.639674668142106 0 -38.639674668142106 483.85629658403923 0 0 0 0 -5.9161146799733615 -101.80309343214321 0 -101.80309343214321 406.44189955275215 0 0 0 0 2.691043518704646 -25.910952726335381 0 -25.910952726335381 559.69722528840066 0 0 0 0 41.088215971482896 -155.81438626895579 0 -155.81438626895579 617.9585008402064 0 0 0 0 11.092710363378046 -58.440071478558821 0 -58.440071478558821 571.35361028414627 0 0 0 0 -41.719833374527752 -68.684587177063804 0 -68.684587177063804 580.59737882499758 0 0 0 0 -49.47805952443241 -88.975776256076642 0 -88.975776256076642 556.31720110769675 0 0 0 0 -54.954346413617486 -38.725527372913348 0 -38.725527372913348 573.99025669324328 0 0 0 0 -4.1743602823607944 -223.77046931837685 0 -223.77046931837685 500.04929443350557 0 0 0 0 -40.018680782627598 -103.41303513769162 0 -103.41303513769162 344.20109879419033 0 0 0 0 -1.5279627606780615 0.22933282395186438 0 0.22933282395186438 1.2727691905288339 0 0 0 0 33.477639276307343 -43.542226612845297 0 -43.542226612845297 423.58294582925737 0 0 0 0 3.9609428264011513 23.014726116787642 0 23.014726116787642 -25.998707050392113 0 0 0 0 -0.48771301200300865 0.47166041658121571 0 0.47166041658121571 3.2353941484521442 0 0 0 0 70.866218539131751 66.158747322850104 0 66.158747322850104 -1.0226162987528369 0 0 0 0 -42.52813967190059 -138.68704589336994 0 -138.68704589336994 487.06427580470336 0 0 0 0 73.302022947933438 -209.45408910843253 0 -209.45408910843253 137.6879307178915 0 0 0 0 -55.07807287551941 -205.6662397777618 0 -205.6662397777618 614.20946922827716 0 0 0 0 -1.7809270885308219 -0.018590377759949206 0 -0.018590377759949206 1.7938478585390953 0 0 0 0 175.04464076370459 -157.02405869492213 0 -157.02405869492213 609.65069759803009 0 0 0 0 121.12373567121722 -71.592569411506702 0 -71.592569411506702 513.42241709577502 0 0 0 0 -78.636061388307951 110.6954095321862 0 110.6954095321862 1387.3981761764589 0 0 0 0 -46.094402328296837 -2.4811055761310854 0 -2.4811055761310854 644.33169723351602 0 0 0 0 -70.670720796175374 -167.47565532110457 0 -167.47565532110457 838.61092622801516 0 0 0 0 31.117789993622637 -39.28026172988757 0 -39.28026172988757 390.54541977707413 0 0 0 0 4.0860737094188906 -3.222152954713124 0 -3.222152954713124 2.934149577992855 0 0 0 0 -157.207706027938 -435.12347778177354 0 -435.12347778177354 17.375151793656187 0 0 0 0 -46.247291562475311 184.34277276130888 0 184.34277276130888 108.20058721251553 0 0 0 0 20.105377124479105 5.038653626525047 0 5.038653626525047 33.004093756549992 0 0 0 0 19.118082986770673 -8.8361915626746281 0 -8.8361915626746281 4.0434294807351137 0 0 0 0 25.633977062639588 38.970328720839461 0 38.970328720839461 -211.9656888426689 0 0 0 0 10.833610092357787 -9.0230736230114417 0 -9.0230736230114417 19.136730195605196 0 0 0 0 6.2999142098585175 -7.6492056039183183 0 -7.6492056039183183 21.200459067774034 0 0 0 0 -7.2396415313487523 -32.019842284164042 0 -32.019842284164042 38.065482250136483 0 0 0 0 -8.6379325695234002 -37.49572343940963 0 -37.49572343940963 80.269472385065455 0 0 0 0 52.821625799881076 -4.8837574507051613 0 -4.8837574507051613 -5.1698257740645204 0 0 0 0 16.807299015630058 -0.55547300617115525 0 -0.55547300617115525 0.43853962220106268 0 0 0 0 33.248773203407836 -41.356552683078917 0 -41.356552683078917 109.96777423852473 0 0 0 0 5.5569478240997192 4.3868794565451026 0 4.3868794565451026 -4.5262522354103112 0 0 0 0 6.8821198013615463 -1.5715060411441186 0 -1.5715060411441186 13.162909194204559 0 0 0 0 -22.657141741297949 -21.08473671257525 0 -21.08473671257525 13.433324527286459 0 0 0 0 -105.92764718423865 91.129252029495547 0 91.129252029495547 -22.759506136790151 0 0 0 0 24.431763318422782 -29.344727363684797 0 -29.344727363684797 396.33709540468044 0 0 0 0 10.064419873668836 -8.620851427970706 0 -8.620851427970706 8.9035826406401384 0 0 0 0 9.0190633115139462 14.897794088901719 0 14.897794088901719 315.17184922734305 0 0 0 0 9.8826011800831566 8.7947177417809144 0 8.7947177417809144 257.24319411325268 0 0 0 0 35.380077371770767 -9.9793349655119528 0 -9.9793349655119528 54.153258484380785 0 0 0 0 2.6430476941194749 -0.59417868799809526 0 -0.59417868799809526 11.71766225726401 0 0 0 0 7.8910036744337599 -3.0600536350795835 0 -3.0600536350795835 4.9522901115748823 0 0 0 0 5.8994696162271794 -4.3032350789289922 0 -4.3032350789289922 10.673223060439341 0 0 0 0 14.733823282121193 -3.7984285863203695 0 -3.7984285863203695 21.465269759588409 0 0 0 0 10.103120539191654 0.35498925016261751 0 0.35498925016261751 16.431733051972287 0 0 0 0 7.6427457869364508 3.6913099754455914 0 3.6913099754455914 3.8919498475985392 0 0 0 0 14.392606468078156 -6.337478794157505 0 -6.337478794157505 18.285834080248605 0 0 0 0 8.0949364467854821 -19.278296323114773 0 -19.278296323114773 18.114518739108462 0 0 0 0 37.426672885692824 -79.460604010790121 0 -79.460604010790121 279.22517615620745 0 0 0 0 8.8787952327852508 -16.453274134197272 0 -16.453274134197272 25.523808409372577 0 0 0 0 3.3152255524641383 2.4706921446802994 0 2.4706921446802994 5.5480596611481019 0 0 0 0 2.0590417946584001 -0.99065522098311476 0 -0.99065522098311476 -0.014003912893826964 0 0 0 0 13.588944979725056 -6.2910196840239223 0 -6.2910196840239223 26.576569837485295 0 0 0 0 11.450903499963715 -12.708701256808126 0 -12.708701256808126 15.457371397613315 0 0 0 0 8.1930205575031891 3.9913853230391396 0 3.9913853230391396 11.495369155367371 0 0 0 0 5.2121523465023074 6.0540584999980638 0 6.0540584999980638 60.360343144086073 0 0 0 0 28.048894174419843 1.0194548228064377 0 1.0194548228064377 11.32885952226934 0 0 0 0 0.40119885556458224 1.2055248227469519 0 1.2055248227469519 3.4508440134325724 0 0 0 0 3.5926675074635837 5.5322475556076824 0 5.5322475556076824 17.530708493635586 0 0 0 0 10.071205488804935 -5.841148955427343 0 -5.841148955427343 23.139188213390298 0 0 0 0 3.5177868608084371 -1.3491560813589274 0 -1.3491560813589274 13.624197331292635 0 0 0 0 9.2212312803976602 -5.9171867483455571 0 -5.9171867483455571 23.230209169356385 0 0 0 0 11.118038930608236 -8.8837841841159388 0 -8.8837841841159388 19.200483815599 0 0 0 0 9.688556252863318 -3.7639975583683167 0 -3.7639975583683167 14.840205850699988 0 0 0 0 14.506500468050035 -5.8566422032017726 0 -5.8566422032017726 20.309035301033873 0 0 0 0 4.2483509164817406 -2.1075387933815364 0 -2.1075387933815364 55.435951998340897 0 0 0 0 5.0524478794986862 4.1570511101817829 0 4.1570511101817829 47.655340511177201 0 0 0 0 5.75870835872729 -7.3480300132359844 0 -7.3480300132359844 47.185113156563602 0 0 0 0 3.0795663409442113 -1.9945858560386114 0 -1.9945858560386114 56.36206172243692 0 0 0 0 -10.778417318154425 19.908467406792624 0 19.908467406792624 70.769679010889377 0 0 0 0 -48.168100316166147 -66.449456603311774 0 -66.449456603311774 12.303675870818552 0 0 0 0 -3.3234996771343441 -9.1835407825411437 0 -9.1835407825411437 31.586934098162487 0 0 0 0 4.3363582068072919 -13.159301045721286 0 -13.159301045721286 23.748077461603771 0 0 0 0 -22.024358843127629 -8.0412973682032316 0 -8.0412973682032316 56.294722837450536 0 0 0 0 -22.822577004226446 -20.466983324269677 0 -20.466983324269677 21.982047375378897 0 0 0 0 -13.923337872016418 -59.364819716312923 0 -59.364819716312923 9.9853422305750428 0 0 0 0 8.9704106824046903 -48.602259415696608 0 -48.602259415696608 -1.820731211671955 0 0 0 0 -37.917055181223077 -37.35511913717346 0 -37.35511913717346 33.270145664049778 0 0 0 0 -3.4217145063221324 -42.737423932587262 0 -42.737423932587262 25.335563683998771 0 0 0 0 1.8940475532672281 -48.811648525646888 0 -48.811648525646888 19.980368086660746 0 0 0 0 -10.307827860062389 -45.930424581340048 0 -45.930424581340048 28.093878578627482 0 0 0 0 -1.18972821630814 -21.734122648282209 0 -21.734122648282209 27.740019164339174 0 0 0 0 13.548971512346725 -49.118781736455276 0 -49.118781736455276 34.375820490558908 0 0 0 0 1.2297548401320455 -48.246856953272072 0 -48.246856953272072 35.017061514547095 0 0 0 0 21.284345891390331 -38.142418069037376 0 -38.142418069037376 16.71509823173983 0 0 0 0 9.6703266613731103 -42.891533588699531 0 -42.891533588699531 6.8972952862895909 0 0 0 0 21.234201757852929 -39.477236557420838 0 -39.477236557420838 24.941599515965208 0 0 0 0 10.838909986576255 -49.485288784344448 0 -49.485288784344448 4.6624600235954858 0 0 0 0 55.092600566722467 -27.75286220133421 0 -27.75286220133421 9.6636993475840427 0 0 0 0 57.646887082093599 -28.647832023067167 0 -28.647832023067167 -7.086390645155916 0 0 0 0 22.226973272858686 -12.533956566578127 0 -12.533956566578127 15.840313743858133 0 0 0 0 55.969999885164725 -32.447906761153718 0 -32.447906761153718 2.7466273995232768 0 0 0 0 4.5416334514988428 -0.061440821462610984 0 -0.061440821462610984 -1.3748311566382085 0 0 0 0 22.347542582603637 -29.828520319802919 0 -29.828520319802919 22.543499325322045 0 0 0 0 22.999561785221886 -26.087369346576452 0 -26.087369346576452 30.120680669206195 0 0 0 0 19.777247306497884 -25.084233450819738 0 -25.084233450819738 22.008146017789841 0 0 0 0 19.228016443073557 -27.099409251015459 0 -27.099409251015459 31.741250392340589 0 0 0 0 45.688437043609156 -22.11935135780368 0 -22.11935135780368 36.009109597594943 0 0 0 0 4.5703088169691597 -1.8269668599443492 0 -1.8269668599443492 -1.0833254381973916 0 0 0 0 74.346750165928825 -47.71764878340764 0 -47.71764878340764 19.58359064758406 0 0 0 0 22.87306659440992 -20.014830583008006 0 -20.014830583008006 30.289453420671634 0 0 0 0 31.836972753287228 -31.658606558587053 0 -31.658606558587053 36.551524353330024 0 0 0 0 25.690539226339524 -29.75468489418563 0 -29.75468489418563 39.072975972056156 0 0 0 0 6.9450108967263882 0.12734015528758391 0 0.12734015528758391 0.88341840333657728 0 0 0 0 24.477954812884491 -25.491692532377783 0 -25.491692532377783 31.479429213592084 0 0 0 0 44.011758010691665 -19.79842809807451 0 -19.79842809807451 22.066840460873209 0 0 0 0 21.461229631666356 -30.410894921747968 0 -30.410894921747968 38.984930935926968 0 0 0 0 23.41433299545497 -31.249771618575323 0 -31.249771618575323 34.431550099048764 0 0 0 0 29.585829879055382 -24.78347122631385 0 -24.78347122631385 44.205657167069148 0 0 0 0 7.7322769206348312 -12.065601032489212 0 -12.065601032489212 18.670559881196823 0 0 0 0 -2.5265276625085722 -1.7672359256450534 0 -1.7672359256450534 10.387926311495789 0 0 0 0 77.66616944368252 -48.436713876406429 0 -48.436713876406429 19.888805771479383 0 0 0 0 30.790531677292165 -13.582070698903408 0 -13.582070698903408 26.481866160407662 0 0 0 0 43.240632581913815 -19.92382688622456 0 -19.92382688622456 23.861191897580284 0 0 0 0 52.356183078580216 -6.8997724377550185 0 -6.8997724377550185 9.3791704536997713 0 0 0 0 19.88649372780128 -17.675778671982698 0 -17.675778671982698 25.473333075497067 0 0 0 0 -41.81924550345866 -21.590761251922231 0 -21.590761251922231 25.298730964423157 0 0 0 0 80.690033830066113 -13.202094119213143 0 -13.202094119213143 -5.3591099798213691 0 0 0 0 -3.1879133904977941 0.77258430764598529 0 0.77258430764598529 4.1483563975548918 0 0 0 0 -6.7602163289375312 30.808457048318814 0 30.808457048318814 67.619657579918567 0 0 0 0 -14.112878335679852 10.402556974324398 0 10.402556974324398 11.131341743981466 0 0 0 0 12.893792905924784 5.7950737091014162 0 5.7950737091014162 9.4512169060762972 0 0 0 0 -14.570539560450925 28.753111634519883 0 28.753111634519883 30.999409798845591 0 0 0 0 -4.0405256553167419 1.1293666338315234 0 1.1293666338315234 18.095509450882673 0 0 0 0 1.3248271782668706 -2.8205897189795905 0 -2.8205897189795905 23.208448006501442 0 0 0 0 -3.8990756819066519 1.678949861205183 0 1.678949861205183 19.679622603696771 0 0 0 0 3.8617486083274861 3.0212108436180927 0 3.0212108436180927 17.839487718049497 0 0 0 0 0.02025027098786758 -15.716028680553194 0 -15.716028680553194 33.760929627506471 0 0 0 0 -5.2375188042278751 -1.1345911871176213 0 -1.1345911871176213 21.416839325800538 0 0 0 0 -5.2422099492978305 -1.7219835551222786 0 -1.7219835551222786 18.349601996778802 0 0 0 0 0.011836186173791674 -3.1685711580781799 0 -3.1685711580781799 13.946256368708305 0 0 0 0 -10.288672799294091 -8.5276816982659511 0 -8.5276816982659511 10.94542479258962 0 0 0 0 -2.6465459465090744 -9.8716669600956095 0 -9.8716669600956095 29.533308761052922 0 0 0 0 23.062402600775386 -39.05271503207041 0 -39.05271503207041 26.103418361861259 0 0 0 0 1.7055520641813722 -10.385779472259458 0 -10.385779472259458 27.503542813464833 0 0 0 0 19.303985220592949 -22.682551623875042 0 -22.682551623875042 27.368969366245437 0 0 0 0 3.2870263386226934 -6.6432209241372675 0 -6.6432209241372675 -0.34899643227305432 0 0 0 0 12.559409482695628 -52.50227707598242 0 -52.50227707598242 26.994966231141007 0 0 0 0 16.640878322102253 -17.003841874189675 0 -17.003841874189675 16.206749070508522 0 0 0 0 12.342461491292397 -16.44909011227719 0 -16.44909011227719 16.302502725078739 0 0 0 0 22.562799361289194 -27.040329257522899 0 -27.040329257522899 36.286246275674785 0 0 0 0 22.388861415897281 -17.503021184616955 0 -17.503021184616955 38.189419398055179 0 0 0 0 20.546955164041265 -27.576467009363114 0 -27.576467009363114 44.191424346237909 0 0 0 0 21.349460615601402 -25.465138682462566 0 -25.465138682462566 34.245714393531671 0 0 0 0 23.107807243128718 -21.065325587274856 0 -21.065325587274856 31.463325645556324 0 0 0 0 1.8027768982557948 -0.35048410397016028 0 -0.35048410397016028 -2.4170192362551859 0 0 0 0 26.906149300959441 -27.991659433610039 0 -27.991659433610039 32.250405681261327 0 0 0 0 11.859583429320992 -36.574917582096532 0 -36.574917582096532 22.446150850613776 0 0 0 0 13.035758161923241 -15.984967445023358 0 -15.984967445023358 26.308121517082327 0 0 0 0 -0.2309970874766476 -5.8131670898753782 0 -5.8131670898753782 1.8718659752545932 0 0 0 0 14.193222818552954 -21.17726885731463 0 -21.17726885731463 9.8810864624683745 0 0 0 0 -0.98021262202746584 -30.362775683228392 0 -30.362775683228392 8.7226487516891211 0 0 0 0 -6.0703579960468232 -53.776614094138495 0 -53.776614094138495 -11.802199446116902 0 0 0 0 6.2710511214099824 -36.721373047708767 0 -36.721373047708767 9.4706129607948242 0 0 0 0 15.376788281624613 -38.045074561960064 0 -38.045074561960064 4.4949480248033069 0 0 0 0 14.928209868281101 -21.143412583813188 0 -21.143412583813188 4.4163669700355968 0 0 0 0 10.387643451401345 -22.408597923640627 0 -22.408597923640627 7.3578557269938756 0 0 0 0 15.704870212629714 -33.410311781648488 0 -33.410311781648488 -12.389704595087096 0 0 0 0 16.074975945850383 -18.799987987571512 0 -18.799987987571512 2.9083397277863696 0 0 0 0 27.652603378991444 -10.114731043286156 0 -10.114731043286156 9.4069281236152165 0 0 0 0 15.261301641754244 -11.137567850528285 0 -11.137567850528285 13.760350555094192 0 0 0 0 17.303403193288432 -12.761648801810225 0 -12.761648801810225 14.986105739430059 0 0 0 0 10.241585098630367 -14.476301578113635 0 -14.476301578113635 11.205744780192617 0 0 0 0 17.276581423952848 -9.885594302075333 0 -9.885594302075333 14.53780104991165 0 0 0 0 8.1669209283054442 -15.743447337605176 0 -15.743447337605176 16.277070660493337 0 0 0 0 48.687207598661871 2.4955293700913899 0 2.4955293700913899 13.744609228131594 0 0 0 0 17.312480465182489 -9.9076798071182566 0 -9.9076798071182566 11.237000798762892 0 0 0 0 9.1834633409455364 -18.386382441327441 0 -18.386382441327441 11.387127555135521 0 0 0 0 6.8650385486516825 -0.64294248628721107 0 -0.64294248628721107 23.806445505906595 0 0 0 0 -65.450811372866156 -7.3116436266427627 0 -7.3116436266427627 62.335948351654224 0 0 0 0 74.904321720259986 23.10934568841185 0 23.10934568841185 24.490948137288797 0 0 0 0 -18.238622444725706 -64.445813717109559 0 -64.445813717109559 -21.692681798245758 0 0 0 0 11.410855404016274 -15.259965030680178 0 -15.259965030680178 6.6617755977931665 0 0 0 0 623.57998017459795 -468.67247580952971 0 -468.67247580952971 -157.04297100532131 0 0 0 0 10.662074880533112 -22.316520628474791 0 -22.316520628474791 3.7515426174795721 0 0 0 0 23.84829163306236 -14.456279540167088 0 -14.456279540167088 7.9473463264132533 0 0 0 0 15.754895868806216 -13.139377661587787 0 -13.139377661587787 10.668012772461225 0 0 0 0 15.460831918182635 -9.5923946532930131 0 -9.5923946532930131 7.4771928256595857 0 0 0 0 148.06805454859432 383.87161282349552 0 383.87161282349552 433.05403076870425 0 0 0 0 96.975157968528038 187.23938593019557 0 187.23938593019557 -152.1479428697312 0 0 0 0 -187.72854228305005 -621.06814502841735 0 -621.06814502841735 1621.9289974448766 0 0 0 0 -448.37222979562921 296.51124806851294 0 296.51124806851294 1781.0259289507667 0 0 0 0 330.88990489239086 981.11198069106467 0 981.11198069106467 1453.4756697667908 0 0 0 0 2.4028007921306198 -57.961771968810353 0 -57.961771968810353 -426.2098754572653 0 0 0 0 -695.59283955480259 -1047.3815039127367 0 -1047.3815039127367 395.95341110546724 0 0 0 0 0.90165678204799349 -4.1109422201824373 0 -4.1109422201824373 10.699547787905658 0 0 0 0 50.218812858767706 -316.05358519559377 0 -316.05358519559377 666.12552710984892 0 0 0 0 -0.80430834888749914 0.5794304219797084 0 0.5794304219797084 1.6334117518248661 0 0 0 0 711.88384889809277 -431.82706651654735 0 -431.82706651654735 381.24826589721488 0 0 0 0 45.070976314369545 -410.12816077558091 0 -410.12816077558091 475.18339305897825 0 0 0 0 -690.53408714212674 -937.41240386500431 0 -937.41240386500431 1439.3451736527495 0 0 0 0 147.90796571837836 -277.57340450679476 0 -277.57340450679476 282.73170512160868 0 0 0 0 -26.982706435480395 192.05719616267015 0 192.05719616267015 292.28307613284619 0 0 0 0 -522.33049660944198 91.77583122393844 0 91.77583122393844 276.28736096408102 0 0 0 0 -594.20277173340605 -257.20157044309963 0 -257.20157044309963 -15.349304323986871 0 0 0 0 -279.62039071506933 5.420924129022751 0 5.420924129022751 80.548334199702367 0 0 0 0 -140.99755552045553 67.936970722517799 0 67.936970722517799 -9.9963665306568146 0 0 0 0 -136.00601866460215 41.812807947018882 0 41.812807947018882 86.903124643547926 0 0 0 0 -1.158474798368843 97.070321479099221 0 97.070321479099221 22.977354044036474 0 0 0 0 2.2054040785510551 1.2047858835430816 0 1.2047858835430816 -76.662491442490136 0 0 0 0 0.55068903544435521 -1.1621260731985643 0 -1.1621260731985643 28.02734269127501 0 0 0 0 324.00495045017851 59.32711314939661 0 59.32711314939661 54.631958052264963 0 0 0 0 136.2752305154641 -24.332766958939828 0 -24.332766958939828 33.318859026709106 0 0 0 0 1.8162916243662615 -9.364874159782687 0 -9.364874159782687 36.17637461185609 0 0 0 0 -280.59277475015733 -62.952838262004661 0 -62.952838262004661 70.86916401029157 0 0 0 0 -250.47198168949672 -13.67657814535778 0 -13.67657814535778 87.521730195439886 0 0 0 0 -28.336963032031235 -162.86997109121876 0 -162.86997109121876 634.38554053209373 0 0 0 0 2.2555632163969133 -10.464098448081216 0 -10.464098448081216 24.535409549670817 0 0 0 0 98.478334025753611 44.47193527573836 0 44.47193527573836 -59.953333925739571 0 0 0 0 695.51050865956086 194.30219797065365 0 194.30219797065365 -8.5756187072838657 0 0 0 0 419.87089824764098 -92.023486660546041 0 -92.023486660546041 -87.902639490443107 0 0 0 0 0.95477650182979312 4.4323742955247116 0 4.4323742955247116 10.033931467173375 0 0 0 0 406.51604432636873 439.63122756858138 0 439.63122756858138 824.70098451772355 0 0 0 0 204.18434829688908 -330.3291306808369 0 -330.3291306808369 676.67628014367074 0 0 0 0 -215.49857052900279 114.62856853791891 0 114.62856853791891 1760.4305463804922 0 0 0 0 -200.68050424044395 265.05349038082932 0 265.05349038082932 496.20394215132546 0 0 0 0 21.845292817595269 -14.349613867086759 0 -14.349613867086759 8.9484607741749755 0 0 0 0 -114.22719057242762 -120.1043550968916 0 -120.1043550968916 306.35287112515653 0 0 0 0 459.71725574445281 964.394016242004 0 964.394016242004 1070.9536130177585 0 0 0 0 8.3485346845840205 -6.8219917565401431 0 -6.8219917565401431 5.7009937956611338 0 0 0 0 398.41151256001092 5.7856127544364426 0 5.7856127544364426 -18.144308042476041 0 0 0 0 67.300784769952315 108.15613441752794 0 108.15613441752794 39.309494281151274 0 0 0 0 -79.715150781014046 -247.97208254815814 0 -247.97208254815814 1757.927461939762 0 0 0 0 -141.21198690775623 -529.07121175021166 0 -529.07121175021166 1248.2197255178471 0 0 0 0 807.29196121036614 -420.9180107996217 0 -420.9180107996217 84.98871722257627 0 0 0 0 846.95111021250318 -43.369507400831935 0 -43.369507400831935 151.99842572175839 0 0 0 0 294.42559220449925 451.23581316903801 0 451.23581316903801 464.20532662485493 0 0 0 0 130.43968151130321 146.539652197127 0 146.539652197127 1806.0942139368417 0 0 0 0 480.81237720386798 -203.95215701818233 0 -203.95215701818233 1159.4747765104403 0 0 0 0 647.79310616848306 165.36310134245286 0 165.36310134245286 -64.182278005115222 0 0 0 0 253.44721133589996 174.83994603007159 0 174.83994603007159 -36.204467303177807 0 0 0 0 305.71461824491666 304.90998449645122 0 304.90998449645122 252.10116619464316 0 0 0 0 116.00635521040067 360.37583571185678 0 360.37583571185678 -9.8693398167961277 0 0 0 0 348.96995013106186 214.0513118206145 0 214.0513118206145 -7.0095038342115004 0 0 0 0 281.76021225793693 131.1161989907996 0 131.1161989907996 -67.21103383746231 0 0 0 0 -320.8190853116721 -85.764052390950383 0 -85.764052390950383 58.759536261131871 0 0 0 0 -11.568090383381312 5.8423889060012115 0 5.8423889060012115 132.15088405912195 0 0 0 0 -33.064022705894359 36.380342393167666 0 36.380342393167666 168.42919711055583 0 0 0 0 -444.50899019924964 -51.360722582467133 0 -51.360722582467133 87.705606581597749 0 0 0 0 -60.548227657746793 251.63362936678459 0 251.63362936678459 64.294567456370714 0 0 0 0 -111.11998191935436 290.5728745430024 0 290.5728745430024 108.17989500969998 0 0 0 0 3.2672232622833235 460.79996424710043 0 460.79996424710043 -175.26233557828527 0 0 0 0 -795.53032913586594 327.72586806329491 0 327.72586806329491 106.52742357848365 0 0 0 0 -540.3477624156817 -100.85482629177568 0 -100.85482629177568 115.44137717408012 0 0 0 0 -988.1418809708025 423.85561528379912 0 423.85561528379912 -84.294832839499577 0 0 0 0 -9.7306678674592089 2.0678110373347067 0 2.0678110373347067 26.952049392262467 0 0 0 0 -676.79975433682739 -372.34418259400627 0 -372.34418259400627 60.056728986586677 0 0 0 0 138.01984407104055 222.90590970982521 0 222.90590970982521 212.92879235334112 0 0 0 0 -1032.9290028384844 -84.750795057028881 0 -84.750795057028881 567.93775784129684 0 0 0 0 1.6173717683803011 15.485202172104174 0 15.485202172104174 5.8868137502885816 0 0 0 0 -276.53804526295289 -240.67439725708391 0 -240.67439725708391 510.42265249996854 0 0 0 0 -476.28781529073376 65.430281487384491 0 65.430281487384491 260.32804334419779 0 0 0 0 -107.51916062873943 150.33607546527492 0 150.33607546527492 307.81489982538915 0 0 0 0 -387.52400700389194 9.5623383506626851 0 9.5623383506626851 267.75443497167726 0 0 0 0 -125.8749781652989 -132.9073588124902 0 -132.9073588124902 321.44818292660057 0 0 0 0 -117.33325272663592 -55.920695790999162 0 -55.920695790999162 69.300676241325164 0 0 0 0 -104.60744515279322 -132.87698286317391 0 -132.87698286317391 86.295339392308961 0 0 0 0 -17.750830478396892 -173.69741508393781 0 -173.69741508393781 63.817427118647174 0 0 0 0 138.32882890018936 -337.22394434063608 0 -337.22394434063608 258.17792527892743 0 0 0 0 248.61117376272659 -209.06155026711349 0 -209.06155026711349 72.058951791716026 0 0 0 0 126.95238946694235 -135.48973763634422 0 -135.48973763634422 34.918398295383668 0 0 0 0 315.88288671798023 14.82450201678148 0 14.82450201678148 -26.250341584440321 0 0 0 0 79.666367617806088 -2.9779765288403723 0 -2.9779765288403723 -2.3046223463898059 0 0 0 0 120.83361330188177 -13.210535960970446 0 -13.210535960970446 -5.6583543604356237 0 0 0 0 56.758973397191312 -26.645591459922798 0 -26.645591459922798 5.3600150165439118 0 0 0 0 30.026350935962228 -84.067339016299229 0 -84.067339016299229 17.762899286659376 0 0 0 0 138.77562138989236 -130.42311363317185 0 -130.42311363317185 36.895362933806609 0 0 0 0 52.347330229783665 -102.69937856864635 0 -102.69937856864635 -3.3683127289405093 0 0 0 0 -54.618541533179155 -119.5492947869825 0 -119.5492947869825 -2.5833762517722789 0 0 0 0 10.501589581117287 -69.465196405290044 0 -69.465196405290044 -14.190809392212486 0 0 0 0 12.572968525731994 -30.369965556485113 0 -30.369965556485113 -1.18160873328452 0 0 0 0 32.42177659287961 -31.875653202045214 0 -31.875653202045214 -4.4274734369246289 0 0 0 0 47.591457008738871 -21.007070329491398 0 -21.007070329491398 2.3930096237745602 0 0 0 0 76.578809887085754 -59.786693581147119 0 -59.786693581147119 -14.343632506410358 0 0 0 0 -6.9788209172361348 -54.18210055140662 0 -54.18210055140662 -24.27502834686311 0 0 0 0 -26.98926574334029 -54.796212595635609 0 -54.796212595635609 75.65528097560491 0 0 0 0 105.97318852040189 -274.73227209676406 0 -274.73227209676406 28.384204884903738 0 0 0 0 -0.47848319023869479 -14.776896901073911 0 -14.776896901073911 -10.813606453799849 0 0 0 0 -25.562981062535755 -150.24518531296053 0 -150.24518531296053 -37.858308777482307 0 0 0 0 7.9889003995322128 45.484466716025054 0 45.484466716025054 367.45685881735699 0 0 0 0 -50.947129066925982 284.77423170279053 0 284.77423170279053 721.04926251292636 0 0 0 0 -115.70733839044692 -194.62849743406878 0 -194.62849743406878 51.091819305627723 0 0 0 0 -13.029185591206101 -35.474395346276452 0 -35.474395346276452 63.895607991401334 0 0 0 0 -89.773861743243003 -113.18792549212048 0 -113.18792549212048 13.36916655281675 0 0 0 0 -117.77047652231204 -0.62400047302617168 0 -0.62400047302617168 20.102872503106482 0 0 0 0 -7.1421025282493176 3.4718111410479366 0 3.4718111410479366 6.056649105034893 0 0 0 0 -133.16823986019517 18.87208894448122 0 18.87208894448122 50.2601468517787 0 0 0 0 -88.156823640681296 38.440111242227431 0 38.440111242227431 50.021008332128986 0 0 0 0 -109.10926776353608 47.283635181542195 0 47.283635181542195 69.375171904102899 0 0 0 0 -107.23832758889057 -181.12774539109523 0 -181.12774539109523 57.79805826501979 0 0 0 0 -161.24947071123734 -93.163974755148956 0 -93.163974755148956 448.86016644717893 0 0 0 0 176.5698211580002 125.52057369434624 0 125.52057369434624 -64.839440155643388 0 0 0 0 -352.98433724087226 -191.5713985487746 0 -191.5713985487746 688.06063794445072 0 0 0 0 523.07931786716381 339.28641760156461 0 339.28641760156461 19.683986536998418 0 0 0 0 -116.1667580900521 347.87942748093337 0 347.87942748093337 593.66320462676958 0 0 0 0 -203.37920235126603 170.07348859755439 0 170.07348859755439 336.31598119260161 0 0 0 0 -55.751940832069522 209.94091740103613 0 209.94091740103613 308.33614808924904 0 0 0 0 -14.707004972862705 -91.69975790681201 0 -91.69975790681201 -45.944798268570594 0 0 0 0 -34.146375823631303 -55.551373508983374 0 -55.551373508983374 60.140126101054818 0 0 0 0 -38.103430254989689 29.874237825402815 0 29.874237825402815 172.46685359693947 0 0 0 0 -46.068802140027515 -56.060808188973169 0 -56.060808188973169 15.859297724266071 0 0 0 0 151.89441445089051 100.1962555922546 0 100.1962555922546 179.00808945747849 0 0 0 0 7.9156673501439023 30.766801152688799 0 30.766801152688799 41.550059687846968 0 0 0 0 205.37016883810884 279.73175869456463 0 279.73175869456463 106.72880581131903 0 0 0 0 -7.491015344943154 -1.4130920590457521 0 -1.4130920590457521 31.959587626213875 0 0 0 0 -70.491182465069869 -130.23499422124587 0 -130.23499422124587 245.57128627336351 0 0 0 0 -29.062913151046814 -78.724482691577577 0 -78.724482691577577 38.312205104120949 0 0 0 0 -187.52557129999514 25.472035432445409 0 25.472035432445409 398.99709374833765 0 0 0 0 -65.097375079390986 205.78295308112865 0 205.78295308112865 307.89269213718944 0 0 0 0 3.4493462257942156 55.357759549786351 0 55.357759549786351 101.52092051954241 0 0 0 0 -69.902322370384354 91.836688156152377 0 91.836688156152377 144.39929596676666 0 0 0 0 -18.504709732310857 -10.732808269005545 0 -10.732808269005545 180.41695838284795 0 0 0 0 12.508300848853072 30.942221767336733 0 30.942221767336733 58.208914595503131 0 0 0 0 3.4167624765141227 24.233127728919499 0 24.233127728919499 52.825181514679571 0 0 0 0 -14.650559658541226 14.04671417156311 0 14.04671417156311 52.378679437565808 0 0 0 0 16.362107354317686 73.167471337821553 0 73.167471337821553 80.193868339003529 0 0 0 0 18.424736955951346 84.66392490582075 0 84.66392490582075 61.187722415837925 0 0 0 0 25.696836068302023 47.86809635171771 0 47.86809635171771 77.953899285578927 0 0 0 0 -3.2180220452210051 61.207106651738286 0 61.207106651738286 67.896173997316509 0 0 0 0 -64.925818379055272 79.469073603817378 0 79.469073603817378 113.05890300136525 0 0 0 0 -52.444898355111036 67.582322805345029 0 67.582322805345029 113.44143206815352 0 0 0 0 -89.237926665189661 60.916148769232677 0 60.916148769232677 187.13784606358968 0 0 0 0 -63.789540867663163 67.272067361423979 0 67.272067361423979 36.303793091938132 0 0 0 0 -93.597493241046323 115.30550896955538 0 115.30550896955538 45.069802015903406 0 0 0 0 -97.393011408741586 72.378198575985152 0 72.378198575985152 119.62618191097863 0 0 0 0 -51.217492655014212 87.248701880045701 0 87.248701880045701 -32.263211667421274 0 0 0 0 -83.911366267232552 63.275123769140919 0 63.275123769140919 204.94490897780634 0 0 0 0 -96.955122720874328 62.220695259428794 0 62.220695259428794 132.48003098659683 0 0 0 0 -63.872755368516664 49.275203152559698 0 49.275203152559698 120.2352173800391 0 0 0 0 -4.8300848325615462 1.1966646634737401 0 1.1966646634737401 3.6863315615528762 0 0 0 0 -100.31035574302769 19.917990711510356 0 19.917990711510356 13.398611474665813 0 0 0 0 -86.316752627001733 -15.394084469946392 0 -15.394084469946392 277.89852510577475 0 0 0 0 -84.560910745675756 43.583171819438576 0 43.583171819438576 34.429654763302096 0 0 0 0 -94.17417501861496 53.029301849746844 0 53.029301849746844 57.717215269207372 0 0 0 0 -1.31853755245724 -0.77856226528490424 0 -0.77856226528490424 -0.44791712608967771 0 0 0 0 -122.1910176752981 222.52051788038079 0 222.52051788038079 -127.81733862397959 0 0 0 0 -9.6314767648347583 -136.33691563711727 0 -136.33691563711727 361.63497700884909 0 0 0 0 -58.780927799797837 53.45235284537921 0 53.45235284537921 241.96682782695279 0 0 0 0 -157.71707484776925 -21.426891303621233 0 -21.426891303621233 186.31977798548178 0 0 0 0 -220.69410528968365 166.66340070999286 0 166.66340070999286 192.93469284686216 0 0 0 0 -137.25644337334597 150.94320474386041 0 150.94320474386041 98.349091757401766 0 0 0 0 -58.588677869483945 139.57082241633179 0 139.57082241633179 39.133581680769566 0 0 0 0 -119.60539108805824 100.52162874742498 0 100.52162874742498 -155.97548684544745 0 0 0 0 -250.49849993818862 113.93185561690188 0 113.93185561690188 40.529259043345519 0 0 0 0 2.4031250329859404 -22.207228797680727 0 -22.207228797680727 984.73145300563192 0 0 0 0 55.370616229830944 21.696736314785085 0 21.696736314785085 539.99411653586139 0 0 0 0 259.71110440866335 -199.2750734399815 0 -199.2750734399815 -216.42235879343934 0 0 0 0 -193.62076455807619 302.88456352311914 0 302.88456352311914 -12.630188159142563 0 0 0 0 -140.55200010409317 348.29559147794498 0 348.29559147794498 -194.76084225287559 0 0 0 0 23.425467709374125 25.058558072969191 0 25.058558072969191 25.75433515508945 0 0 0 0 17.056762237749581 -202.25955702691863 0 -202.25955702691863 653.71855218708515 0 0 0 0 18.951236697948161 -95.158600795541133 0 -95.158600795541133 577.18881600837631 0 0 0 0 270.15995839829429 -129.38285015805741 0 -129.38285015805741 575.82129257719498 0 0 0 0 42.210960199568945 -156.10409581375643 0 -156.10409581375643 736.87781805632403 0 0 0 0 77.070892853315826 -556.36179638850172 0 -556.36179638850172 1891.8408634587395 0 0 0 0 -81.873499815693776 33.246355095441686 0 33.246355095441686 570.41532085699146 0 0 0 0 -90.74326949601118 54.663970201432676 0 54.663970201432676 547.49976256175432 0 0 0 0 -39.062617984394819 -6.9602152483275859 0 -6.9602152483275859 577.29145239711215 0 0 0 0 -60.891728401227283 78.837805770206614 0 78.837805770206614 511.25885847779136 0 0 0 0 78.935468808931205 0.63901411979895784 0 0.63901411979895784 553.833053832117 0 0 0 0 -18.883239543467777 35.913725751294237 0 35.913725751294237 563.15418735318235 0 0 0 0 -19.235775966671099 3.845463983292575 0 3.845463983292575 604.58251979896158 0 0 0 0 179.51649460020542 90.134109213937336 0 90.134109213937336 640.03849737156997 0 0 0 0 -58.601022094855125 -46.645275056158425 0 -46.645275056158425 574.16494840303494 0 0 0 0 -79.519164223922871 32.848590497625992 0 32.848590497625992 607.04947824423289 0 0 0 0 -80.181359865101626 21.053365932561064 0 21.053365932561064 533.98018513305578 0 0 0 0 -96.585336783779439 35.235396202493575 0 35.235396202493575 563.15319518609613 0 0 0 0 -77.501753572455527 4.1865932233922649 0 4.1865932233922649 543.80688539860421 0 0 0 0 -56.905604797378601 -23.375998254487058 0 -23.375998254487058 459.16444265030441 0 0 0 0 -49.047288217750065 -41.999471596704097 0 -41.999471596704097 466.28529214834998 0 0 0 0 -1.996431311528795 -113.43243287080259 0 -113.43243287080259 268.23902923607966 0 0 0 0 -30.298931947505025 -29.163589960146055 0 -29.163589960146055 319.72822168690618 0 0 0 0 -5.3384385458284669 -10.668779420986539 0 -10.668779420986539 318.38539274333743 0 0 0 0 162.51670495269809 -290.44814850272087 0 -290.44814850272087 610.29054068749247 0 0 0 0 -28.12173078271644 -65.639570654297131 0 -65.639570654297131 850.64057827278157 0 0 0 0 -19.026752332278875 -34.030747859971598 0 -34.030747859971598 516.31666204845533 0 0 0 0 139.50951565170317 -175.76594861140256 0 -175.76594861140256 42.775956692610634 0 0 0 0 -7.3833541428921308 -134.99970252987987 0 -134.99970252987987 499.88674707404061 0 0 0 0 -1.1939585092057619 -0.44474743763282731 0 -0.44474743763282731 5.0949776576767931 0 0 0 0 -134.7520440035878 222.0311362235152 0 222.0311362235152 -15.22022396713146 0 0 0 0 58.437337964322239 145.03231053166382 0 145.03231053166382 -52.226115875004325 0 0 0 0 30.669979154636462 35.540477750927721 0 35.540477750927721 41.954838154513766 0 0 0 0 13.160337654243458 9.0952799526895518 0 9.0952799526895518 0.1671876858602559 0 0 0 0 8.9214734796405537 76.807371901726583 0 76.807371901726583 101.07332444569329 0 0 0 0 -38.294619908801906 59.171855164633598 0 59.171855164633598 109.16197912298958 0 0 0 0 43.762505198901181 -1.6067405426656478 0 -1.6067405426656478 93.325239195721224 0 0 0 0 -19.571511103617013 2.3926640353893163 0 2.3926640353893163 -0.65215916704619303 0 0 0 0 -23.78441428143833 31.527262301853625 0 31.527262301853625 123.33133122272557 0 0 0 0 -42.179497722706401 138.01258791750297 0 138.01258791750297 -85.095987061504275 0 0 0 0 -18.987149173009971 0.35551879068674452 0 0.35551879068674452 21.923521463170687 0 0 0 0 -51.970603549754742 167.85466566046671 0 167.85466566046671 -66.260096892976435 0 0 0 0 36.963449338162036 -0.38365758775762515 0 -0.38365758775762515 172.61692479887279 0 0 0 0 25.351910353791027 16.91447948597488 0 16.91447948597488 179.46301431932079 0 0 0 0 26.204414752530283 -39.077011243061861 0 -39.077011243061861 204.8029046463198 0 0 0 0 33.79598127408326 -9.8859949201578274 0 -9.8859949201578274 101.39307704629027 0 0 0 0 9.2470869426506397 -19.940558814356336 0 -19.940558814356336 179.08720454841387 0 0 0 0 12.67076169716529 -12.78930983520695 0 -12.78930983520695 185.28955931047676 0 0 0 0 30.786136757473287 50.081788952127681 0 50.081788952127681 113.37040007044561 0 0 0 0 30.852703609006312 21.926578128855908 0 21.926578128855908 12.741629382158862 0 0 0 0 -5.4930299288807873 54.324696008174215 0 54.324696008174215 61.794067556729715 0 0 0 0 48.914892990324915 50.878095754771493 0 50.878095754771493 55.293685255790479 0 0 0 0 42.817597745923649 60.662945311843941 0 60.662945311843941 150.15621298569022 0 0 0 0 35.228204612836635 46.032604379259283 0 46.032604379259283 174.18454957971699 0 0 0 0 9.8814258411302944 23.160437088954495 0 23.160437088954495 218.9851936334162 0 0 0 0 4.9217404671467193 21.144565739174141 0 21.144565739174141 309.91075222304789 0 0 0 0 73.012621819048263 113.58046166101849 0 113.58046166101849 278.84530469990568 0 0 0 0 72.303513492947786 57.455605667564669 0 57.455605667564669 176.44625402379825 0 0 0 0 2.4103651532859658 67.92055487781181 0 67.92055487781181 327.97078316511033 0 0 0 0 34.172489368266042 140.00059169588349 0 140.00059169588349 431.34062640124466 0 0 0 0 30.187610051416414 154.38737011194462 0 154.38737011194462 473.88380151148885 0 0 0 0 -13.882190404020548 27.570000057676225 0 27.570000057676225 310.75625714714442 0 0 0 0 -5.5995287993023339 81.030079897645919 0 81.030079897645919 438.43498708086554 0 0 0 0 -32.593473544366589 15.017907048037159 0 15.017907048037159 449.08122800983256 0 0 0 0 -72.057504690827045 46.803662387850636 0 46.803662387850636 529.02671763653052 0 0 0 0 -70.986514337954759 14.740183675276057 0 14.740183675276057 450.54000957746757 0 0 0 0 -97.234689543234708 39.425739737256663 0 39.425739737256663 538.16837718765601 0 0 0 0 -67.20453380924755 50.173089603849803 0 50.173089603849803 465.31342275632778 0 0 0 0 -46.129686692777796 80.081248489848804 0 80.081248489848804 528.85517904161679 0 0 0 0 -14.399093852362967 136.50470022634545 0 136.50470022634545 616.06306465432863 0 0 0 0 -55.863044203068966 90.55897608261148 0 90.55897608261148 547.62811641104054 0 0 0 0 -66.662023947380476 53.820436741494632 0 53.820436741494632 586.84412973356666 0 0 0 0 -86.932098590705209 36.311931700984132 0 36.311931700984132 581.01655469484831 0 0 0 0 -53.853154766686202 19.185247487999732 0 19.185247487999732 669.79800364319817 0 0 0 0 -55.508405128514823 -34.227439563328517 0 -34.227439563328517 612.95044895961837 0 0 0 0 -88.281249762539119 22.538249905242992 0 22.538249905242992 504.95656956835592 0 0 0 0 -67.456130467964158 13.906729920323414 0 13.906729920323414 492.71893809083849 0 0 0 0 -92.53571805924912 17.994905591782299 0 17.994905591782299 564.36581509826647 0 0 0 0 -90.342167574346604 47.265437709269463 0 47.265437709269463 547.08174476675049 0 0 0 0 147.8431758363804 45.031597194989445 0 45.031597194989445 944.73485320068721 0 0 0 0 880.70169929461372 71.727099306881428 0 71.727099306881428 812.84141699659813 0 0 0 0 884.88132160244822 607.40525469288696 0 607.40525469288696 1022.0187319935649 0 0 0 0 447.90361597832089 796.49287234706571 0 796.49287234706571 1271.6402481576079 0 0 0 0 386.05243227649044 657.777334022172 0 657.777334022172 1196.2883896146668 0 0 0 0 336.94308861279205 292.13807183119934 0 292.13807183119934 1070.6094707994489 0 0 0 0 405.0082553910288 374.63590392720653 0 374.63590392720653 914.66597075082245 0 0 0 0 155.74939446573262 63.235485310317017 0 63.235485310317017 970.0257690170256 0 0 0 0 115.66486012971654 111.9863681528077 0 111.9863681528077 924.95293307484826 0 0 0 0 64.685538273348811 284.0112124517691 0 284.0112124517691 1353.1996026802226 0 0 0 0 137.8005931153466 -74.363691905018641 0 -74.363691905018641 643.03811668744311 0 0 0 0 86.532374354908825 -62.88135113439057 0 -62.88135113439057 891.44747162827844 0 0 0 0 358.45754153850066 57.586541318331001 0 57.586541318331001 822.74876288475934 0 0 0 0 28.463778969277882 -27.9032183402378 0 -27.9032183402378 637.41167590048281 0 0 0 0 55.872061102811131 -102.97316998205497 0 -102.97316998205497 791.54771437117779 0 0 0 0 -14.363663057509257 -75.313016100742971 0 -75.313016100742971 682.19562759891687 0 0 0 0 2.8025787136048166 -3.4075497927115066 0 -3.4075497927115066 791.25477998575661 0 0 0 0 -19.224463064434531 48.015111789980438 0 48.015111789980438 676.74846063137375 0 0 0 0 51.900208910259607 56.479237223800737 0 56.479237223800737 803.41196564792699 0 0 0 0 144.25963710724056 -25.680307056717083 0 -25.680307056717083 869.85598077019677 0 0 0 0 117.12599118040816 190.08617826664704 0 190.08617826664704 883.39377437238909 0 0 0 0 47.962407630692724 130.73852837961022 0 130.73852837961022 833.54850698268274 0 0 0 0 -2.329156764902109 114.68444906927471 0 114.68444906927471 653.8414371087274 0 0 0 0 31.21010877482513 172.1352930226858 0 172.1352930226858 747.04240896647752 0 0 0 0 80.299601095688558 237.70332190211047 0 237.70332190211047 574.85382773823221 0 0 0 0 182.65964867556977 367.79219273848867 0 367.79219273848867 744.31951545221091 0 0 0 0 131.80898989238904 225.09443055244628 0 225.09443055244628 378.98597030111705 0 0 0 0 -0.42836855481068703 -0.21182413777631837 0 -0.21182413777631837 -0.607735714974865 0 0 0 0 458.0571265698245 439.0440228708685 0 439.0440228708685 559.81570843535519 0 0 0 0 345.76812302754524 297.89100573348696 0 297.89100573348696 339.58190582203679 0 0 0 0 77.215647707703624 -221.43404702031876 0 -221.43404702031876 890.57414317247458 0 0 0 0 127.59438933005094 -104.28648306973173 0 -104.28648306973173 1.8249837611656403 0 0 0 0 303.22985259199811 126.79146011678131 0 126.79146011678131 -2.290230070007965 0 0 0 0 147.34357272973193 167.81325914636545 0 167.81325914636545 293.29107007525454 0 0 0 0 155.73374506693744 195.15249755537661 0 195.15249755537661 382.15020323097269 0 0 0 0 275.48393480557115 110.86331214886741 0 110.86331214886741 36.736040719391895 0 0 0 0 176.40827671185752 11.324017349244968 0 11.324017349244968 53.052451208859566 0 0 0 0 56.323644004047537 49.506991101807216 0 49.506991101807216 205.86381559123402 0 0 0 0 164.34045774391871 36.062224370718468 0 36.062224370718468 113.91859588307852 0 0 0 0 137.71382720818235 -128.50240500086147 0 -128.50240500086147 159.27353354819934 0 0 0 0 -23.845071197211837 -24.035573234890762 0 -24.035573234890762 318.48502656385972 0 0 0 0 217.12440707428334 127.03719914619614 0 127.03719914619614 -29.636846545385197 0 0 0 0 -27.903236309050953 57.530572969721106 0 57.530572969721106 86.210635168128647 0 0 0 0 76.538751563727601 -44.577643870092288 0 -44.577643870092288 44.452060721587259 0 0 0 0 37.265022934470835 -25.518837196374079 0 -25.518837196374079 168.61976363093709 0 0 0 0 0.010451598802557527 -0.34930085252975118 0 -0.34930085252975118 -2.3053661772698035 0 0 0 0 27.867784300336098 33.344600316864671 0 33.344600316864671 72.715873998022289 0 0 0 0 64.711257664114328 59.936476496848627 0 59.936476496848627 74.862619062099839 0 0 0 0 33.383056560978048 46.958647805571673 0 46.958647805571673 69.514766348234843 0 0 0 0 26.811871116758994 43.867691677136463 0 43.867691677136463 87.173808163890499 0 0 0 0 5.2546731623268066 10.778437723490669 0 10.778437723490669 15.108546284329691 0 0 0 0 16.589301245039223 52.147842170714284 0 52.147842170714284 95.778084117555409 0 0 0 0 -5.3384056046870683 52.783962317058467 0 52.783962317058467 92.217823063008836 0 0 0 0 16.434542820120704 42.262441124897236 0 42.262441124897236 97.219884447462391 0 0 0 0 11.643745160286471 40.151068956307427 0 40.151068956307427 38.448404409078648 0 0 0 0 -16.409462844334485 6.4439021526486613 0 6.4439021526486613 22.435374334585504 0 0 0 0 1.3237828862135732 3.7515947827187404 0 3.7515947827187404 9.3216102975101762 0 0 0 0 18.846481479433464 48.249157606247536 0 48.249157606247536 85.564668766019167 0 0 0 0 18.924204058864234 47.022496540186694 0 47.022496540186694 60.995338265056489 0 0 0 0 5.3151918003490053 3.938899421566191 0 3.938899421566191 53.827942742214532 0 0 0 0 -2.9653114531574829 11.481617588200606 0 11.481617588200606 45.383583228918724 0 0 0 0 7.2905900109706003 31.164179498670848 0 31.164179498670848 78.593817560395166 0 0 0 0 10.494358579603496 24.663068704190408 0 24.663068704190408 44.235850906524433 0 0 0 0 -90.870180774890059 52.734842519983431 0 52.734842519983431 159.87450906465529 0 0 0 0 -21.106689220628162 -27.470441539832905 0 -27.470441539832905 22.985572404011492 0 0 0 0 -16.891784070376513 -7.7503074097105866 0 -7.7503074097105866 58.41556317299586 0 0 0 0 -13.909238237935824 -12.919035461760359 0 -12.919035461760359 58.791044406199944 0 0 0 0 -12.956636182938 -12.561221131765137 0 -12.561221131765137 62.735933401755489 0 0 0 0 -12.423855087356969 -24.01114340784261 0 -24.01114340784261 78.05515908281086 0 0 0 0 16.770153475745474 -4.6083976177906152 0 -4.6083976177906152 88.973836687480798 0 0 0 0 15.154342247841214 -34.964750014107267 0 -34.964750014107267 55.789516611461295 0 0 0 0 13.106380574203058 -29.750923580118979 0 -29.750923580118979 2.966494187770877 0 0 0 0 -24.079620971144095 -42.595645527908346 0 -42.595645527908346 41.230984408175573 0 0 0 0 -1.8832052696042156 -3.2723113027508361 0 -3.2723113027508361 3.7897735291523986 0 0 0 0 -24.664109119069508 -30.88726226403378 0 -30.88726226403378 14.930933053226909 0 0 0 0 9.1754239253554921 4.0353404835333322 0 4.0353404835333322 7.8412866279406899 0 0 0 0 10.370800275701185 -15.899206462447182 0 -15.899206462447182 56.254020110471174 0 0 0 0 6.3845735905338188 -28.308160455679172 0 -28.308160455679172 74.390082033161889 0 0 0 0 18.956912176421611 43.231635340460343 0 43.231635340460343 18.616443866369082 0 0 0 0 17.742940221021854 -33.059597027720883 0 -33.059597027720883 24.54348884196952 0 0 0 0 16.437275102623268 -29.338474875244287 0 -29.338474875244287 60.64632253482705 0 0 0 0 5.2800815805314869 -17.082656315636996 0 -17.082656315636996 71.127448931802064 0 0 0 0 17.348252945026616 8.2326942689251155 0 8.2326942689251155 -17.058924333556206 0 0 0 0 7.1255967400580644 3.8365427584378438 0 3.8365427584378438 0.85364617429968348 0 0 0 0 0.42373889080632487 -1.9057576443079824 0 -1.9057576443079824 -2.8522399204232443 0 0 0 0 -2.2567461371923478 168.24122635889307 0 168.24122635889307 -2.1035912244697101 0 0 0 0 -0.46166350415279922 -0.50144569002731032 0 -0.50144569002731032 -0.66842640752071247 0 0 0 0 265.20173086451041 -78.423925387705822 0 -78.423925387705822 0.15501930096070282 0 0 0 0 -3.4792897946011934 -39.257312456113056 0 -39.257312456113056 27.056449034105754 0 0 0 0 23.612886785907222 51.296320914741955 0 51.296320914741955 32.45459416002268 0 0 0 0 14.708928294478937 47.226249144223402 0 47.226249144223402 52.790943558153231 0 0 0 0 42.562299179579895 -23.59765529481956 0 -23.59765529481956 -8.954002386328284 0 0 0 0 38.859630887633557 -47.517832963552792 0 -47.517832963552792 -25.154925080249086 0 0 0 0 41.976160208330839 -64.320254707563436 0 -64.320254707563436 39.030916625160899 0 0 0 0 -28.06341012553321 -94.042946126843162 0 -94.042946126843162 -3.3874001888616476 0 0 0 0 19.784821082607777 -10.83200872092857 0 -10.83200872092857 -22.736765630052105 0 0 0 0 72.136848316421492 -31.046590731464676 0 -31.046590731464676 31.943082973919445 0 0 0 0 54.786863261692815 -44.826809527672594 0 -44.826809527672594 -48.758440996869467 0 0 0 0 92.291965265027102 -77.04690185299296 0 -77.04690185299296 -29.299025350745069 0 0 0 0 102.04180607856779 -39.16558116854867 0 -39.16558116854867 -82.759318416152382 0 0 0 0 14.930051591352822 14.77494711172767 0 14.77494711172767 -35.865683028358035 0 0 0 0 69.199505805227091 -3.4287719766434748 0 -3.4287719766434748 -79.295077845979904 0 0 0 0 43.013972368702525 -38.598347811814165 0 -38.598347811814165 -13.728726085857488 0 0 0 0 61.748942714956911 -30.93483461804135 0 -30.93483461804135 -32.141552435234189 0 0 0 0 53.253283396069037 -44.631259282294195 0 -44.631259282294195 -27.426419967785478 0 0 0 0 39.410646213894324 -47.306880029536842 0 -47.306880029536842 -27.917065545683727 0 0 0 0 -11.905463218469777 -43.818421101586864 0 -43.818421101586864 -18.882960932445712 0 0 0 0 17.775393211852133 -72.038950328991632 0 -72.038950328991632 -21.311752613428325 0 0 0 0 -15.266452121384873 -62.514580062161258 0 -62.514580062161258 -5.8840770450769924 0 0 0 0 -15.424173520625914 -60.471494414185145 0 -60.471494414185145 -29.064620863762684 0 0 0 0 -11.507184885334254 -44.755640441875585 0 -44.755640441875585 -34.845090710965451 0 0 0 0 -7.6873999960540047 -21.463642385349431 0 -21.463642385349431 15.265879225713434 0 0 0 0 0.33239654441087474 -14.341956071220523 0 -14.341956071220523 29.108652206036027 0 0 0 0 -7.6658431683722483 -20.893970639604959 0 -20.893970639604959 19.775791475047299 0 0 0 0 -6.4322964830065814 -19.796793569355941 0 -19.796793569355941 13.972543903757469 0 0 0 0 -6.378665057075068 -19.460657758565503 0 -19.460657758565503 16.042698409801233 0 0 0 0 2.5422018365977133 -7.9364836116331361 0 -7.9364836116331361 24.040316257140148 0 0 0 0 -152.98613317594118 -142.31805341923973 0 -142.31805341923973 -35.346095914952457 0 0 0 0 -90.651565516172923 -33.054230267254752 0 -33.054230267254752 1.596446627547266 0 0 0 0 -31.818345494461028 5.9680530675468617 0 5.9680530675468617 104.8275570429978 0 0 0 0 -158.96943501102623 102.72623085492523 0 102.72623085492523 319.79802692175144 0 0 0 0 -155.81379319097778 204.08744645645493 0 204.08744645645493 100.07344343722798 0 0 0 0 -13.307981719449117 7.1461387170820672 0 7.1461387170820672 -195.06375592135009 0 0 0 0 -8.1948843711243171 50.65525604179129 0 50.65525604179129 69.855712426127866 0 0 0 0 9.2909765311374031 -13.138446967466734 0 -13.138446967466734 16.717134065220307 0 0 0 0 -147.32261675087403 -328.4256323546665 0 -328.4256323546665 522.80164713977138 0 0 0 0 2.7172464404148968 -7.3151889013315667 0 -7.3151889013315667 12.313444946223171 0 0 0 0 1.6822913275724727 -5.9903838633240554 0 -5.9903838633240554 18.582179085705775 0 0 0 0 208.51126079745563 74.928226381445711 0 74.928226381445711 -403.71683748246869 0 0 0 0 16.463866124358901 234.72727335730451 0 234.72727335730451 -186.91361625849095 0 0 0 0 224.07685557849936 24.749537211355346 0 24.749537211355346 -258.70581484306604 0 0 0 0 3.8601276433309533 1.3017192217110676 0 1.3017192217110676 1.9512341638967428 0 0 0 0 3.0132010981769781 -71.893591466228827 0 -71.893591466228827 356.103290643734 0 0 0 0 152.41301391237448 -77.60829833104799 0 -77.60829833104799 -0.82971425974392332 0 0 0 0 3.978566271032598 -5.4362360183891383 0 -5.4362360183891383 4.4349764800394951 0 0 0 0 -13.2951708704677 44.054504608808202 0 44.054504608808202 179.49881244554126 0 0 0 0 -12.933087103372571 -6.1198632076984723 0 -6.1198632076984723 116.97403233428486 0 0 0 0 22.281845813718064 70.732337019122497 0 70.732337019122497 194.27158714899269 0 0 0 0 -12.114851583502968 77.447838772292016 0 77.447838772292016 204.59239999871352 0 0 0 0 22.244065357030195 -58.598403017378587 0 -58.598403017378587 138.9818506349111 0 0 0 0 76.769229991047268 -126.50115385628305 0 -126.50115385628305 330.00397551426431 0 0 0 0 50.648904025092634 158.86526381206932 0 158.86526381206932 408.26651690814106 0 0 0 0 1.7259140817437117 -1.5581581072384836 0 -1.5581581072384836 1.9330819960051713 0 0 0 0 159.68891961420036 -75.659907563740489 0 -75.659907563740489 -35.827365102712065 0 0 0 0 -32.856548861333067 -39.087587526126299 0 -39.087587526126299 54.800533227433334 0 0 0 0 -43.101380012350091 -6.0783035501954146 0 -6.0783035501954146 43.38013449860955 0 0 0 0 -27.269321554309272 -24.74038800722883 0 -24.74038800722883 5.2874236007337458 0 0 0 0 -2.7965675451270684 -3.9054365708854561 0 -3.9054365708854561 -0.34531671494136162 0 0 0 0 -0.63353650741169076 7.3539426017305232 0 7.3539426017305232 -67.380757477105362 0 0 0 0 -38.146946123906673 8.3881483452059911 0 8.3881483452059911 7.2002955990315058 0 0 0 0 0.81109138333528108 -5.0606945861521524 0 -5.0606945861521524 9.8419471525229483 0 0 0 0 -13.056384639729004 -6.8174200066423509 0 -6.8174200066423509 -20.506123632076196 0 0 0 0 34.360371226776351 -17.539816167161916 0 -17.539816167161916 -89.750483899057144 0 0 0 0 5.6247335510261109 -40.50744556056452 0 -40.50744556056452 -34.835400532523636 0 0 0 0 2.2675549362293168 -34.617532085161656 0 -34.617532085161656 -44.847820637980476 0 0 0 0 -16.810107040515504 -25.082810556166805 0 -25.082810556166805 -48.075317428563721 0 0 0 0 31.554101582175463 -76.123797267209738 0 -76.123797267209738 -56.505523964988242 0 0 0 0 25.23067741761588 -43.931678870489122 0 -43.931678870489122 -37.163424344311352 0 0 0 0 -2.1097133532603038 -55.07359098069719 0 -55.07359098069719 35.911934364121407 0 0 0 0 -10.985502233445004 128.04822534587584 0 128.04822534587584 344.67456815822516 0 0 0 0 -63.72813417936959 -3.4517041942453943 0 -3.4517041942453943 285.97167863845243 0 0 0 0 -50.3491922917583 66.573175584519049 0 66.573175584519049 340.28358511635452 0 0 0 0 7.4978952343450764 0.13020628467791084 0 0.13020628467791084 1.0789418305043768 0 0 0 0 130.24774890575281 75.246182223549113 0 75.246182223549113 194.43779043473478 0 0 0 0 30.922250994253773 66.715341489383718 0 66.715341489383718 204.8314784875547 0 0 0 0 -66.122517811388491 -87.254740261376128 0 -87.254740261376128 167.43757606582949 0 0 0 0 35.60024759283715 22.750879648985574 0 22.750879648985574 150.61642166646197 0 0 0 0 14.537600555509016 -84.818159577924234 0 -84.818159577924234 60.88401221280219 0 0 0 0 -14.742414009784625 -35.542589307791786 0 -35.542589307791786 135.64960959437303 0 0 0 0 9.7904912568146756 -35.927640995098045 0 -35.927640995098045 35.083460248424672 0 0 0 0 26.092856270486664 -7.7687547720270231 0 -7.7687547720270231 127.52480816388561 0 0 0 0 -29.125031186568776 -7.8193649542226922 0 -7.8193649542226922 186.06003785392386 0 0 0 0 79.236274146885989 -7.0240852380229626 0 -7.0240852380229626 199.53315516545263 0 0 0 0 3.059276066156599 -18.035881234914996 0 -18.035881234914996 210.8394537633867 0 0 0 0 -18.708041747473544 44.99286588983523 0 44.99286588983523 274.34562263191765 0 0 0 0 4.8280968828555189 1.8599463379407553 0 1.8599463379407553 0.30744774626046478 0 0 0 0 1230.9574998000589 -733.1309433948154 0 -733.1309433948154 2662.7881934528123 0 0 0 0 -215.05777683645647 856.68288245328586 0 856.68288245328586 2342.3442797713979 0 0 0 0 -817.75873359560501 -24.107374250044813 0 -24.107374250044813 2082.0766155317542 0 0 0 0 84.778960905277927 952.38185150705976 0 952.38185150705976 1209.0210168819467 0 0 0 0 -729.03085296374047 -765.96112244160031 0 -765.96112244160031 4263.0722423870466 0 0 0 0 -370.12133375343001 -126.45948884342215 0 -126.45948884342215 1557.3834181799903 0 0 0 0 -134.79894917438469 71.003567707084585 0 71.003567707084585 1125.938132536161 0 0 0 0 -241.32326954979726 75.146065415116027 0 75.146065415116027 1833.5594925519108 0 0 0 0 -362.36710732888605 622.76457876575296 0 622.76457876575296 1707.0951425359672 0 0 0 0 67.156929193733959 692.56799588009017 0 692.56799588009017 1303.9845350296237 0 0 0 0 -167.55236960811635 720.79987800669915 0 720.79987800669915 1330.8542340822751 0 0 0 0 68.260593996819807 520.39437094156165 0 520.39437094156165 1213.604157349735 0 0 0 0 -679.16125738393748 1827.9292067511706 0 1827.9292067511706 1287.470699485013 0 0 0 0 -1720.3110950328155 2018.3063786099374 0 2018.3063786099374 4300.0216062614345 0 0 0 0 -551.84152771609843 641.15645882245735 0 641.15645882245735 2791.7938541449839 0 0 0 0 -61.106153714714537 12.607041201401444 0 12.607041201401444 157.81432485274127 0 0 0 0 -10.482240576667147 9.6914511806785697 0 9.6914511806785697 6.014522111389681 0 0 0 0 -67.099397009784298 -91.033872847066959 0 -91.033872847066959 65.570884564484004 0 0 0 0 -67.099397009706081 -91.033872846950544 0 -91.033872846950544 65.570884564338485 0 0 0 0 -67.099397009752465 -91.033872847066959 0 -91.033872847066959 65.570884564207518 0 0 0 0 0.57723864683906445 -22.289836973530356 0 -22.289836973530356 56.880056714647822 0 0 0 0 -117.4341075413613 -14.307583104236983 0 -14.307583104236983 73.263248996165203 0 0 0 0 -43.046255574011866 60.111094221530948 0 60.111094221530948 67.466246991167054 0 0 0 0 10.45401026674881 88.716278933992726 0 88.716278933992726 193.98942178557627 0 0 0 0 58.0910426947421 36.504217162371788 0 36.504217162371788 100.21396812400781 0 0 0 0 25.551219869526903 -34.225140479175025 0 -34.225140479175025 81.803791363781784 0 0 0 0 -60.584552707874536 -27.293104599535582 0 -27.293104599535582 117.60070502810413 0 0 0 0 -42.215913362702167 -44.901600987450365 0 -44.901600987450365 90.916258276440203 0 0 0 0 -53.979209122157954 0.12493363075191155 0 0.12493363075191155 129.26869136068854 0 0 0 0 -5.1432207321886381 16.217353543805075 0 16.217353543805075 73.228727565729059 0 0 0 0 -18.760879473046771 -43.971657112415414 0 -43.971657112415414 41.322576434351504 0 0 0 0 -12.557889412515578 -54.408697649865644 0 -54.408697649865644 54.972176492374274 0 0 0 0 -21.556287138012749 -23.675361973873805 0 -23.675361973873805 -71.964844642847311 0 0 0 0 -137.89518639081871 -10.170694588436163 0 -10.170694588436163 84.318750757767702 0 0 0 0 -3.4844076144629099 3.7308459918858716 0 3.7308459918858716 25.862746181839611 0 0 0 0 -1.859372264878451 3.9016812608608689 0 3.9016812608608689 25.494663317396771 0 0 0 0 -3.6932739268777919 -0.34366824435626597 0 -0.34366824435626597 29.359959718741379 0 0 0 0 -4.8703327571688177 -0.49530489722818061 0 -0.49530489722818061 10.914295899511387 0 0 0 0 -1.6735648218427741 2.3582289495680016 0 2.3582289495680016 24.83217191620497 0 0 0 0 -3.8824211529275772 2.5267288516060944 0 2.5267288516060944 25.57025517069269 0 0 0 0 -120.06848031706886 -79.893055074920994 0 -79.893055074920994 103.22621655915282 0 0 0 0 -3.6755719357679855 3.4693445185930614 0 3.4693445185930614 25.862330261559691 0 0 0 0 198.98524585298719 -374.63350072178582 0 -374.63350072178582 -121.2811659310828 0 0 0 0 -1.8216923203193005 2.5697520019825788 0 2.5697520019825788 24.792907934926916 0 0 0 0 -333.13298023719926 15.399794506265607 0 15.399794506265607 352.00745201227255 0 0 0 0 -26.634077784863621 97.758625713177025 0 97.758625713177025 -366.514072318736 0 0 0 0 300.06663891790822 -440.20104211612488 0 -440.20104211612488 503.93533293955261 0 0 0 0 -1.290616684125343 -3.5830484096425437 0 -3.5830484096425437 10.899497806129546 0 0 0 0 4.4816200741520333 0.25682410238368902 0 0.25682410238368902 15.177578195449314 0 0 0 0 -2.8891380590918887 -2.6757740131160546 0 -2.6757740131160546 16.003010000827317 0 0 0 0 -45.11013632578306 -72.496098990392056 0 -72.496098990392056 -13.552073188722716 0 0 0 0 -180.97823436649924 -79.650364469271153 0 -79.650364469271153 53.776260692975484 0 0 0 0 -1.0147916039359188 -41.173465456566191 0 -41.173465456566191 -31.376026262994856 0 0 0 0 -44.682926937603952 -37.212694106463459 0 -37.212694106463459 -19.58778012933908 0 0 0 0 -18.322803938535799 -61.900888083182508 0 -61.900888083182508 -26.94060334095775 0 0 0 0 -18.866449229989939 4.7937204973059124 0 4.7937204973059124 2.6435412617283873 0 0 0 0 -1.9881192273765453 -2.2800421507206465 0 -2.2800421507206465 12.04067740479195 0 0 0 0 -24.013545077385515 -14.981520545610692 0 -14.981520545610692 -12.345866871299222 0 0 0 0 27.266000418920157 30.529487369058188 0 30.529487369058188 1.1980243169819005 0 0 0 0 8.1778505568854598 22.729185719013913 0 22.729185719013913 -1.9216896049474599 0 0 0 0 -12.049937364319703 22.246755335727357 0 22.246755335727357 13.7785522590857 0 0 0 0 -5.6542215163044602 30.180665675085038 0 30.180665675085038 19.149956868146546 0 0 0 0 43.714002493528824 44.344041864344035 0 44.344041864344035 6.9245731372211594 0 0 0 0 -2.5096858847573458 -1.407550297328271 0 -1.407550297328271 5.4523524869582616 0 0 0 0 14.52021570524812 38.707318112647044 0 38.707318112647044 20.738375885353889 0 0 0 0 -2.1079004929382785 -2.0865028241292691 0 -2.0865028241292691 9.4315632960479547 0 0 0 0 0.24706810821137437 -1.3662031926338472 0 -1.3662031926338472 7.9814495837412096 0 0 0 0 23.48298608474272 284.48690944152258 0 284.48690944152258 75.282996910449583 0 0 0 0 -159.75391418538993 269.89122357144515 0 269.89122357144515 327.1043335699942 0 0 0 0 -96.319955756171112 148.91592957319517 0 148.91592957319517 120.4785576575232 0 0 0 0 38.653744736368026 167.80305309116375 0 167.80305309116375 -0.3850474793871399 0 0 0 0 -60.009970443605425 146.29596970078637 0 146.29596970078637 68.790603419300169 0 0 0 0 155.6940099577057 -114.11555757878523 0 -114.11555757878523 71.861066331442998 0 0 0 0 179.4400130551121 -46.01077586304018 0 -46.01077586304018 28.121687352526351 0 0 0 0 -38.640955459278985 -75.959899048189982 0 -75.959899048189982 417.03107260627439 0 0 0 0 -88.582375111016063 -29.465001644493896 0 -29.465001644493896 85.067161061777369 0 0 0 0 -21.24302585002647 -34.70746321095794 0 -34.70746321095794 -6.1990729761018883 0 0 0 0 -113.50067288090509 196.10797255007492 0 196.10797255007492 20.664048189704772 0 0 0 0 -64.686557833693769 212.99756807858648 0 212.99756807858648 -98.322194097825559 0 0 0 0 -115.05804039964073 277.76859223880456 0 277.76859223880456 79.356576943635446 0 0 0 0 -8.074063584933679 12.733552343351562 0 12.733552343351562 30.458006409170821 0 0 0 0 41.820363582588016 304.60013166486169 0 304.60013166486169 266.09543806497095 0 0 0 0 -192.44244553379576 115.43831147764286 0 115.43831147764286 113.41706404724391 0 0 0 0 -126.49736689706151 -174.66213224435342 0 -174.66213224435342 -62.458490071649067 0 0 0 0 648.77324422171978 -91.95531470253627 0 -91.95531470253627 -64.057438714255113 0 0 0 0 -181.60378366922669 -70.182789132377366 0 -70.182789132377366 -193.44173917040462 0 0 0 0 -115.00236531356131 66.08132166787982 0 66.08132166787982 78.759602406003978 0 0 0 0 -10.101079284348206 7.4516031950733748 0 7.4516031950733748 28.036070878351893 0 0 0 0 -160.64274886743473 7.2258225635639519 0 7.2258225635639519 -40.619509550917428 0 0 0 0 -162.10212814294209 152.6903993558517 0 152.6903993558517 -70.997043899144046 0 0 0 0 -26.633620626660331 -13.978192792565096 0 -13.978192792565096 -279.73113277676748 0 0 0 0 -306.38358732719303 239.59503977453278 0 239.59503977453278 -503.9717368792044 0 0 0 0 -9.3224244362377089 6.6419247482201058 0 6.6419247482201058 37.4961603853003 0 0 0 0 -52.466269214974204 165.46292135593831 0 165.46292135593831 251.84371054853546 0 0 0 0 -67.822459401380002 45.093338279693853 0 45.093338279693853 12.888541572767281 0 0 0 0 -92.042737291858884 124.2077228895796 0 124.2077228895796 121.91314849691116 0 0 0 0 -19.890229931765589 16.343080343300244 0 16.343080343300244 427.2518546943611 0 0 0 0 -65.709437106181667 -10.861478229548084 0 -10.861478229548084 106.64082470987341 0 0 0 0 -99.788429707502246 -69.670280116803042 0 -69.670280116803042 362.05413129372755 0 0 0 0 -98.719120458119505 -6.8808930181548931 0 -6.8808930181548931 127.70503309708147 0 0 0 0 -126.30362432359834 36.744877928344067 0 36.744877928344067 61.721357662740047 0 0 0 0 -136.45293591366499 2.1042897705920041 0 2.1042897705920041 126.67628393674386 0 0 0 0 -154.1213919613283 20.844323206110857 0 20.844323206110857 124.56189302250277 0 0 0 0 -91.855381422112714 14.440514961235749 0 14.440514961235749 111.00668270920869 0 0 0 0 38.018888745285153 -9.8742271723604063 0 -9.8742271723604063 471.05824931889401 0 0 0 0 -108.11206137307778 3.6425082896930689 0 3.6425082896930689 1084.1284347150649 0 0 0 0 56.124307854364758 86.043701017308194 0 86.043701017308194 22.357163234410109 0 0 0 0 -0.046785005228461775 228.85668803898031 0 228.85668803898031 58.246948984044138 0 0 0 0 -83.421098052371178 72.827811785202357 0 72.827811785202357 478.16201164492213 0 0 0 0 26.033398531002433 16.278593682538485 0 16.278593682538485 -242.64354562771041 0 0 0 0 -89.377562998661958 49.78207588938858 0 49.78207588938858 15.596591162146069 0 0 0 0 37.86035206450407 116.78199382600724 0 116.78199382600724 -134.86489455030096 0 0 0 0 -6.0395517871799074 13.787190014326342 0 13.787190014326342 33.27682983073413 0 0 0 0 -82.194689093693142 5.4707527593827763 0 5.4707527593827763 56.383388506394112 0 0 0 0 -3.9814380812443155 -3.8233231850899756 0 -3.8233231850899756 22.591185647732345 0 0 0 0 -0.56465264297043993 3.0289705350652412 0 3.0289705350652412 3.6687327312038178 0 0 0 0 -0.020949507362759585 -8.3569052902312251 0 -8.3569052902312251 -5.3887854689965025 0 0 0 0 8.0463291193159598 -9.9125158761453349 0 -9.9125158761453349 -27.139499688870274 0 0 0 0 -1.7669691455713306 -2.7303968800925418 0 -2.7303968800925418 8.347669810300431 0 0 0 0 -4.7769714806706443 -6.4410704267793335 0 -6.4410704267793335 2.2962245816015638 0 0 0 0 0.038020681746061886 -12.024188608986151 0 -12.024188608986151 7.5773089415160939 0 0 0 0 73.030357950939674 21.394717902607226 0 21.394717902607226 -18.339889165099521 0 0 0 0 -46.349378897523593 -25.117980054485088 0 -25.117980054485088 58.987413517340428 0 0 0 0 2.6049664251235418 -16.38339663625419 0 -16.38339663625419 34.742353130553568 0 0 0 0 4.5777544765148201 -58.67026866806782 0 -58.67026866806782 -34.227272956311936 0 0 0 0 8.4456082067096077 -35.754405824442074 0 -35.754405824442074 21.611917798203649 0 0 0 0 -37.748165033016903 -60.362101774291659 0 -60.362101774291659 81.041940543334022 0 0 0 0 5.9517628338812756 -4.8310045913385693 0 -4.8310045913385693 7.7644196602705051 0 0 0 0 43.021060846488695 -42.686593748385349 0 -42.686593748385349 7.5947870759118814 0 0 0 0 107.34841497410525 -3.7052561919263098 0 -3.7052561919263098 4.2805504520219984 0 0 0 0 55.580833675736358 -86.085740527094458 0 -86.085740527094458 66.670231277090352 0 0 0 0 -13.607744817729781 -42.625229345736443 0 -42.625229345736443 9.0998825729402597 0 0 0 0 2.491539079373351 -16.279105666285062 0 -16.279105666285062 31.407700871931922 0 0 0 0 21.709829022879944 -152.11220270478225 0 -152.11220270478225 -4.060588114647544 0 0 0 0 -70.693175394732521 -44.117700146081916 0 -44.117700146081916 38.87928207934965 0 0 0 0 0.030990834270832462 0.075931512543370161 0 0.075931512543370161 2.0282191130430647 0 0 0 0 -52.211443501232644 60.148737778557006 0 60.148737778557006 195.20961428736337 0 0 0 0 129.04692833734208 86.688164857296215 0 86.688164857296215 44.4355952911028 0 0 0 0 53.939645490163976 -75.221911638593156 0 -75.221911638593156 64.469634856621269 0 0 0 0 -0.062018934535128752 -12.576513010266353 0 -12.576513010266353 100.76261656202405 0 0 0 0 -14.496237869907826 -36.210793694983295 0 -36.210793694983295 186.98578134373383 0 0 0 0 7.9517858481295098 39.908145335441077 0 39.908145335441077 139.09319849331223 0 0 0 0 111.60242295405158 109.47603067540024 0 109.47603067540024 -118.46105103188893 0 0 0 0 27.352798867713549 34.768819323316322 0 34.768819323316322 41.439323756411952 0 0 0 0 125.14080374931109 -45.249501307431274 0 -45.249501307431274 22.832914560045538 0 0 0 0 102.45694381551402 -87.650429816018004 0 -87.650429816018004 138.73280345420017 0 0 0 0 59.924767727481594 -1.7054309139502948 0 -1.7054309139502948 117.5169667487171 0 0 0 0 -212.79163827033881 246.20559355812838 0 246.20559355812838 4.5693927596430512 0 0 0 0 10.248462203096821 27.547692108614559 0 27.547692108614559 65.327975554830346 0 0 0 0 -147.79490244247427 39.073289946012665 0 39.073289946012665 246.25601615373617 0 0 0 0 92.661328998663521 290.00757942702694 0 290.00757942702694 244.53743451797064 0 0 0 0 0.4837566279649792 0.62266640545061591 0 0.62266640545061591 4.7845852451174835 0 0 0 0 612.93004126054802 309.54986378282774 0 309.54986378282774 20.108163044687899 0 0 0 0 95.603306152654113 409.93165081058942 0 409.93165081058942 431.93449281675566 0 0 0 0 -15.33639250777469 21.06014470174523 0 21.06014470174523 75.124477470613783 0 0 0 0 1.180653916934304 39.60522369205335 0 39.60522369205335 125.25580666623958 0 0 0 0 16.027137073549966 -2.9424658479092614 0 -2.9424658479092614 89.718171859893118 0 0 0 0 37.656854298121289 -53.819470265181735 0 -53.819470265181735 120.94779248042323 0 0 0 0 -116.95399472526697 -46.320225898800345 0 -46.320225898800345 185.34918995604312 0 0 0 0 21.244999141308654 746.09191127048689 0 746.09191127048689 1198.7674620229955 0 0 0 0 -12.163606523503919 13.145950390076404 0 13.145950390076404 143.49306367225068 0 0 0 0 -608.57890547584248 -237.39796603249488 0 -237.39796603249488 231.37129138753517 0 0 0 0 287.11308210436982 -315.19242996729008 0 -315.19242996729008 -515.12242075464019 0 0 0 0 -19.499956629961162 -101.97846921373639 0 -101.97846921373639 205.5880076164176 0 0 0 0 44.776579252544252 -38.675874509646746 0 -38.675874509646746 123.92532197143009 0 0 0 0 502.67964395077433 155.25012869475177 0 155.25012869475177 -34.775993034283601 0 0 0 0 243.13630136652864 -361.4382730138459 0 -361.4382730138459 627.15968009001517 0 0 0 0 7.2457409369244559 9.0532596001067631 0 9.0532596001067631 9.5528794884755683 0 0 0 0 -115.69908190541901 206.83700945215423 0 206.83700945215423 7.9020979673477996 0 0 0 0 14.592710533023812 22.923816137412778 0 22.923816137412778 32.928631003116863 0 0 0 0 -28.175865036349933 41.81225879282556 0 41.81225879282556 -54.044777978946513 0 0 0 0 50.990779791602108 126.61286343282518 0 126.61286343282518 -15.551154591403701 0 0 0 0 36.958151790335251 132.413785725666 0 132.413785725666 177.89346394610402 0 0 0 0 257.56095481864941 710.12178752083037 0 710.12178752083037 12.398511300445534 0 0 0 0 -317.5640070392692 207.35661964283281 0 207.35661964283281 187.34223624894139 0 0 0 0 -39.853040828632452 4.5019702813676723 0 4.5019702813676723 125.02319609964022 0 0 0 0 -6.6791333653359075 30.979462940669286 0 30.979462940669286 127.47343718012084 0 0 0 0 20.578232428321826 -9.4907199999506702 0 -9.4907199999506702 89.503439611713475 0 0 0 0 -7.8154517012590077 -7.6911201964885549 0 -7.6911201964885549 128.06697716187955 0 0 0 0 -283.0653506439894 97.489398519042879 0 97.489398519042879 254.95248205130702 0 0 0 0 -545.36519886242968 -72.540799940994475 0 -72.540799940994475 502.97926779728732 0 0 0 0 -13.050244319915189 -19.767175816816611 0 -19.767175816816611 111.19574459117554 0 0 0 0 -227.53007873692059 -82.085095110864131 0 -82.085095110864131 166.92549508000684 0 0 0 0 -212.65523446528414 -136.89686299757886 0 -136.89686299757886 326.25656597923444 0 0 0 0 25.514871104334723 45.548727109177399 0 45.548727109177399 93.946617929116556 0 0 0 0 159.18903104095352 107.21898951489413 0 107.21898951489413 460.09207550455176 0 0 0 0 540.60643868946318 464.16434674864286 0 464.16434674864286 736.05151304216633 0 0 0 0 21.133013373290851 -8.3338591092688148 0 -8.3338591092688148 459.17485084000145 0 0 0 0 618.00936503296543 -156.43761489060125 0 -156.43761489060125 450.1734018266543 0 0 0 0 19.424679659725371 -151.4094328741885 0 -151.4094328741885 271.92664011093075 0 0 0 0 133.47398999922098 -143.259180940644 0 -143.259180940644 253.99999305492747 0 0 0 0 -16.866102340711677 5.9303318432757806 0 5.9303318432757806 108.4185231764568 0 0 0 0 192.68497237454085 181.09569993422701 0 181.09569993422701 321.3878166370414 0 0 0 0 -8.591449415314969 -20.477815107654351 0 -20.477815107654351 131.65254781355179 0 0 0 0 -73.737032601526153 -27.964682188459847 0 -27.964682188459847 167.78931011230452 0 0 0 0 -83.122885333528671 -221.13182794747098 0 -221.13182794747098 -12.532881701663428 0 0 0 0 -19.203107609644707 -32.716263506711556 0 -32.716263506711556 92.18284991347285 0 0 0 0 17.840562083922123 -6.2665340779985854 0 -6.2665340779985854 96.1237028095494 0 0 0 0 -8.7702356402205623 -55.951217401292979 0 -55.951217401292979 108.72522919816583 0 0 0 0 -9.7417646762014556 -98.33835679808044 0 -98.33835679808044 -51.873593330994481 0 0 0 0 70.758072909240582 -2.5515018224423329 0 -2.5515018224423329 88.8639678057217 0 0 0 0 -9.8409344096892255 -28.657562912754614 0 -28.657562912754614 148.1939720928558 0 0 0 0 22.110996545994567 28.1106255177192 0 28.1106255177192 166.5927392276958 0 0 0 0 38.725883304338254 67.39653000104903 0 67.39653000104903 368.48805168164108 0 0 0 0 37.359770909723011 26.047447056820602 0 26.047447056820602 158.93900850767659 0 0 0 0 30.887486546562286 53.071667606375286 0 53.071667606375286 198.56624428832129 0 0 0 0 -14.258208548006223 -32.605999244278337 0 -32.605999244278337 118.79371017848462 0 0 0 0 -19.279849364840004 -29.583830058428745 0 -29.583830058428745 90.152695568717192 0 0 0 0 -169.83465225337159 -117.64834775138183 0 -117.64834775138183 -27.211295633249392 0 0 0 0 -6.7930905631255882 15.078232807505174 0 15.078232807505174 145.43058614768142 0 0 0 0 52.800003563374503 15.976242749246921 0 15.976242749246921 135.46288748968618 0 0 0 0 6.2464244929615234 20.595007656475445 0 20.595007656475445 178.48098698940976 0 0 0 0 18.695935561861916 19.032419827722151 0 19.032419827722151 124.36494335158727 0 0 0 0 68.385823947919562 14.978263790390884 0 14.978263790390884 174.78911623934846 0 0 0 0 99.770403900374731 22.778414361709565 0 22.778414361709565 168.61899540668492 0 0 0 0 22.640261723159711 11.174122837387586 0 11.174122837387586 189.63977190426976 0 0 0 0 23.421750241604968 -20.890651692848223 0 -20.890651692848223 192.58982827079944 0 0 0 0 127.9498343532432 86.85529859013559 0 86.85529859013559 134.13876886770777 0 0 0 0 124.07671845350706 79.142098631551562 0 79.142098631551562 174.77203469686174 0 0 0 0 57.211235216234854 53.7992571967809 0 53.7992571967809 172.02954580882761 0 0 0 0 134.97888644282466 12.638121192228027 0 12.638121192228027 192.28487464026603 0 0 0 0 103.12886407723636 72.86218312562869 0 72.86218312562869 225.10200091069783 0 0 0 0 249.67298207079875 -88.168214003375851 0 -88.168214003375851 296.86300856315574 0 0 0 0 150.01013045071704 55.552337847125273 0 55.552337847125273 116.55308551183725 0 0 0 0 383.9445492217119 -6.7369029040369242 0 -6.7369029040369242 -114.28623854683792 0 0 0 0 -470.53529857989452 150.27261439264021 0 150.27261439264021 44.422137395225946 0 0 0 0 109.2793392631329 232.35373635133601 0 232.35373635133601 -79.04565305892902 0 0 0 0 150.62493202759833 143.52189607798937 0 143.52189607798937 -209.02682481406464 0 0 0 0 -64.031149716336586 116.16919710668162 0 116.16919710668162 34.857915544249408 0 0 0 0 -574.50807869275513 -318.42123081434988 0 -318.42123081434988 -55.227654719070415 0 0 0 0 137.18583331728951 232.08683716632959 0 232.08683716632959 48.628798753402862 0 0 0 0 173.02582441170762 159.0898874047482 0 159.0898874047482 147.03094540387247 0 0 0 0 52.496666252593059 219.35775581364715 0 219.35775581364715 184.80048278414756 0 0 0 0 50.957547199501278 229.23588236425849 0 229.23588236425849 571.85674691947133 0 0 0 0 477.92562459047986 214.57643658677171 0 214.57643658677171 -75.360595007945449 0 0 0 0 795.89424579548722 685.47509421068025 0 685.47509421068025 362.17456008122281 0 0 0 0 146.53538723915881 477.38722818581573 0 477.38722818581573 959.86300447673693 0 0 0 0 97.085349167332424 -171.47473204552898 0 -171.47473204552898 775.07858239395591 0 0 0 0 9.4946441827870984 11.239786333391606 0 11.239786333391606 14.02535815243634 0 0 0 0 300.29988489730931 97.242504099802318 0 97.242504099802318 150.25097940494743 0 0 0 0 14.738256313186326 31.899334751893274 0 31.899334751893274 41.131217203662715 0 0 0 0 31.719372693782624 79.948014320251843 0 79.948014320251843 179.84495352838613 0 0 0 0 405.17688374027239 -58.796238966905094 0 -58.796238966905094 -83.717847773180665 0 0 0 0 10.972507739949176 34.919542932497762 0 34.919542932497762 2.7073607309102581 0 0 0 0 233.994516038043 339.84985137663625 0 339.84985137663625 -224.73162693511949 0 0 0 0 -1499.7780127146016 1083.7298613845714 0 1083.7298613845714 1380.1897477347429 0 0 0 0 -794.37047777858425 -277.58830724742984 0 -277.58830724742984 642.00116053700731 0 0 0 0 -782.00485341128478 -368.73670640154432 0 -368.73670640154432 411.27944941079477 0 0 0 0 67.465586651325879 118.37208281991468 0 118.37208281991468 48.646607452641547 0 0 0 0 13.444019694022382 5.853740919048791 0 5.853740919048791 70.879172387345619 0 0 0 0 1120.5461984732392 -1451.0549626127276 0 -1451.0549626127276 271.70418906967006 0 0 0 0 69.055440409978587 175.40044873872887 0 175.40044873872887 48.135636048737069 0 0 0 0 202.78679438477775 -29.318820115637209 0 -29.318820115637209 136.68393224511237 0 0 0 0 34.702520839463432 58.060413359928731 0 58.060413359928731 119.8175503868483 0 0 0 0 -27.236323929716491 -24.98371908133322 0 -24.98371908133322 221.23634302445134 0 0 0 0 145.31343243776433 185.13576497862039 0 185.13576497862039 40.323523341965483 0 0 0 0 261.40009539023049 8.9574668260356702 0 8.9574668260356702 278.6022379138758 0 0 0 0 212.06431858123688 -149.22510725036454 0 -149.22510725036454 -565.5508054022921 0 0 0 0 266.15879785545621 229.68977553801096 0 229.68977553801096 181.06156086339706 0 0 0 0 -0.44241002246310046 -15.593688791065425 0 -15.593688791065425 44.862238459849117 0 0 0 0 154.55828221547915 97.212552654745423 0 97.212552654745423 53.611980815943753 0 0 0 0 263.14517362409242 151.99705011217839 0 151.99705011217839 86.215130553459858 0 0 0 0 228.46328873863058 39.998399311578396 0 39.998399311578396 -202.38212032115734 0 0 0 0 -6.3940257792746706 81.688867873210256 0 81.688867873210256 559.55993015509375 0 0 0 0 4.1073075561205457 -1.9146895635188166 0 -1.9146895635188166 -2.3010037491367994 0 0 0 0 129.23107182457352 -13.149609401914859 0 -13.149609401914859 178.54808952945314 0 0 0 0 0.77231845170339497 4.1389513781950011 0 4.1389513781950011 15.647481529034103 0 0 0 0 -82.204239375940233 79.959751318953295 0 79.959751318953295 157.52499084856231 0 0 0 0 32.530543059342392 57.569284486218059 0 57.569284486218059 92.352884566694783 0 0 0 0 78.33318159269038 -31.431148895484512 0 -31.431148895484512 168.72090757775914 0 0 0 0 67.291909612336894 -47.208950342199387 0 -47.208950342199387 163.98297611817179 0 0 0 0 77.308907542043016 -39.464341543636692 0 -39.464341543636692 120.84932555093837 0 0 0 0 62.038174920484835 -30.59696142189523 0 -30.59696142189523 246.58561451456626 0 0 0 0 -78.978128240029037 43.368139292499109 0 43.368139292499109 282.5916691973689 0 0 0 0 25.181262508511281 64.461654838869435 0 64.461654838869435 125.89433982695482 0 0 0 0 9.939538484744844 24.159032585208479 0 24.159032585208479 235.28570821333415 0 0 0 0 58.36184928941293 -94.095989006258606 0 -94.095989006258606 279.27154794183662 0 0 0 0 90.089584165071756 -81.823616371049866 0 -81.823616371049866 253.07607684680261 0 0 0 0 64.759483662810453 -5.6202810848117224 0 -5.6202810848117224 235.38846471236502 0 0 0 0 -1.2218927711597054 3.2264547413772533 0 3.2264547413772533 24.557835218002893 0 0 0 0 81.367907051185284 -64.347540523256612 0 -64.347540523256612 219.02550537222123 0 0 0 0 -1.9058739596822889 12.350784349441273 0 12.350784349441273 27.181489631609665 0 0 0 0 19.143090148997544 249.37643383583054 0 249.37643383583054 240.52025296617649 0 0 0 0 88.957528586057379 47.444502777303569 0 47.444502777303569 105.22991094103782 0 0 0 0 50.459727769579331 11.153735791929648 0 11.153735791929648 164.48484824612387 0 0 0 0 -2.8029292029951511 -2.9942753716693575 0 -2.9942753716693575 148.28351539522305 0 0 0 0 -20.566758342417643 13.734410928969737 0 13.734410928969737 100.11164609336993 0 0 0 0 -6.2429824028777485 11.734679241752014 0 11.734679241752014 85.983747251343573 0 0 0 0 -16.114986477856291 22.356742082134588 0 22.356742082134588 114.70664737550032 0 0 0 0 -25.511353687027622 14.867185386759957 0 14.867185386759957 76.140778319968376 0 0 0 0 -6.0733302471671777 149.6591381043545 0 149.6591381043545 6.3963999517582124 0 0 0 0 -11.792400150335197 2.3017397761832399 0 2.3017397761832399 53.773475472524296 0 0 0 0 0.62155545135551904 23.719376003817302 0 23.719376003817302 103.77580137734162 0 0 0 0 -4.6245534057868625 2.2014357190774234 0 2.2014357190774234 105.01247160014884 0 0 0 0 4.7267080786895352 0.36157212581806242 0 0.36157212581806242 62.689306542160608 0 0 0 0 46.128500302173052 -4.4992531777606928 0 -4.4992531777606928 99.042999521017919 0 0 0 0 72.642759409527571 -65.18921797593066 0 -65.18921797593066 149.6319970636323 0 0 0 0 16.077873689650005 20.800971173239304 0 20.800971173239304 102.74963035467954 0 0 0 0 37.145605876503396 -12.200127911259187 0 -12.200127911259187 134.83031475913958 0 0 0 0 29.962116394211989 -18.883980721535409 0 -18.883980721535409 128.63814779761015 0 0 0 0 -1.2583855811208196 13.003372298095201 0 13.003372298095201 110.05300533824629 0 0 0 0 -13.15666786662041 18.483254625614791 0 18.483254625614791 108.35401775555511 0 0 0 0 -24.316673366782197 41.311477527880925 0 41.311477527880925 97.018478485755622 0 0 0 0 -1.7022906489291927 12.73309340562264 0 12.73309340562264 109.89233468967723 0 0 0 0 -59.065379609281081 43.399878256663214 0 43.399878256663214 95.504593923709763 0 0 0 0 -13.008139916330038 -33.252316701984455 0 -33.252316701984455 101.57003063382581 0 0 0 0 0.79338673544147476 17.831713244760259 0 17.831713244760259 44.028396000495832 0 0 0 0 -12.395788061272469 30.808092782557651 0 30.808092782557651 74.293584775179625 0 0 0 0 -12.913875754664332 46.297781500674319 0 46.297781500674319 71.54927806773776 0 0 0 0 10.006518620038324 18.511078660610707 0 18.511078660610707 42.026712029296334 0 0 0 0 4.4910263372305259 -0.65813301501117394 0 -0.65813301501117394 29.860619694477066 0 0 0 0 4.9660828105570545 9.105321857798117 0 9.105321857798117 47.688344740352477 0 0 0 0 -24.548431066008561 50.506526489869429 0 50.506526489869429 77.187561353428464 0 0 0 0 -31.388390045332926 33.344578358533909 0 33.344578358533909 75.872786851563433 0 0 0 0 -86.909672358189709 -72.184081381943543 0 -72.184081381943543 -8.1327069066464901 0 0 0 0 -3.0635216687858176 1.3537305534767796 0 1.3537305534767796 15.441646383112356 0 0 0 0 -76.752820141852908 -63.512552311247077 0 -63.512552311247077 20.935395325170248 0 0 0 0 -84.793109653364809 109.97974037624226 0 109.97974037624226 -14.682964066945715 0 0 0 0 149.89383320618435 -46.170472102661734 0 -46.170472102661734 44.777541888914129 0 0 0 0 -58.875554490947252 91.181702744215727 0 91.181702744215727 -6.6281167239230854 0 0 0 0 10.229856125686638 5.561521335177531 0 5.561521335177531 75.413036941579776 0 0 0 0 7.3717370958861466 -31.517655977971572 0 -31.517655977971572 116.51996573001088 0 0 0 0 238.94300486699285 4.0127829951252352 0 4.0127829951252352 39.470330737458426 0 0 0 0 174.61710117316397 24.08360469899344 0 24.08360469899344 123.7642807605298 0 0 0 0 203.48959135832888 -42.089564514409517 0 -42.089564514409517 84.287742015643744 0 0 0 0 144.12566349156259 -2.6705417515095178 0 -2.6705417515095178 125.17471119611582 0 0 0 0 26.088509233486548 -36.417512641732174 0 -36.417512641732174 134.37021050973271 0 0 0 0 34.159109692573111 -8.6732353129373223 0 -8.6732353129373223 111.08011385206191 0 0 0 0 79.733202174324106 -62.481995323556475 0 -62.481995323556475 106.23882291873815 0 0 0 0 -0.81193338105504154 49.307383149156522 0 49.307383149156522 148.45337920691236 0 0 0 0 11.80680706990881 61.012968131279592 0 61.012968131279592 60.775570990865873 0 0 0 0 -6.8904345248442951 24.081762580382929 0 24.081762580382929 170.88634561547951 0 0 0 0 -21.333812045645345 50.557325184721776 0 50.557325184721776 162.96903535717865 0 0 0 0 -19.64996074280225 32.079638696824986 0 32.079638696824986 138.61993867510319 0 0 0 0 -18.206263306615085 52.881611110900849 0 52.881611110900849 188.51501361784176 0 0 0 0 -3.1240027588373778 56.558670441096183 0 56.558670441096183 162.25675042639796 0 0 0 0 -0.7021286200429131 54.308584771515598 0 54.308584771515598 155.11181119324465 0 0 0 0 14.814915901861241 70.263449467893224 0 70.263449467893224 171.28830342832953 0 0 0 0 24.296379083249121 51.726603306557081 0 51.726603306557081 164.50960783758637 0 0 0 0 33.349929624049309 43.341863367255428 0 43.341863367255428 175.35352702029923 0 0 0 0 36.597992954697474 66.072150300853536 0 66.072150300853536 180.87099717905221 0 0 0 0 41.817378056748566 42.288418670861574 0 42.288418670861574 176.06682522583287 0 0 0 0 77.609611578614931 47.542966557361069 0 47.542966557361069 168.64811702609586 0 0 0 0 48.347477617739059 42.012164443527581 0 42.012164443527581 167.80249993090183 0 0 0 0 60.883630545256892 23.256990746456722 0 23.256990746456722 177.61551255037193 0 0 0 0 5.2520188668206345 2.1125125807562597 0 2.1125125807562597 26.394782793723834 0 0 0 0 -23.811634847827008 27.93211445277484 0 27.93211445277484 174.16794264886994 0 0 0 0 26.105377982508799 89.490094774213503 0 89.490094774213503 167.48238884125021 0 0 0 0 21.201819237350719 23.725722278366447 0 23.725722278366447 180.97325073319371 0 0 0 0 41.969461771315764 41.490036065348249 0 41.490036065348249 176.81324449786916 0 0 0 0 28.389471188422249 50.831260548526188 0 50.831260548526188 183.45112776333553 0 0 0 0 26.686550076168714 -41.556293420100701 0 -41.556293420100701 157.61872276314534 0 0 0 0 -14.770761260581883 -2.3151642214112371 0 -2.3151642214112371 58.740464297088778 0 0 0 0 1.2448024139084737 19.157848959039256 0 19.157848959039256 74.549505081216921 0 0 0 0 42.437811338897518 86.66168486373499 0 86.66168486373499 64.590020545423613 0 0 0 0 72.331855928148798 41.281519209856924 0 41.281519209856924 53.701826216740301 0 0 0 0 -9.5931390751846379 -8.1716204724371124 0 -8.1716204724371124 19.758593991619222 0 0 0 0 -23.680094073362312 5.1592783751580527 0 5.1592783751580527 71.565159498016698 0 0 0 0 7.6583337216659402 61.946275994920143 0 61.946275994920143 95.142986862469115 0 0 0 0 8.9209187247870148 9.18454284247224 0 9.18454284247224 42.403174371380103 0 0 0 0 4.6947032346537299 32.980356476604356 0 32.980356476604356 118.24467480214662 0 0 0 0 5.7362160692346151 -14.041349296981934 0 -14.041349296981934 95.552649135541287 0 0 0 0 -2.3300686370832473 -30.840366892800063 0 -30.840366892800063 99.993668878588409 0 0 0 0 4.5618311849812017 -20.516015146298741 0 -20.516015146298741 102.2525109701819 0 0 0 0 15.771477030425558 11.045834953351005 0 11.045834953351005 105.93451164775615 0 0 0 0 5.9852401925658025 49.606938202895918 0 49.606938202895918 55.855741716481376 0 0 0 0 -14.279225562278036 8.4979560427715342 0 8.4979560427715342 29.526485406602916 0 0 0 0 7.7978381178300538 61.132115685652479 0 61.132115685652479 129.86259822554712 0 0 0 0 -0.48202141178171587 6.481352075265022 0 6.481352075265022 181.12244110917527 0 0 0 0 -26.849048611183207 43.824083147585043 0 43.824083147585043 156.69972222497745 0 0 0 0 3.7644818711450654 58.828041379982125 0 58.828041379982125 46.543981247486698 0 0 0 0 2.586357075363992 63.727922514866805 0 63.727922514866805 132.14491830565385 0 0 0 0 0.32407369668362662 64.611207020876464 0 64.611207020876464 158.77218201206415 0 0 0 0 -3.7067258738614228 4.5957309804463478 0 4.5957309804463478 39.189973568415724 0 0 0 0 -24.110005875475053 68.100475700866809 0 68.100475700866809 308.4419042369409 0 0 0 0 -48.990500405820057 -18.317318172252271 0 -18.317318172252271 200.59527222325414 0 0 0 0 -30.03870143696895 31.8185036937939 0 31.8185036937939 159.07891705259681 0 0 0 0 -41.945828420445878 -2.5714053803749266 0 -2.5714053803749266 199.41507828522299 0 0 0 0 -139.21047065809671 60.67666441907204 0 60.67666441907204 293.5048775150135 0 0 0 0 -39.284847403971071 56.895300448290072 0 56.895300448290072 291.88704779195177 0 0 0 0 54.514845674223125 95.093825745774666 0 95.093825745774666 57.495877716923133 0 0 0 0 -130.13755790496072 -88.804015062072722 0 -88.804015062072722 111.16032228645054 0 0 0 0 -6.3126653557644143 -30.505743525647233 0 -30.505743525647233 86.033896912183366 0 0 0 0 11.482694879262453 -19.154421810486383 0 -19.154421810486383 81.604699859650282 0 0 0 0 2.7629085196983283 -34.568615460327948 0 -34.568615460327948 32.187319947338153 0 0 0 0 -10.922010294086022 -34.699188429382048 0 -34.699188429382048 84.712358531232894 0 0 0 0 4.9590780279158935 -19.73044488859523 0 -19.73044488859523 104.20656848989893 0 0 0 0 4.331146244006959 -18.401283473518561 0 -18.401283473518561 101.73527846505749 0 0 0 0 3.3115558690711686 -8.5868985750937874 0 -8.5868985750937874 66.31196388690924 0 0 0 0 18.830454813369215 -20.693258228879131 0 -20.693258228879131 98.863840548809094 0 0 0 0 3.3657567154674073 -7.4445513379971739 0 -7.4445513379971739 17.314417948308346 0 0 0 0 5.7578542367796715 -34.732302093439699 0 -34.732302093439699 43.591692102071363 0 0 0 0 39.989601613342529 -43.094142402365833 0 -43.094142402365833 -35.214356611519179 0 0 0 0 -231.46509095469787 -61.857190336446365 0 -61.857190336446365 166.69842235198303 0 0 0 0 -1.0601028824056709 2.3209563284794434 0 2.3209563284794434 15.438520191051566 0 0 0 0 122.57961024921212 -43.165695667627915 0 -43.165695667627915 33.54431863836362 0 0 0 0 27.093074711675399 -50.274508450078429 0 -50.274508450078429 109.84206284864922 0 0 0 0 156.67658280845626 -101.71287145934912 0 -101.71287145934912 99.672695896595542 0 0 0 0 24.543709573980777 1.3967168508897885 0 1.3967168508897885 14.275558546367392 0 0 0 0 95.331389695160738 -67.939188131666015 0 -67.939188131666015 16.660223676597525 0 0 0 0 5.5576311648806609 -122.0501710512558 0 -122.0501710512558 -2.0723339774922351 0 0 0 0 -68.658264747381736 -71.172244732835679 0 -71.172244732835679 246.54023466123931 0 0 0 0 -98.738211108148562 -105.18180928673974 0 -105.18180928673974 245.85578114048246 0 0 0 0 -40.916049208595041 -37.959283949545352 0 -37.959283949545352 225.85369459450885 0 0 0 0 15.245497497928227 -34.624096714025654 0 -34.624096714025654 19.975903013706557 0 0 0 0 -63.028439331871368 -92.001642525487114 0 -92.001642525487114 195.18449274008162 0 0 0 0 -3.3674582221676492 -29.021813833762479 0 -29.021813833762479 44.998946482982902 0 0 0 0 628.79705714152806 352.50450891944638 0 352.50450891944638 -47.844396089414658 0 0 0 0 13.637493390728196 -132.33921654217556 0 -132.33921654217556 209.77145911347179 0 0 0 0 599.52623931316339 104.19430355538316 0 104.19430355538316 57.04349673629622 0 0 0 0 272.15813088604045 -183.01386289244692 0 -183.01386289244692 108.02481661893398 0 0 0 0 143.30920697713736 16.324644346725108 0 16.324644346725108 78.838285156452912 0 0 0 0 -190.8960604220083 -11.869163479772396 0 -11.869163479772396 227.65435988358513 0 0 0 0 -5.2240443419104849 -3.4299385400736355 0 -3.4299385400736355 127.12048487537686 0 0 0 0 -208.20878239920285 132.1871482623128 0 132.1871482623128 155.53632859083882 0 0 0 0 -162.97502534037449 172.20835406306287 0 172.20835406306287 40.527894398459466 0 0 0 0 9.1201706618339813 2.9053332134717493 0 2.9053332134717493 29.401457806059625 0 0 0 0 -157.99716270641875 0.43345004790171515 0 0.43345004790171515 -82.286598614009563 0 0 0 0 16.206734111150581 36.683303594203608 0 36.683303594203608 -54.415357818594202 0 0 0 0 19.270492468703729 15.667892644889804 0 15.667892644889804 15.487021046655656 0 0 0 0 20.066583378895302 9.0720959713580669 0 9.0720959713580669 36.181552295369329 0 0 0 0 23.68578269302445 10.41105929258309 0 10.41105929258309 32.331202620480155 0 0 0 0 2.8629917929883959 -7.9234946524884435 0 -7.9234946524884435 60.641058976278146 0 0 0 0 12.269174135967141 -13.584570183360583 0 -13.584570183360583 30.593419997580014 0 0 0 0 40.16852320038015 -11.087600633465627 0 -11.087600633465627 -4.3621862570507801 0 0 0 0 -44.610330347583613 -105.61018687499381 0 -105.61018687499381 4.5427249142085202 0 0 0 0 78.482453431239264 -53.464965016122733 0 -53.464965016122733 -5.3056423237137551 0 0 0 0 67.478576042660279 -2.8902310440826113 0 -2.8902310440826113 -108.51653331456328 0 0 0 0 185.81943201808463 -87.044578323024325 0 -87.044578323024325 -89.776540321679931 0 0 0 0 200.26774361862044 -65.604535803642648 0 -65.604535803642648 114.58599147562927 0 0 0 0 57.987133152431852 -32.061306344712648 0 -32.061306344712648 114.75649416170927 0 0 0 0 258.70916119342019 186.84813602231407 0 186.84813602231407 311.78757288704219 0 0 0 0 76.630669615395163 -75.939009085937869 0 -75.939009085937869 -26.507607168412505 0 0 0 0 148.50408122182489 -69.227660287040635 0 -69.227660287040635 82.147066365014325 0 0 0 0 203.62133654700301 174.81779732994255 0 174.81779732994255 298.45059960518483 0 0 0 0 285.96018131466553 47.988407287473819 0 47.988407287473819 479.78258964903216 0 0 0 0 231.64604638296532 515.20614016284071 0 515.20614016284071 648.1728814796661 0 0 0 0 656.89479989773827 405.59772621716547 0 405.59772621716547 342.02343915626625 0 0 0 0 135.13467331149877 247.27727679835516 0 247.27727679835516 300.42821090207872 0 0 0 0 -8.3385284793766914 -96.122295955508889 0 -96.122295955508889 150.61128537541663 0 0 0 0 -32.549934137202968 198.29912915948535 0 198.29912915948535 521.56745716297883 0 0 0 0 10.222769244267681 7.6913672310207488 0 7.6913672310207488 2.2974048816599009 0 0 0 0 578.12792250661005 126.06909731988708 0 126.06909731988708 -225.01938397551567 0 0 0 0 319.34545031053858 645.10564939489996 0 645.10564939489996 501.09034734600573 0 0 0 0 497.58345826480945 503.96289037669249 0 503.96289037669249 262.20073852641508 0 0 0 0 -594.41160624036274 -159.24593680120597 0 -159.24593680120597 444.79466898882674 0 0 0 0 -465.6812040330351 -242.33525154832751 0 -242.33525154832751 -163.78543651969812 0 0 0 0 -587.96956842090003 -418.32227151480038 0 -418.32227151480038 -25.562663145072293 0 0 0 0 -386.93728311625819 -428.27374865762249 0 -428.27374865762249 -501.56634008484252 0 0 0 0 369.83972301020003 -207.39073132743943 0 -207.39073132743943 231.6755018215772 0 0 0 0 -6.2725136314818144 7.5262385678660451 0 7.5262385678660451 30.93060492073532 0 0 0 0 -380.54726846111907 576.78999725978338 0 576.78999725978338 1540.5289469335257 0 0 0 0 18.293094204636873 -1168.4639001830401 0 -1168.4639001830401 201.77727370431603 0 0 0 0 1008.0769442867204 547.18536982994556 0 547.18536982994556 242.49998939412762 0 0 0 0 363.3964139538748 625.09815335550957 0 625.09815335550957 288.08691399496456 0 0 0 0 878.90038157578215 -135.43360054179993 0 -135.43360054179993 525.07711537845898 0 0 0 0 56.373551308307015 58.252614677118345 0 58.252614677118345 788.83286195937399 0 0 0 0 225.74428058784179 417.82095953923272 0 417.82095953923272 741.57380748955984 0 0 0 0 50.580657577185775 70.791253599090851 0 70.791253599090851 995.98399427091499 0 0 0 0 300.54501965922827 222.59129107747867 0 222.59129107747867 246.34304815026553 0 0 0 0 247.35838013203829 116.56218627557246 0 116.56218627557246 360.2339377277458 0 0 0 0 252.52542772987172 203.52727616985817 0 203.52727616985817 338.10251779695682 0 0 0 0 262.66340219816266 171.50596085366851 0 171.50596085366851 162.3575139168388 0 0 0 0 253.72925357991153 75.288599423067353 0 75.288599423067353 116.99291526447632 0 0 0 0 202.17976383821292 77.4810255302109 0 77.4810255302109 137.92055851240002 0 0 0 0 187.08647012999427 -15.173994820725056 0 -15.173994820725056 94.276035114715341 0 0 0 0 -15.295138427223719 -93.010985734486894 0 -93.010985734486894 81.54975954019028 0 0 0 0 3.3464980287678472 10.955912829608963 0 10.955912829608963 47.914859111704118 0 0 0 0 -93.467654658959873 16.247924861723732 0 16.247924861723732 156.38655619400379 0 0 0 0 102.36465544167731 762.06499734749377 0 762.06499734749377 533.88933449159958 0 0 0 0 -212.88928505431613 -547.78788709126184 0 -547.78788709126184 684.32225380778254 0 0 0 0 380.32311929547905 308.09072103340623 0 308.09072103340623 197.48784083343344 0 0 0 0 6.3586874116319336 9.87996924938885 0 9.87996924938885 13.077550564727574 0 0 0 0 308.84095996840961 5.8514088567964109 0 5.8514088567964109 -54.883135397263686 0 0 0 0 -100.83743543966852 -25.140744371321489 0 -25.140744371321489 220.84007711600134 0 0 0 0 -157.28531777376776 13.320507237003767 0 13.320507237003767 256.82263601785235 0 0 0 0 -130.53081377195173 -127.36250661961458 0 -127.36250661961458 330.7072923858359 0 0 0 0 -97.587554989104774 -92.65976807964762 0 -92.65976807964762 359.83266037556314 0 0 0 0 -107.91119816529044 26.897821003873105 0 26.897821003873105 398.69936947006499 0 0 0 0 -0.22727921902605885 -253.19836243009195 0 -253.19836243009195 463.21301697846502 0 0 0 0 342.89047547305017 214.78527756995027 0 214.78527756995027 276.14303490404563 0 0 0 0 -84.154261712810239 -76.475204534115619 0 -76.475204534115619 824.42199960794824 0 0 0 0 465.24162419449203 -394.60021566232899 0 -394.60021566232899 361.90480545208993 0 0 0 0 -0.51985397543496425 2.2831288788608095 0 2.2831288788608095 6.6840848760307381 0 0 0 0 -130.55724586989618 307.81862910696873 0 307.81862910696873 640.70873841847788 0 0 0 0 329.04361594111651 -69.637004261778202 0 -69.637004261778202 582.78002513351385 0 0 0 0 230.85319957107458 110.45806974737934 0 110.45806974737934 273.29382707642799 0 0 0 0 246.91542399232219 159.30448116976368 0 159.30448116976368 124.90976637467975 0 0 0 0 -12.264102795904364 233.56042820979928 0 233.56042820979928 325.73803375311036 0 0 0 0 29.604819523896126 308.68509524300043 0 308.68509524300043 -361.19137847682578 0 0 0 0 1.3208353534787101 -1.9541396595527374 0 -1.9541396595527374 -1.4715175294944203 0 0 0 0 15.768087058823767 -76.918372210799134 0 -76.918372210799134 786.49398394535092 0 0 0 0 -181.08472359255029 131.96560511774442 0 131.96560511774442 226.65183863244965 0 0 0 0 -72.521435078992283 -38.765722179579825 0 -38.765722179579825 -165.20143620680028 0 0 0 0 100.88782839767958 224.49964655687654 0 224.49964655687654 180.89220470326109 0 0 0 0 201.81806594675345 198.47450796216435 0 198.47450796216435 122.28097966768837 0 0 0 0 86.028481458221904 -128.66512139945189 0 -128.66512139945189 263.70510031864978 0 0 0 0 97.120479509703728 260.22305611338379 0 260.22305611338379 379.81462641229155 0 0 0 0 150.52594872032569 153.13537465162881 0 153.13537465162881 279.68749910811312 0 0 0 0 98.111707466970984 187.22656581884803 0 187.22656581884803 209.67496518588996 0 0 0 0 116.21426028485348 211.36896891447395 0 211.36896891447395 220.70765022016712 0 0 0 0 114.64188980227209 275.71125257152744 0 275.71125257152744 129.50137551408147 0 0 0 0 195.20451100762148 194.84905342464481 0 194.84905342464481 210.27055239412584 0 0 0 0 108.78924361844656 122.32405195587125 0 122.32405195587125 323.34953346910333 0 0 0 0 -84.350549221811207 39.201574945286666 0 39.201574945286666 292.95278789864096 0 0 0 0 72.797838544982369 63.063306287822343 0 63.063306287822343 264.10585717800132 0 0 0 0 25.003022846162104 -70.503473755085452 0 -70.503473755085452 65.884781708620068 0 0 0 0 -130.34943509647383 239.71879694628842 0 239.71879694628842 536.07883967054659 0 0 0 0 197.43061510706048 308.91947764780343 0 308.91947764780343 286.2070394767652 0 0 0 0 325.29256749969068 718.41100077439478 0 718.41100077439478 376.18947185894649 0 0 0 0 182.5982408758467 247.85113791636468 0 247.85113791636468 51.678394228234538 0 0 0 0 -88.394690845844707 427.29621870960545 0 427.29621870960545 931.17713562255085 0 0 0 0 -25.353890847958382 -893.43803396821022 0 -893.43803396821022 521.6891822314501 0 0 0 0 845.88433503012413 819.37293277017307 0 819.37293277017307 94.393784774278174 0 0 0 0 104.38894419448036 805.69590870308457 0 805.69590870308457 1364.8612747900261 0 0 0 0 9.4072089265987877 8.6633874213053446 0 8.6633874213053446 9.3543545194417561 0 0 0 0 285.18703961293966 519.31039008188964 0 519.31039008188964 -172.15204876000644 0 0 0 0 33.469199885865237 -44.879339701124991 0 -44.879339701124991 344.47480460235965 0 0 0 0 -0.12312498541780315 -52.782426520610969 0 -52.782426520610969 69.920197199360217 0 0 0 0 28.330985764416255 49.858433444031107 0 49.858433444031107 479.11029073751706 0 0 0 0 52.269276622284451 -1.8436077135265805 0 -1.8436077135265805 158.29953885506256 0 0 0 0 7.6942126679636402 -6.5811008756568583 0 -6.5811008756568583 -16.655661171948339 0 0 0 0 46.19868066807976 19.455334587714788 0 19.455334587714788 259.81362651812378 0 0 0 0 -31.817396922578318 -37.180740421758856 0 -37.180740421758856 169.84535147279121 0 0 0 0 17.836514889660862 12.307511468098994 0 12.307511468098994 60.429714951456589 0 0 0 0 30.426521644883906 69.97969590347202 0 69.97969590347202 265.1585589715105 0 0 0 0 -3.2534422300799797 -9.7242266322856992 0 -9.7242266322856992 146.22934655796968 0 0 0 0 -13.537543442935757 -28.384149161512283 0 -28.384149161512283 78.231268029296359 0 0 0 0 -1.5834209831336921 -35.562691027109395 0 -35.562691027109395 138.27747218337026 0 0 0 0 -16.975346449326025 -13.63180829337216 0 -13.63180829337216 62.916948462618166 0 0 0 0 -9.8383580386140768 -18.824582788634743 0 -18.824582788634743 120.21614702191755 0 0 0 0 -0.56130432053396362 15.560706407195539 0 15.560706407195539 121.00842476460093 0 0 0 0 36.16599423794105 -42.346380510294694 0 -42.346380510294694 127.54903082246892 0 0 0 0 138.19778148257683 32.844966666682012 0 32.844966666682012 153.29326186435355 0 0 0 0 143.43351927979165 41.4565289544189 0 41.4565289544189 128.85990076849339 0 0 0 0 175.55987650661564 148.22338220650454 0 148.22338220650454 156.75922093681584 0 0 0 0 184.81317709621908 121.40502555446437 0 121.40502555446437 199.73788264067844 0 0 0 0 94.663460652362119 74.114839826215757 0 74.114839826215757 198.53143875213993 0 0 0 0 106.65913246124182 59.436567021919473 0 59.436567021919473 211.99688703996799 0 0 0 0 50.067357844975049 -2.3333556571305962 0 -2.3333556571305962 166.00324891160562 0 0 0 0 50.779766506486339 77.430079802477849 0 77.430079802477849 282.26898630674987 0 0 0 0 56.680104093366026 44.788823605671496 0 44.788823605671496 229.1978145109606 0 0 0 0 11.208175063865724 -64.248854659261525 0 -64.248854659261525 60.976804836422701 0 0 0 0 67.309533702726185 13.180007653791108 0 13.180007653791108 267.56341242324834 0 0 0 0 56.710176806504933 41.997032998981922 0 41.997032998981922 227.05341698702978 0 0 0 0 -35.97872949689939 -49.916210305794614 0 -49.916210305794614 166.78250181911525 0 0 0 0 25.283328154705487 -7.2701857091469719 0 -7.2701857091469719 216.43504009333265 0 0 0 0 -3.2762134136164605 50.083957854938035 0 50.083957854938035 252.76831965246947 0 0 0 0 90.971952610838343 56.015204686278594 0 56.015204686278594 175.40419903516158 0 0 0 0 54.983500888316485 91.883612804289442 0 91.883612804289442 281.53897813528602 0 0 0 0 85.324389521081685 106.88658669413417 0 106.88658669413417 209.51557300156855 0 0 0 0 -36.692085386383042 -129.91133512325268 0 -129.91133512325268 350.48597137208571 0 0 0 0 100.69199995517647 111.9028577591871 0 111.9028577591871 251.38965600317624 0 0 0 0 211.63168679420778 12.656106163582081 0 12.656106163582081 219.29167543644326 0 0 0 0 102.35396731141645 -27.522052502892166 0 -27.522052502892166 207.73370984038638 0 0 0 0 59.174328348128256 44.944294037824875 0 44.944294037824875 216.21049801871095 0 0 0 0 23.061142269696575 7.1917847909926422 0 7.1917847909926422 251.67566814335532 0 0 0 0 6.4295220743606478 60.022035043849428 0 60.022035043849428 409.06247420977115 0 0 0 0 141.05764803485363 -78.199460470156737 0 -78.199460470156737 313.41573036108457 0 0 0 0 216.15352464536591 -116.72157184992466 0 -116.72157184992466 39.649132894926879 0 0 0 0 2.9550777251656459 23.497767758239483 0 23.497767758239483 202.86959584065374 0 0 0 0 -324.65957793159077 -15.931630801880601 0 -15.931630801880601 396.70502315570775 0 0 0 0 -123.29677364775762 1.9092749836727307 0 1.9092749836727307 240.36324778415656 0 0 0 0 5.3067315342959773 78.784042409748508 0 78.784042409748508 206.02941658614736 0 0 0 0 -4.7997096542499094 -45.487612453027737 0 -45.487612453027737 225.40017552537938 0 0 0 0 -689.07687448214165 -256.3975171992206 0 -256.3975171992206 430.08391385971117 0 0 0 0 275.47542932481383 250.44117193897728 0 250.44117193897728 -137.6266032266285 0 0 0 0 -597.23598168239914 -415.36678827626747 0 -415.36678827626747 341.54488644161029 0 0 0 0 -353.46626947839468 204.19497213809882 0 204.19497213809882 178.9972718197896 0 0 0 0 545.15238947398939 -40.340787568124142 0 -40.340787568124142 -125.37920498545282 0 0 0 0 2.321085015024547 21.275147770521549 0 21.275147770521549 184.17348783460545 0 0 0 0 48.429147588420165 -105.94192939891218 0 -105.94192939891218 240.1968731916204 0 0 0 0 -150.19644672994878 43.293515172405932 0 43.293515172405932 228.34250211241306 0 0 0 0 -61.910934222809374 93.442430889020216 0 93.442430889020216 217.54076213571898 0 0 0 0 45.318435688022873 102.757056696772 0 102.757056696772 158.23883641261455 0 0 0 0 3.2310838664922663 23.343190426240188 0 23.343190426240188 169.80256508120652 0 0 0 0 205.45175737022919 57.750624800075457 0 57.750624800075457 156.37218052548997 0 0 0 0 24.756453988995418 156.60613470944736 0 156.60613470944736 229.96575089115504 0 0 0 0 193.59313764258741 143.84657890492463 0 143.84657890492463 196.78905452010986 0 0 0 0 97.94876995060622 -12.046921474613555 0 -12.046921474613555 126.37350805745632 0 0 0 0 251.49564089545947 46.515939552568852 0 46.515939552568852 139.12477935141396 0 0 0 0 -9.7022908577349636 -23.894193885746255 0 -23.894193885746255 24.66136091956837 0 0 0 0 94.152915182967263 97.863264675621394 0 97.863264675621394 188.6689843214408 0 0 0 0 47.809849139086509 77.651852164784458 0 77.651852164784458 201.5611634718407 0 0 0 0 50.170290070818737 85.871542250562925 0 85.871542250562925 178.10811835689401 0 0 0 0 16.122701485996672 -3.687234011856809 0 -3.687234011856809 40.367292585205462 0 0 0 0 -5.7628206499948647 1.960694883974611 0 1.960694883974611 102.43670982465119 0 0 0 0 14.638429835619014 1.3619445635974898 0 1.3619445635974898 87.677396848751357 0 0 0 0 48.139738404937816 37.803745851706481 0 37.803745851706481 200.08117237815895 0 0 0 0 -3.0884563440275734 -23.687009289221916 0 -23.687009289221916 86.773691936758766 0 0 0 0 80.036721680324263 82.243674599903898 0 82.243674599903898 186.35974755309235 0 0 0 0 -32.2512101948912 -8.8726231938808056 0 -8.8726231938808056 122.08966171289524 0 0 0 0 -818.33637149466631 -871.19943128731029 0 -871.19943128731029 1033.1934345491463 0 0 0 0 558.14601700022104 -472.30511934850801 0 -472.30511934850801 -719.67066251988581 0 0 0 0 63.381083893618779 17.637149753834819 0 17.637149753834819 213.67570755105407 0 0 0 0 5.0815616814317757 10.738806691032934 0 10.738806691032934 22.610206564336522 0 0 0 0 36.552444598419243 637.83820324169938 0 637.83820324169938 654.36541344715988 0 0 0 0 696.54649474582311 492.25541151672678 0 492.25541151672678 356.11984226298227 0 0 0 0 43.951027689673538 10.140410224808875 0 10.140410224808875 250.81499265688399 0 0 0 0 -464.0982336325651 19.355702572131122 0 19.355702572131122 526.58173876575893 0 0 0 0 -18.298370544977814 -20.931921053137749 0 -20.931921053137749 177.72440939499938 0 0 0 0 38.473116569174636 48.645711123827766 0 48.645711123827766 160.72089673412938 0 0 0 0 -35.680582268220697 -21.899572838174379 0 -21.899572838174379 91.601742219866708 0 0 0 0 84.419109489772381 143.39483306656621 0 143.39483306656621 162.21080437446653 0 0 0 0 -32.578925010776913 -39.01532485557609 0 -39.01532485557609 121.30708396072538 0 0 0 0 11.405000909464434 34.509033178790105 0 34.509033178790105 159.10439675778224 0 0 0 0 -9.2222518151537187 14.709142942908905 0 14.709142942908905 54.305354448670307 0 0 0 0 40.005725524928494 117.60174003738211 0 117.60174003738211 225.94721505256166 0 0 0 0 16.34002919238754 5.0715818778945163 0 5.0715818778945163 32.992763969263024 0 0 0 0 23.572696238152275 70.254696458774561 0 70.254696458774561 292.70934947191563 0 0 0 0 45.396112349615578 107.83274653234548 0 107.83274653234548 326.08484895009678 0 0 0 0 15.344134170419466 85.418087483592899 0 85.418087483592899 266.18430128689215 0 0 0 0 -27.115863685872149 2.7954905484587975 0 2.7954905484587975 127.11436067176072 0 0 0 0 2.1480689343818224 30.058722439370129 0 30.058722439370129 139.85254491451346 0 0 0 0 -43.495555121604411 -92.195627781547955 0 -92.195627781547955 272.15399885040824 0 0 0 0 -16.495633681973231 48.06431631896703 0 48.06431631896703 346.69965390871585 0 0 0 0 -10.755765805033427 19.456120194769881 0 19.456120194769881 40.318723475160951 0 0 0 0 -17.979915961903384 28.665859679155762 0 28.665859679155762 237.88083060299755 0 0 0 0 20.765303259140637 67.871879885469752 0 67.871879885469752 222.89229913651252 0 0 0 0 -26.284992640741166 47.907968661547784 0 47.907968661547784 393.84789203810215 0 0 0 0 -12.485884317251475 173.26814001432649 0 173.26814001432649 611.86024211531912 0 0 0 0 -32.023663679876563 38.897584224470847 0 38.897584224470847 382.46165494157322 0 0 0 0 -35.900571812677299 -4.2702107792720199 0 -4.2702107792720199 381.96455393545699 0 0 0 0 -78.809603101360338 -77.229897650557376 0 -77.229897650557376 295.96131329432995 0 0 0 0 -61.699400062561381 8.7738879941825871 0 8.7738879941825871 460.07760784959009 0 0 0 0 -16.783533556294557 65.242697366340167 0 65.242697366340167 436.57262411127158 0 0 0 0 -34.223123759334158 7.4766659073402479 0 7.4766659073402479 434.95814662420162 0 0 0 0 -27.637266523144689 -27.55597346312473 0 -27.55597346312473 101.08018894244246 0 0 0 0 -17.72395909937768 37.30224230834483 0 37.30224230834483 291.71113605392748 0 0 0 0 198.60892001784441 -1452.7098911396349 0 -1452.7098911396349 874.88716214194574 0 0 0 0 -24.72572983960994 -28.963864310876353 0 -28.963864310876353 120.67760292965477 0 0 0 0 -248.58619339467987 227.55124694755796 0 227.55124694755796 1021.6985870257449 0 0 0 0 -38.677080939400184 90.917211112489895 0 90.917211112489895 218.03198824989522 0 0 0 0 261.30567423965113 337.48321437277264 0 337.48321437277264 -390.28926136535665 0 0 0 0 54.81991888686801 61.824196542591203 0 61.824196542591203 40.598814464830141 0 0 0 0 -12.59892097329589 888.21153398512388 0 888.21153398512388 348.81008728658344 0 0 0 0 -55.712236027087783 123.02581103883313 0 123.02581103883313 264.4963812762212 0 0 0 0 -69.261708993445609 98.400953151602153 0 98.400953151602153 223.02892199776761 0 0 0 0 -672.8329656394817 -425.35064065059123 0 -425.35064065059123 262.38219643349294 0 0 0 0 -11.189165581641994 18.795789673898646 0 18.795789673898646 158.62631788663427 0 0 0 0 37.378793991604248 53.064545642285339 0 53.064545642285339 -1.2456353932456565 0 0 0 0 -21.671062602166785 294.38146882391447 0 294.38146882391447 390.98889646672615 0 0 0 0 126.05219331580884 163.18200614065427 0 163.18200614065427 479.07683101143994 0 0 0 0 -3.3531017536894403 2.4040357754981159 0 2.4040357754981159 6.4119288171241209 0 0 0 0 190.30413227944246 649.24493943927519 0 649.24493943927519 749.1057832933293 0 0 0 0 -172.09567703520042 -229.08841903838038 0 -229.08841903838038 -182.93031599544338 0 0 0 0 -96.448937458346336 -127.84774840277532 0 -127.84774840277532 -125.92275773261645 0 0 0 0 14.354228861984502 -9.9563108369514453 0 -9.9563108369514453 12.744846606176111 0 0 0 0 -185.73408500011828 -329.61722949227988 0 -329.61722949227988 -241.26817480190948 0 0 0 0 -22.365719105262542 -182.27742297567602 0 -182.27742297567602 -339.79162109082972 0 0 0 0 167.57578435164396 -213.1229410294327 0 -213.1229410294327 300.25146529781705 0 0 0 0 -132.23948701827408 282.98910465151585 0 282.98910465151585 1172.990710340091 0 0 0 0 493.92818563059882 1009.2369929965171 0 1009.2369929965171 703.63925754003867 0 0 0 0 93.118918949085128 334.36988552643379 0 334.36988552643379 1294.5754956759265 0 0 0 0 3.7142272279946074 -2.6986708403040325 0 -2.6986708403040325 6.7616820072290125 0 0 0 0 106.4507622015887 167.46302383340412 0 167.46302383340412 -155.88968734422815 0 0 0 0 -354.29405986752681 359.05262697017861 0 359.05262697017861 -24.282911868358497 0 0 0 0 -3.3370069345796374 -3.2894763989964844 0 -3.2894763989964844 17.049024749686431 0 0 0 0 -456.85176921781112 114.47535711041928 0 114.47535711041928 27.531548379305605 0 0 0 0 1.3257026961125229 -6.4924983986614215 0 -6.4924983986614215 14.46626812027182 0 0 0 0 -82.402958354750808 912.30323583997597 0 912.30323583997597 588.722559379632 0 0 0 0 -19.061257316018349 -46.973995138025032 0 -46.973995138025032 35.515975247955637 0 0 0 0 -27.519898949889466 30.780486228155041 0 30.780486228155041 185.43019911316514 0 0 0 0 17.62399501713935 -105.01305035574842 0 -105.01305035574842 351.41976105223694 0 0 0 0 -77.871751587292579 38.195167203251913 0 38.195167203251913 642.60910659494402 0 0 0 0 -55.906800589585146 226.69730006474492 0 226.69730006474492 480.72850708049009 0 0 0 0 553.13464910148741 46.532835223126312 0 46.532835223126312 562.17655270848627 0 0 0 0 84.909193886462617 -309.13374239312907 0 -309.13374239312907 954.82714683857921 0 0 0 0 -94.867929747533708 286.78770391022772 0 286.78770391022772 1073.8094416010081 0 0 0 0 32.619292660878273 40.67950314628979 0 40.67950314628979 26.150810633873334 0 0 0 0 -92.117693370099914 -24.477171047597949 0 -24.477171047597949 135.01631635451122 0 0 0 0 42.277234756989429 177.85499192667862 0 177.85499192667862 433.35254397008248 0 0 0 0 -53.436678584885158 98.427787758180784 0 98.427787758180784 238.02466274401377 0 0 0 0 6.955676663482425 -1.8053917649139635 0 -1.8053917649139635 -3.3773970506014024 0 0 0 0 89.846504990280891 42.447946828079694 0 42.447946828079694 114.12175460134313 0 0 0 0 -221.92132755760986 -139.13684678713071 0 -139.13684678713071 116.67911929322145 0 0 0 0 -434.35389188504087 -201.07170808236697 0 -201.07170808236697 164.78502906081121 0 0 0 0 19.314742385524447 -37.373810959323094 0 -37.373810959323094 69.179141514715468 0 0 0 0 -297.60789799390841 -237.30153143397183 0 -237.30153143397183 91.024776985585049 0 0 0 0 -350.89852909497404 -168.9473465042538 0 -168.9473465042538 18.523912652890431 0 0 0 0 -173.94021143927421 -316.99383594244136 0 -316.99383594244136 -54.852876945420576 0 0 0 0 16.566136249265806 -29.318622827136828 0 -29.318622827136828 51.160285318421927 0 0 0 0 -210.06655016748755 -267.20232782565654 0 -267.20232782565654 -104.3920053375914 0 0 0 0 -143.56051135573307 -263.09357898321468 0 -263.09357898321468 -142.78111729142256 0 0 0 0 -168.23036867055998 -275.36813830812753 0 -275.36813830812753 -144.57561395524408 0 0 0 0 -98.488190622942057 -376.83282687741666 0 -376.83282687741666 -6.8570690849446692 0 0 0 0 -85.577481835283834 -798.80949963644889 0 -798.80949963644889 788.96523968940892 0 0 0 0 -367.8057981377533 -229.5880996240885 0 -229.5880996240885 292.67944490619993 0 0 0 0 -290.09664708809578 -295.00278506920949 0 -295.00278506920949 339.4810330473556 0 0 0 0 -412.37247661392757 -242.1648084363369 0 -242.1648084363369 213.08463233207294 0 0 0 0 -413.64048928196917 -25.970631450340079 0 -25.970631450340079 162.86919890452555 0 0 0 0 -894.30800198142606 -309.89351472559065 0 -309.89351472559065 955.46474988831324 0 0 0 0 -415.93444401320448 -117.26056707128373 0 -117.26056707128373 656.77891318337061 0 0 0 0 -983.57161666815045 354.77657262226421 0 354.77657262226421 367.93353228898195 0 0 0 0 -78.472200742655332 -46.785550332355342 0 -46.785550332355342 54.663133518632094 0 0 0 0 -131.49596011874655 41.202454889615183 0 41.202454889615183 169.33507772169651 0 0 0 0 -193.27155293119176 27.690469882945763 0 27.690469882945763 146.0925782700433 0 0 0 0 -221.63370801899237 -13.931626864643476 0 -13.931626864643476 124.35888148444064 0 0 0 0 -274.24047740635433 -247.37637769727735 0 -247.37637769727735 -79.621662678648136 0 0 0 0 -442.94820871603952 -225.43313218481489 0 -225.43313218481489 146.81722812211228 0 0 0 0 14.490803612601141 -42.031181605227374 0 -42.031181605227374 86.607210462923973 0 0 0 0 -568.34970722001151 -292.56029437580582 0 -292.56029437580582 237.43227542586101 0 0 0 0 -7.3096380010465705 8.3226793385572932 0 8.3226793385572932 7.3233288809146018 0 0 0 0 -866.72495211962269 77.931750256935629 0 77.931750256935629 -104.5753212657728 0 0 0 0 -4.734319423270712 -6.4768585554562321 0 -6.4768585554562321 19.823763995758128 0 0 0 0 -108.77611599918055 -28.177975174643507 0 -28.177975174643507 125.39866113679636 0 0 0 0 -46.288657248490821 17.876065294402608 0 17.876065294402608 72.055473717743354 0 0 0 0 -112.63246220781372 70.600175739957194 0 70.600175739957194 101.86002311440825 0 0 0 0 -152.58020113251587 -59.46520931521809 0 -59.46520931521809 203.98886375395375 0 0 0 0 2.6803323655312852 130.61289604651392 0 130.61289604651392 264.0068381481251 0 0 0 0 -48.126951245169948 38.207701220730087 0 38.207701220730087 205.94882862499799 0 0 0 0 -127.88516813290425 36.566990610743233 0 36.566990610743233 283.94292664409022 0 0 0 0 -0.44811371634200192 -0.93402245630876024 0 -0.93402245630876024 -6.6475349491469444 0 0 0 0 -2516.0128707149088 -54.346921431977535 0 -54.346921431977535 451.28042699594516 0 0 0 0 242.88518503683554 243.49601475428062 0 243.49601475428062 6.2764395010308363 0 0 0 0 -283.29927392602804 365.74172763555543 0 365.74172763555543 -19.867803804387222 0 0 0 0 -245.94466947225374 60.811335204074567 0 60.811335204074567 125.28825176160171 0 0 0 0 -45.673557432090092 97.11382893632981 0 97.11382893632981 72.71194548427593 0 0 0 0 -95.944925144898662 75.702956413359061 0 75.702956413359061 74.720992010181362 0 0 0 0 -49.788366193237422 20.436124504494629 0 20.436124504494629 69.712439461943504 0 0 0 0 -1379.3076924214765 165.20897045767197 0 165.20897045767197 9.4936870783130871 0 0 0 0 -13.534007016189829 15.676683098367235 0 15.676683098367235 -11.612874034913034 0 0 0 0 -1195.9412256586565 -165.78296756471809 0 -165.78296756471809 -21.095058555802098 0 0 0 0 -1311.7639445203749 276.70687046292005 0 276.70687046292005 193.38281973445919 0 0 0 0 -9.0134496675349887 -6.0715621852595092 0 -6.0715621852595092 4.6091385143505477 0 0 0 0 -1334.9616738439067 993.64577618730982 0 993.64577618730982 -405.67847338369756 0 0 0 0 162.46252128494041 -61.000651882922284 0 -61.000651882922284 111.26232980797795 0 0 0 0 -3.5858805537473017 -100.13644879783169 0 -100.13644879783169 140.53943934043491 0 0 0 0 -7.5114853325637743 -10.738363113214984 0 -10.738363113214984 62.669659997256304 0 0 0 0 -8.2759377080049035 66.536573873816451 0 66.536573873816451 395.8464578576677 0 0 0 0 -792.42464043464975 128.05677656590706 0 128.05677656590706 440.25952443558344 0 0 0 0 -131.72252193611689 -151.39297476285719 0 -151.39297476285719 165.51667136895412 0 0 0 0 -376.34054912569809 -188.290313088728 0 -188.290313088728 244.68794550898019 0 0 0 0 -334.71785189792564 -53.398421003906151 0 -53.398421003906151 291.34494084562175 0 0 0 0 -241.84595038256703 -88.254437535477336 0 -88.254437535477336 300.0806305269216 0 0 0 0 -9.939428651237904 -117.8789513771917 0 -117.8789513771917 166.75121937391668 0 0 0 0 -126.91058340622988 -136.78632647894847 0 -136.78632647894847 167.99189939627468 0 0 0 0 60.630565206342567 -158.17567437125763 0 -158.17567437125763 91.403339273172605 0 0 0 0 49.91186847891052 -124.77822331679999 0 -124.77822331679999 117.64351535524111 0 0 0 0 -10.366230524440113 -358.24771676680757 0 -358.24771676680757 150.05605824274971 0 0 0 0 -210.16132095212379 -190.1044245397643 0 -190.1044245397643 159.70345627081406 0 0 0 0 -631.20341258475037 -340.46194413051853 0 -340.46194413051853 -57.43658555408183 0 0 0 0 -487.38892856735401 -118.9901193813821 0 -118.9901193813821 171.18703946268943 0 0 0 0 -792.80422405705031 -312.00299575199097 0 -312.00299575199097 675.74342997918575 0 0 0 0 821.53759717360708 -498.87774056795388 0 -498.87774056795388 292.7425232795722 0 0 0 0 -317.64185127917392 286.4733768949809 0 286.4733768949809 1949.1591755333066 0 0 0 0 1431.8663167501381 682.30618138536101 0 682.30618138536101 78.139446418572334 0 0 0 0 -319.87846900014631 216.51836121246288 0 216.51836121246288 96.309959308622638 0 0 0 0 1.0072161967694828 17.771077659153768 0 17.771077659153768 150.15725356123397 0 0 0 0 621.10546311690973 838.79506430398396 0 838.79506430398396 752.63046615778148 0 0 0 0 3.6400186612347594 -5.7229828622574352 0 -5.7229828622574352 19.847473965784843 0 0 0 0 844.43931457485087 -859.93794178593089 0 -859.93794178593089 448.91967379571724 0 0 0 0 -459.51152719888637 -71.772643148258794 0 -71.772643148258794 1597.5977402049539 0 0 0 0 -765.45106360588466 580.95201474030182 0 580.95201474030182 209.50372404553491 0 0 0 0 -5.6469190907409796 -499.56168835892731 0 -499.56168835892731 -24.036104948783759 0 0 0 0 -10.147700663889438 4.3400835568338891 0 4.3400835568338891 -1.4196280237478902 0 0 0 0 -761.54035990359046 -305.81490146352371 0 -305.81490146352371 -112.58162055578578 0 0 0 0 -130.43990294779815 22.115138341912825 0 22.115138341912825 27.474647613111301 0 0 0 0 -224.36934686353572 -92.529654674581252 0 -92.529654674581252 -51.681383932722383 0 0 0 0 -23.716510704537004 14.952465910336073 0 14.952465910336073 -10.799915245932965 0 0 0 0 -123.17103518152157 513.86290086033114 0 513.86290086033114 -574.1807979907253 0 0 0 0 -95.616164827242756 -30.526740794317448 0 -30.526740794317448 -28.454701375747391 0 0 0 0 514.03180352120103 -327.69961104590766 0 -327.69961104590766 -484.69358637421374 0 0 0 0 -46.819152766710744 -306.92560702772516 0 -306.92560702772516 123.39215442386921 0 0 0 0 -289.78348109207263 481.02037686530093 0 481.02037686530093 61.23486254063755 0 0 0 0 116.76865127603173 535.84642634071497 0 535.84642634071497 -549.5236528738169 0 0 0 0 109.50299964584255 548.83659148238166 0 548.83659148238166 -173.89975181255431 0 0 0 0 -918.78800007568384 398.7788325400652 0 398.7788325400652 552.80590158564883 0 0 0 0 -225.21349853234244 221.76284421127275 0 221.76284421127275 80.663022844943043 0 0 0 0 -4.4677474562000246 16.340820402929388 0 16.340820402929388 154.9748423688691 0 0 0 0 131.6620201973123 198.77674637216114 0 198.77674637216114 -236.48220951712028 0 0 0 0 -0.81803985908652166 3.5212708652592966 0 3.5212708652592966 -5.2319884839043311 0 0 0 0 128.31985908903309 154.47624648772762 0 154.47624648772762 -669.77881177793461 0 0 0 0 190.06074693922346 -347.46188474727387 0 -347.46188474727387 -140.74350840806437 0 0 0 0 -33.833933695685921 28.676009016039558 0 28.676009016039558 -6.5092499620267574 0 0 0 0 -285.38152042098409 35.547554909106111 0 35.547554909106111 315.66837625679545 0 0 0 0 -49.114385623815906 13.837047301585699 0 13.837047301585699 11.567343976785196 0 0 0 0 -26.843607412532947 38.418068384329672 0 38.418068384329672 31.755235525750322 0 0 0 0 -59.063240097697417 25.213233486294484 0 25.213233486294484 38.429946162548731 0 0 0 0 -6.1739963696545601 161.89888461949886 0 161.89888461949886 210.26189825361507 0 0 0 0 -12.544271210190658 22.493284131657006 0 22.493284131657006 22.694228831991012 0 0 0 0 -25.123427587257765 32.494031293511398 0 32.494031293511398 91.20333679329633 0 0 0 0 -26.483076419246082 9.7309320744947492 0 9.7309320744947492 78.529490057989051 0 0 0 0 -17.966693597763332 9.395878756266363 0 9.395878756266363 79.938696161629821 0 0 0 0 -35.4977405317386 9.1750695765367709 0 9.1750695765367709 93.039945994714799 0 0 0 0 -50.709178681256162 -44.991917294217274 0 -44.991917294217274 49.911112903399044 0 0 0 0 -29.854218796695932 -92.886916863164515 0 -92.886916863164515 134.89096917296411 0 0 0 0 -1.6395302887198113 -0.88811096793682509 0 -0.88811096793682509 0.11521861148301582 0 0 0 0 -26.433117891655524 6.1999680867031444 0 6.1999680867031444 44.093767041989054 0 0 0 0 41.858850429474842 41.060832095245132 0 41.060832095245132 90.538536692416528 0 0 0 0 -9.1137513939323327 4.2904106270350155 0 4.2904106270350155 19.891839799047659 0 0 0 0 -17.588894891425298 10.608999291391228 0 10.608999291391228 21.703028621202975 0 0 0 0 -53.868555320437736 -0.48740629055919271 0 -0.48740629055919271 -16.850870642781956 0 0 0 0 -15.568131893470898 22.038893897835742 0 22.038893897835742 14.727221899284672 0 0 0 0 946.87435312370826 5.7388184923656809 0 5.7388184923656809 749.07776102225762 0 0 0 0 460.77439829998912 -227.66151241381885 0 -227.66151241381885 639.27146817624453 0 0 0 0 797.38950163732807 166.02385167046305 0 166.02385167046305 420.72229802822403 0 0 0 0 -5.084571100976973 -231.39834737215278 0 -231.39834737215278 616.47127843613271 0 0 0 0 1.7556808205374654 4.4219268617405021 0 4.4219268617405021 -0.62573817024932055 0 0 0 0 117.63252926020505 -51.123097468938795 0 -51.123097468938795 125.39917902855086 0 0 0 0 -91.969284107119165 -66.395408660660905 0 -66.395408660660905 568.59333861607593 0 0 0 0 84.461250675361953 108.2554379544199 0 108.2554379544199 451.08401540428167 0 0 0 0 167.27457179074554 408.15169357023842 0 408.15169357023842 880.56911430719629 0 0 0 0 -66.444614396441466 84.161086966661969 0 84.161086966661969 506.38299484446179 0 0 0 0 -103.8506343441768 39.127424989681458 0 39.127424989681458 301.72233832417987 0 0 0 0 4.9985666768188821 100.20605335228174 0 100.20605335228174 -79.060308333913781 0 0 0 0 -468.46784193240455 -344.44315271149389 0 -344.44315271149389 1321.2858693502567 0 0 0 0 -51.403020218545862 37.532440405688249 0 37.532440405688249 0.84720377241319511 0 0 0 0 5.7825482905118406 135.89282199371883 0 135.89282199371883 -16.054705341597582 0 0 0 0 9.7742070734729722 4.8412277578553358 0 4.8412277578553358 2.5120160866017756 0 0 0 0 -48.602828995135496 25.126654659608903 0 25.126654659608903 34.993200914861518 0 0 0 0 39.531784231552592 205.95711724815192 0 205.95711724815192 128.19152100143401 0 0 0 0 -34.510091172476677 28.641455787168525 0 28.641455787168525 54.360814735817257 0 0 0 0 -100.1938575134709 99.612718710020999 0 99.612718710020999 221.29737046864466 0 0 0 0 -29.048823331557287 308.68692002377065 0 308.68692002377065 470.07572010537115 0 0 0 0 -198.23586556045166 115.0954477538944 0 115.0954477538944 421.20234373969288 0 0 0 0 -78.657600605275434 200.70660693999253 0 200.70660693999253 256.0664472340286 0 0 0 0 -245.29032000239067 96.244526789678275 0 96.244526789678275 205.06152091712283 0 0 0 0 -87.181750493771688 29.791721352710738 0 29.791721352710738 24.251231458692928 0 0 0 0 -25.12117554753786 23.072990371852939 0 23.072990371852939 -19.145664818797741 0 0 0 0 -94.840529094886733 31.172868408822978 0 31.172868408822978 75.817506704333937 0 0 0 0 12.415897542538005 113.24226964117406 0 113.24226964117406 104.8576830515085 0 0 0 0 24.887465916232344 37.565845889009211 0 37.565845889009211 21.917229734823188 0 0 0 0 31.624305384919353 -82.997611645800021 0 -82.997611645800021 218.46996278149282 0 0 0 0 148.62342787136004 -120.77592902014305 0 -120.77592902014305 -32.079192369605835 0 0 0 0 6.4005952142288152 -30.097448904123269 0 -30.097448904123269 162.95828167887407 0 0 0 0 21.71166531462768 35.043564632262132 0 35.043564632262132 41.480830140836304 0 0 0 0 5.5273718881635432 40.963076901475347 0 40.963076901475347 225.55337785298599 0 0 0 0 -0.64796780558608802 -0.17035858387572134 0 -0.17035858387572134 0.49414940104748556 0 0 0 0 72.072234837102087 -224.9088222389895 0 -224.9088222389895 19.15034522231673 0 0 0 0 83.242283189304658 133.07849398078591 0 133.07849398078591 534.46095547219898 0 0 0 0 450.97823079843511 97.567287208760661 0 97.567287208760661 125.60373269682793 0 0 0 0 -78.3230900172166 -99.711137481744345 0 -99.711137481744345 224.84128701345313 0 0 0 0 -26.681267186952958 -25.507486321797348 0 -25.507486321797348 23.841616440179035 0 0 0 0 -68.023881913097057 -24.724358132460111 0 -24.724358132460111 197.09218616836733 0 0 0 0 -63.861360072210566 -22.25732348300815 0 -22.25732348300815 105.59105013044218 0 0 0 0 -118.1690566687912 -69.823383347640629 0 -69.823383347640629 345.64554626477184 0 0 0 0 -51.052527249252307 100.68233413479902 0 100.68233413479902 313.46825306313258 0 0 0 0 -41.6307275748633 -9.315130241613474 0 -9.315130241613474 66.050677124136101 0 0 0 0 -81.046983038566395 22.427972777106334 0 22.427972777106334 180.921882370807 0 0 0 0 -5.0347013978189352 7.72471336176568 0 7.72471336176568 160.14887120560343 0 0 0 0 -8.1748901949204082 2.1102506900861044 0 2.1102506900861044 152.13190106038383 0 0 0 0 167.02236762481698 297.79904943494216 0 297.79904943494216 108.89508736576556 0 0 0 0 22.560484369538187 44.927786321623927 0 44.927786321623927 46.643444603234137 0 0 0 0 -9.1152309976641845 -187.87891958149771 0 -187.87891958149771 314.35118528847181 0 0 0 0 11.526803634200405 16.613653957669158 0 16.613653957669158 175.87242017683457 0 0 0 0 48.053447571531251 -8.2833269346629095 0 -8.2833269346629095 159.76290748559222 0 0 0 0 -1.6521452470196891 -0.2999884053151618 0 -0.2999884053151618 156.34560698852874 0 0 0 0 -37.873149029455931 14.900124827483978 0 14.900124827483978 170.77640502582653 0 0 0 0 -41.184420384279747 27.577218354098477 0 27.577218354098477 166.98410203473259 0 0 0 0 56.517712570375807 43.584707845755474 0 43.584707845755474 175.18508539662253 0 0 0 0 27.888363894440772 -3.9967829414454172 0 -3.9967829414454172 199.37460560128238 0 0 0 0 33.841506379253133 -18.221368694608827 0 -18.221368694608827 193.12955575738306 0 0 0 0 33.312174168614547 -11.927401263610591 0 -11.927401263610591 188.33857816265845 0 0 0 0 103.01053528072953 63.071696198589052 0 63.071696198589052 228.54806041244228 0 0 0 0 33.159942746443896 -0.64724253406046728 0 -0.64724253406046728 291.43707871030711 0 0 0 0 14.618857454004193 30.446726430172994 0 30.446726430172994 54.955702683181428 0 0 0 0 77.958158596629801 2.9355797502357746 0 2.9355797502357746 275.63316344638588 0 0 0 0 -7.5340266403903939 -35.595830368766968 0 -35.595830368766968 91.00792507477982 0 0 0 0 54.794409601216103 45.672723454594461 0 45.672723454594461 235.13633017729808 0 0 0 0 15.5781788114964 -33.858587574555713 0 -33.858587574555713 108.42693304984709 0 0 0 0 23.33480137183642 12.681283666787749 0 12.681283666787749 122.53931762761749 0 0 0 0 32.545341017324517 38.397498398437165 0 38.397498398437165 174.91469549307203 0 0 0 0 -11.91161356353512 -40.013160126164379 0 -40.013160126164379 70.60674517744684 0 0 0 0 9.7689794017785516 -18.977195129799838 0 -18.977195129799838 150.51988687091216 0 0 0 0 11.332933898194824 15.325034737928945 0 15.325034737928945 160.92123178628231 0 0 0 0 28.312632780594413 12.076349106104317 0 12.076349106104317 136.83503436457249 0 0 0 0 -14.222794185505112 -21.382725954361323 0 -21.382725954361323 99.103695431303279 0 0 0 0 -20.20302793052997 35.006470806416473 0 35.006470806416473 153.4307645533313 0 0 0 0 -1.0536754594731721 1.0530301352886511 0 1.0530301352886511 143.6290047112409 0 0 0 0 -996.30794137369958 4.0404010081492743 0 4.0404010081492743 439.3362518750655 0 0 0 0 -20.281929358277246 17.516143242952481 0 17.516143242952481 64.534925045408471 0 0 0 0 4.3531231903798471 7.2438335795641251 0 7.2438335795641251 234.47208760909052 0 0 0 0 11.412968471753629 -27.194404250128173 0 -27.194404250128173 222.75147915694356 0 0 0 0 -398.8321115530141 -98.861135865411597 0 -98.861135865411597 339.98946789476031 0 0 0 0 -166.84084675470694 84.616476114879333 0 84.616476114879333 279.3297618217839 0 0 0 0 -24.484706228195819 -14.981219230009856 0 -14.981219230009856 227.02643701737907 0 0 0 0 -4.745738472136269 22.985034750587335 0 22.985034750587335 228.43155432755711 0 0 0 0 24.259260628492484 -13.581559337080762 0 -13.581559337080762 204.67142804920331 0 0 0 0 14.425593396677641 -1.4860569345323427 0 -1.4860569345323427 212.24364830453578 0 0 0 0 61.416490644010537 46.702736799901004 0 46.702736799901004 213.45942455294335 0 0 0 0 40.914323348657035 27.702047055400158 0 27.702047055400158 178.92103573239092 0 0 0 0 35.382085137908689 12.401835809866498 0 12.401835809866498 222.74677400158339 0 0 0 0 43.686617404368917 42.936476306922032 0 42.936476306922032 210.78553960260979 0 0 0 0 42.300602985078513 40.412014798512246 0 40.412014798512246 254.63743192123843 0 0 0 0 -32.238828408406562 -53.075505714933186 0 -53.075505714933186 171.2489089537199 0 0 0 0 67.142675272954875 54.299759018878831 0 54.299759018878831 243.25350703470576 0 0 0 0 67.980631566957527 35.548858767462661 0 35.548858767462661 206.08784936340817 0 0 0 0 14.829545811277058 -0.40520033821667312 0 -0.40520033821667312 240.56684711423623 0 0 0 0 -25.300465012993179 -52.11146879712129 0 -52.11146879712129 180.00369566084282 0 0 0 0 91.324915397368841 46.677916526980425 0 46.677916526980425 236.04845300140914 0 0 0 0 -4.1149650822590047 -57.734262823658355 0 -57.734262823658355 243.48784181942756 0 0 0 0 49.497711369700482 20.008358308113202 0 20.008358308113202 251.18576225228935 0 0 0 0 68.770036950643771 -7.7532673353355221 0 -7.7532673353355221 183.49877550482051 0 0 0 0 34.623942462687346 52.507929381974549 0 52.507929381974549 93.92769853506482 0 0 0 0 46.712294811995889 9.1296239968944519 0 9.1296239968944519 250.41106535578365 0 0 0 0 68.289929711572768 17.873839057403529 0 17.873839057403529 104.23773164253362 0 0 0 0 118.30047862969877 -28.504858871441684 0 -28.504858871441684 107.09209767288326 0 0 0 0 24.271925374990278 51.887986607086873 0 51.887986607086873 52.213343307095883 0 0 0 0 160.80304903024808 24.374689713215048 0 24.374689713215048 -82.170888819309766 0 0 0 0 -6.8692241121862025 31.599777132349118 0 31.599777132349118 278.54052311899432 0 0 0 0 51.955591080739396 0.29387296003915253 0 0.29387296003915253 125.074149570386 0 0 0 0 41.351596694689761 9.5162725082354882 0 9.5162725082354882 173.47725676024857 0 0 0 0 17.38670834954064 -8.71374071731816 0 -8.71374071731816 180.60899322408841 0 0 0 0 78.588576809048391 57.810005820094375 0 57.810005820094375 260.62796546398022 0 0 0 0 126.436785496825 -34.21596117333138 0 -34.21596117333138 156.60410808397864 0 0 0 0 42.954254240453295 -75.472393893571848 0 -75.472393893571848 64.992541236308853 0 0 0 0 636.76836279540703 -163.77673967379087 0 -163.77673967379087 -758.68544216186274 0 0 0 0 38.278784139776121 -76.357989681899852 0 -76.357989681899852 67.445424795150075 0 0 0 0 119.79647007886524 69.638137878424459 0 69.638137878424459 248.68820363163832 0 0 0 0 81.737901161624904 29.586483869969015 0 29.586483869969015 272.90227579761995 0 0 0 0 160.94961224919462 36.430593820143258 0 36.430593820143258 264.76917313162994 0 0 0 0 136.23875340066661 105.86711729770468 0 105.86711729770468 351.07578296605789 0 0 0 0 96.122470568319841 44.413409258559113 0 44.413409258559113 279.56422839210427 0 0 0 0 87.959389379993809 39.560671717026707 0 39.560671717026707 348.66878672261373 0 0 0 0 101.97577766540417 24.123672314050054 0 24.123672314050054 213.91201441348312 0 0 0 0 101.57525452444679 40.212656017374684 0 40.212656017374684 245.76958089084292 0 0 0 0 57.431839525012037 37.772833068884211 0 37.772833068884211 261.24065751325543 0 0 0 0 101.05669246078105 36.553983749890904 0 36.553983749890904 255.85016611496394 0 0 0 0 -2.5551302642415976 -4.3867069056941546 0 -4.3867069056941546 375.29306649940554 0 0 0 0 22.191216781458785 -34.305191672259099 0 -34.305191672259099 107.15764971701876 0 0 0 0 61.358349605259718 46.894948921406467 0 46.894948921406467 139.1662743822817 0 0 0 0 -9.9715641610248227 -11.522890654536639 0 -11.522890654536639 56.821005233390949 0 0 0 0 20.053108400992642 -72.722493782712263 0 -72.722493782712263 206.53471653850283 0 0 0 0 64.67567430843701 -52.468618529004743 0 -52.468618529004743 174.36824865793551 0 0 0 0 24.343353130474526 48.979907690586714 0 48.979907690586714 48.846947210327329 0 0 0 0 38.737636329155066 -15.294962268472773 0 -15.294962268472773 166.97491584261297 0 0 0 0 -6.9916953379288316 -94.827525290005724 0 -94.827525290005724 257.52693649497814 0 0 0 0 51.06715785860797 189.96840259546661 0 189.96840259546661 -81.65773693544179 0 0 0 0 36.583814539875831 -12.511807034372112 0 -12.511807034372112 3.7854129159036916 0 0 0 0 51.917867610638496 -18.561827607220039 0 -18.561827607220039 374.50091732706642 0 0 0 0 -2.1400566854281351 -81.748565168469213 0 -81.748565168469213 309.5620340948808 0 0 0 0 70.919671327224933 15.143599578208523 0 15.143599578208523 -174.1689301822189 0 0 0 0 -14.130372128027375 -83.642021448758896 0 -83.642021448758896 323.270318474737 0 0 0 0 34.831531343632378 -31.895602444390533 0 -31.895602444390533 327.24120614817366 0 0 0 0 13.301259912557725 -61.359259185017436 0 -61.359259185017436 333.88012025528587 0 0 0 0 13.301259912550449 -61.359259185614064 0 -61.359259185614064 333.8801202554605 0 0 0 0 19.318396387359826 -56.442505246202927 0 -56.442505246202927 323.24292604625225 0 0 0 0 13.301259912528621 -61.359259185002884 0 -61.359259185002884 333.88012025540229 0 0 0 0 -10.518052897736197 -79.695833389181644 0 -79.695833389181644 325.35582791885827 0 0 0 0 -2.1562144517083652 -75.993713408824988 0 -75.993713408824988 326.98036365612643 0 0 0 0 -13.054333694046363 -84.982719830120914 0 -84.982719830120914 323.24455267121084 0 0 0 0 67.590990474447608 4.8359342440817272 0 4.8359342440817272 -177.69885798526229 0 0 0 0 -80.28842421207446 87.596343191111373 0 87.596343191111373 -46.070063614286482 0 0 0 0 -6.2419181309378473 -13.318616697724792 0 -13.318616697724792 -142.10546911769779 0 0 0 0 55.740173037207569 39.546134538846673 0 39.546134538846673 -101.21438422851497 0 0 0 0 109.94954616253381 21.048840980423847 0 21.048840980423847 -150.06252732440771 0 0 0 0 77.997286052828713 6.5466336354875239 0 6.5466336354875239 -152.4071128834621 0 0 0 0 96.230253402129165 38.402238391412538 0 38.402238391412538 -109.31961724192661 0 0 0 0 85.390067931148224 23.368133083335124 0 23.368133083335124 -159.77352954608796 0 0 0 0 95.02786342651234 8.9827612754306756 0 8.9827612754306756 -162.15386535186553 0 0 0 0 95.709734906893573 14.85106642608298 0 14.85106642608298 -150.40210944626597 0 0 0 0 16.979231355289812 -54.761575696524233 0 -54.761575696524233 347.8052911341365 0 0 0 0 36.779435818898492 -28.842351022001822 0 -28.842351022001822 359.47894696396543 0 0 0 0 102.94529858206806 13.900032079021912 0 13.900032079021912 -170.79391475295415 0 0 0 0 27.756954236450838 -40.88147109025158 0 -40.88147109025158 350.01174492028076 0 0 0 0 37.812231958363554 -22.098513279575855 0 -22.098513279575855 343.63900428534544 0 0 0 0 56.251438587307348 -3.2686822017421946 0 -3.2686822017421946 365.6771941355837 0 0 0 0 66.220645285698993 0.98805140113108791 0 0.98805140113108791 346.93638517722138 0 0 0 0 62.876009868116853 12.127914590928413 0 12.127914590928413 363.90205787349259 0 0 0 0 53.053947877495375 17.674511159930262 0 17.674511159930262 364.33690993400523 0 0 0 0 62.649457862273721 9.2704441851892625 0 9.2704441851892625 337.04442150396062 0 0 0 0 42.172902976242767 -24.399688861158211 0 -24.399688861158211 335.00758859456982 0 0 0 0 21.721487245224125 -40.510265309523675 0 -40.510265309523675 322.80155272741104 0 0 0 0 29.309132581140148 -41.967870098364074 0 -41.967870098364074 298.25751139088243 0 0 0 0 57.710357969626784 10.531166296699666 0 10.531166296699666 257.5397688287776 0 0 0 0 54.940842488408634 56.225600337966171 0 56.225600337966171 328.78077323982143 0 0 0 0 50.220059989962465 50.631619167543249 0 50.631619167543249 347.06635835030465 0 0 0 0 66.868343619353254 51.907389999745646 0 51.907389999745646 325.41452271498565 0 0 0 0 66.569651244026659 61.235143957412447 0 61.235143957412447 401.81442970095668 0 0 0 0 84.012337282678345 63.885657664643077 0 63.885657664643077 368.86846734787105 0 0 0 0 148.03802160017949 142.14380010039895 0 142.14380010039895 459.15249865711667 0 0 0 0 209.20516642876464 109.79242012790928 0 109.79242012790928 329.20629070975701 0 0 0 0 174.08353127547161 57.381450857355958 0 57.381450857355958 387.70628846171894 0 0 0 0 -101.1685815097735 -508.5164485447458 0 -508.5164485447458 840.92029732989613 0 0 0 0 93.152145924854267 155.75956595556636 0 155.75956595556636 730.76236284268089 0 0 0 0 317.2091079423044 206.33265986043261 0 206.33265986043261 470.04906197095988 0 0 0 0 6.6108545312302454 -9.8263143920352718 0 -9.8263143920352718 -0.45754997167088618 0 0 0 0 107.83557374465454 41.315406233858084 0 41.315406233858084 406.09750027343398 0 0 0 0 40.845617054728791 8.3551415905239992 0 8.3551415905239992 487.71897585512488 0 0 0 0 67.229132116219262 18.096965913995518 0 18.096965913995518 370.96943048678804 0 0 0 0 65.507397861016216 13.607602855976438 0 13.607602855976438 360.38933411924518 0 0 0 0 66.056768584414385 1.9258060958527494 0 1.9258060958527494 369.01840108347824 0 0 0 0 46.12819247286825 11.865148726297775 0 11.865148726297775 -170.86247345982702 0 0 0 0 -17.340252922360378 -10.36191884989239 0 -10.36191884989239 -152.30706865352113 0 0 0 0 0.17235973470087629 -43.670109721839253 0 -43.670109721839253 -135.21591566821735 0 0 0 0 85.34666372036736 -19.58780244764057 0 -19.58780244764057 -151.86345436191186 0 0 0 0 102.25185557790974 19.040516342531191 0 19.040516342531191 -163.3232470501971 0 0 0 0 -36.861866500417818 -27.726513233123114 0 -27.726513233123114 -127.74473718067748 0 0 0 0 239.96184390331655 127.24129729956621 0 127.24129729956621 136.35814228952222 0 0 0 0 6.6680950662694158 -157.97144988931177 0 -157.97144988931177 -143.72780484979739 0 0 0 0 72.860161505306678 142.631716917218 0 142.631716917218 395.87645517300189 0 0 0 0 22.460976462874847 -27.635493001504884 0 -27.635493001504884 27.527607458928742 0 0 0 0 247.37510728818597 31.681877058872487 0 31.681877058872487 355.63754766811326 0 0 0 0 114.94245637651693 22.068581812927732 0 22.068581812927732 389.07987959697493 0 0 0 0 112.65353639033674 51.609923344873096 0 51.609923344873096 261.70464731522952 0 0 0 0 76.054861324904778 -103.17671670367054 0 -103.17671670367054 235.7897330851265 0 0 0 0 128.88563817099566 -115.93984088898287 0 -115.93984088898287 -29.725804958841763 0 0 0 0 111.14376206731322 -77.124111782057298 0 -77.124111782057298 -201.64722865934891 0 0 0 0 -163.06190318950394 -118.05771184382684 0 -118.05771184382684 39.310242602339713 0 0 0 0 67.605762918010441 -56.626225526644703 0 -56.626225526644703 -29.054644669522531 0 0 0 0 149.45650679760001 -37.787123390808119 0 -37.787123390808119 -142.99192041926653 0 0 0 0 89.986229072244896 14.195008367321861 0 14.195008367321861 -69.738547340355581 0 0 0 0 159.44716710376815 -5.4430213953164639 0 -5.4430213953164639 -69.295396858549793 0 0 0 0 301.21953502556062 -80.57523025264527 0 -80.57523025264527 -75.254146489402046 0 0 0 0 246.75497804693259 124.82337977745465 0 124.82337977745465 104.69967351165542 0 0 0 0 259.42635929420067 162.17526400287898 0 162.17526400287898 167.73801298371109 0 0 0 0 190.55974662296649 50.840451203850535 0 50.840451203850535 279.68597626571864 0 0 0 0 181.93036329172719 89.536816329245994 0 89.536816329245994 -37.222033070778707 0 0 0 0 100.38490917128001 108.16371933111805 0 108.16371933111805 149.73676059916033 0 0 0 0 84.524064652468951 21.122614952342701 0 21.122614952342701 -79.811938689323142 0 0 0 0 42.614143103513925 144.74371202019393 0 144.74371202019393 -19.499734343029559 0 0 0 0 99.908791876951 42.361179984960472 0 42.361179984960472 -102.71762118727929 0 0 0 0 151.8063286269462 141.41300631241756 0 141.41300631241756 34.656609007768566 0 0 0 0 14.578503995653591 75.901060245490953 0 75.901060245490953 13.133307006144605 0 0 0 0 107.61208650663502 171.09720633878169 0 171.09720633878169 -84.102592343268043 0 0 0 0 46.966991189692635 102.12862089234113 0 102.12862089234113 20.371587288449518 0 0 0 0 -12.974206844712171 97.688816263944318 0 97.688816263944318 283.34391318416783 0 0 0 0 49.171321222471306 201.30910909453814 0 201.30910909453814 246.50298617717635 0 0 0 0 23.445722368232964 -60.917277543758246 0 -60.917277543758246 488.78780259094492 0 0 0 0 54.024894479884097 243.78468420406716 0 243.78468420406716 554.78154793553404 0 0 0 0 4.7992684855516785 6.3498769241548416 0 6.3498769241548416 56.807610782810031 0 0 0 0 -25.883349956002348 1.8910279008232465 0 1.8910279008232465 410.92184514739347 0 0 0 0 445.70438125737564 88.779855089465855 0 88.779855089465855 6.258971922667115 0 0 0 0 10.920689282721455 -0.84483892033634334 0 -0.84483892033634334 -6.3491024252153352 0 0 0 0 15.644384432423976 24.079661695112009 0 24.079661695112009 1187.7016499019373 0 0 0 0 644.71575479428429 392.24343636090634 0 392.24343636090634 499.09501251337497 0 0 0 0 410.55626829431731 -208.77929905377641 0 -208.77929905377641 534.94584446743829 0 0 0 0 105.35614437050026 233.11657929776993 0 233.11657929776993 849.85352535540005 0 0 0 0 507.55348621827216 399.74301957739226 0 399.74301957739226 332.80098845774046 0 0 0 0 117.35992200931469 228.0873877646136 0 228.0873877646136 380.41597971924057 0 0 0 0 28.000003844223102 166.67840646481636 0 166.67840646481636 367.40803627166042 0 0 0 0 259.57348435536551 16.3194744356515 0 16.3194744356515 202.57582364356131 0 0 0 0 19.614540412789211 -52.155902076079656 0 -52.155902076079656 528.60802669996337 0 0 0 0 -32.101420292936382 0.16701183124314412 0 0.16701183124314412 137.88233794421103 0 0 0 0 0.35517717415493166 -5.0010178173432109 0 -5.0010178173432109 72.830625711676063 0 0 0 0 -3.0533676553311366 35.855319959289659 0 35.855319959289659 163.12179980325084 0 0 0 0 26.837743134219636 23.365900345070258 0 23.365900345070258 270.01266679924447 0 0 0 0 0.8960066214309208 -10.806944351125006 0 -10.806944351125006 105.80294039543206 0 0 0 0 22.077594926697202 -103.60657218803863 0 -103.60657218803863 283.65105550660155 0 0 0 0 22.744531709193325 -8.0001312213165079 0 -8.0001312213165079 161.51433576229442 0 0 0 0 -12.346028237554492 -53.498880164831689 0 -53.498880164831689 190.68463555733348 0 0 0 0 -26.97767377767741 -118.60517534342944 0 -118.60517534342944 293.6827673256339 0 0 0 0 -24.598956335717045 -1.454177262667919 0 -1.454177262667919 57.733373502543813 0 0 0 0 -6.5872968138480523 -71.935870178372852 0 -71.935870178372852 137.44165558792236 0 0 0 0 14.851520990220337 4.3365624308246424 0 4.3365624308246424 127.69346801246866 0 0 0 0 3.4519904488740707 30.763684391651751 0 30.763684391651751 77.833502304403581 0 0 0 0 -34.764635994182754 69.243727978326206 0 69.243727978326206 338.73895600011747 0 0 0 0 1.0743686101559433 -215.46575304566068 0 -215.46575304566068 1090.0695861415006 0 0 0 0 78.816109062292526 86.607338037050795 0 86.607338037050795 666.52739614801249 0 0 0 0 27.62477972677026 20.502022176342258 0 20.502022176342258 -19.143507373545845 0 0 0 0 402.73401768026088 -341.35325977523462 0 -341.35325977523462 -57.231955641298555 0 0 0 0 70.6500400937839 -106.44672094572161 0 -106.44672094572161 265.75213127279858 0 0 0 0 47.477150908546136 64.241081417390063 0 64.241081417390063 51.224649711366936 0 0 0 0 17.784416040725773 127.79988639312796 0 127.79988639312796 127.15175109104166 0 0 0 0 -24.043149818200618 129.59622350637801 0 129.59622350637801 182.53359599856776 0 0 0 0 -46.350256235993584 84.400541118779074 0 84.400541118779074 215.55459811541368 0 0 0 0 -21.533538465578204 139.6433546608705 0 139.6433546608705 253.4521657309524 0 0 0 0 17.508750468332437 70.738241994513373 0 70.738241994513373 151.96123418713978 0 0 0 0 -17.390691822998633 83.403690894883766 0 83.403690894883766 272.60189523773442 0 0 0 0 -21.00989086044865 102.76443815775929 0 102.76443815775929 314.93895587880979 0 0 0 0 -14.638332313093997 93.986715128834476 0 93.986715128834476 274.22690249481002 0 0 0 0 -40.0277314720297 80.544695377684548 0 80.544695377684548 373.26875001211738 0 0 0 0 -92.642315080578101 11.854368375775948 0 11.854368375775948 247.94207822229691 0 0 0 0 -56.493317472605433 -56.778932015597434 0 -56.778932015597434 143.21550262332019 0 0 0 0 -33.123991096657846 -28.163477499307191 0 -28.163477499307191 298.90531067666234 0 0 0 0 -77.191374036021443 -15.862979097082643 0 -15.862979097082643 155.14742168361772 0 0 0 0 -118.03180149202058 -179.26106448614883 0 -179.26106448614883 242.6711729661256 0 0 0 0 -171.88069674218877 -49.6493801340348 0 -49.6493801340348 202.61120847191705 0 0 0 0 -29.581319186938345 -96.907707800859498 0 -96.907707800859498 192.77634678155482 0 0 0 0 -15.5160408495969 -11.201377353474633 0 -11.201377353474633 68.930882540106083 0 0 0 0 14.496074768502922 -196.27696889924596 0 -196.27696889924596 193.91909100455086 0 0 0 0 -62.198890258755647 -34.260883622285391 0 -34.260883622285391 153.80541499512248 0 0 0 0 -57.995446514258219 -19.734423192842158 0 -19.734423192842158 169.85443278188609 0 0 0 0 -22.857472120675084 -59.273516834997352 0 -59.273516834997352 135.64945178875061 0 0 0 0 398.95433295987323 -296.97775458664637 0 -296.97775458664637 -158.15753978066277 0 0 0 0 -3.7981105029778046 -1.309486253445332 0 -1.309486253445332 38.574430684508997 0 0 0 0 207.82925717525904 -16.007020580846074 0 -16.007020580846074 174.66297467922459 0 0 0 0 8.678112543295267 -11.531108011577979 0 -11.531108011577979 16.12231795418991 0 0 0 0 334.42223847508467 453.11047252405569 0 453.11047252405569 -46.337851636057621 0 0 0 0 -514.57067379965974 332.95923069324726 0 332.95923069324726 -88.045713969050666 0 0 0 0 215.40193107849518 49.806852503061236 0 49.806852503061236 -801.58682956825942 0 0 0 0 -288.88170642649288 -483.48447256159579 0 -483.48447256159579 -243.58772236852383 0 0 0 0 166.2764468206442 -67.380218110603892 0 -67.380218110603892 123.59655913458664 0 0 0 0 -507.92577571951324 72.882414307929366 0 72.882414307929366 186.66687853232906 0 0 0 0 -0.7957809377955698 -7.1007761914167489 0 -7.1007761914167489 -5.4235062634245637 0 0 0 0 -81.918990288768327 -100.05531968047217 0 -100.05531968047217 -261.93360970438243 0 0 0 0 -32.89654134735045 -8.202818754269245 0 -8.202818754269245 68.485011319017559 0 0 0 0 128.4589100131152 -274.59050140425643 0 -274.59050140425643 -345.58986842797776 0 0 0 0 27.878860326689392 -124.90560898353579 0 -124.90560898353579 -310.18418924662183 0 0 0 0 -289.83193519833367 -480.08421829533563 0 -480.08421829533563 -387.10436210980606 0 0 0 0 56.217181099586014 -48.62998758575668 0 -48.62998758575668 -1028.1077478056977 0 0 0 0 334.55535003181376 -336.8596947936353 0 -336.8596947936353 277.79307436583485 0 0 0 0 -104.42574993571998 -79.419804683724578 0 -79.419804683724578 141.25526603704202 0 0 0 0 -62.659785991178978 -285.04156144387389 0 -285.04156144387389 252.63515869380262 0 0 0 0 33.386426708644194 -284.80964251752243 0 -284.80964251752243 245.30191704527715 0 0 0 0 -42.043258707546784 -252.96788539889053 0 -252.96788539889053 1131.392013350709 0 0 0 0 3.3538950233945677 -3.5817454954619397 0 -3.5817454954619397 5.8145542168215805 0 0 0 0 -97.784351366621195 82.093881143286126 0 82.093881143286126 1221.1675902588277 0 0 0 0 11.032771178599432 141.30148171035398 0 141.30148171035398 664.17586933010261 0 0 0 0 -116.89469789864961 51.351263563558859 0 51.351263563558859 1244.2572117578911 0 0 0 0 12.152748864189562 -13.106353288590071 0 -13.106353288590071 47.554860862902387 0 0 0 0 217.43753171739627 -190.25356286007627 0 -190.25356286007627 57.726870325568598 0 0 0 0 250.75675180149881 273.45129439608291 0 273.45129439608291 336.59413929257425 0 0 0 0 191.18222327455351 -37.453461690573931 0 -37.453461690573931 84.639350674682646 0 0 0 0 143.36889474943382 178.29373819867396 0 178.29373819867396 379.07447575399419 0 0 0 0 141.51444688562333 223.89541637743969 0 223.89541637743969 304.53865146021417 0 0 0 0 220.35181799187558 242.81911051598763 0 242.81911051598763 304.15662268170854 0 0 0 0 138.06635662008193 282.66009542669781 0 282.66009542669781 351.33601166901644 0 0 0 0 199.93735293201644 180.84655094960362 0 180.84655094960362 220.53988637666043 0 0 0 0 222.81833229395488 125.25948955402782 0 125.25948955402782 309.57388992143387 0 0 0 0 99.749093652557349 108.25568291086529 0 108.25568291086529 307.3580825017325 0 0 0 0 -79.259327759592125 -69.222390300683458 0 -69.222390300683458 183.05831856757942 0 0 0 0 9.833324001829169 -31.393582856759167 0 -31.393582856759167 231.60000225712793 0 0 0 0 -100.79845001898596 -353.9785293209568 0 -353.9785293209568 -226.64772109995101 0 0 0 0 -0.98285570939333411 83.561737948170048 0 83.561737948170048 259.63732034465284 0 0 0 0 -83.874247062843978 -64.343280404600705 0 -64.343280404600705 173.15788475902389 0 0 0 0 -22.931243977966915 -178.65948653733267 0 -178.65948653733267 -206.21091117004175 0 0 0 0 -229.04012773798127 -0.7464873681537938 0 -0.7464873681537938 300.12007387831704 0 0 0 0 -36.130621972408335 133.11354285939888 0 133.11354285939888 819.0382078544535 0 0 0 0 -283.9643419556246 -589.37720953404619 0 -589.37720953404619 30.599676533392994 0 0 0 0 -297.41557327763451 -293.16443860616573 0 -293.16443860616573 136.93093924259483 0 0 0 0 -78.167677975102578 -72.950277579265673 0 -72.950277579265673 188.62865624580235 0 0 0 0 15.227182973649178 88.667969952264684 0 88.667969952264684 428.08027833039523 0 0 0 0 116.23021426132982 194.16902770273009 0 194.16902770273009 404.71737650377327 0 0 0 0 -65.570601574516786 233.68895940323182 0 233.68895940323182 309.35002397150856 0 0 0 0 -69.605521055494364 251.16883545787095 0 251.16883545787095 382.48260594792282 0 0 0 0 -249.20991450293226 11.627880456461725 0 11.627880456461725 490.61567264444238 0 0 0 0 -163.9258211591121 335.51136071391687 0 335.51136071391687 324.97392345810658 0 0 0 0 -167.81341810489903 237.08407592889944 0 237.08407592889944 304.81605681328801 0 0 0 0 265.82399708100547 694.64364556485361 0 694.64364556485361 775.00813510145645 0 0 0 0 -161.78089126944951 -331.45838260708933 0 -331.45838260708933 957.49390413824767 0 0 0 0 -2.0372247000393182 1.2826637246302708 0 1.2826637246302708 8.7514903982542904 0 0 0 0 -418.36172397504379 -473.07327576434909 0 -473.07327576434909 111.53547054912633 0 0 0 0 -29.50645501753479 416.37964482242023 0 416.37964482242023 353.48059931827447 0 0 0 0 -482.72088375845897 -138.06104891368159 0 -138.06104891368159 192.6500317580535 0 0 0 0 -533.57754971583131 201.14754202033873 0 201.14754202033873 377.00976244470075 0 0 0 0 -3.5884664080593263 0.78590043121074871 0 0.78590043121074871 17.808813034512795 0 0 0 0 72.526682548491181 297.86185235213452 0 297.86185235213452 248.45801756818037 0 0 0 0 -241.73758028898823 -72.192955590053316 0 -72.192955590053316 -31.587689622392645 0 0 0 0 -302.28770725873625 422.00544825784345 0 422.00544825784345 300.28094709213838 0 0 0 0 -127.37084773077095 305.11973853777636 0 305.11973853777636 1078.0813003381918 0 0 0 0 614.03499912293773 259.66163761373718 0 259.66163761373718 285.73778558202866 0 0 0 0 26.101870016503426 178.56765907469617 0 178.56765907469617 337.81909398860807 0 0 0 0 294.60674251392993 76.117035984099857 0 76.117035984099857 698.15806365956632 0 0 0 0 315.95531439695151 160.07996322872805 0 160.07996322872805 997.80311193866783 0 0 0 0 130.21418758129676 234.26267172506368 0 234.26267172506368 1297.2146973869458 0 0 0 0 56.078773188244668 63.734876802849612 0 63.734876802849612 962.16191121924294 0 0 0 0 187.32107758763595 -86.980073581123634 0 -86.980073581123634 1124.9218505560075 0 0 0 0 55.721817456090321 248.16036269173037 0 248.16036269173037 1161.716234764313 0 0 0 0 431.43672639228407 -1.6754523940530817 0 -1.6754523940530817 874.47150283724477 0 0 0 0 -101.55557190371837 55.387615366154023 0 55.387615366154023 983.80718612021883 0 0 0 0 -81.23661302385608 73.45400761050314 0 73.45400761050314 990.87040376476352 0 0 0 0 113.89434727240905 -91.44142661044225 0 -91.44142661044225 606.16644362546322 0 0 0 0 150.49865500579835 24.538694458771715 0 24.538694458771715 890.28917329955266 0 0 0 0 257.0358537170232 193.30310681237552 0 193.30310681237552 411.40637213223818 0 0 0 0 96.544113723274677 275.14416857533979 0 275.14416857533979 461.03140031223302 0 0 0 0 139.77005616216502 383.76680127661803 0 383.76680127661803 659.87191119277122 0 0 0 0 150.06904388653425 390.41272333375468 0 390.41272333375468 638.30555309899501 0 0 0 0 112.6947475879997 307.13636967668572 0 307.13636967668572 845.12108652498773 0 0 0 0 415.9780039896923 195.27998369279976 0 195.27998369279976 703.78040151810092 0 0 0 0 252.74982789150909 204.94413719027193 0 204.94413719027193 785.83294408737675 0 0 0 0 280.8497313006792 270.55611885005328 0 270.55611885005328 837.1851357193591 0 0 0 0 437.88185779201547 360.50279540466551 0 360.50279540466551 873.1515979027954 0 0 0 0 95.506081137660658 233.67968564950661 0 233.67968564950661 1192.5293223697613 0 0 0 0 4.6155129087105564 0.010568140154859407 0 0.010568140154859407 0.45781930256946168 0 0 0 0 45.293115253478391 -74.682884962000571 0 -74.682884962000571 671.28244077426825 0 0 0 0 68.406890940785161 34.40272804549295 0 34.40272804549295 495.9246337882505 0 0 0 0 112.50195337842888 63.70472031831423 0 63.70472031831423 785.78865410549224 0 0 0 0 313.48554527209853 221.7431810876069 0 221.7431810876069 766.04778784468863 0 0 0 0 217.17236997764576 216.7541956196269 0 216.7541956196269 913.95442816453397 0 0 0 0 318.59218631889053 270.87347155726547 0 270.87347155726547 930.39951037581477 0 0 0 0 276.7275648325267 280.60687665455134 0 280.60687665455134 1129.2785312547821 0 0 0 0 588.86974743211431 220.02067195180825 0 220.02067195180825 770.85971638044248 0 0 0 0 271.15088125379407 17.926127601459484 0 17.926127601459484 1834.5968223843092 0 0 0 0 580.30739714890706 515.18073864182941 0 515.18073864182941 1241.9818330276739 0 0 0 0 315.97305947824952 -122.43210924662606 0 -122.43210924662606 2330.7512787354344 0 0 0 0 76.438499169948045 123.33318763769057 0 123.33318763769057 1199.7243589553855 0 0 0 0 191.54123575277026 245.95509197754927 0 245.95509197754927 1209.5371365847968 0 0 0 0 -336.86170147430312 1742.4972753364923 0 1742.4972753364923 -1067.9231092291782 0 0 0 0 -363.93314444101998 1428.2521537709251 0 1428.2521537709251 2114.9743092585763 0 0 0 0 18.778633367815928 613.58885789479791 0 613.58885789479791 1131.0878367600471 0 0 0 0 16.196781442024076 572.35951967676465 0 572.35951967676465 675.86079552713454 0 0 0 0 70.820769012458186 247.78933845328675 0 247.78933845328675 567.95973020655219 0 0 0 0 139.77222902994981 19.409159597731559 0 19.409159597731559 1194.9357392614165 0 0 0 0 -32.264446648172452 -65.789504959107944 0 -65.789504959107944 729.12451938977665 0 0 0 0 -55.203642191117979 12.207341278974127 0 12.207341278974127 478.42420415849483 0 0 0 0 -159.17066378336312 538.16464068511505 0 538.16464068511505 35.884275479787902 0 0 0 0 -83.182089201363851 282.30109231028473 0 282.30109231028473 824.18994100035979 0 0 0 0 -132.94447764272627 -123.42223598796409 0 -123.42223598796409 287.44769776866451 0 0 0 0 -306.66939819274012 155.97705874136273 0 155.97705874136273 140.22741010087339 0 0 0 0 -213.23399128569145 -99.838893070009817 0 -99.838893070009817 689.96725054659692 0 0 0 0 -142.60418369630497 -220.54859016135606 0 -220.54859016135606 557.27299828453761 0 0 0 0 -0.98267217179090949 -122.5838400027551 0 -122.5838400027551 616.94377131154761 0 0 0 0 -145.77905770548023 -95.596585219129338 0 -95.596585219129338 685.39736710620491 0 0 0 0 216.95251167956576 -87.889835461096027 0 -87.889835461096027 570.40395504489425 0 0 0 0 -12.572047765788739 -48.201550465888431 0 -48.201550465888431 648.21230914294574 0 0 0 0 43.85755187151517 -150.34457710905644 0 -150.34457710905644 475.48090943116586 0 0 0 0 -42.419457287731348 -104.76443725974423 0 -104.76443725974423 643.74963712081035 0 0 0 0 -26.700429960847032 -103.98618913190239 0 -103.98618913190239 556.58119135850211 0 0 0 0 -37.464426974991511 -39.468133431837487 0 -39.468133431837487 530.83165231240127 0 0 0 0 58.991276589415065 -100.16735187692666 0 -100.16735187692666 311.82423444501728 0 0 0 0 -141.3355134905396 -80.271059684562715 0 -80.271059684562715 715.30203106005865 0 0 0 0 -102.83776431844308 -113.88847650314892 0 -113.88847650314892 621.83344401573959 0 0 0 0 -32.074768582358956 -24.500390007363421 0 -24.500390007363421 446.62519107384287 0 0 0 0 -26.339804007904604 62.450766077374283 0 62.450766077374283 653.39282670907778 0 0 0 0 23.80850583382562 78.371714336960395 0 78.371714336960395 429.39551502393806 0 0 0 0 194.24610793258034 331.52246570934312 0 331.52246570934312 790.3104002038599 0 0 0 0 -231.007000698708 -57.861949120511781 0 -57.861949120511781 1062.0003124620516 0 0 0 0 5.6378252807520184 -5.3444475177803632 0 -5.3444475177803632 6.176918395981982 0 0 0 0 42.143638254244252 612.73814798712306 0 612.73814798712306 1573.0032613213916 0 0 0 0 314.89022824920539 -350.3816575298697 0 -350.3816575298697 278.58121227461015 0 0 0 0 137.41433816708013 -201.43803475682034 0 -201.43803475682034 246.95951812136809 0 0 0 0 119.31520624079712 -157.54573987613367 0 -157.54573987613367 336.22549019044163 0 0 0 0 160.86109634113291 -309.51936628963858 0 -309.51936628963858 374.78089316065598 0 0 0 0 0.0053980355951352976 -185.10198783136184 0 -185.10198783136184 296.73365542197462 0 0 0 0 -302.71988950174273 -22.193867756179316 0 -22.193867756179316 1349.3714714105208 0 0 0 0 58.131813056017563 -512.26521203548509 0 -512.26521203548509 980.43400385257519 0 0 0 0 -113.0528502083107 -147.71611524032051 0 -147.71611524032051 574.37111657492824 0 0 0 0 360.13120429572882 -438.13570776059714 0 -438.13570776059714 441.77220050478081 0 0 0 0 842.6566278798764 -122.79232263001086 0 -122.79232263001086 419.37723991677194 0 0 0 0 114.04219327089231 793.6907937804508 0 793.6907937804508 783.50861100757538 0 0 0 0 -298.52246112052671 347.04384693105749 0 347.04384693105749 297.38137841978414 0 0 0 0 182.74453051203091 -3.1759772044415513 0 -3.1759772044415513 -91.895019011468321 0 0 0 0 -120.01593863007292 -229.41956037070304 0 -229.41956037070304 312.11460026386885 0 0 0 0 -308.44784379650082 -62.170282614366442 0 -62.170282614366442 677.17972163404374 0 0 0 0 39.141363797825761 -67.736729071795708 0 -67.736729071795708 670.4400931327109 0 0 0 0 -132.17584865431127 -205.11422247308292 0 -205.11422247308292 1616.0188580538668 0 0 0 0 -391.47796334856685 210.82267401646004 0 210.82267401646004 93.255601827178907 0 0 0 0 -368.5728861037278 182.98671034545987 0 182.98671034545987 13.456391054962296 0 0 0 0 -350.30939685385965 161.71686818257149 0 161.71686818257149 94.397753888737498 0 0 0 0 -286.76284615212353 67.572793068087776 0 67.572793068087776 125.37505775246609 0 0 0 0 -385.64646922263273 152.47319658494234 0 152.47319658494234 148.41882765507398 0 0 0 0 -354.27266206318745 86.859911444070349 0 86.859911444070349 204.16446307014121 0 0 0 0 -327.86082446248474 64.536611059938878 0 64.536611059938878 187.38258644495363 0 0 0 0 -289.31587209676945 -3.4459411086354521 0 -3.4459411086354521 274.14398976006123 0 0 0 0 -404.66493799604359 207.95467400758935 0 207.95467400758935 170.41518254990024 0 0 0 0 -327.35950969416444 94.948539872520087 0 94.948539872520087 191.15203069859854 0 0 0 0 -359.80711901789255 226.91237995519168 0 226.91237995519168 68.819817410869291 0 0 0 0 -264.92182188673905 -0.1343323019464151 0 -0.1343323019464151 305.04452941194177 0 0 0 0 -435.84272437571781 184.09305586160008 0 184.09305586160008 365.95017026808773 0 0 0 0 -310.96071531467533 -10.578562150651578 0 -10.578562150651578 337.84638138908485 0 0 0 0 -214.46157476242661 -58.039053336013239 0 -58.039053336013239 254.14766126495851 0 0 0 0 -291.18005085346522 -35.192566488458397 0 -35.192566488458397 420.85417227224832 0 0 0 0 -159.00297097336443 -171.9569373614122 0 -171.9569373614122 410.59265680082751 0 0 0 0 -154.16694292223838 -198.19315215481265 0 -198.19315215481265 613.94885736825017 0 0 0 0 -359.36929499777034 212.74971747820018 0 212.74971747820018 615.95767722122991 0 0 0 0 -366.27253950010345 187.70260259476981 0 187.70260259476981 96.028993301244554 0 0 0 0 -429.44163471275897 648.27294678033195 0 648.27294678033195 -166.5554626348403 0 0 0 0 -554.12413786255274 545.56980183161522 0 545.56980183161522 252.64760563240748 0 0 0 0 -305.73148839514761 137.22635825171983 0 137.22635825171983 298.42388025587206 0 0 0 0 52.867481087796328 62.922195105260997 0 62.922195105260997 59.243435815252774 0 0 0 0 -283.10225551971598 611.31372257686598 0 611.31372257686598 -396.93796960562395 0 0 0 0 -382.32968641437765 334.7158842907811 0 334.7158842907811 141.12780197339271 0 0 0 0 -367.60535810946021 350.48953610896569 0 350.48953610896569 -182.3355981922723 0 0 0 0 -263.7477489427838 268.63616295179236 0 268.63616295179236 -378.90079893976144 0 0 0 0 -303.40292903498312 219.87772221809826 0 219.87772221809826 -334.23918329558364 0 0 0 0 -349.25412783142019 181.61357306377795 0 181.61357306377795 -110.11553556559011 0 0 0 0 -285.1720736532443 301.36230976574006 0 301.36230976574006 -363.94712048726615 0 0 0 0 -399.74130558411707 284.57169696813071 0 284.57169696813071 -21.120182630118506 0 0 0 0 -303.40221159614157 222.35837525561146 0 222.35837525561146 -165.94467666639684 0 0 0 0 808.13159638401385 -1464.7888734080889 0 -1464.7888734080889 1774.0966974742837 0 0 0 0 -927.2423205299965 60.595213645152398 0 60.595213645152398 2926.4604845122376 0 0 0 0 286.33990540735681 969.67473985403012 0 969.67473985403012 1061.9481346089665 0 0 0 0 -96.412173862225885 -1917.1176369196455 0 -1917.1176369196455 4791.5916964411663 0 0 0 0 37.913882889305569 -695.88719957098442 0 -695.88719957098442 2272.1921525384678 0 0 0 0 17.610340746233199 18.983679296264604 0 18.983679296264604 21.631453035186517 0 0 0 0 48.150826211058302 241.59648360894198 0 241.59648360894198 -1015.9503983963623 0 0 0 0 -337.17093494789515 -185.78211225561836 0 -185.78211225561836 -395.33173125815665 0 0 0 0 -828.5144726842118 338.25017593164193 0 338.25017593164193 -112.35676450721076 0 0 0 0 251.82150759047363 357.46518446071605 0 357.46518446071605 -785.18323622267781 0 0 0 0 31.296869356387162 48.003142254959599 0 48.003142254959599 43.105962785124063 0 0 0 0 -245.64243750255264 1061.3663738520754 0 1061.3663738520754 -1041.2975248954776 0 0 0 0 -0.64102706437734014 -653.74391756998193 0 -653.74391756998193 2581.7068571801792 0 0 0 0 721.43437924278987 -482.65598059094282 0 -482.65598059094282 2381.1733623425012 0 0 0 0 769.88713837726391 -2114.8675250285687 0 -2114.8675250285687 3484.5957126123412 0 0 0 0 -547.42456148299243 -1793.5023570642206 0 -1793.5023570642206 5325.3037350226896 0 0 0 0 10.615407264441487 15.746194892827749 0 15.746194892827749 16.844143414790004 0 0 0 0 139.14100359401891 663.18035279648245 0 663.18035279648245 962.768341602291 0 0 0 0 864.86928013847501 -252.15241090410876 0 -252.15241090410876 -152.57918974536784 0 0 0 0 126.04646179571228 333.78069052560852 0 333.78069052560852 3152.6253905167077 0 0 0 0 -336.29245833680943 -629.97905709459826 0 -629.97905709459826 2593.5811839796061 0 0 0 0 -83.456257165720217 180.28538567259056 0 180.28538567259056 35.704515782985254 0 0 0 0 -218.85066029813242 227.88845945994763 0 227.88845945994763 89.534375607559923 0 0 0 0 -78.241664169997421 192.64338324428945 0 192.64338324428945 48.469397216435027 0 0 0 0 93.820640512216826 89.957526725265211 0 89.957526725265211 66.95638118868041 0 0 0 0 497.22490728056437 633.2665498163542 0 633.2665498163542 160.91905194671506 0 0 0 0 -214.56717810066766 -144.45080697354842 0 -144.45080697354842 -189.31562190934437 0 0 0 0 -291.85568222967481 54.437051108567175 0 54.437051108567175 32.551680785487406 0 0 0 0 -197.47796171408845 397.15172519542466 0 397.15172519542466 -243.45783286350343 0 0 0 0 -24.400651454108811 -218.13316656552672 0 -218.13316656552672 2121.7676614534653 0 0 0 0 -385.04356309082345 273.97513799439957 0 273.97513799439957 61.965137206912914 0 0 0 0 54.168501907475104 58.351915367910358 0 58.351915367910358 57.19949323509195 0 0 0 0 -197.6172791080935 256.54443130851905 0 256.54443130851905 119.2303944931482 0 0 0 0 -69.087553195428882 226.82258762677884 0 226.82258762677884 -22.714700528027606 0 0 0 0 -63.986469271138674 50.312302387686941 0 50.312302387686941 9.7307240381342126 0 0 0 0 -162.59177167538883 145.31967505775356 0 145.31967505775356 185.0813519649746 0 0 0 0 -79.928366201851986 107.28672254712001 0 107.28672254712001 158.13016950306337 0 0 0 0 33.507833363296413 -17.339867644943297 0 -17.339867644943297 262.44209190806578 0 0 0 0 -36.07288562089343 132.73645859659337 0 132.73645859659337 150.46418298621575 0 0 0 0 98.626424072412192 226.3208909161458 0 226.3208909161458 109.0011846633497 0 0 0 0 492.52630636372197 536.77473926713265 0 536.77473926713265 26.185905844453373 0 0 0 0 -96.696939109887353 -36.66182081619263 0 -36.66182081619263 836.75350041141428 0 0 0 0 520.76429015076928 -195.99218085862742 0 -195.99218085862742 319.6918968945829 0 0 0 0 -114.70964176990654 105.06015536633004 0 105.06015536633004 372.33440162852639 0 0 0 0 -139.88152686170406 60.331483897058206 0 60.331483897058206 420.92012802343379 0 0 0 0 0.53046795476802799 168.24877118475706 0 168.24877118475706 46.736048227961874 0 0 0 0 134.79474641973684 167.02343243468567 0 167.02343243468567 76.559800134328725 0 0 0 0 5.6551796544361999 34.389344314758873 0 34.389344314758873 18.074822829282539 0 0 0 0 95.668182282528505 120.45535385439143 0 120.45535385439143 65.506843605861832 0 0 0 0 -107.57004705769396 121.35256077824488 0 121.35256077824488 191.52588568074134 0 0 0 0 -403.11795299045662 500.01790490628991 0 500.01790490628991 190.1065168615969 0 0 0 0 -571.96385401126463 41.131300205481239 0 41.131300205481239 181.30948232156879 0 0 0 0 -6.9759684558856847 3.433772584884089 0 3.433772584884089 -1.3654931301137907 0 0 0 0 131.84090458582432 27.008193291283533 0 27.008193291283533 26.813523340024403 0 0 0 0 -1136.5976082782472 -41.221967420511646 0 -41.221967420511646 1388.4173022295581 0 0 0 0 -239.7427926022574 383.56254514404282 0 383.56254514404282 114.00785804554471 0 0 0 0 224.57102494512583 -100.10819159728999 0 -100.10819159728999 611.76555568464755 0 0 0 0 109.07017887116672 220.70708433309483 0 220.70708433309483 524.10445282614091 0 0 0 0 76.853405245050453 160.81789248843415 0 160.81789248843415 180.13968284083239 0 0 0 0 249.32564411021849 307.2440695268524 0 307.2440695268524 301.71465640827955 0 0 0 0 80.180019347302732 149.13637748517795 0 149.13637748517795 185.51005670320592 0 0 0 0 -60.322984264377737 105.03325389155361 0 105.03325389155361 333.28837451382424 0 0 0 0 -7.3481711445522251 132.50798939196056 0 132.50798939196056 190.18103772083123 0 0 0 0 60.102149616031966 190.68825913665205 0 190.68825913665205 220.354547084964 0 0 0 0 -7.783547440858456 135.21103356585809 0 135.21103356585809 176.03776491778626 0 0 0 0 -21.110478891825551 79.119384104285928 0 79.119384104285928 137.91897772460652 0 0 0 0 52.115199000421853 110.96123542712667 0 110.96123542712667 83.5523962820007 0 0 0 0 51.054021638831287 58.079057550678343 0 58.079057550678343 51.956839387940398 0 0 0 0 97.414158150986623 117.06825482167187 0 117.06825482167187 64.752610014620586 0 0 0 0 15.45375938801881 37.458436936405604 0 37.458436936405604 58.886322752984981 0 0 0 0 187.30772601367789 87.604482273141002 0 87.604482273141002 83.607531849429051 0 0 0 0 284.92019034619079 60.541215659008685 0 60.541215659008685 74.412201986285709 0 0 0 0 -1.2565591985762694 20.313721100543262 0 20.313721100543262 51.000378224300221 0 0 0 0 18.858324033527602 44.109584267617151 0 44.109584267617151 93.131743449896845 0 0 0 0 -1.2618653370451298 3.9102603774338078 0 3.9102603774338078 57.421477645514926 0 0 0 0 457.43981442828954 248.5894455638005 0 248.5894455638005 145.60869684260825 0 0 0 0 422.29022944303142 -71.430826403346828 0 -71.430826403346828 95.341987120572867 0 0 0 0 226.64258418700229 149.5761688646669 0 149.5761688646669 -91.730757001751442 0 0 0 0 111.12779909197707 172.00505198481414 0 172.00505198481414 222.86807723437619 0 0 0 0 -100.89684283275892 -97.214648887067824 0 -97.214648887067824 31.532237170493318 0 0 0 0 -145.92896860158908 72.589283062354411 0 72.589283062354411 190.15461954970419 0 0 0 0 -5.0218102123229933 3.8313854029933907 0 3.8313854029933907 6.7412529475461911 0 0 0 0 -24.188201571068021 24.335688791035281 0 24.335688791035281 39.801233874672675 0 0 0 0 4.0299166471546499 2.2134152408074748 0 2.2134152408074748 9.3069701204754764 0 0 0 0 4.048547759099165 45.804620175275659 0 45.804620175275659 75.217286802332637 0 0 0 0 -5.9398652669315197 72.799527403580214 0 72.799527403580214 22.454417922378695 0 0 0 0 290.91779201430836 183.04037600202582 0 183.04037600202582 57.390237438092299 0 0 0 0 290.91779201431928 183.04037600204492 0 183.04037600204492 57.390237438087979 0 0 0 0 290.9177920142829 183.04037600205174 0 183.04037600205174 57.390237438086842 0 0 0 0 116.10838552272617 72.94170347506315 0 72.94170347506315 44.193739068564355 0 0 0 0 165.01470734799295 143.62907023884372 0 143.62907023884372 54.300903565162116 0 0 0 0 179.67377809328354 127.46082273584898 0 127.46082273584898 33.75334304331318 0 0 0 0 267.97666014530114 164.36576445538049 0 164.36576445538049 6.1878101913075625 0 0 0 0 247.35732108070079 174.451953789041 0 174.451953789041 28.821320271274089 0 0 0 0 262.38475214803475 185.14701289501454 0 185.14701289501454 35.81740727970373 0 0 0 0 284.68970623485438 176.09653600446654 0 176.09653600446654 13.839396104546722 0 0 0 0 296.54383745183804 191.57694463253665 0 191.57694463253665 30.816210982312441 0 0 0 0 527.27197136669565 136.01915781913067 0 136.01915781913067 -27.315359931570697 0 0 0 0 200.62997598677248 5.7173648522226586 0 5.7173648522226586 -13.703571918734269 0 0 0 0 42.687599864163531 -240.99771894687206 0 -240.99771894687206 948.14807534425472 0 0 0 0 2.2866685404262412 3.0785102623562608 0 3.0785102623562608 2.3766399840437842 0 0 0 0 -7.8894784395488387 202.04475155644468 0 202.04475155644468 1288.7564240604097 0 0 0 0 181.8511056813204 -165.75070751820294 0 -165.75070751820294 1.8098627801482507 0 0 0 0 367.07984940128063 327.32243945610458 0 327.32243945610458 282.89877253302257 0 0 0 0 215.35579844845779 -369.4344554741856 0 -369.4344554741856 1234.5551222354725 0 0 0 0 -688.51708865424007 742.43421024979557 0 742.43421024979557 2341.9324653983313 0 0 0 0 -0.16503705760126053 -4.740999567321234 0 -4.740999567321234 8.6700916300799111 0 0 0 0 -1.4302694782309118 228.63338182260122 0 228.63338182260122 283.59861913980694 0 0 0 0 -688.31438402108881 781.27442863519786 0 781.27442863519786 2564.9324439712882 0 0 0 0 10.261916454088059 0.43092201923149531 0 0.43092201923149531 -1.7471209392496871 0 0 0 0 947.36346887503169 -24.74856786528926 0 -24.74856786528926 361.08618377833136 0 0 0 0 -214.41973725382195 -144.36400755887439 0 -144.36400755887439 2288.2437897086811 0 0 0 0 104.3770635567148 236.62175989941315 0 236.62175989941315 205.91122468588128 0 0 0 0 997.48519710422261 2091.4902058525499 0 2091.4902058525499 5201.5490952681721 0 0 0 0 411.78487427641812 -1528.0892747201626 0 -1528.0892747201626 275.1599557153707 0 0 0 0 10.110250707195398 -0.57100770475857665 0 -0.57100770475857665 17.000939576486001 0 0 0 0 20.536592253713025 57.52466271063895 0 57.52466271063895 21.663950719441345 0 0 0 0 -346.02957735211385 -537.60233857890398 0 -537.60233857890398 -464.88473873116163 0 0 0 0 68.44162244700253 67.5130376930327 0 67.5130376930327 33.451063099947362 0 0 0 0 40.132804441152153 56.559850427857086 0 56.559850427857086 51.574500802956351 0 0 0 0 29.172614647575756 95.999657254431895 0 95.999657254431895 86.94071300554333 0 0 0 0 18.252698130701901 99.799061715562857 0 99.799061715562857 98.28877359750004 0 0 0 0 135.73503372574305 128.24893085996018 0 128.24893085996018 100.11062362325538 0 0 0 0 237.79412433174912 269.3225823127982 0 269.3225823127982 145.09978363114169 0 0 0 0 -123.14783588354476 93.348545706698587 0 93.348545706698587 242.31906543837067 0 0 0 0 -74.839092375295877 -3.2686410740229803 0 -3.2686410740229803 93.470150641095643 0 0 0 0 -0.0061196669287367257 -1.5493430880378583 0 -1.5493430880378583 23.928484530231799 0 0 0 0 -0.44209170998806124 2.114351667878509 0 2.114351667878509 19.993745016872708 0 0 0 0 -0.095971089756220151 0.68985377828525429 0 0.68985377828525429 8.1949987258323063 0 0 0 0 -21.106275494689271 72.540169685729779 0 72.540169685729779 125.57562601158861 0 0 0 0 -0.3519690968901461 -0.21597969862341415 0 -0.21597969862341415 33.646365007720306 0 0 0 0 27.655636666430667 35.470802904019365 0 35.470802904019365 152.93727953496091 0 0 0 0 -0.10359444557665382 0.2737533990265888 0 0.2737533990265888 21.258177576879248 0 0 0 0 -0.5166966188589095 -6.6451227797518477 0 -6.6451227797518477 60.282816316807498 0 0 0 0 1.6086598639482754 -12.33808674106848 0 -12.33808674106848 28.810557678737041 0 0 0 0 6.5206591517978598 -6.8356355102609996 0 -6.8356355102609996 76.102559574035695 0 0 0 0 0.27292427334764779 -2.6465142279489076 0 -2.6465142279489076 24.453462341361387 0 0 0 0 21.988824714131169 -2.0029667921771761 0 -2.0029667921771761 18.22517942070408 0 0 0 0 2.0164217391496635 -4.2883906508654945 0 -4.2883906508654945 26.600105328427162 0 0 0 0 6.9046358364330738 -5.8319428138638614 0 -5.8319428138638614 24.453555264422903 0 0 0 0 4.1582648993790592 -4.2710010515074828 0 -4.2710010515074828 19.307853652673657 0 0 0 0 2.0738357624100656 -2.8269212868472096 0 -2.8269212868472096 23.339329394781089 0 0 0 0 60.845616251884394 11.01100049453089 0 11.01100049453089 10.878348622216436 0 0 0 0 -0.20212419641542032 -0.6441142043064243 0 -0.6441142043064243 17.286081562791082 0 0 0 0 7.699356349801775 -5.5256389231990397 0 -5.5256389231990397 21.383269304729765 0 0 0 0 1.3426638005382923 -0.71302371377222329 0 -0.71302371377222329 10.175988083762434 0 0 0 0 74.192777366049995 -397.46322603867156 0 -397.46322603867156 234.10722329435521 0 0 0 0 6.0986606375405046 -2.4863291827091416 0 -2.4863291827091416 13.599150067966548 0 0 0 0 1.5960946064431987 1.0346167321106066 0 1.0346167321106066 2.6278719747119794 0 0 0 0 3.2596038426439922 1.4316699770570267 0 1.4316699770570267 15.350786441544187 0 0 0 0 3.6443545309997254 0.33638027730194153 0 0.33638027730194153 13.627762230345979 0 0 0 0 2.7829555180233587 3.9595366220673895 0 3.9595366220673895 15.890690886910306 0 0 0 0 3.449577470565699 -0.17923739971774921 0 -0.17923739971774921 21.472317712148651 0 0 0 0 2.229658418083265 -2.0268077298242133 0 -2.0268077298242133 20.076284564536763 0 0 0 0 2.2356165947136377 -1.5180248712167668 0 -1.5180248712167668 23.508217791415518 0 0 0 0 2.9605856557374941 5.7216755182380439 0 5.7216755182380439 29.561184664722532 0 0 0 0 0.01361296890008826 -0.24028133197134594 0 -0.24028133197134594 22.813594710387406 0 0 0 0 -0.025483885267149866 -0.071033100338780741 0 -0.071033100338780741 -0.038124986999918065 0 0 0 0 0.0046040398875469074 6.1423790659027873 0 6.1423790659027873 13.567695761325012 0 0 0 0 0.96912187640981939 1.4800225738038648 0 1.4800225738038648 2.6320546659578667 0 0 0 0 5.4225227453414382 5.1909514667786425 0 5.1909514667786425 16.34272492119635 0 0 0 0 1.3750419664740685 8.2913048199804873 0 8.2913048199804873 11.71776146729826 0 0 0 0 30.196916043549209 187.64466182708566 0 187.64466182708566 536.13977855451776 0 0 0 0 2.5689822967223521 6.1427374915058408 0 6.1427374915058408 7.9568101380833696 0 0 0 0 1.375041966474237 3.7120513488116558 0 3.7120513488116558 8.4543111977545777 0 0 0 0 -169.84991233096702 -385.2360083675967 0 -385.2360083675967 1814.7451602622459 0 0 0 0 -0.004396761204727876 7.1007618529911269 0 7.1007618529911269 5.1086902053430094 0 0 0 0 0.49378962675227561 1.9137343882508731 0 1.9137343882508731 5.0814802788979136 0 0 0 0 -112.14251767747214 50.351795605180087 0 50.351795605180087 566.89107721220353 0 0 0 0 -185.73806306025836 -156.63823207170208 0 -156.63823207170208 1107.8632591194182 0 0 0 0 -316.69168382499697 -153.02309173285084 0 -153.02309173285084 1202.6748037346115 0 0 0 0 0.51298837685239007 254.12688552965847 0 254.12688552965847 1057.5648123777646 0 0 0 0 1.2516450830777321 -2.2980228334801609 0 -2.2980228334801609 10.813638703029397 0 0 0 0 93.213006363818749 -465.30677288831794 0 -465.30677288831794 2227.0148259755151 0 0 0 0 -83.015872843288889 -325.93073170834214 0 -325.93073170834214 -42.248961154356948 0 0 0 0 -194.42716684851439 71.800887206743937 0 71.800887206743937 2474.5317934984778 0 0 0 0 -1.895765519638589 0.58378304771363787 0 0.58378304771363787 10.741663815839274 0 0 0 0 -316.58018761525977 -163.02543491459164 0 -163.02543491459164 1586.9895498159458 0 0 0 0 -42.832426414187466 -521.85824742753175 0 -521.85824742753175 911.91128424479393 0 0 0 0 -97.052867788536787 0.63288707951141987 0 0.63288707951141987 1249.5425130421936 0 0 0 0 150.55048234230458 525.0356106076797 0 525.0356106076797 557.85997754568234 0 0 0 0 -182.52687648641722 62.62973531409807 0 62.62973531409807 1310.3128917037393 0 0 0 0 -70.148224851956456 29.470004924762179 0 29.470004924762179 884.65612123667961 0 0 0 0 881.42937695953037 705.74730239750352 0 705.74730239750352 1257.224934703976 0 0 0 0 881.27144572268026 -480.92845700433298 0 -480.92845700433298 1254.6876898973132 0 0 0 0 582.63852269217591 233.53509211100754 0 233.53509211100754 -111.54591388930567 0 0 0 0 301.01162532289641 336.02760345976276 0 336.02760345976276 -455.30224906030344 0 0 0 0 -339.42636059011738 464.11623735947069 0 464.11623735947069 -277.08427927592129 0 0 0 0 32.165677471369349 215.06229191864986 0 215.06229191864986 -111.36941178247798 0 0 0 0 33.381165990877889 -57.444534568043309 0 -57.444534568043309 -128.31042851053644 0 0 0 0 335.94753941505314 44.011653384994133 0 44.011653384994133 3.9222067021037219 0 0 0 0 -0.86129142780449186 3.2268158239923537 0 3.2268158239923537 2.6541346713647727 0 0 0 0 5.4704752077201171 4.1173262439972405 0 4.1173262439972405 10.376662206923356 0 0 0 0 6.770519424440443 5.60098261986127 0 5.60098261986127 5.6008654433144329 0 0 0 0 18.691117066559855 -10.499457128695212 0 -10.499457128695212 35.989513930224348 0 0 0 0 -198.74054050724044 -265.36073670533369 0 -265.36073670533369 353.39949305576738 0 0 0 0 -448.76395629884587 -454.37410981833818 0 -454.37410981833818 214.07157958447351 0 0 0 0 261.07132923277823 127.5962003894092 0 127.5962003894092 -1008.9441846858826 0 0 0 0 237.02929837532929 129.47883624435053 0 129.47883624435053 70.81638847431168 0 0 0 0 1335.6812067603369 -192.93134554271819 0 -192.93134554271819 -56.201128204993438 0 0 0 0 1.620618143416503 1.3755005378506304 0 1.3755005378506304 0.39303737130097716 0 0 0 0 -20.256037377467464 -3.6917515276072663 0 -3.6917515276072663 9.0677561365882866 0 0 0 0 -5.1863304873932057 -2.8671998459041674 0 -2.8671998459041674 -1.1961680002423805 0 0 0 0 -16.423190652235917 -50.574820943977102 0 -50.574820943977102 77.551885634238715 0 0 0 0 -15.959083267149857 -13.015995396210457 0 -13.015995396210457 23.715189032385211 0 0 0 0 30.16884054031425 37.212971374436165 0 37.212971374436165 11.938396937053767 0 0 0 0 24.760883552136875 -186.11433095237589 0 -186.11433095237589 -277.82071792462375 0 0 0 0 -252.78777136843246 -360.801431178028 0 -360.801431178028 -55.687076337082544 0 0 0 0 -63.408580968173737 -153.21817740398546 0 -153.21817740398546 -157.46566062705824 0 0 0 0 444.17407490515984 -189.07701958798862 0 -189.07701958798862 -206.44473082915647 0 0 0 0 236.07726808313419 -236.09033396985615 0 -236.09033396985615 -902.45042101440049 0 0 0 0 -33.731716070904611 -129.77118248376428 0 -129.77118248376428 -192.51550952671096 0 0 0 0 723.63720563965444 17.904508847175748 0 17.904508847175748 541.1026685386023 0 0 0 0 103.52689044463347 -339.25331628079584 0 -339.25331628079584 453.70819444430526 0 0 0 0 141.91890983680355 26.915194075583713 0 26.915194075583713 1544.629101968836 0 0 0 0 227.6025844663983 -105.56994561932515 0 -105.56994561932515 390.92770643728727 0 0 0 0 -70.111602050457805 -255.03543200749118 0 -255.03543200749118 537.30899719148874 0 0 0 0 17.911371539682449 498.12167841394376 0 498.12167841394376 1529.7450625590282 0 0 0 0 -14.951979757649411 -88.712769278929954 0 -88.712769278929954 28.420267376612173 0 0 0 0 9.5101518692206923 913.03110368344733 0 913.03110368344733 1740.8926649995847 0 0 0 0 91.213052547778034 494.72242994570297 0 494.72242994570297 1601.0031450335518 0 0 0 0 126.77798990415408 507.07174345807289 0 507.07174345807289 1477.0755482285895 0 0 0 0 705.92314941912218 1305.7298185207728 0 1305.7298185207728 2562.8861948601552 0 0 0 0 242.50697899275679 -428.06179313350003 0 -428.06179313350003 2126.2151533422002 0 0 0 0 368.6709049455967 -109.2015975882241 0 -109.2015975882241 -193.25690489378758 0 0 0 0 109.45076136354601 -127.77242811630276 0 -127.77242811630276 513.40965467409114 0 0 0 0 46.774997466571222 -100.13033274236659 0 -100.13033274236659 1196.9555479097035 0 0 0 0 69.368225226695358 -348.90312910500506 0 -348.90312910500506 530.5576186007529 0 0 0 0 253.34469610552878 -609.86801850509073 0 -609.86801850509073 221.03162671308382 0 0 0 0 49.215721701390066 -537.58014011039631 0 -537.58014011039631 1504.8648704361403 0 0 0 0 0.27666635696682462 -3.6539336307367734 0 -3.6539336307367734 25.86695780981006 0 0 0 0 92.676421803323137 -893.39175436070218 0 -893.39175436070218 1313.5778000828723 0 0 0 0 236.48336884451055 1093.9620312198385 0 1093.9620312198385 889.93566483681207 0 0 0 0 55.917939373975969 1092.0006824788288 0 1092.0006824788288 1728.756348998053 0 0 0 0 -332.83586992801065 -11.956585539548541 0 -11.956585539548541 98.114497677335748 0 0 0 0 -843.66124691264849 -300.71773476545059 0 -300.71773476545059 555.19772750641278 0 0 0 0 2.0944144548074224 -12.750855081217473 0 -12.750855081217473 62.891883680889919 0 0 0 0 155.05464267178741 -2.2341212444953271 0 -2.2341212444953271 22.50436854425061 0 0 0 0 -100.32172827708746 185.66481719614239 0 185.66481719614239 51.607339330257673 0 0 0 0 -3.7778468123597122 67.42618116849917 0 67.42618116849917 55.946461176790763 0 0 0 0 -36.151010288727321 38.368206986328005 0 38.368206986328005 56.030199202010408 0 0 0 0 -2.8404079133595648 -21.021741351415088 0 -21.021741351415088 83.550098115713695 0 0 0 0 -123.14940029532954 18.454133278188237 0 18.454133278188237 90.253311683627544 0 0 0 0 -56.700347808127844 57.038005718874047 0 57.038005718874047 91.957706788923133 0 0 0 0 -20.549306617563126 -3.0081155838536517 0 -3.0081155838536517 18.518557693577662 0 0 0 0 -50.402783421614004 10.016315813227266 0 10.016315813227266 79.351496928291454 0 0 0 0 8.2084203690546929 9.5885570998725598 0 9.5885570998725598 7.3358522127091419 0 0 0 0 -18.19377692096532 35.219139211112633 0 35.219139211112633 55.765754119979647 0 0 0 0 -14.003864266293931 -26.22788897045757 0 -26.22788897045757 73.023353320895694 0 0 0 0 -4.6724413342909266 -25.64689578977584 0 -25.64689578977584 31.468933425827544 0 0 0 0 6.5298607141303364 -10.755261578626232 0 -10.755261578626232 61.533088949436205 0 0 0 0 -8.7922509967270344 -10.557356208333658 0 -10.557356208333658 62.513771048528724 0 0 0 0 -6.4738772792037906 -5.9817707744731621 0 -5.9817707744731621 32.526059947565898 0 0 0 0 -4.1951252197031863 9.9141175761033082 0 9.9141175761033082 49.963799056611606 0 0 0 0 -9.1244899041633296 -16.097009431949147 0 -16.097009431949147 21.875640824220028 0 0 0 0 -8.7265691077930114 -22.915428814900224 0 -22.915428814900224 45.516230052526225 0 0 0 0 -5.514843650245794 -14.544597687296573 0 -14.544597687296573 20.36914388043806 0 0 0 0 -5.1150442432071941 -7.2701608719798969 0 -7.2701608719798969 39.031177786542685 0 0 0 0 4.0181668566423241 -67.672332457250377 0 -67.672332457250377 115.29568408834166 0 0 0 0 -1.0018991693894437 -4.2117935370678481 0 -4.2117935370678481 8.5159170521044985 0 0 0 0 24.872585284794695 36.870249540428631 0 36.870249540428631 73.156566720623232 0 0 0 0 -2.3004888121486404 -16.915013993894142 0 -16.915013993894142 71.631312430730588 0 0 0 0 -146.31999645803671 -26.805517500848509 0 -26.805517500848509 150.31326516073023 0 0 0 0 -102.00199889854514 -47.003185280016623 0 -47.003185280016623 195.04982528839901 0 0 0 0 -33.829395290205412 82.209901188194635 0 82.209901188194635 189.93639398297819 0 0 0 0 363.92882895638741 -37.158699068502756 0 -37.158699068502756 53.328672779280168 0 0 0 0 101.61904745163918 -125.25714990060078 0 -125.25714990060078 53.587856932339491 0 0 0 0 -37.130916799454099 -71.193304048392747 0 -71.193304048392747 39.348349728548783 0 0 0 0 -35.750414684736938 -11.001642839553824 0 -11.001642839553824 54.552773539136979 0 0 0 0 5.5386590759723449 -19.826617924267545 0 -19.826617924267545 56.49885486920266 0 0 0 0 -2.3132385039130554 4.5929825056791742 0 4.5929825056791742 28.16179064658354 0 0 0 0 -6.5662162568710443 -15.583733996104769 0 -15.583733996104769 36.434680518588522 0 0 0 0 -8.2486884802061127 -23.654529123276006 0 -23.654529123276006 78.307289891527034 0 0 0 0 25.77597098813726 -47.316048385779141 0 -47.316048385779141 43.111722071727854 0 0 0 0 6.7341878316675263 -17.639799952924079 0 -17.639799952924079 31.653202285126127 0 0 0 0 0.68547978526541586 -8.2149134715433547 0 -8.2149134715433547 30.970291029325523 0 0 0 0 6.6713073682659001 -14.871103482335457 0 -14.871103482335457 51.597243336676911 0 0 0 0 0.49176802818277565 -7.9100515226673451 0 -7.9100515226673451 84.983532961370656 0 0 0 0 -0.28098266779945591 -15.104379756348145 0 -15.104379756348145 51.498818539334479 0 0 0 0 -10.954738772542955 -23.395156955417178 0 -23.395156955417178 24.708459101577162 0 0 0 0 -2.839630085694921 -18.154501022741897 0 -18.154501022741897 56.835711036095745 0 0 0 0 1.3444642211792086 -21.712801583271357 0 -21.712801583271357 59.741886814503232 0 0 0 0 -9.0124656034945474 -23.965670752553706 0 -23.965670752553706 67.938424028718146 0 0 0 0 -8.2798865665825101 -25.694209885213809 0 -25.694209885213809 9.976756974874883 0 0 0 0 -9.732353812382371 -23.335627387088607 0 -23.335627387088607 68.117901362379598 0 0 0 0 23.11653424870974 -28.399738206302573 0 -28.399738206302573 59.565200980251575 0 0 0 0 2.4674217245769485 -11.269941531017508 0 -11.269941531017508 8.6251051747866594 0 0 0 0 -1.0589741514449997 -12.879766235932038 0 -12.879766235932038 21.982895703949907 0 0 0 0 -1.0048487759261051 -14.844771138043683 0 -14.844771138043683 34.530985638319237 0 0 0 0 -6.5006793909011549 -15.810014672584657 0 -15.810014672584657 58.301476687265676 0 0 0 0 -10.919083320977165 -19.208101960379281 0 -19.208101960379281 57.67976289318176 0 0 0 0 -6.3406545305002311 -22.258191076424964 0 -22.258191076424964 64.246560105326353 0 0 0 0 -10.204389634970141 -18.607434371981071 0 -18.607434371981071 65.834329074888956 0 0 0 0 -8.6920144010275635 -15.589085989588057 0 -15.589085989588057 53.285119757041684 0 0 0 0 -2.0345547309434551 -17.330779015072039 0 -17.330779015072039 61.098309771943605 0 0 0 0 -1.3798419986246699 -22.67938480779776 0 -22.67938480779776 68.785806743806461 0 0 0 0 21.829761351162233 -20.72276536928257 0 -20.72276536928257 57.289414815677446 0 0 0 0 16.984959021077884 -17.482628838188248 0 -17.482628838188248 62.284081135177985 0 0 0 0 -4.1671786709275693 -17.09767221637594 0 -17.09767221637594 62.800292994463234 0 0 0 0 -1.4996864128543166 -14.539482780950493 0 -14.539482780950493 58.559511059058423 0 0 0 0 -3.5177962855568694 -10.067464405852661 0 -10.067464405852661 61.622589978527685 0 0 0 0 -10.137098639467695 4.6352359235861513 0 4.6352359235861513 36.067710547329625 0 0 0 0 -2.4547689663366246 -1.2591505152224016 0 -1.2591505152224016 24.433105713159904 0 0 0 0 -0.41481608307970674 -3.263952613555233 0 -3.263952613555233 2.3011395247640785 0 0 0 0 -1.6705276001048333 -30.118278176305466 0 -30.118278176305466 20.236657517132699 0 0 0 0 -25.770337797647699 -20.82982569696469 0 -20.82982569696469 61.677021818235517 0 0 0 0 4.0369746871174357 -13.858849527008715 0 -13.858849527008715 63.434214369743131 0 0 0 0 27.33905354124181 1.1852218825733871 0 1.1852218825733871 21.459342478250619 0 0 0 0 23.575983888014889 -6.3524517976475181 0 -6.3524517976475181 6.3760477974865353 0 0 0 0 105.1898135166939 -10.788307808164973 0 -10.788307808164973 28.936215988520416 0 0 0 0 29.237441838542509 -7.8857943277689628 0 -7.8857943277689628 60.636558079291717 0 0 0 0 121.810997499726 50.805770742852474 0 50.805770742852474 60.913413113390561 0 0 0 0 76.070430359752208 23.254114609137105 0 23.254114609137105 68.265765594958793 0 0 0 0 88.791815159744147 21.384855789016001 0 21.384855789016001 53.838120326145145 0 0 0 0 67.73789662980198 -4.4613703145296313 0 -4.4613703145296313 48.034547489602119 0 0 0 0 164.74267640669495 98.593168739709654 0 98.593168739709654 77.651948846809091 0 0 0 0 111.07874319210805 57.395745651352627 0 57.395745651352627 81.447831476136344 0 0 0 0 111.85045658719355 57.946414962250856 0 57.946414962250856 78.403226988228425 0 0 0 0 104.04642048801634 53.322458733699023 0 53.322458733699023 85.962640714264126 0 0 0 0 69.032786374569696 21.2307306080329 0 21.2307306080329 86.408633653443758 0 0 0 0 72.572176185872195 21.040849210854503 0 21.040849210854503 71.448650850739796 0 0 0 0 21.561219577983138 -19.475635405964567 0 -19.475635405964567 61.875064296313212 0 0 0 0 48.591139696674873 -6.2289647832803894 0 -6.2289647832803894 63.307121475168969 0 0 0 0 44.785275552099847 -0.30271130433538929 0 -0.30271130433538929 69.271663462223387 0 0 0 0 33.286325783683424 -14.17380255011085 0 -14.17380255011085 62.244740661190008 0 0 0 0 25.37874492445917 5.0051780493668048 0 5.0051780493668048 81.974216762013384 0 0 0 0 15.378921959898435 -16.346960850103642 0 -16.346960850103642 71.269249708704592 0 0 0 0 7.7179742289990827 -32.876965755254787 0 -32.876965755254787 43.451151597459102 0 0 0 0 13.946414922086205 -10.468294587968558 0 -10.468294587968558 64.938961702893721 0 0 0 0 7.2934617415812681 -26.671628791664261 0 -26.671628791664261 62.471206774778466 0 0 0 0 -6.3211093398822413 -26.48758241887117 0 -26.48758241887117 57.096047875089425 0 0 0 0 3.8112532322538755 23.28184594513732 0 23.28184594513732 50.154813104731147 0 0 0 0 52.459457739613754 14.57946585254831 0 14.57946585254831 96.772697071341099 0 0 0 0 63.82184006532043 6.3504041020350996 0 6.3504041020350996 52.561507905164035 0 0 0 0 22.904768194698477 3.8045626320163137 0 3.8045626320163137 175.2267197882029 0 0 0 0 65.755925795269832 -9.6811109444097383 0 -9.6811109444097383 -12.785011707463127 0 0 0 0 10.372348546317223 -3.9178781318888696 0 -3.9178781318888696 -0.13893102993935003 0 0 0 0 12.118805634874207 33.059305638242222 0 33.059305638242222 156.23208112756583 0 0 0 0 31.363444349525025 18.247852612155839 0 18.247852612155839 167.07043082730524 0 0 0 0 36.336233414412391 -5.2506562168418895 0 -5.2506562168418895 143.08016983071866 0 0 0 0 15.548248608098575 -3.2379534931954765 0 -3.2379534931954765 9.3287430432847884 0 0 0 0 -8.6539210447381265 -37.131054862780729 0 -37.131054862780729 -22.291456767219643 0 0 0 0 10.282452301401463 -6.82306945752498 0 -6.82306945752498 137.70296406297712 0 0 0 0 -20.683574950945928 -34.342092411635221 0 -34.342092411635221 33.804264584705493 0 0 0 0 -3.4017061726917746 -4.2586783342412673 0 -4.2586783342412673 17.825806734384969 0 0 0 0 -2.0165819992872205 -8.1030717403644417 0 -8.1030717403644417 24.970658066729214 0 0 0 0 -6.3962954122970324 -18.460456273358773 0 -18.460456273358773 28.248400290375173 0 0 0 0 0.43602988712223123 7.5362762231088709 0 7.5362762231088709 138.95404715010955 0 0 0 0 -8.9473051521745219 -18.429160705127288 0 -18.429160705127288 20.334405642497586 0 0 0 0 -8.7986419784479253 -9.8667896725097251 0 -9.8667896725097251 79.855974799148754 0 0 0 0 -3.747273421057669 3.5368918972629899 0 3.5368918972629899 27.730754607222309 0 0 0 0 12.802475229650554 -24.538206278768484 0 -24.538206278768484 31.680625099892495 0 0 0 0 4.7687430329406197 -13.464199676520366 0 -13.464199676520366 46.182118929136777 0 0 0 0 3.8550205093264935 -21.913194498561779 0 -21.913194498561779 59.183154852507869 0 0 0 0 3.9719230550672364 -19.136595531745115 0 -19.136595531745115 51.33922454174899 0 0 0 0 -7.9688222913291611 -12.20503938740876 0 -12.20503938740876 64.199120909848716 0 0 0 0 5.7456904515483984 -8.5144012861492229 0 -8.5144012861492229 58.648566022377054 0 0 0 0 -0.7765296969431752 -13.932545358607982 0 -13.932545358607982 45.889047053591071 0 0 0 0 -0.39741944846025845 -0.124169862622864 0 -0.124169862622864 18.628540867272292 0 0 0 0 -19.412228091241559 -41.281776505988091 0 -41.281776505988091 25.672127051249845 0 0 0 0 -10.205491825840868 4.3060742499276898 0 4.3060742499276898 13.918699223808972 0 0 0 0 -7.8609632167499512 -9.2918522153049707 0 -9.2918522153049707 109.53752182884637 0 0 0 0 14.681023046506198 8.3883921471860958 0 8.3883921471860958 7.2159816372877685 0 0 0 0 -7.1378775007544846 -22.929327421647031 0 -22.929327421647031 30.453329030919122 0 0 0 0 -6.1312522363641513 -25.982141447915922 0 -25.982141447915922 30.972955953482455 0 0 0 0 77.843845539992799 35.0603069413919 0 35.0603069413919 16.434102890372742 0 0 0 0 -22.184599539425363 -88.653918866005711 0 -88.653918866005711 -37.696677726838971 0 0 0 0 1.5719072489597075 -10.789377135704754 0 -10.789377135704754 -12.205198895078979 0 0 0 0 -21.621556297393909 -33.947677130272496 0 -33.947677130272496 0.9052579604613129 0 0 0 0 45.006302225602667 13.081503101930139 0 13.081503101930139 -4.6066429881757358 0 0 0 0 50.249910032385685 -42.253626636849731 0 -42.253626636849731 -47.65883785582264 0 0 0 0 12.899110112673043 -76.688028879689227 0 -76.688028879689227 251.93954267108347 0 0 0 0 114.27348231135875 -28.164512845032732 0 -28.164512845032732 62.684651126510289 0 0 0 0 36.874449224244927 -17.176475785294315 0 -17.176475785294315 74.644991241060779 0 0 0 0 76.562220856584645 -48.848130800986837 0 -48.848130800986837 206.40919125563232 0 0 0 0 177.23051822558955 -73.47357218664547 0 -73.47357218664547 176.92325061789597 0 0 0 0 78.265470787035156 -116.6010848622027 0 -116.6010848622027 420.30196361913113 0 0 0 0 111.89334216500993 -119.07457317515218 0 -119.07457317515218 248.75467153450245 0 0 0 0 24.294301120988166 -104.8037846298248 0 -104.8037846298248 434.16761382509139 0 0 0 0 46.00712024049335 -88.281937913125148 0 -88.281937913125148 432.93176912708441 0 0 0 0 62.239309496866554 -87.722376878362411 0 -87.722376878362411 655.83042574292631 0 0 0 0 48.806393649450911 -152.15297727630241 0 -152.15297727630241 593.33352782399743 0 0 0 0 78.056035387740849 -169.78008980919549 0 -169.78008980919549 695.09227008221205 0 0 0 0 111.90577873035909 -88.399673444713699 0 -88.399673444713699 621.73959083395312 0 0 0 0 148.45515548521826 -228.20753610348402 0 -228.20753610348402 374.87661175098037 0 0 0 0 137.2048972185039 -175.74887169248541 0 -175.74887169248541 432.41312931198627 0 0 0 0 -46.541441068253334 -0.33326368943380658 0 -0.33326368943380658 378.11306381245959 0 0 0 0 -48.584788125369712 -28.661760416981906 0 -28.661760416981906 405.56167022016598 0 0 0 0 -35.578033901962954 -63.022829850640846 0 -63.022829850640846 497.11705204852569 0 0 0 0 3.3534183084957476 -109.96472532347252 0 -109.96472532347252 553.28091857148138 0 0 0 0 -30.17008206391165 -19.768929440528154 0 -19.768929440528154 564.97660305566387 0 0 0 0 -18.594950314744892 -41.880590627843048 0 -41.880590627843048 429.56527637827094 0 0 0 0 24.73439276022458 -96.022357422888149 0 -96.022357422888149 358.96277300498332 0 0 0 0 24.515121662926504 -64.917573691418511 0 -64.917573691418511 264.59237114648568 0 0 0 0 30.218902015215576 -131.11839056647659 0 -131.11839056647659 373.14610808750149 0 0 0 0 -1.3310633646951828 -14.488018441974418 0 -14.488018441974418 240.82935646139958 0 0 0 0 -13.131960332941219 -56.77427421270113 0 -56.77427421270113 257.67955008969875 0 0 0 0 33.93027806055693 -25.663334455937729 0 -25.663334455937729 99.608702554884076 0 0 0 0 -26.511368301828384 -230.99538394215415 0 -230.99538394215415 65.035629700694699 0 0 0 0 40.580290891897675 -107.41384081596334 0 -107.41384081596334 219.51194478107936 0 0 0 0 70.742555413553646 -117.07770478300154 0 -117.07770478300154 155.13129350777308 0 0 0 0 -84.101167939842526 -42.226623257782194 0 -42.226623257782194 139.02281591901192 0 0 0 0 38.170217572564979 -90.644899624094251 0 -90.644899624094251 261.10487692517563 0 0 0 0 0.1646698870161174 -0.58664179438845565 0 -0.58664179438845565 0.6991281558455853 0 0 0 0 17.723505356226269 -117.74135472289345 0 -117.74135472289345 -139.72292201351956 0 0 0 0 -8.7499598603341191 -42.573687946191228 0 -42.573687946191228 55.672478703744261 0 0 0 0 163.87200469421578 63.654142483486794 0 63.654142483486794 -109.85441409260966 0 0 0 0 7.2054351453316166 -54.925507064088265 0 -54.925507064088265 52.579663239597352 0 0 0 0 9.2858049667102023 1.4366471756293322 0 1.4366471756293322 178.22257923259895 0 0 0 0 9.4771759246432339 4.7618485963175772 0 4.7618485963175772 212.61644557282125 0 0 0 0 21.841250206623851 -62.679314283383405 0 -62.679314283383405 58.192432826492208 0 0 0 0 -34.962493659560081 -100.01337904591855 0 -100.01337904591855 116.69839859115018 0 0 0 0 94.099491754170231 -60.690491972363816 0 -60.690491972363816 127.8050280118623 0 0 0 0 -48.428288309979052 -5.8347312498153769 0 -5.8347312498153769 226.59200183906069 0 0 0 0 -33.173053966461339 28.523670175127336 0 28.523670175127336 333.34787736320141 0 0 0 0 -51.307188211965695 -28.743231958658725 0 -28.743231958658725 295.24077928859333 0 0 0 0 -0.14586075741931381 36.949004551803228 0 36.949004551803228 265.46458682748198 0 0 0 0 19.828455352488618 23.207079068270104 0 23.207079068270104 184.10728311307321 0 0 0 0 -6.4442426886527073 78.531248396496267 0 78.531248396496267 379.3577039402735 0 0 0 0 -9.8239500606958501 27.929895948103876 0 27.929895948103876 269.21272311285429 0 0 0 0 -68.450613366646394 27.569209205437801 0 27.569209205437801 472.26718279563647 0 0 0 0 -74.929551311367504 51.139418246370042 0 51.139418246370042 471.88224536569032 0 0 0 0 -4.5934296043418499 -55.200195557910774 0 -55.200195557910774 438.64106687334424 0 0 0 0 13.391227629824584 251.71083571518102 0 251.71083571518102 248.31908405160357 0 0 0 0 -52.7353313993558 70.58881662080239 0 70.58881662080239 715.5677375311343 0 0 0 0 -40.323050521527989 160.06469394579472 0 160.06469394579472 471.03373586647649 0 0 0 0 68.87508045791219 -18.832368896415574 0 -18.832368896415574 141.58731042825821 0 0 0 0 87.533792588522289 -51.39817714160381 0 -51.39817714160381 22.192598926470964 0 0 0 0 34.835743557336002 -69.538797192164225 0 -69.538797192164225 61.583605639020249 0 0 0 0 57.234612908097915 42.908775111667637 0 42.908775111667637 280.10740001597151 0 0 0 0 82.129413726950588 25.744158930709091 0 25.744158930709091 284.94629485692712 0 0 0 0 57.965392226665244 3.8129017682440463 0 3.8129017682440463 171.69826774012472 0 0 0 0 139.42187989402009 99.592362473384128 0 99.592362473384128 228.72740473579324 0 0 0 0 292.05890212984923 43.081246581838059 0 43.081246581838059 174.62238931378761 0 0 0 0 193.95975759073372 190.19538875838043 0 190.19538875838043 225.3593714369199 0 0 0 0 68.270656404479723 161.81196798062956 0 161.81196798062956 326.08930128143402 0 0 0 0 70.178844959588787 144.07266123363297 0 144.07266123363297 216.7837662857346 0 0 0 0 160.68315699708364 -116.36365261508035 0 -116.36365261508035 275.39154638242326 0 0 0 0 21.393361398579586 -25.583349138735997 0 -25.583349138735997 29.734522697632428 0 0 0 0 -38.877173103959649 -100.63516722207714 0 -100.63516722207714 328.97047287182068 0 0 0 0 -92.441821487584093 -315.99968199912746 0 -315.99968199912746 -95.722972289324389 0 0 0 0 -39.232864770208835 -43.069299810063967 0 -43.069299810063967 -143.14825195198864 0 0 0 0 -65.233334809498047 -137.46614386111469 0 -137.46614386111469 219.16715422891139 0 0 0 0 275.76865403492411 116.46875229751458 0 116.46875229751458 67.904903702627053 0 0 0 0 209.47694636483357 112.76773764754762 0 112.76773764754762 83.918580360157648 0 0 0 0 240.52471358538241 143.383434202231 0 143.383434202231 -316.2656502044847 0 0 0 0 -1.3790719748567035 0.60097140213895273 0 0.60097140213895273 2.2878571980809284 0 0 0 0 343.75578005120406 152.87752921115316 0 152.87752921115316 83.570202122056799 0 0 0 0 294.87835038301273 204.03005968643993 0 204.03005968643993 129.07337818446103 0 0 0 0 3.6328849277708812 -2.1900329219046455 0 -2.1900329219046455 1.1211650870980563 0 0 0 0 88.079945865526497 -64.016154685137735 0 -64.016154685137735 267.33479395470204 0 0 0 0 162.92860464955447 192.52342403873627 0 192.52342403873627 230.08490199385415 0 0 0 0 2.2281588318019203 100.05665464260528 0 100.05665464260528 183.26587216205371 0 0 0 0 61.736230933618572 92.71318658888049 0 92.71318658888049 107.09794567755307 0 0 0 0 12.746419893777784 -26.38839858207939 0 -26.38839858207939 67.025099140082602 0 0 0 0 106.11329468785698 53.618712721821794 0 53.618712721821794 76.122773573843006 0 0 0 0 187.85147698154469 134.29957343242859 0 134.29957343242859 112.56281244938873 0 0 0 0 230.75146179328476 180.0582315748361 0 180.0582315748361 134.63497848823317 0 0 0 0 182.68490649681007 142.27409596153302 0 142.27409596153302 105.11883315876912 0 0 0 0 212.17545229582595 144.12336965432405 0 144.12336965432405 87.395505388427409 0 0 0 0 3.363095860817463 -1.6184209969427172 0 -1.6184209969427172 -0.51963709744848074 0 0 0 0 202.89433273822397 140.92845494423818 0 140.92845494423818 87.405616467025908 0 0 0 0 179.58459199077333 112.4300609989732 0 112.4300609989732 112.76027656072984 0 0 0 0 277.47862801691372 163.08788205659948 0 163.08788205659948 127.46021492727959 0 0 0 0 206.70153259008657 96.174832076882012 0 96.174832076882012 90.296615224840934 0 0 0 0 112.3781066193369 41.611242788079835 0 41.611242788079835 102.10629997319484 0 0 0 0 142.07825523409156 104.34233264300565 0 104.34233264300565 119.57824295852333 0 0 0 0 151.05707344732218 103.73989397007972 0 103.73989397007972 99.654877448403568 0 0 0 0 136.71588152356162 97.964265867813083 0 97.964265867813083 126.11574724875391 0 0 0 0 239.55560881631209 53.670019895740552 0 53.670019895740552 102.81538248772267 0 0 0 0 165.41883298615539 112.0746847177943 0 112.0746847177943 151.76817016597488 0 0 0 0 163.61527650814787 98.739847361488501 0 98.739847361488501 89.859473591073765 0 0 0 0 -76.763219996915723 18.054121364599268 0 18.054121364599268 115.07220595600666 0 0 0 0 -56.219653348620341 -61.281565080797009 0 -61.281565080797009 80.936140711070038 0 0 0 0 8.0078781637228644 -13.843554180172454 0 -13.843554180172454 24.357690335746867 0 0 0 0 228.73881610991157 40.980925711541204 0 40.980925711541204 73.085231209755875 0 0 0 0 -51.623614623355024 51.2180080719736 0 51.2180080719736 89.303735425666673 0 0 0 0 -5.7052865115631484 0.82642860358521375 0 0.82642860358521375 8.0286156968435307 0 0 0 0 -30.827823322197219 -4.103904128423892 0 -4.103904128423892 114.49907558006817 0 0 0 0 5.1812769589723757 38.066013566502079 0 38.066013566502079 89.471263778890716 0 0 0 0 -50.924836206286272 71.833685826513829 0 71.833685826513829 225.68065005230892 0 0 0 0 10.639716157369548 79.127635701886902 0 79.127635701886902 150.71455385145964 0 0 0 0 -30.202025177473843 114.54517545566341 0 114.54517545566341 287.49654610388552 0 0 0 0 46.037534058992605 167.56756575949839 0 167.56756575949839 265.24562059946766 0 0 0 0 -104.63219583020691 20.425169206631836 0 20.425169206631836 312.00278014686592 0 0 0 0 25.409513909509769 16.210037133219885 0 16.210037133219885 146.81976567908714 0 0 0 0 -22.499076000185596 -43.331035677692853 0 -43.331035677692853 -45.353165306296432 0 0 0 0 -153.10323753513876 -182.67472928876668 0 -182.67472928876668 17.401419958929182 0 0 0 0 14.360988787633069 -20.462773832676248 0 -20.462773832676248 27.866903840956041 0 0 0 0 10.883652900527522 -65.861246740591014 0 -65.861246740591014 19.53494937295909 0 0 0 0 -208.24463350022052 -48.983729167506681 0 -48.983729167506681 136.57969159197819 0 0 0 0 -106.76443831579672 -4.1185210718685994 0 -4.1185210718685994 201.7955916410283 0 0 0 0 -49.791533293378961 -29.758332157016412 0 -29.758332157016412 89.098791685391916 0 0 0 0 51.062189646871047 136.84424536813822 0 136.84424536813822 451.36827269976493 0 0 0 0 130.38250698228603 178.80287701597445 0 178.80287701597445 309.70701078981801 0 0 0 0 101.96495605033851 236.30055893349345 0 236.30055893349345 397.89434728308152 0 0 0 0 141.45731521967701 226.35214279032186 0 226.35214279032186 330.19426313310396 0 0 0 0 55.349606843385118 206.83801897951707 0 206.83801897951707 333.39211754195276 0 0 0 0 67.605486843800463 215.67681174199242 0 215.67681174199242 275.95711761444636 0 0 0 0 21.967652055539475 147.25790428917026 0 147.25790428917026 319.18321242497768 0 0 0 0 55.236880160122382 159.52857162307191 0 159.52857162307191 203.06390550895958 0 0 0 0 47.677633851413702 121.84829956945759 0 121.84829956945759 166.07169549611717 0 0 0 0 10.595116500268887 93.15918990690443 0 93.15918990690443 268.77656600734917 0 0 0 0 86.424162779439939 50.989308391566738 0 50.989308391566738 2.0328211708401795 0 0 0 0 49.278071139496205 102.83970464146842 0 102.83970464146842 228.66098876747856 0 0 0 0 203.67670180108416 141.05094226922665 0 141.05094226922665 75.118550944462186 0 0 0 0 2.4111774931016683 -7.5407956569642351 0 -7.5407956569642351 19.225180514296028 0 0 0 0 153.78002291934536 130.95931516382916 0 130.95931516382916 187.37876396368665 0 0 0 0 274.37210264812893 379.76385329527693 0 379.76385329527693 449.74716679734411 0 0 0 0 42.694535508640911 214.12900593247468 0 214.12900593247468 450.40845714557508 0 0 0 0 70.146745401059889 170.75515551071294 0 170.75515551071294 266.95975315332475 0 0 0 0 36.234084542764322 147.6970224832985 0 147.6970224832985 492.75803648815781 0 0 0 0 6.4945722641805332 205.14461659578956 0 205.14461659578956 636.96134054113645 0 0 0 0 29.7472772326837 103.78861657431844 0 103.78861657431844 650.17832518718205 0 0 0 0 199.53921342355716 114.21042554946325 0 114.21042554946325 633.19998923290404 0 0 0 0 8.969728219442004 181.45708778243716 0 181.45708778243716 787.53972963304841 0 0 0 0 54.026343567510139 206.83501595356847 0 206.83501595356847 575.47293765148788 0 0 0 0 -11.277318401049342 204.1342995147279 0 204.1342995147279 492.29916171375953 0 0 0 0 -9.1583977713908098 174.98001978825778 0 174.98001978825778 684.38963213873649 0 0 0 0 -1.1788585959139368 -2.8649517445479091 0 -2.8649517445479091 5.0750982752583695 0 0 0 0 193.94467471404278 82.610375971348731 0 82.610375971348731 188.24523939327628 0 0 0 0 130.1506653234137 47.505659175752953 0 47.505659175752953 610.26485124049213 0 0 0 0 24.45126910826184 180.89899266720022 0 180.89899266720022 480.44733759488736 0 0 0 0 118.6388593303418 182.1605064134128 0 182.1605064134128 411.95831463837021 0 0 0 0 238.91252319818523 252.70904480712488 0 252.70904480712488 451.90836891806975 0 0 0 0 43.659255628251231 173.56396033436613 0 173.56396033436613 569.23717170902819 0 0 0 0 203.15362761911274 40.083091678632627 0 40.083091678632627 358.7601128228489 0 0 0 0 -78.929208052477691 -74.034189370322935 0 -74.034189370322935 191.40412748971602 0 0 0 0 -230.47751215857514 -222.28248775686103 0 -222.28248775686103 61.48895177556733 0 0 0 0 -81.786290390243934 -73.656778655717588 0 -73.656778655717588 193.35006144488906 0 0 0 0 -93.376305830030105 -239.01469052673974 0 -239.01469052673974 85.448763247426541 0 0 0 0 121.13456618694681 68.49443895793047 0 68.49443895793047 121.66379894821307 0 0 0 0 117.92055890501251 133.27780639966295 0 133.27780639966295 263.43171059751512 0 0 0 0 137.7900121468017 -216.23401168759847 0 -216.23401168759847 982.48078673770397 0 0 0 0 -189.1855704822201 -76.195185282477723 0 -76.195185282477723 685.75331752338752 0 0 0 0 -83.518289889787411 -203.57736563822073 0 -203.57736563822073 75.71008744826031 0 0 0 0 82.177539003382662 218.55989963030515 0 218.55989963030515 512.26328711969109 0 0 0 0 -86.517622265105061 -72.262499559309049 0 -72.262499559309049 194.57881494676968 0 0 0 0 114.92712687643376 89.934517918585129 0 89.934517918585129 331.73243171832291 0 0 0 0 105.74827065980026 257.3694375633786 0 257.3694375633786 439.80126420505985 0 0 0 0 0.67168771078394229 -4.6359794952624043 0 -4.6359794952624043 6.4817879336293913 0 0 0 0 110.22077113750311 -48.112664373646112 0 -48.112664373646112 470.91596721668611 0 0 0 0 155.46543001410919 -26.68798898609748 0 -26.68798898609748 188.02424161806994 0 0 0 0 208.7702580719797 243.69155387989304 0 243.69155387989304 313.41537411501486 0 0 0 0 271.32297106950955 168.09742192555859 0 168.09742192555859 271.55481062104082 0 0 0 0 406.02707363459217 211.11342628505736 0 211.11342628505736 209.91077902034158 0 0 0 0 -0.56399777429920306 -2.6622047964976332 0 -2.6622047964976332 4.6160751690540849 0 0 0 0 413.53836109378381 210.7365378361792 0 210.7365378361792 105.38242122326483 0 0 0 0 309.18682846901629 196.65406802549842 0 196.65406802549842 480.38845631801087 0 0 0 0 73.947401777730079 170.00324324510393 0 170.00324324510393 549.63062265502231 0 0 0 0 -227.75037213238647 -124.32383409706563 0 -124.32383409706563 458.59685060849006 0 0 0 0 9.5375545263505046 188.54871136848669 0 188.54871136848669 481.2624898557624 0 0 0 0 -92.004740439240251 -68.816518177965278 0 -68.816518177965278 193.72281880873336 0 0 0 0 292.97028643320618 987.03179626158089 0 987.03179626158089 1049.7713664026523 0 0 0 0 74.653447582771605 702.04221213181518 0 702.04221213181518 1065.4489641200344 0 0 0 0 227.53972583873133 689.64534375104995 0 689.64534375104995 300.45015352530754 0 0 0 0 147.05736985537624 331.26583814452533 0 331.26583814452533 597.60105811165704 0 0 0 0 -20.459841472751577 469.85232575792179 0 469.85232575792179 499.39967055839588 0 0 0 0 193.33048918551594 458.14289102768817 0 458.14289102768817 493.94167760446726 0 0 0 0 195.45752709279009 425.99286236959051 0 425.99286236959051 398.25804844145023 0 0 0 0 244.19565081657311 451.90046781899582 0 451.90046781899582 42.989845129224705 0 0 0 0 256.25758553928745 579.45600681690121 0 579.45600681690121 336.6727003880078 0 0 0 0 44.641419289121359 264.07916889158514 0 264.07916889158514 250.51917180136661 0 0 0 0 230.61429317783086 229.84440490491397 0 229.84440490491397 72.458835250254197 0 0 0 0 251.87934727152242 147.82269144432212 0 147.82269144432212 388.12749242435666 0 0 0 0 25.870756940347292 28.341965835403244 0 28.341965835403244 203.91048695594145 0 0 0 0 -32.319323443526855 98.851968328464864 0 98.851968328464864 486.79444115438673 0 0 0 0 -62.231042473774508 18.5522061418269 0 18.5522061418269 293.53238129969395 0 0 0 0 -83.317421646357502 5.2646137810861546 0 5.2646137810861546 430.42482805330656 0 0 0 0 67.959211953208978 0.35063546134915669 0 0.35063546134915669 382.41933539904858 0 0 0 0 90.096472846104916 98.38147202543405 0 98.38147202543405 788.81339758650574 0 0 0 0 251.46047628189081 204.92966259788227 0 204.92966259788227 320.17657168532605 0 0 0 0 451.1344603636735 351.07268359571754 0 351.07268359571754 448.17569000068761 0 0 0 0 287.09224685144 109.52578205817554 0 109.52578205817554 487.83828277855719 0 0 0 0 387.12550915934344 67.55833132177122 0 67.55833132177122 486.9539537755918 0 0 0 0 838.94634618863893 116.07473968391423 0 116.07473968391423 491.21458271624215 0 0 0 0 285.81733873505982 471.37060261430452 0 471.37060261430452 846.95912417210639 0 0 0 0 460.48316584716667 -142.73379375050717 0 -142.73379375050717 423.74935579980956 0 0 0 0 230.01089868702638 -4.4961386304421467 0 -4.4961386304421467 1093.1219744294795 0 0 0 0 209.94574475975924 38.605977012903168 0 38.605977012903168 595.40270793541276 0 0 0 0 504.77085429030376 440.13577171725046 0 440.13577171725046 989.96679335521185 0 0 0 0 196.14377549576966 -88.907252393735689 0 -88.907252393735689 1100.2864652127573 0 0 0 0 292.7655391524612 47.946499036055684 0 47.946499036055684 -3.5165154335845727 0 0 0 0 1.9001835563900311 0.73362106260495352 0 0.73362106260495352 -0.77919429018737674 0 0 0 0 -0.37447817330884448 -1.6800182539817285 0 -1.6800182539817285 8.792294772477419 0 0 0 0 266.9685635936587 170.99058729380795 0 170.99058729380795 83.335149558421108 0 0 0 0 181.60333329140485 104.48144970161957 0 104.48144970161957 57.848837964840641 0 0 0 0 136.62195101661746 53.506549258967425 0 53.506549258967425 34.291959319525631 0 0 0 0 174.85456469327818 -20.636975457839981 0 -20.636975457839981 -24.159866127665737 0 0 0 0 7.6426554757144913 -13.492955770816479 0 -13.492955770816479 37.423227226601739 0 0 0 0 189.62420886495966 106.00548174697906 0 106.00548174697906 47.549676993963658 0 0 0 0 -18.188181546563101 4.8448805127700325 0 4.8448805127700325 3.733006762138757 0 0 0 0 2.5465715573412764 -0.1541863995767585 0 -0.1541863995767585 0.67592160948956348 0 0 0 0 -11.180459237001742 21.353341748450475 0 21.353341748450475 42.398493043925555 0 0 0 0 17.728093539823021 -42.763307767592778 0 -42.763307767592778 145.03356530371821 0 0 0 0 16.041983931689515 -69.8345215525394 0 -69.8345215525394 155.07900685096683 0 0 0 0 -50.402749730234973 -63.450635899476765 0 -63.450635899476765 157.43553223890194 0 0 0 0 21.469012921552348 -164.43683677934678 0 -164.43683677934678 299.07849212393921 0 0 0 0 128.69050232278732 -128.12456137576373 0 -128.12456137576373 80.810113085557532 0 0 0 0 142.81176188410154 -210.32267476225388 0 -210.32267476225388 528.61565803151461 0 0 0 0 -86.326787083900285 40.27586929181598 0 40.27586929181598 372.04679114797909 0 0 0 0 -73.109811241377201 29.240268142646528 0 29.240268142646528 341.82602485027019 0 0 0 0 -1.9817021122646956 -1.6155963933398994 0 -1.6155963933398994 1.9560868562424361 0 0 0 0 -49.308108559186167 -49.995286518220382 0 -49.995286518220382 268.4680125472587 0 0 0 0 -8.199444315516871 21.19302226120999 0 21.19302226120999 149.51067147110007 0 0 0 0 1.6275008101785298 -8.4501786167441963 0 -8.4501786167441963 -0.25990672140221704 0 0 0 0 50.843216221864168 177.65122346317366 0 177.65122346317366 309.63827294691873 0 0 0 0 1.4264706668968756 -14.215117963307421 0 -14.215117963307421 -36.105679874091948 0 0 0 0 -10.749092851618457 12.921957828022641 0 12.921957828022641 132.91302265363629 0 0 0 0 -13.59776377195135 -19.325154783888138 0 -19.325154783888138 -4.7283640617242781 0 0 0 0 36.524508350832093 -54.683087361627258 0 -54.683087361627258 -44.819065728240275 0 0 0 0 154.18317280182373 -47.436450286317267 0 -47.436450286317267 -2.5261769565386203 0 0 0 0 -1.4686434915640518 -0.67223818758765219 0 -0.67223818758765219 4.3952300204458652 0 0 0 0 -3.4134142468751918 -5.1189519897088758 0 -5.1189519897088758 86.056469037546776 0 0 0 0 -5.6419788261534887 -7.254757591169124 0 -7.254757591169124 87.398258949451531 0 0 0 0 -168.16165646493573 -113.40891949388242 0 -113.40891949388242 147.61019845504779 0 0 0 0 -60.456847032230826 169.93899782950029 0 169.93899782950029 227.10799067202606 0 0 0 0 209.85012809731961 -121.08764295784931 0 -121.08764295784931 86.850523792832973 0 0 0 0 -7.348882253391821 -247.7660999545551 0 -247.7660999545551 259.81973430460494 0 0 0 0 72.467911918803566 174.1284377125412 0 174.1284377125412 118.09985958228935 0 0 0 0 307.69505621841802 656.98286128389555 0 656.98286128389555 249.89338452299125 0 0 0 0 -155.99441985502608 80.662982364880008 0 80.662982364880008 148.65801334628486 0 0 0 0 130.88679719311949 -81.865375863271765 0 -81.865375863271765 -64.18993398706516 0 0 0 0 -8.6824669469249134 6.1393571312072197 0 6.1393571312072197 19.876232398957171 0 0 0 0 -42.002143628057638 70.455066884085682 0 70.455066884085682 27.469669213824091 0 0 0 0 -6.4048549523683507 -1.0980796495885627 0 -1.0980796495885627 85.561398502965744 0 0 0 0 -169.6036455198373 83.458251065756485 0 83.458251065756485 352.88332518970128 0 0 0 0 300.87428480199105 480.34610958174744 0 480.34610958174744 270.19548781699996 0 0 0 0 32.143799937319272 -329.62142849242082 0 -329.62142849242082 901.78833750574267 0 0 0 0 -477.00284050744995 153.17037206640816 0 153.17037206640816 521.84241428600944 0 0 0 0 -315.4657060078008 144.36826979182706 0 144.36826979182706 406.05399497043982 0 0 0 0 -293.0658090928232 353.74163802072871 0 353.74163802072871 687.64691325739841 0 0 0 0 -3.4568462252513967 -1.6875551259871031 0 -1.6875551259871031 0.04530754416310856 0 0 0 0 -103.97860829158853 178.2238748612217 0 178.2238748612217 327.14209006552119 0 0 0 0 8.7169397544653293 207.78298441905645 0 207.78298441905645 -88.659125511338061 0 0 0 0 -105.55587985851444 -73.345459400238724 0 -73.345459400238724 237.61100374154921 0 0 0 0 -178.65220683354889 26.11785699846223 0 26.11785699846223 343.771409800931 0 0 0 0 -201.50048632739561 -51.075540415415162 0 -51.075540415415162 -18.519208418671042 0 0 0 0 -113.89997235858947 126.21208379757445 0 126.21208379757445 338.57518570423417 0 0 0 0 -469.61377438632849 10.686056191341777 0 10.686056191341777 431.37680389697016 0 0 0 0 6.7090423960266525 13.472802169868828 0 13.472802169868828 17.590999193223126 0 0 0 0 -551.54569903274285 552.37525802602977 0 552.37525802602977 9.3407961341436021 0 0 0 0 -552.62665019559495 303.29083553823148 0 303.29083553823148 73.643333486159463 0 0 0 0 380.87692655933188 382.63801647942455 0 382.63801647942455 -295.53193651104812 0 0 0 0 -24.912362689439675 -32.976303621635452 0 -32.976303621635452 -140.39747388307296 0 0 0 0 865.05599948780264 640.12009836996003 0 640.12009836996003 -254.34107920813403 0 0 0 0 -12.945731112117528 -666.90979450405212 0 -666.90979450405212 372.39812612457899 0 0 0 0 22.283370361987636 -263.82422320688784 0 -263.82422320688784 873.30844239822181 0 0 0 0 -969.53917429870739 -21.675545957554277 0 -21.675545957554277 1448.4871450965729 0 0 0 0 3.931523725829841 7.7222087179373631 0 7.7222087179373631 10.113753367009451 0 0 0 0 415.9144174272551 762.12729891937488 0 762.12729891937488 190.25726658177155 0 0 0 0 71.825784945180658 327.57760120085732 0 327.57760120085732 652.79552649441757 0 0 0 0 614.64393097987977 524.47953909024363 0 524.47953909024363 380.12444624265481 0 0 0 0 277.65915232139014 -94.291449200583884 0 -94.291449200583884 13.434846090909559 0 0 0 0 33.366717267421336 -167.95265632029623 0 -167.95265632029623 247.4437214640202 0 0 0 0 831.34693168283093 225.22696187508518 0 225.22696187508518 779.77931197700673 0 0 0 0 736.21009249629856 -131.88052990104188 0 -131.88052990104188 752.13547535929683 0 0 0 0 588.9660394540274 -554.41756718400575 0 -554.41756718400575 396.97746548648138 0 0 0 0 9.058178366928141 -1.1593782412674898 0 -1.1593782412674898 -0.67562857764124828 0 0 0 0 271.47787956639047 -129.44380421773712 0 -129.44380421773712 -100.0520533471863 0 0 0 0 91.767039439716427 22.629781665280461 0 22.629781665280461 -60.104914963405463 0 0 0 0 267.33655158184956 -116.08226271732019 0 -116.08226271732019 144.24576141746365 0 0 0 0 20.194924070751028 1.1135560077765092 0 1.1135560077765092 16.54736844228006 0 0 0 0 371.07944946231873 1.9996428571248543 0 1.9996428571248543 -53.804300122017594 0 0 0 0 289.54997746593472 57.887568054047733 0 57.887568054047733 73.59772373920714 0 0 0 0 447.71924385169814 66.603689110026608 0 66.603689110026608 -325.76538198541675 0 0 0 0 497.51353760931215 324.98034119371368 0 324.98034119371368 -149.6018648694444 0 0 0 0 4.6831700334994553 7.195248098609845 0 7.195248098609845 5.8780649348626071 0 0 0 0 181.01697728403133 211.62157347342327 0 211.62157347342327 67.919647755581536 0 0 0 0 164.09424580879022 144.18465072945401 0 144.18465072945401 21.381313845820841 0 0 0 0 -27.143476725697838 36.452790305731469 0 36.452790305731469 97.429346536999219 0 0 0 0 -2.1889171695715475 7.9501091154566232 0 7.9501091154566232 65.810603011026387 0 0 0 0 -0.76518764736362765 21.739205247965245 0 21.739205247965245 75.927067540031715 0 0 0 0 -16.89724161008121 43.215767710076761 0 43.215767710076761 98.128992349113105 0 0 0 0 -28.270566613110987 3.0932958725061326 0 3.0932958725061326 63.578577800275525 0 0 0 0 -11.616385607026888 32.757002856329564 0 32.757002856329564 91.974182310979813 0 0 0 0 -38.185999103761077 38.41182706222753 0 38.41182706222753 209.98512796166324 0 0 0 0 -58.353050651416495 -35.319662409019656 0 -35.319662409019656 272.25053474617016 0 0 0 0 -0.1062159583003337 0.0035858018992200869 0 0.0035858018992200869 11.199584772929711 0 0 0 0 -2.0697415203951932 14.110497760116694 0 14.110497760116694 106.85331313975649 0 0 0 0 -22.629521479235905 62.407919065852184 0 62.407919065852184 328.49637508601882 0 0 0 0 129.9739346816732 -6.6144927475979785 0 -6.6144927475979785 57.012084550355212 0 0 0 0 -4.4853419178189142 -105.38947653496871 0 -105.38947653496871 163.45966864487127 0 0 0 0 4.6123997138458428 -10.65839707182937 0 -10.65839707182937 -6.518796968436277 0 0 0 0 4.4188402687197961 17.644336774203026 0 17.644336774203026 9.1889788043466751 0 0 0 0 -8.9263123389164321 -26.669776165101212 0 -26.669776165101212 724.17422890965827 0 0 0 0 -26.472126086494427 99.350872104492737 0 99.350872104492737 291.06700594560243 0 0 0 0 -9.8059348170113481 78.332429826958105 0 78.332429826958105 473.89433906105114 0 0 0 0 -35.991856087129861 -13.228158149380761 0 -13.228158149380761 -28.179867231752723 0 0 0 0 6.0336875505918321 -3.4416681312436275 0 -3.4416681312436275 13.894300769649249 0 0 0 0 -98.32322406272533 -43.148289508906601 0 -43.148289508906601 143.31560964838718 0 0 0 0 -5.6110380151594699 -10.009919552544574 0 -10.009919552544574 73.083670817014593 0 0 0 0 28.230751630293071 -7.033681145956507 0 -7.033681145956507 -0.7722309863238479 0 0 0 0 -22.66398907742424 -26.886156381527115 0 -26.886156381527115 69.170441930414768 0 0 0 0 -79.504721544686845 36.376710294280201 0 36.376710294280201 42.504530294863798 0 0 0 0 -67.590875231832911 40.385786898674269 0 40.385786898674269 36.416561691898096 0 0 0 0 -81.934901043788614 42.188788166866289 0 42.188788166866289 65.767712411499815 0 0 0 0 -222.51205230381402 13.062557093013311 0 13.062557093013311 59.735881829088612 0 0 0 0 261.82631567345106 24.485635062672372 0 24.485635062672372 -124.9267946124528 0 0 0 0 657.38587386426479 506.70614208208281 0 506.70614208208281 210.08453224516461 0 0 0 0 -60.867443852080669 -170.65881579459165 0 -170.65881579459165 25.715139829233522 0 0 0 0 -43.761706438364641 83.856248236819738 0 83.856248236819738 -3.3165972383867484 0 0 0 0 0.2451924585701645 154.16408219904406 0 154.16408219904406 81.873115749884164 0 0 0 0 -111.19894537088472 85.436831136241381 0 85.436831136241381 26.65262739348691 0 0 0 0 -36.031813625118446 129.59224204596831 0 129.59224204596831 43.683699926492409 0 0 0 0 -169.05443906186053 141.58861552691087 0 141.58861552691087 81.326697161988704 0 0 0 0 -28.714553845116825 71.274942206902779 0 71.274942206902779 28.128770183893721 0 0 0 0 -0.18755911837122261 134.14546221435739 0 134.14546221435739 -13.12496936658863 0 0 0 0 -0.50093208703378167 0.93101851436878746 0 0.93101851436878746 -0.31879090824543255 0 0 0 0 -65.967340251478475 -82.509372876927955 0 -82.509372876927955 381.72511271750409 0 0 0 0 -13.034530467526338 87.840135068508971 0 87.840135068508971 -117.05128977015556 0 0 0 0 -20.194716187279866 -102.29540474265377 0 -102.29540474265377 209.67989228668739 0 0 0 0 0.21139495810095513 13.921891348792997 0 13.921891348792997 193.6457856913039 0 0 0 0 15.79520171872443 -21.061050017566117 0 -21.061050017566117 130.42474270064849 0 0 0 0 -0.0085821416619268689 25.736762637818174 0 25.736762637818174 72.605906918674009 0 0 0 0 -25.237130596606473 30.685554323623364 0 30.685554323623364 97.883331834964338 0 0 0 0 -57.50275848111179 53.124625206335622 0 53.124625206335622 92.986466065354762 0 0 0 0 15.131055227568359 21.506503197745474 0 21.506503197745474 8.5012562520860229 0 0 0 0 -19.768040108518449 31.650262620671128 0 31.650262620671128 92.353178449171537 0 0 0 0 -0.81690981963803833 4.1395938258670242 0 4.1395938258670242 15.271104515435525 0 0 0 0 -62.892322838820867 -33.343115822023719 0 -33.343115822023719 60.926848845381755 0 0 0 0 -27.10472281703278 7.3931619192771905 0 7.3931619192771905 77.276207780902041 0 0 0 0 -10.72216747748474 3.850561750661754 0 3.850561750661754 67.747229936080032 0 0 0 0 -10.011507549723907 14.454069349573871 0 14.454069349573871 74.857488791083483 0 0 0 0 -2.2530309861858848 3.4024809991508 0 3.4024809991508 74.593128960667343 0 0 0 0 -25.72918088729665 2.5190210866567213 0 2.5190210866567213 89.397388770215912 0 0 0 0 -48.31694332586401 -7.0520332342566689 0 -7.0520332342566689 88.784141548683692 0 0 0 0 -13.079793087587316 10.721030760600115 0 10.721030760600115 72.860035329496895 0 0 0 0 -14.065873374896128 11.390512188187131 0 11.390512188187131 78.278848111513071 0 0 0 0 -0.026969934311840041 2.1705464037410547 0 2.1705464037410547 76.509256414494871 0 0 0 0 -12.737655759457596 -11.582363961599185 0 -11.582363961599185 84.671801198579487 0 0 0 0 -56.586276723235379 24.317139364937248 0 24.317139364937248 110.14819984874339 0 0 0 0 -29.662549418285245 49.224322063964792 0 49.224322063964792 45.864313403300912 0 0 0 0 -25.240142576092669 26.66624573313311 0 26.66624573313311 160.18136872694595 0 0 0 0 70.740268557256456 43.749391426914372 0 43.749391426914372 108.45822342927568 0 0 0 0 0.024483773458129326 -0.29307328151688239 0 -0.29307328151688239 -0.44044430740473217 0 0 0 0 0.0027628625450486803 -1.2926497280859621 0 -1.2926497280859621 16.344875319751736 0 0 0 0 3.4108462224362839 91.419650749987341 0 91.419650749987341 182.69508613216749 0 0 0 0 0.087933218666578244 21.295032219555793 0 21.295032219555793 156.1419847557263 0 0 0 0 19.083731104630672 41.63057391095208 0 41.63057391095208 92.194753248419147 0 0 0 0 -34.498593725089385 24.97473249718314 0 24.97473249718314 140.38882378509152 0 0 0 0 50.149631065732571 -0.081926857907092199 0 -0.081926857907092199 56.174650160595775 0 0 0 0 62.595918795820708 18.443319989470183 0 18.443319989470183 60.400524144925839 0 0 0 0 -0.042631524814514821 28.768479037251382 0 28.768479037251382 70.762745557236485 0 0 0 0 29.284017315335003 50.578797129182931 0 50.578797129182931 84.179599855255219 0 0 0 0 34.545400630688462 35.737822550145211 0 35.737822550145211 28.385329381475458 0 0 0 0 28.883223591306258 36.276492214077734 0 36.276492214077734 61.680895812639392 0 0 0 0 -0.062904313584776023 0.035784796287714471 0 0.035784796287714471 0.32522180639313092 0 0 0 0 25.755235302944776 -4.1852161648930633 0 -4.1852161648930633 -6.4547916031733621 0 0 0 0 3.1944740668714076 4.2956030633649789 0 4.2956030633649789 14.192589068203233 0 0 0 0 -2.8512202855008582 -26.259099801070988 0 -26.259099801070988 31.892441506031901 0 0 0 0 1.3562748327998029 -8.4621866517445881 0 -8.4621866517445881 11.052191851614168 0 0 0 0 2.2526109284928584 -6.0143783122080947 0 -6.0143783122080947 11.934957391252453 0 0 0 0 -11.616674504448007 -12.46214742349548 0 -12.46214742349548 62.1702516390651 0 0 0 0 132.24878143472449 277.94225101951088 0 277.94225101951088 466.49224150640657 0 0 0 0 54.494051382485083 254.07653148269856 0 254.07653148269856 486.25087229179917 0 0 0 0 47.636367736906777 259.17797069269 0 259.17797069269 563.12448489999224 0 0 0 0 102.24392980354014 123.69202014882467 0 123.69202014882467 322.79300462914398 0 0 0 0 -2.6583801909559952 191.86192853601096 0 191.86192853601096 493.441331595066 0 0 0 0 -7.3284832488547522 10.900891461387801 0 10.900891461387801 52.326085269072792 0 0 0 0 4.00128838486419 4.2690351834230853 0 4.2690351834230853 28.608622473757805 0 0 0 0 -76.384408643380993 15.61016146298789 0 15.61016146298789 210.74916311420384 0 0 0 0 61.694110115740841 105.94746419062722 0 105.94746419062722 240.35489443282131 0 0 0 0 5.3043520122100674 -5.099803859359298 0 -5.099803859359298 17.796055422093332 0 0 0 0 -32.721007122790979 59.382273482275195 0 59.382273482275195 306.14218002499547 0 0 0 0 -1.2344918711562123 -2.8211800543714958 0 -2.8211800543714958 30.297342304166591 0 0 0 0 10.980917043180057 -0.49387897487031296 0 -0.49387897487031296 20.338533335743705 0 0 0 0 9.6290022375769695 2.5946843441197416 0 2.5946843441197416 15.949701189936604 0 0 0 0 9.2363497557128085 -0.35641492683498655 0 -0.35641492683498655 29.350844040645825 0 0 0 0 11.974261563319658 18.835952673049178 0 18.835952673049178 62.493605739479108 0 0 0 0 -1.1629915329794076 1.0425609971263725 0 1.0425609971263725 11.81116347619178 0 0 0 0 21.103738665830036 10.267196061628056 0 10.267196061628056 29.785843745441525 0 0 0 0 9.4147926661757992 1.072838236374082 0 1.072838236374082 26.365242755797226 0 0 0 0 -4.5310735799115669 -21.716064992516465 0 -21.716064992516465 -35.584304904172313 0 0 0 0 12.215435821818875 9.6173647887023037 0 9.6173647887023037 15.89364803798739 0 0 0 0 9.7117306566051411 2.5132116960594431 0 2.5132116960594431 28.681739645937341 0 0 0 0 32.327127018832925 22.340424867608817 0 22.340424867608817 126.48068760190199 0 0 0 0 5.9550997529742657 0.28007534166633263 0 0.28007534166633263 -3.5059940751405065 0 0 0 0 -2.5736252551225078 227.24000984828092 0 227.24000984828092 334.72287911339663 0 0 0 0 6.3074809838900299 19.731633996220204 0 19.731633996220204 60.00107206348406 0 0 0 0 206.6420443079387 189.77149565958825 0 189.77149565958825 -206.39066055289004 0 0 0 0 95.03706481421068 115.46167219735798 0 115.46167219735798 -28.445076874486404 0 0 0 0 83.758825742110275 172.19005167805881 0 172.19005167805881 138.55657549485295 0 0 0 0 33.900529025273471 4.4725266452296637 0 4.4725266452296637 56.174226679489948 0 0 0 0 -65.57819853486032 -16.214893368003686 0 -16.214893368003686 100.42371875740355 0 0 0 0 124.43301671810734 127.40484520871541 0 127.40484520871541 154.93452846850414 0 0 0 0 7.9653246810678127 2.6018211567134131 0 2.6018211567134131 186.45582782218116 0 0 0 0 38.704413854428026 36.244072470188257 0 36.244072470188257 67.920059413474519 0 0 0 0 134.21499922171597 -21.049966935010161 0 -21.049966935010161 14.280660014541354 0 0 0 0 163.30840414510064 111.77892724786489 0 111.77892724786489 81.275508446415188 0 0 0 0 0.45282882369094346 143.24302728665498 0 143.24302728665498 251.11268737967475 0 0 0 0 -0.26432064577452152 365.49842354824068 0 365.49842354824068 961.2592828842171 0 0 0 0 432.25561215085793 549.4837122377794 0 549.4837122377794 445.08017409697641 0 0 0 0 473.94300329710313 33.181399827724817 0 33.181399827724817 21.484216397802811 0 0 0 0 75.450888049009507 -15.212811069723102 0 -15.212811069723102 59.244545634865062 0 0 0 0 4583.8772867525067 594.00692279497162 0 594.00692279497162 1082.4400160588266 0 0 0 0 0.74118876301062819 5.8216999263516982 0 5.8216999263516982 15.441442551965224 0 0 0 0 -470.17677115760557 641.51004915627436 0 641.51004915627436 3038.4147697909793 0 0 0 0 -432.23344567964386 -581.51921381973807 0 -581.51921381973807 2146.0449103565188 0 0 0 0 -220.93527177727992 -177.81592931816704 0 -177.81592931816704 1320.7266793624763 0 0 0 0 -454.03696474763274 450.78427554127438 0 450.78427554127438 1307.1004113525123 0 0 0 0 -0.24114752867113085 121.33729230415338 0 121.33729230415338 754.14763783564558 0 0 0 0 143.9768678087926 -82.941665175145317 0 -82.941665175145317 174.90191645405139 0 0 0 0 -175.80153516025786 -213.84382419698522 0 -213.84382419698522 757.54272566086729 0 0 0 0 -16.293120924802736 -49.354225079320258 0 -49.354225079320258 -244.14251415288891 0 0 0 0 -19.488800463406619 -276.20535797088814 0 -276.20535797088814 734.78645571822562 0 0 0 0 -21.105937948394796 74.273006369316136 0 74.273006369316136 6.3043144174444024 0 0 0 0 -82.229062280091568 46.268958851935167 0 46.268958851935167 226.61514865110803 0 0 0 0 142.55998225178928 502.04763893649215 0 502.04763893649215 1104.0479859695479 0 0 0 0 0.67389982784658486 3.2837144246941428 0 3.2837144246941428 4.6547477541543572 0 0 0 0 -519.36056308605248 49.971761225082446 0 49.971761225082446 142.07628277476761 0 0 0 0 -3.0221268212213657 -4.2520791804705595 0 -4.2520791804705595 71.610728112273875 0 0 0 0 -197.77970089201222 -408.83719287010172 0 -408.83719287010172 -195.40104697228526 0 0 0 0 -288.07521735133491 292.05406181314174 0 292.05406181314174 0.20787341753020883 0 0 0 0 1928.7432468460393 1830.5957890802965 0 1830.5957890802965 -1510.2192711764365 0 0 0 0 3477.4132645361369 5116.3200428982891 0 5116.3200428982891 2556.6426679216675 0 0 0 0 -288.64833067430573 -690.03215020855714 0 -690.03215020855714 800.61567048158031 0 0 0 0 -0.55203731157958824 1.6397441698146196 0 1.6397441698146196 35.907241390921627 0 0 0 0 4304.9214099615592 2470.7673523441772 0 2470.7673523441772 5166.365486807772 0 0 0 0 -107.06436489653061 1940.3526005313906 0 1940.3526005313906 6002.0266798009397 0 0 0 0 -282.55033999333136 1029.2583365171158 0 1029.2583365171158 1851.3705111689924 0 0 0 0 83.740343072847281 958.22065652724268 0 958.22065652724268 1665.5903587472567 0 0 0 0 644.70639673248388 1976.8246516787476 0 1976.8246516787476 2232.8076518121088 0 0 0 0 358.02365771721543 1395.7921067000279 0 1395.7921067000279 1113.8619570257433 0 0 0 0 627.1151516130285 778.62509797357779 0 778.62509797357779 494.46579785711947 0 0 0 0 49.577068408848845 906.93259294411109 0 906.93259294411109 1615.9351069037803 0 0 0 0 355.74392102076058 -466.25462094751128 0 -466.25462094751128 1383.364706347129 0 0 0 0 36.837367189428505 -17.520545896921249 0 -17.520545896921249 -11.59754234549473 0 0 0 0 158.10759844084441 -188.72878895881877 0 -188.72878895881877 219.60356264402071 0 0 0 0 -6.1790886806723453 -5.5644140486705851 0 -5.5644140486705851 19.883188229075643 0 0 0 0 2889.6973660366175 5041.5547864170694 0 5041.5547864170694 1797.683637775539 0 0 0 0 2.5023969506513142 6.9416953111636133 0 6.9416953111636133 20.760634176984581 0 0 0 0 -210.17726900257594 -848.83900644441019 0 -848.83900644441019 3886.0217744068868 0 0 0 0 -216.73926066973945 24.47357354822816 0 24.47357354822816 205.4522171227436 0 0 0 0 2.9083229288414829 18.942053596019655 0 18.942053596019655 70.207805288815507 0 0 0 0 -73.719963600015774 77.208425439763232 0 77.208425439763232 127.37809669648414 0 0 0 0 96.79772328681176 17.469727728821454 0 17.469727728821454 39.081307847649441 0 0 0 0 66.095506274867375 172.01082803993631 0 172.01082803993631 123.22192070737947 0 0 0 0 -76.834969506448033 -43.445262953275233 0 -43.445262953275233 -74.182947947323555 0 0 0 0 201.65362227190963 124.29444858666102 0 124.29444858666102 -28.447881734853581 0 0 0 0 4.0576989486937602 0.46215738800191275 0 0.46215738800191275 -1.2585043095996866 0 0 0 0 -15.124028707693014 -36.469008667736489 0 -36.469008667736489 304.45529209185042 0 0 0 0 164.99424365406594 31.890856335667195 0 31.890856335667195 -33.07718355146244 0 0 0 0 -28.019541618346693 18.120159467085614 0 18.120159467085614 91.78190263529541 0 0 0 0 -23.616911157580574 30.471227737158188 0 30.471227737158188 117.70267460614559 0 0 0 0 10.304421736723612 45.863997705466318 0 45.863997705466318 116.10959259908122 0 0 0 0 18.691556977268419 53.524523905121896 0 53.524523905121896 45.164599583702511 0 0 0 0 -24.629293006725675 167.89091389368696 0 167.89091389368696 177.44614638845815 0 0 0 0 -81.521062286393544 652.97318407729472 0 652.97318407729472 1368.0214554637787 0 0 0 0 44.855631515865696 487.1519831624064 0 487.1519831624064 1522.8500984571874 0 0 0 0 393.86642349679005 643.14827236100973 0 643.14827236100973 1310.560790937714 0 0 0 0 -4.6768807921420379 -7.40044250033651 0 -7.40044250033651 6.1188554964571154 0 0 0 0 230.34080677077009 341.23458611828391 0 341.23458611828391 1394.2009238078681 0 0 0 0 249.81348225114061 488.10143266369414 0 488.10143266369414 1158.9536172221269 0 0 0 0 249.44134167126271 315.60454053739522 0 315.60454053739522 1175.1989923871588 0 0 0 0 480.63629331812058 158.46192615997279 0 158.46192615997279 1259.2323019407631 0 0 0 0 422.3220400390253 330.31599298470974 0 330.31599298470974 753.07976790110115 0 0 0 0 272.11731824401318 579.17835554884368 0 579.17835554884368 1065.3355321317213 0 0 0 0 255.69458171540759 468.08968380550505 0 468.08968380550505 1176.4101394837053 0 0 0 0 -137.0359611177264 429.68290215381421 0 429.68290215381421 1692.0546085423266 0 0 0 0 308.52209445078688 496.56339637870769 0 496.56339637870769 1668.6099845819408 0 0 0 0 842.81495698980325 -150.98386443733398 0 -150.98386443733398 822.22362429837813 0 0 0 0 130.40495172089868 521.42705569314421 0 521.42705569314421 1667.9312492322642 0 0 0 0 -52.679942582189142 535.04543087084312 0 535.04543087084312 1868.4282780647845 0 0 0 0 -402.43770863904223 64.949938521443983 0 64.949938521443983 1464.4370703394816 0 0 0 0 -2.5997481061972003 -2.4457700502801742 0 -2.4457700502801742 4.2298059135759161 0 0 0 0 -53.436049824748352 39.496934994604089 0 39.496934994604089 110.27993711494491 0 0 0 0 -55.316400685427666 -212.07660326580333 0 -212.07660326580333 838.35321248869877 0 0 0 0 -4.0742236717110245 12.278188396776386 0 12.278188396776386 123.33329716972366 0 0 0 0 -25.464993732925674 -24.848652227491513 0 -24.848652227491513 30.162868023240321 0 0 0 0 -9.9204389878055963 26.193508540309267 0 26.193508540309267 103.83036635631652 0 0 0 0 -15.217734176894396 9.6222037094121333 0 9.6222037094121333 71.313179129918353 0 0 0 0 -11.53062073563251 36.353121189931699 0 36.353121189931699 77.818762269263971 0 0 0 0 -19.681786379663436 33.924801225537522 0 33.924801225537522 127.44305852924299 0 0 0 0 12.560611796252942 116.82435739299399 0 116.82435739299399 115.41686945770198 0 0 0 0 -18.311926470073427 13.243685873458332 0 13.243685873458332 51.072181739483142 0 0 0 0 74.828118500565324 84.185319780634018 0 84.185319780634018 67.133995093026897 0 0 0 0 67.217072042580185 130.53752292330319 0 130.53752292330319 -19.830867544515058 0 0 0 0 12.991290361048364 18.126761987412465 0 18.126761987412465 -5.760884112023632 0 0 0 0 377.84908881675437 -96.806254703347804 0 -96.806254703347804 -571.50854242558125 0 0 0 0 259.84802586100886 51.534176088229287 0 51.534176088229287 8.5583226775052026 0 0 0 0 111.31550346449092 52.599570880725878 0 52.599570880725878 -87.085513173922664 0 0 0 0 34.461105090478888 0.29675513891936589 0 0.29675513891936589 -13.231555967625297 0 0 0 0 20.043075318247901 18.471216632184223 0 18.471216632184223 -5.773844773480505 0 0 0 0 27.178702816257598 18.753399831254598 0 18.753399831254598 7.3760434511214044 0 0 0 0 19.684472975788825 14.033175018125377 0 14.033175018125377 4.2267714375418137 0 0 0 0 -27.953785737118928 8.6901099043149088 0 8.6901099043149088 15.382135789404288 0 0 0 0 71.711447810982463 71.589985918348248 0 71.589985918348248 16.244086013961351 0 0 0 0 104.72865719674837 43.114142292077304 0 43.114142292077304 15.198583649806096 0 0 0 0 -28.398130668414979 28.698516056669177 0 28.698516056669177 8.7378349907376105 0 0 0 0 7.3733958961615826 1.0845333464385476 0 1.0845333464385476 17.211641095193045 0 0 0 0 -15.260708801161513 13.157021319420892 0 13.157021319420892 93.631412669463316 0 0 0 0 2.024578837251287 4.8414903410653949 0 4.8414903410653949 3.3683915821479218 0 0 0 0 15.987934468735375 -13.47727018938167 0 -13.47727018938167 52.802563351444405 0 0 0 0 108.4304298102511 78.277014418279578 0 78.277014418279578 73.306348753336351 0 0 0 0 43.503595185309678 -8.4327821902843425 0 -8.4327821902843425 -23.903600145375094 0 0 0 0 -19.289867191872645 -8.0010067088442156 0 -8.0010067088442156 57.482211340160575 0 0 0 0 13.869616223727917 -23.171756655690842 0 -23.171756655690842 16.343468267237768 0 0 0 0 5.8769603629400535 -7.7666064263758017 0 -7.7666064263758017 -9.7198849181877449 0 0 0 0 14.766420408599359 -3.6797882298496347 0 -3.6797882298496347 -1.0441060220710625 0 0 0 0 9.6630119693545566 -3.6941787477117032 0 -3.6941787477117032 -10.783052250859328 0 0 0 0 18.912693366105373 9.3250593806376401 0 9.3250593806376401 13.170130020584509 0 0 0 0 15.621912549921092 2.1380569797659064 0 2.1380569797659064 -4.4488889191095495 0 0 0 0 12.080697906482783 2.4183413585706148 0 2.4183413585706148 27.078200831572758 0 0 0 0 14.976025773888978 3.5402986086555757 0 3.5402986086555757 26.401851628674194 0 0 0 0 6.5213704833461534 -6.6432243782487319 0 -6.6432243782487319 13.79070881104019 0 0 0 0 22.088042885946713 9.9815735611929881 0 9.9815735611929881 2.3557479093886542 0 0 0 0 17.985294611132616 16.962978240257144 0 16.962978240257144 9.7012285663658986 0 0 0 0 7.3011414699329915 7.2234401669254567 0 7.2234401669254567 5.8021787603687471 0 0 0 0 3.2374517690759603 -26.067015203756455 0 -26.067015203756455 17.106223128837883 0 0 0 0 -24.957689382728859 -88.338483406332671 0 -88.338483406332671 -75.676830581902323 0 0 0 0 0.77984223412749465 -3.0712320395929567 0 -3.0712320395929567 -0.70561281869669301 0 0 0 0 54.46517263214173 -542.32425567698374 0 -542.32425567698374 -112.57891119213309 0 0 0 0 20.70451472982495 42.704417864602874 0 42.704417864602874 -164.62711988443334 0 0 0 0 -103.86648070662341 -52.053917129785987 0 -52.053917129785987 511.34300351553247 0 0 0 0 -459.7423455427579 -887.30806852816022 0 -887.30806852816022 1030.9197420655983 0 0 0 0 25.163888248227522 -89.912449212220963 0 -89.912449212220963 30.340189547394402 0 0 0 0 0.124686686152927 -76.095591150908149 0 -76.095591150908149 118.89995391189586 0 0 0 0 -113.05815507016632 -91.707193834125064 0 -91.707193834125064 411.00726993897115 0 0 0 0 -24.036500097210592 -29.694486658321694 0 -29.694486658321694 137.49298684562382 0 0 0 0 -92.630701503650926 83.029662364569958 0 83.029662364569958 354.96456525169197 0 0 0 0 -1.0422448771205381 73.761162584269186 0 73.761162584269186 77.717725688802602 0 0 0 0 -31.100704523971672 -22.415731367953413 0 -22.415731367953413 321.26744951744331 0 0 0 0 -106.64995103851834 73.695647686356097 0 73.695647686356097 399.45632793992991 0 0 0 0 -152.96802868001942 63.705866067713941 0 63.705866067713941 653.49693812360056 0 0 0 0 -209.7881455417255 156.98320703864738 0 156.98320703864738 604.7743130574454 0 0 0 0 -134.02873649397498 228.6134000595921 0 228.6134000595921 672.35031311557395 0 0 0 0 -82.708289799345948 177.40458804374794 0 177.40458804374794 513.77823692324455 0 0 0 0 -213.50473470802899 27.820358542776376 0 27.820358542776376 1374.696911873325 0 0 0 0 -384.79204374456094 -317.7012239099131 0 -317.7012239099131 823.18003043654608 0 0 0 0 -214.92699872603299 278.05610965835149 0 278.05610965835149 1114.1680579144449 0 0 0 0 -89.568503584020618 456.44772066177393 0 456.44772066177393 765.54814987631107 0 0 0 0 2.2938577597278549 4.6604166204916027 0 4.6604166204916027 14.061500036375833 0 0 0 0 97.830937553158037 -405.9529462827777 0 -405.9529462827777 1195.2005689174257 0 0 0 0 99.162098655894624 1041.4742765489937 0 1041.4742765489937 1961.3339200616001 0 0 0 0 -746.43277009232406 -206.64035910385428 0 -206.64035910385428 1940.4691415914644 0 0 0 0 -630.0304225213622 -235.2043163710332 0 -235.2043163710332 1808.1668616578972 0 0 0 0 3056.4178930870985 1185.4268279384123 0 1185.4268279384123 1773.608920937826 0 0 0 0 -137.75505155129758 97.055445743520977 0 97.055445743520977 1177.0863348586136 0 0 0 0 -17.801094909565109 321.85021667540423 0 321.85021667540423 1519.113493370096 0 0 0 0 -154.30289305140013 592.30166555695178 0 592.30166555695178 1403.5429124289658 0 0 0 0 -48.988009358222371 494.23052353064122 0 494.23052353064122 1441.9438858162612 0 0 0 0 -380.77974656688912 122.39740477748273 0 122.39740477748273 1907.2782639582874 0 0 0 0 -92.703551793296356 783.29187642078614 0 783.29187642078614 1974.7763415067275 0 0 0 0 268.9605609936234 373.73143621063355 0 373.73143621063355 486.17406417839811 0 0 0 0 485.49367731812072 780.46096994186519 0 780.46096994186519 1061.018970426172 0 0 0 0 -26.636977576535173 606.36188230982225 0 606.36188230982225 1323.5214361425606 0 0 0 0 176.09325741762041 551.82877595236641 0 551.82877595236641 1320.0344551268208 0 0 0 0 -118.82349697719656 539.11836496577598 0 539.11836496577598 1395.1623997908391 0 0 0 0 -188.93928447076439 106.90772423590352 0 106.90772423590352 916.62841557187494 0 0 0 0 -71.002361217759017 -379.00760663924302 0 -379.00760663924302 -102.26302339084214 0 0 0 0 132.86822749803105 21.560545813015779 0 21.560545813015779 486.86928113808972 0 0 0 0 356.67770465996364 146.09631478993106 0 146.09631478993106 164.45448955264874 0 0 0 0 -1.0430188593858283 1.2808645588864351 0 1.2808645588864351 2.894022387328846 0 0 0 0 358.26164710275225 -148.19953177199932 0 -148.19953177199932 -265.24340787754045 0 0 0 0 -30.233020414458224 -140.42761212072219 0 -140.42761212072219 122.61777983112552 0 0 0 0 111.28479771849743 94.31000511534512 0 94.31000511534512 -310.40080568549456 0 0 0 0 381.57746665861123 469.32549798957189 0 469.32549798957189 1591.8850308079855 0 0 0 0 -136.33494475433145 22.516292908650939 0 22.516292908650939 3.2529196886462159 0 0 0 0 48.058709571874175 110.76083483477454 0 110.76083483477454 189.06957828659904 0 0 0 0 -833.25395673528783 1858.5670384581317 0 1858.5670384581317 446.62865710328333 0 0 0 0 -276.05588347347702 854.00645821608668 0 854.00645821608668 2012.7976654211525 0 0 0 0 968.99710726268404 -817.68888011248782 0 -817.68888011248782 1554.603569836705 0 0 0 0 -998.91122460225597 -728.94386531284545 0 -728.94386531284545 148.82221717435459 0 0 0 0 -269.27048044459889 1073.6124618705653 0 1073.6124618705653 -522.33934769745974 0 0 0 0 1622.8308974484971 1129.2434206239486 0 1129.2434206239486 201.11387352936435 0 0 0 0 664.78503677076264 -456.80439683902659 0 -456.80439683902659 101.37945268847398 0 0 0 0 14.678713298478836 10.280168287543006 0 10.280168287543006 5.8495615628194741 0 0 0 0 83.340985921530034 456.91212270616234 0 456.91212270616234 1187.5743863175448 0 0 0 0 1282.8273085496439 783.24388760213333 0 783.24388760213333 1163.1822043545799 0 0 0 0 3.9842883545599106 -2.8868434995101069 0 -2.8868434995101069 0.52800459816143075 0 0 0 0 2081.4355167281387 -213.05126313137589 0 -213.05126313137589 726.57789610797772 0 0 0 0 539.77949232522997 -290.48514910738231 0 -290.48514910738231 175.62999839357508 0 0 0 0 67.266098859455269 321.55845426997985 0 321.55845426997985 1201.7317441027408 0 0 0 0 67.586106257818756 264.7296221073193 0 264.7296221073193 1253.8097982136824 0 0 0 0 219.49790973739709 336.47791521259933 0 336.47791521259933 1271.8646528469981 0 0 0 0 133.05257575584858 -520.69181354762259 0 -520.69181354762259 833.87382809282281 0 0 0 0 2.3017044734824275 -311.5651519232415 0 -311.5651519232415 500.05353190726601 0 0 0 0 1178.0418660955756 4.8491472923778929 0 4.8491472923778929 836.49191069649555 0 0 0 0 -303.66024152805107 -404.42608595933416 0 -404.42608595933416 298.61885814505513 0 0 0 0 -296.47342514195384 -268.69232057941372 0 -268.69232057941372 1504.5650658221566 0 0 0 0 -1540.3016718108343 -727.33395854812989 0 -727.33395854812989 656.71129455132177 0 0 0 0 -1246.8735665648942 -288.92252038321749 0 -288.92252038321749 972.65470312917023 0 0 0 0 -554.31135872251934 -516.4726826910919 0 -516.4726826910919 895.63703979169804 0 0 0 0 -713.2230081728037 230.8740258366015 0 230.8740258366015 919.75748164014658 0 0 0 0 81.989745609268084 176.75328442535829 0 176.75328442535829 471.9217541909602 0 0 0 0 -150.08943317770945 -25.838691038821707 0 -25.838691038821707 724.87911621588137 0 0 0 0 -22.649532505305615 418.45205749389424 0 418.45205749389424 519.12371280335356 0 0 0 0 42.181957344481056 23.667915926620225 0 23.667915926620225 -29.563277038166291 0 0 0 0 -2045.2048134477852 380.05568430189669 0 380.05568430189669 939.23255022009835 0 0 0 0 -292.86451008876134 96.440992717114568 0 96.440992717114568 470.00579721906979 0 0 0 0 34.004251571688656 21.136658024319331 0 21.136658024319331 175.15234051604057 0 0 0 0 45.194689622340775 19.256647495491052 0 19.256647495491052 152.09076130516769 0 0 0 0 -8.4670912963618719 -3.8899765545235709 0 -3.8899765545235709 181.90795487325062 0 0 0 0 -100.80555029492552 113.86515830488497 0 113.86515830488497 26.164290275686653 0 0 0 0 -70.545035261295197 120.3415199747833 0 120.3415199747833 247.75163534845342 0 0 0 0 62.806489660824226 103.58811189744949 0 103.58811189744949 -0.90808923804063824 0 0 0 0 121.52485531865386 140.10599237353745 0 140.10599237353745 83.764787216310651 0 0 0 0 82.996074931165879 100.54301321890796 0 100.54301321890796 -4.6404530011879004 0 0 0 0 496.08716280268254 255.40983173393033 0 255.40983173393033 1.2157859305734746 0 0 0 0 80.901944569464831 170.4389606431796 0 170.4389606431796 160.89235385721986 0 0 0 0 46.356405645106861 155.70451226684963 0 155.70451226684963 176.14441944518148 0 0 0 0 57.965589006744267 181.67713342036222 0 181.67713342036222 157.69301198468747 0 0 0 0 74.207083528119256 159.27539052951761 0 159.27539052951761 163.95379397461329 0 0 0 0 157.87132255480537 187.81242789806129 0 187.81242789806129 145.75950937779271 0 0 0 0 105.51086530626344 192.92755829204907 0 192.92755829204907 200.05985572229838 0 0 0 0 127.44753250706617 158.18117156624976 0 158.18117156624976 160.38819553813664 0 0 0 0 81.249391213270428 159.34117121296731 0 159.34117121296731 204.64014156938356 0 0 0 0 104.08736089476588 201.68460833244171 0 201.68460833244171 281.76679527508531 0 0 0 0 41.434641048443154 166.71804083200732 0 166.71804083200732 265.30147265048436 0 0 0 0 19.5400494517271 127.21615994442982 0 127.21615994442982 194.03779930558085 0 0 0 0 -41.655408852624532 180.29945406276238 0 180.29945406276238 215.25987466973311 0 0 0 0 59.308312697447477 107.75990441319914 0 107.75990441319914 197.03276791927763 0 0 0 0 16.343473856042692 190.30944076361811 0 190.30944076361811 172.54549838865933 0 0 0 0 -807.70828182646915 35.120470284402586 0 35.120470284402586 -44.763646952866111 0 0 0 0 112.76707558943144 7.2528059852338629 0 7.2528059852338629 3.099038829384881 0 0 0 0 478.28461678503163 195.75434422053513 0 195.75434422053513 -473.15987329510244 0 0 0 0 -192.63931842848126 459.29333682500874 0 459.29333682500874 -212.34184848645236 0 0 0 0 75.02837725758701 159.48183135996806 0 159.48183135996806 77.16391726283473 0 0 0 0 -50.996957904742885 109.09363280677098 0 109.09363280677098 342.86195296615915 0 0 0 0 0.45141573384171352 149.82510047548567 0 149.82510047548567 76.917820992142424 0 0 0 0 35.608455676754652 97.898911855833362 0 97.898911855833362 211.79525666006461 0 0 0 0 1.7705402723495354 90.479899437536005 0 90.479899437536005 237.05980166199879 0 0 0 0 -3.0967364611387893 125.50590675044441 0 125.50590675044441 325.82813712795542 0 0 0 0 2.2997486183362525 77.969036739160401 0 77.969036739160401 382.61495860091236 0 0 0 0 -87.584142005178819 -162.76876779588201 0 -162.76876779588201 138.53594403612078 0 0 0 0 -95.600522966731376 -46.365224888489493 0 -46.365224888489493 194.39842486469087 0 0 0 0 -3.6178415267095261 134.53505320042132 0 134.53505320042132 349.1026892008922 0 0 0 0 308.28932868662014 -112.05067808709282 0 -112.05067808709282 116.78206585024964 0 0 0 0 -244.68986163790282 -23.432648170181892 0 -23.432648170181892 522.77571663014533 0 0 0 0 -168.11275439587189 252.71877567282172 0 252.71877567282172 907.85918131246581 0 0 0 0 -76.936627267887616 297.18177449707582 0 297.18177449707582 769.39441235816776 0 0 0 0 -77.081931101672126 323.22140127657622 0 323.22140127657622 2123.0601036039734 0 0 0 0 -31.195144825607713 123.29987883693184 0 123.29987883693184 399.19124543804537 0 0 0 0 -99.405448295533233 -65.698957528891015 0 -65.698957528891015 188.05915320129816 0 0 0 0 -78.231751934563363 92.989835591832161 0 92.989835591832161 457.88305200900504 0 0 0 0 -58.129943338961311 47.441668205297901 0 47.441668205297901 369.69537712929014 0 0 0 0 22.250577285507461 139.84350215646191 0 139.84350215646191 369.45697064682099 0 0 0 0 20.130180140812968 159.81155127956367 0 159.81155127956367 392.33321721603716 0 0 0 0 -0.067319294159460696 114.82365800275011 0 114.82365800275011 341.87977591760136 0 0 0 0 69.39284534507533 165.12483333957425 0 165.12483333957425 262.12379799835617 0 0 0 0 70.867132493609915 155.82343829037745 0 155.82343829037745 282.48761845083936 0 0 0 0 356.00516758258118 287.25851618249362 0 287.25851618249362 352.56910977837833 0 0 0 0 187.08340783001859 179.82965268259613 0 179.82965268259613 297.71231962618913 0 0 0 0 145.05342545284475 225.4752687241853 0 225.4752687241853 345.15267405568011 0 0 0 0 338.45809480987009 303.2594532594303 0 303.2594532594303 283.91422712582062 0 0 0 0 237.38921419610006 258.65984924715031 0 258.65984924715031 346.6271022305591 0 0 0 0 123.53063355858831 228.65297873655618 0 228.65297873655618 435.2631126427259 0 0 0 0 -34.513819061849063 83.15345706012522 0 83.15345706012522 486.44379316788672 0 0 0 0 117.07978628351421 358.00726684107445 0 358.00726684107445 579.16729196385131 0 0 0 0 177.56895212793097 199.12319104154994 0 199.12319104154994 475.67684124253537 0 0 0 0 -58.127283702528871 218.86752670085571 0 218.86752670085571 673.06251733865429 0 0 0 0 -3.166755079529441 -0.94090710796095323 0 -0.94090710796095323 14.23092648128069 0 0 0 0 64.56473252850293 478.192764140196 0 478.192764140196 1361.5538266004405 0 0 0 0 -273.15655534607527 -683.28914473039367 0 -683.28914473039367 -344.19724468603454 0 0 0 0 1012.856089039615 911.92561269567523 0 911.92561269567523 760.39308727289063 0 0 0 0 384.97122089786353 520.42718023911766 0 520.42718023911766 517.09574891421471 0 0 0 0 -170.63203038229858 426.47921138956826 0 426.47921138956826 518.70879305338894 0 0 0 0 -5.5511972431036378 -4.130226957469354 0 -4.130226957469354 31.586953163711769 0 0 0 0 -458.98753050537107 -211.1892615558445 0 -211.1892615558445 72.069005294462841 0 0 0 0 -74.420620212563335 167.55353320767608 0 167.55353320767608 153.91032853031766 0 0 0 0 65.166299570631651 103.79639794785908 0 103.79639794785908 88.479121260141255 0 0 0 0 65.455601683379427 105.30518806087639 0 105.30518806087639 63.12308740564913 0 0 0 0 5.414997463661166 115.69044332990597 0 115.69044332990597 81.552292912107077 0 0 0 0 62.929553281777885 81.232118769157751 0 81.232118769157751 56.387675617173954 0 0 0 0 12.729721402503166 38.162392419571447 0 38.162392419571447 1.0227411309751631 0 0 0 0 -22.352176597770267 54.571454110748164 0 54.571454110748164 116.28392572834855 0 0 0 0 -12.631038027313025 88.380875022830878 0 88.380875022830878 160.94591349919938 0 0 0 0 -202.5842888397101 -22.577966381247279 0 -22.577966381247279 89.647203772798093 0 0 0 0 -6.4380524381311535 -7.4815663156672301 0 -7.4815663156672301 38.778391651231033 0 0 0 0 15.191230826743777 55.851852000194413 0 55.851852000194413 62.168106419820106 0 0 0 0 175.36334311237806 158.36140892681942 0 158.36140892681942 202.53251624119366 0 0 0 0 315.68813233943774 221.54232017097547 0 221.54232017097547 227.95085279922205 0 0 0 0 183.90332305663651 198.95823769492563 0 198.95823769492563 189.83223591324349 0 0 0 0 151.90086066623553 187.86446700485249 0 187.86446700485249 172.31988087434729 0 0 0 0 -1.7601219095189045 -1.5268934270030741 0 -1.5268934270030741 53.508252700266667 0 0 0 0 9.1782250405971624 30.059429956489346 0 30.059429956489346 22.003903626796387 0 0 0 0 12.386526666376085 78.253927618883608 0 78.253927618883608 92.238322388522647 0 0 0 0 -22.135487371716863 24.761360029626303 0 24.761360029626303 141.73071648411133 0 0 0 0 42.225235795005574 26.019646313725389 0 26.019646313725389 101.54492045282677 0 0 0 0 46.25061562263727 47.664544584156829 0 47.664544584156829 68.09389505999934 0 0 0 0 22.160977805144135 35.641519137929549 0 35.641519137929549 -0.50459021727354525 0 0 0 0 157.67601668273346 61.116487487146514 0 61.116487487146514 108.6169606752228 0 0 0 0 28.105612269519185 30.822844204882074 0 30.822844204882074 107.2869415071501 0 0 0 0 15.845366394869416 58.371911586953502 0 58.371911586953502 146.46042705028958 0 0 0 0 0.67878383483898119 10.103171181943452 0 10.103171181943452 12.078008384858151 0 0 0 0 38.965996768514742 24.096727926371386 0 24.096727926371386 39.738081927356689 0 0 0 0 41.211572602493106 12.504765010926349 0 12.504765010926349 141.57074364672008 0 0 0 0 30.918507982628398 30.2899105316028 0 30.2899105316028 122.99481986826868 0 0 0 0 44.740578190903761 5.8853091631390271 0 5.8853091631390271 145.98295027520362 0 0 0 0 44.168241037570681 67.783385260126124 0 67.783385260126124 69.614129761801451 0 0 0 0 37.332468209591752 27.352104294419405 0 27.352104294419405 116.16772569825116 0 0 0 0 46.401171859206443 22.2167664795561 0 22.2167664795561 107.76344208866067 0 0 0 0 102.87150003412808 21.174007420246198 0 21.174007420246198 94.667091834078747 0 0 0 0 -20.071318725836989 37.231652824746561 0 37.231652824746561 72.912905367396888 0 0 0 0 18.589820968117522 72.409588036903187 0 72.409588036903187 73.865191070530273 0 0 0 0 -41.271928913545366 59.182666982847877 0 59.182666982847877 127.45093039736912 0 0 0 0 19.418677620696144 67.320627457076625 0 67.320627457076625 101.69883805167046 0 0 0 0 17.050753085820823 35.665018532193756 0 35.665018532193756 -10.899620078412575 0 0 0 0 -5.2778546254721039 14.06094132960208 0 14.06094132960208 80.666539407774394 0 0 0 0 -341.9408044811824 -77.244528273666219 0 -77.244528273666219 355.8483045467292 0 0 0 0 -4.5488534421859601 12.281671948463938 0 12.281671948463938 87.698709386293956 0 0 0 0 74.01660853761723 158.35800131202996 0 158.35800131202996 53.461007802994573 0 0 0 0 -242.15071638299912 107.82994167611105 0 107.82994167611105 137.12373254453996 0 0 0 0 46.311935882563375 102.18531354398874 0 102.18531354398874 39.335807990093599 0 0 0 0 203.38754082421019 -3.5043082448573841 0 -3.5043082448573841 74.253406293137232 0 0 0 0 64.966477529736039 -5.637679006846156 0 -5.637679006846156 144.83140057828859 0 0 0 0 51.448366164382605 2.6001604610864888 0 2.6001604610864888 149.45781850620551 0 0 0 0 42.762101102442102 -0.32086101098684594 0 -0.32086101098684594 159.42335280778389 0 0 0 0 40.997283426277136 5.3573705475864699 0 5.3573705475864699 147.61687023806735 0 0 0 0 49.894785998747466 -7.5589256008606753 0 -7.5589256008606753 159.64335395613307 0 0 0 0 81.087848466697324 22.180486804034445 0 22.180486804034445 164.07862005960487 0 0 0 0 39.932760254552704 7.6184384326188592 0 7.6184384326188592 185.29927496495657 0 0 0 0 99.158476110737865 -81.606344775469552 0 -81.606344775469552 277.29076208356855 0 0 0 0 0.73249259097246977 64.158679538246361 0 64.158679538246361 271.52109734158194 0 0 0 0 73.270611594405182 124.67932452308742 0 124.67932452308742 68.224694306845777 0 0 0 0 48.421149932395565 62.690655638638418 0 62.690655638638418 144.2395572992391 0 0 0 0 146.89802905380202 48.577668288526183 0 48.577668288526183 145.35441244060348 0 0 0 0 36.803112571349629 17.68219545307511 0 17.68219545307511 182.29403149202699 0 0 0 0 46.126416618775693 17.496063265352859 0 17.496063265352859 164.12997388363874 0 0 0 0 98.694641210629925 -5.4390809826145414 0 -5.4390809826145414 168.25781253981404 0 0 0 0 14.273981112215552 44.403814541910833 0 44.403814541910833 158.37377915499383 0 0 0 0 37.011434083833592 9.4922536729936837 0 9.4922536729936837 173.33183251789887 0 0 0 0 76.145475851689298 58.092729082934966 0 58.092729082934966 32.054301174459397 0 0 0 0 -0.2126765505405217 -0.18804685995812065 0 -0.18804685995812065 4.8261595369423276 0 0 0 0 36.466223619012453 64.634873318689642 0 64.634873318689642 138.24940704926848 0 0 0 0 19.347073879904201 13.779950643904158 0 13.779950643904158 27.069267674887669 0 0 0 0 40.941259261230698 -122.61424040770726 0 -122.61424040770726 54.842005916449125 0 0 0 0 -77.18832262761498 -62.641154145181645 0 -62.641154145181645 43.56663713119633 0 0 0 0 130.62363054551679 -2.9446364689028997 0 -2.9446364689028997 -22.363383121060906 0 0 0 0 17.627964547196825 -28.959810566499073 0 -28.959810566499073 -12.039956605003681 0 0 0 0 38.847001170273415 -37.420457480300684 0 -37.420457480300684 13.107294349982112 0 0 0 0 2.945675730154262 -2.8511657027641562 0 -2.8511657027641562 9.0620526279282672 0 0 0 0 -38.039817681507884 121.01111008907901 0 121.01111008907901 204.67446293812827 0 0 0 0 -1.243390263408811 1.9839056591260658 0 1.9839056591260658 4.9067297440788593 0 0 0 0 223.06257473887516 -68.645653778872656 0 -68.645653778872656 -20.048917403895757 0 0 0 0 -83.243413539372 -82.822864712481532 0 -82.822864712481532 22.398411107391439 0 0 0 0 -1.3918124631328137 12.341800703939171 0 12.341800703939171 69.096813550492243 0 0 0 0 4.0896018025065848 0.04290650734331436 0 0.04290650734331436 28.07439844173291 0 0 0 0 -51.445938254551038 86.981520061606716 0 86.981520061606716 -71.470176561284461 0 0 0 0 244.9706388035313 170.25321151242406 0 170.25321151242406 212.24911916500423 0 0 0 0 64.514872805476074 -10.074761566113011 0 -10.074761566113011 2.7951850685494719 0 0 0 0 -71.570123194102692 -117.78179187422211 0 -117.78179187422211 -82.29947551459918 0 0 0 0 7.9210161762129161 -12.10701449581947 0 -12.10701449581947 20.069180002408451 0 0 0 0 314.45156019671617 -197.72420677243417 0 -197.72420677243417 -145.21243269417027 0 0 0 0 328.17402761695473 154.57068696299666 0 154.57068696299666 -113.72466997920128 0 0 0 0 221.54115598579648 245.69457051096106 0 245.69457051096106 187.09675258876814 0 0 0 0 228.83354578715768 -387.37339743407938 0 -387.37339743407938 515.37734485226974 0 0 0 0 1412.1718418322309 1338.2577062359223 0 1338.2577062359223 1564.5260915673716 0 0 0 0 904.66609410471904 341.56673063532071 0 341.56673063532071 56.996050627392833 0 0 0 0 0.32476052582258191 1.6226477768811129 0 1.6226477768811129 12.01337461361237 0 0 0 0 154.91782217003791 466.17223497015948 0 466.17223497015948 3280.1760105453795 0 0 0 0 -51.995406323224358 1068.3296610135149 0 1068.3296610135149 3043.455812211796 0 0 0 0 -47.143788872747962 -299.76799859070161 0 -299.76799859070161 1720.0284914304793 0 0 0 0 -35.126728863293778 1201.4625747064929 0 1201.4625747064929 2980.9621636187057 0 0 0 0 118.45435024554261 585.45620017427063 0 585.45620017427063 5001.0401962519682 0 0 0 0 1410.1648746738636 2010.9243587602978 0 2010.9243587602978 2321.2529131175688 0 0 0 0 8.3773692272041966 6.0230736530818803 0 6.0230736530818803 17.980426854314317 0 0 0 0 1145.7655949001319 468.1962636365588 0 468.1962636365588 63.667977518955013 0 0 0 0 10.840100605572294 1.9913462630865979 0 1.9913462630865979 4966.5523613181576 0 0 0 0 59.165918311604294 2408.0546895008738 0 2408.0546895008738 4991.7611939615736 0 0 0 0 -242.75868969310301 1049.196750725343 0 1049.196750725343 3553.4182384744345 0 0 0 0 -22.759611922675958 69.820823314323206 0 69.820823314323206 97.660767919413047 0 0 0 0 -1.2911094735011919 4.3795184155832949 0 4.3795184155832949 3.8115973089729778 0 0 0 0 807.91272843669185 1970.3419371344135 0 1970.3419371344135 2580.3838747543632 0 0 0 0 116.93228768998321 428.30268302153036 0 428.30268302153036 484.35212859341118 0 0 0 0 118.19646258115654 24.029113873883034 0 24.029113873883034 -63.36419294010193 0 0 0 0 342.77301640909297 -130.63625591681466 0 -130.63625591681466 -96.077183571178466 0 0 0 0 297.72158444613979 81.495432465162594 0 81.495432465162594 -50.109301351687463 0 0 0 0 -278.08987305633309 -400.47914726196905 0 -400.47914726196905 344.60106335821911 0 0 0 0 -110.0332027107961 -253.77930440707132 0 -253.77930440707132 -121.11535574458685 0 0 0 0 -6.302024480756856 -10.385009226908394 0 -10.385009226908394 12.858708201506772 0 0 0 0 8.8652407939919975 -17.523032277303287 0 -17.523032277303287 2.9863207541365853 0 0 0 0 -78.580874606945144 -105.24904891922051 0 -105.24904891922051 -21.62188119613711 0 0 0 0 -226.5574870082105 -84.956878505010536 0 -84.956878505010536 32.491240489704069 0 0 0 0 24.582046598368834 -41.631975369527936 0 -41.631975369527936 17.582634020163823 0 0 0 0 163.97085000072161 -58.391006222984288 0 -58.391006222984288 -28.662198003352387 0 0 0 0 19.690555401111851 -2.675635362349567 0 -2.675635362349567 59.503097456443356 0 0 0 0 -79.138114867579418 -20.29964262485737 0 -20.29964262485737 20.631200075695233 0 0 0 0 -292.70291320092463 -223.48676479484129 0 -223.48676479484129 752.15010022608112 0 0 0 0 -226.84071608952922 -110.34735128413013 0 -110.34735128413013 -42.195383790531196 0 0 0 0 2.3990340684876905 2.8389641646602222 0 2.8389641646602222 0.24928041302865722 0 0 0 0 45.629654098246192 1.2005349484825274 0 1.2005349484825274 -21.598983551230049 0 0 0 0 0.23395505146498202 -2.3450915796470895 0 -2.3450915796470895 0.7351100237216599 0 0 0 0 38.254445568148185 -34.578446183026244 0 -34.578446183026244 -55.585933929454768 0 0 0 0 10.072065416620944 -19.574174103039695 0 -19.574174103039695 15.780068297288381 0 0 0 0 7.9582767308313258 -14.706583119876683 0 -14.706583119876683 9.5174686859688222 0 0 0 0 4.5758967563230168 -14.23631069535168 0 -14.23631069535168 20.012148746624462 0 0 0 0 15.26399170131123 -11.428895212315439 0 -11.428895212315439 9.3587851614072477 0 0 0 0 6.523140514039369 -14.89513038527366 0 -14.89513038527366 29.85632131795137 0 0 0 0 26.257597172019814 0.92967208777554333 0 0.92967208777554333 -5.0403407189878635 0 0 0 0 11.447946720491018 -12.133584084658651 0 -12.133584084658651 25.970749177897233 0 0 0 0 41.078261958722578 5.4861685512732947 0 5.4861685512732947 -38.582952374592423 0 0 0 0 35.076309702652452 24.808172507859126 0 24.808172507859126 -9.7202955344400834 0 0 0 0 16.055726183361003 0.63571004410187015 0 0.63571004410187015 15.451199593138881 0 0 0 0 16.908421861338866 -0.24411782219249289 0 -0.24411782219249289 15.29099533342378 0 0 0 0 6.7840471908021289 5.4529622917303708 0 5.4529622917303708 6.6194750962967532 0 0 0 0 19.418338675393898 -0.91495050913363229 0 -0.91495050913363229 14.605079689550621 0 0 0 0 18.055649090033373 0.99740883225993571 0 0.99740883225993571 14.068942389385029 0 0 0 0 19.167419094186698 0.57357019881965243 0 0.57357019881965243 18.237273447855841 0 0 0 0 12.061538606426121 9.7660829186340834 0 9.7660829186340834 22.875457691905225 0 0 0 0 10.449463775935968 3.3925071506769484 0 3.3925071506769484 22.158952554063319 0 0 0 0 4.6249255750990415 2.1347643896588124 0 2.1347643896588124 11.854406555590685 0 0 0 0 -2.2100354205678094 -1.3850344780327646 0 -1.3850344780327646 43.939767504702061 0 0 0 0 13.120556390093531 2.0607869539848309 0 2.0607869539848309 19.575881342389209 0 0 0 0 7.0089546549133956 -1.3537594966473989 0 -1.3537594966473989 19.540103287552483 0 0 0 0 4.0603879307418538 -1.2853125082619954 0 -1.2853125082619954 26.497713128046598 0 0 0 0 6.2570871468888072 3.5521299763640855 0 3.5521299763640855 21.74418022017926 0 0 0 0 21.911205814791533 -4.9066655015383986 0 -4.9066655015383986 13.52375441620552 0 0 0 0 12.246669420583419 -13.139617627554674 0 -13.139617627554674 19.512815366700465 0 0 0 0 5.0436190949149022 -2.9556544766237494 0 -2.9556544766237494 23.351205224636942 0 0 0 0 18.448262858471026 1.2518491563278076 0 1.2518491563278076 13.273703890794422 0 0 0 0 10.404138953483198 4.7395310029096436 0 4.7395310029096436 34.116211906741228 0 0 0 0 9.1510681700124792 4.88674584505452 0 4.88674584505452 51.637109976392821 0 0 0 0 9.8117135934335238 10.218689601315418 0 10.218689601315418 51.884189413314743 0 0 0 0 9.103845948326132 -0.26909760966734098 0 -0.26909760966734098 25.82062652641261 0 0 0 0 20.264872112172839 6.3296340521192178 0 6.3296340521192178 25.373669593391242 0 0 0 0 10.649348396409591 2.8031039682267931 0 2.8031039682267931 14.251958273587761 0 0 0 0 4.971404102564148 -1.6099619492606791 0 -1.6099619492606791 13.304250372252085 0 0 0 0 11.900546759609727 2.4945807870861074 0 2.4945807870861074 8.1230756800383972 0 0 0 0 192.14484193898966 -5.8242494495134451 0 -5.8242494495134451 -217.59619519492844 0 0 0 0 159.48189013044453 180.81295275786397 0 180.81295275786397 -56.221025589118653 0 0 0 0 -18.701573819632188 -41.228218063384702 0 -41.228218063384702 102.55863981600032 0 0 0 0 -108.69858119492955 139.59861154235114 0 139.59861154235114 121.51759667485021 0 0 0 0 3.6338406759739121 0.51954766085476223 0 0.51954766085476223 41.428690783897537 0 0 0 0 -5.0347624203950545 -0.38469663490832318 0 -0.38469663490832318 21.768811944661138 0 0 0 0 4.1217448639792034 6.6015592310542104 0 6.6015592310542104 47.303221892470049 0 0 0 0 -90.832049530750055 135.16882970737788 0 135.16882970737788 147.63600234594196 0 0 0 0 -79.679307199064596 137.64111108123325 0 137.64111108123325 -68.682847783507896 0 0 0 0 -442.0533873716895 -154.77392004262583 0 -154.77392004262583 76.263938901262009 0 0 0 0 -68.751367514314893 -80.747281347699754 0 -80.747281347699754 268.52728934261177 0 0 0 0 156.35157480448393 484.24210780272551 0 484.24210780272551 516.78252014724421 0 0 0 0 2.6637900853357288 12.768647819056394 0 12.768647819056394 69.664886336574682 0 0 0 0 -3.9240135373299938 -4.2974648556426445 0 -4.2974648556426445 8.1995304417336285 0 0 0 0 564.45337773469066 -93.605696195998462 0 -93.605696195998462 155.92207030132704 0 0 0 0 30.542521814807742 288.34909846750816 0 288.34909846750816 1053.5735743756231 0 0 0 0 -61.629423170131162 -295.79000444806479 0 -295.79000444806479 387.39567159711441 0 0 0 0 395.43708019597432 -878.45582230460423 0 -878.45582230460423 1853.7223203473623 0 0 0 0 -667.53616084046007 -22.200640994655259 0 -22.200640994655259 2747.0986011798595 0 0 0 0 3.5799871042403435 -1.3426103179202715 0 -1.3426103179202715 10.827029502144683 0 0 0 0 -805.82761127064009 -1249.326923114495 0 -1249.326923114495 4993.514216623531 0 0 0 0 1310.0727100627264 -2265.9834158745725 0 -2265.9834158745725 1923.6877692514608 0 0 0 0 504.23864496015022 -1187.834218339256 0 -1187.834218339256 2697.3163626949245 0 0 0 0 769.91040078290359 2178.8327536456345 0 2178.8327536456345 2078.6140794012317 0 0 0 0 1194.3363816157671 457.56076572906022 0 457.56076572906022 149.31487381237093 0 0 0 0 2.921265614365383 3.1416180550506425 0 3.1416180550506425 25.829307000581366 0 0 0 0 -893.48743665665802 1288.5512981136271 0 1288.5512981136271 4993.3585940308076 0 0 0 0 -646.52597427922922 141.71067095226954 0 141.71067095226954 2643.4964698670083 0 0 0 0 -231.89202327794217 -138.94439732762112 0 -138.94439732762112 715.02960142950906 0 0 0 0 271.67536579524557 61.887096745749659 0 61.887096745749659 363.87700725137256 0 0 0 0 172.31124762490481 808.68885379096901 0 808.68885379096901 1963.5484749359457 0 0 0 0 -137.30901546397979 -92.753257953358116 0 -92.753257953358116 1016.3851111277036 0 0 0 0 59.762165594514499 255.3999337201094 0 255.3999337201094 161.50013505054812 0 0 0 0 247.38697201420609 -164.60774519106053 0 -164.60774519106053 -19.752709386353672 0 0 0 0 -0.72038964346257606 1.4875842283963223 0 1.4875842283963223 -9.5572180655578904 0 0 0 0 -3.2345378378334595 -14.981121829435835 0 -14.981121829435835 40.581539944314045 0 0 0 0 1.0378930720679591 -40.58369505828523 0 -40.58369505828523 53.316688758961391 0 0 0 0 -5.0410864199774004 -10.493099825595948 0 -10.493099825595948 47.710311614402997 0 0 0 0 -44.606826019838877 20.446581285934371 0 20.446581285934371 84.50073723209789 0 0 0 0 -15.430265401172619 18.722224936354905 0 18.722224936354905 73.171987864880066 0 0 0 0 0.84693048183923514 2.3380410051135243 0 2.3380410051135243 9.3681969826783416 0 0 0 0 2.8544228939022105 -5.9085918347263942 0 -5.9085918347263942 29.963454525364796 0 0 0 0 -29.434979915051599 -273.27477556533995 0 -273.27477556533995 -356.17446643234871 0 0 0 0 0.47147883538536917 -14.742911837689462 0 -14.742911837689462 -3.420348436164204 0 0 0 0 7.0149912858803951 -5.4184411446134391 0 -5.4184411446134391 4.9745529510533402 0 0 0 0 8.8769626154067307 -19.622320515918332 0 -19.622320515918332 13.552897604624434 0 0 0 0 2.0040397335931717 -0.58241853476727101 0 -0.58241853476727101 21.966884396059854 0 0 0 0 0.91532698511491617 -3.9128839702461846 0 -3.9128839702461846 25.571493838288006 0 0 0 0 6.2911304223785809 7.4530916889370644 0 7.4530916889370644 22.18043809420238 0 0 0 0 5.2491009933610258 4.4706392209336627 0 4.4706392209336627 30.645868208855973 0 0 0 0 -0.48140249451397965 -7.842042791186941 0 -7.842042791186941 24.10217507161525 0 0 0 0 -1.4839513145729111 -4.929782055018407 0 -4.929782055018407 41.787491097519023 0 0 0 0 7.4035323739162777 5.9031467792083276 0 5.9031467792083276 51.069226381703629 0 0 0 0 -21.330076382414063 -18.648323934976361 0 -18.648323934976361 43.996395424022921 0 0 0 0 -9.8909784617955978 -5.4221087586522003 0 -5.4221087586522003 12.078465205561258 0 0 0 0 3.0211790932094118 -14.145231862530636 0 -14.145231862530636 43.382569225104817 0 0 0 0 -16.312453751132523 -27.089814163813571 0 -27.089814163813571 26.962984646859695 0 0 0 0 12.24179285278035 -18.449771763645913 0 -18.449771763645913 23.946041167713702 0 0 0 0 5.9095887865432815 -20.940267406382191 0 -20.940267406382191 23.176986240549013 0 0 0 0 -101.40264366494694 -7.2525008909433382 0 -7.2525008909433382 81.792394704541948 0 0 0 0 -82.312916102352688 -60.589990648120875 0 -60.589990648120875 41.286991843149735 0 0 0 0 -38.490818239862392 -18.01926257499872 0 -18.01926257499872 49.550664079579292 0 0 0 0 -15.233572494530563 6.8670129446109058 0 6.8670129446109058 61.811630794603843 0 0 0 0 -16.862215562265703 -13.874571155043668 0 -13.874571155043668 49.089121967321262 0 0 0 0 -16.427868018969633 -30.462266777846025 0 -30.462266777846025 53.480396216531517 0 0 0 0 20.057455967390069 38.169052275070044 0 38.169052275070044 123.53664370658225 0 0 0 0 4.8058762157388628 4.2830174665068625 0 4.2830174665068625 48.989660221654049 0 0 0 0 4.141330150907379 -1.3321527550942847 0 -1.3321527550942847 41.308906984675559 0 0 0 0 10.012620461196846 20.390609848218418 0 20.390609848218418 57.685288804885374 0 0 0 0 1.7598712520994582 5.2065968890033929 0 5.2065968890033929 49.983530365021977 0 0 0 0 22.124050755839562 26.159347530723608 0 26.159347530723608 80.475947146202088 0 0 0 0 12.525567970800385 0.071640412017586641 0 0.071640412017586641 5.2659651026045537 0 0 0 0 49.113834802214114 35.393144639587263 0 35.393144639587263 30.878623005119152 0 0 0 0 2.2385548387997023 2.5465931078126296 0 2.5465931078126296 0.050780740500215416 0 0 0 0 20.979330526217382 15.469478273837012 0 15.469478273837012 165.08037555957708 0 0 0 0 29.963716400307931 27.145236989588739 0 27.145236989588739 139.18827982057701 0 0 0 0 16.389002575388986 53.057960345444371 0 53.057960345444371 148.76978480617981 0 0 0 0 28.115585476596607 21.168922310873313 0 21.168922310873313 123.78407577587046 0 0 0 0 -15.617003218829412 -14.388005960496741 0 -14.388005960496741 20.726334297733047 0 0 0 0 -14.302784446070042 0.161395815264612 0 0.161395815264612 127.73402919234633 0 0 0 0 -125.61090878446116 -180.4727801302688 0 -180.4727801302688 27.86518215117394 0 0 0 0 -36.621236346704848 -176.19081510680553 0 -176.19081510680553 8.0463361636793707 0 0 0 0 40.188448700762819 8.431872247818319 0 8.431872247818319 148.51978454680648 0 0 0 0 38.763556705614064 -3.648238605739607 0 -3.648238605739607 157.23319921724033 0 0 0 0 -13.910694976614955 -14.271910734136156 0 -14.271910734136156 148.00806059819024 0 0 0 0 -255.22218075322098 -43.484576688191737 0 -43.484576688191737 230.90363881314988 0 0 0 0 -132.67381575120893 -51.796880746405805 0 -51.796880746405805 63.989902993227588 0 0 0 0 -354.63713425458866 -326.69371405918355 0 -326.69371405918355 233.53837566947914 0 0 0 0 -188.88274136239193 -147.09165462577948 0 -147.09165462577948 364.71231351582537 0 0 0 0 -119.54607187428985 -124.18556507387984 0 -124.18556507387984 220.38394254262676 0 0 0 0 -68.437480138852095 -158.86911974332179 0 -158.86911974332179 224.50311124287691 0 0 0 0 73.107973957324248 -360.08169936636114 0 -360.08169936636114 505.17289562578662 0 0 0 0 318.05797730320523 -80.312466500170558 0 -80.312466500170558 8.0336018501402577 0 0 0 0 43.683026032461385 13.157265356883727 0 13.157265356883727 7.8462585920351557 0 0 0 0 192.87466036438011 -120.82357170418982 0 -120.82357170418982 29.27148119112826 0 0 0 0 0.80184351637699702 -72.725833845703164 0 -72.725833845703164 -10.634213796976837 0 0 0 0 2.3172007852609795 -45.243978098136722 0 -45.243978098136722 0.24722532307350775 0 0 0 0 -26.159414161948007 144.36224897943612 0 144.36224897943612 186.12327234067925 0 0 0 0 -3.5361975149097935 7.0328986232275668 0 7.0328986232275668 40.333178423290121 0 0 0 0 3.5551616080765598 -6.7159105199534679 0 -6.7159105199534679 25.609064483338443 0 0 0 0 4.8900150153303912 -16.265191205980955 0 -16.265191205980955 28.793528736088774 0 0 0 0 1.0360233593181363 -1.6663837001311066 0 -1.6663837001311066 9.6742785082296905 0 0 0 0 -12.967552770257498 47.3697344573593 0 47.3697344573593 -96.833901906036772 0 0 0 0 215.29245200197965 -64.887546696139907 0 -64.887546696139907 -96.381059116130928 0 0 0 0 67.449035278709744 336.72370434860932 0 336.72370434860932 1021.4957076633436 0 0 0 0 171.20275442650745 43.800463884857891 0 43.800463884857891 38.465852948633255 0 0 0 0 1261.8412409698537 753.81316263939516 0 753.81316263939516 342.53904163755942 0 0 0 0 330.60146339064568 352.2669187315696 0 352.2669187315696 249.72374889953062 0 0 0 0 -19.14308445037932 413.80002544580202 0 413.80002544580202 707.99183296358387 0 0 0 0 129.0847597533193 516.14104130119085 0 516.14104130119085 608.58553585947084 0 0 0 0 -60.000126821407093 326.08854332608826 0 326.08854332608826 588.60561727458844 0 0 0 0 -64.077132901729783 313.98526556500292 0 313.98526556500292 640.63644615493104 0 0 0 0 68.350934760419477 424.32455305554322 0 424.32455305554322 496.95311124200816 0 0 0 0 -0.89929227963966696 232.12934131787915 0 232.12934131787915 377.14250181857642 0 0 0 0 39.877245724954264 263.41335590226117 0 263.41335590226117 318.59552327397978 0 0 0 0 89.522308088023237 88.688463661485002 0 88.688463661485002 98.871195976542367 0 0 0 0 -44.666817408832685 100.51556842026912 0 100.51556842026912 217.37184937589336 0 0 0 0 -12.206214871817792 50.341536059895589 0 50.341536059895589 209.32499534439557 0 0 0 0 -67.671617918709671 81.008501922631694 0 81.008501922631694 204.49874307995196 0 0 0 0 -97.194038828475186 -87.45482612743217 0 -87.45482612743217 -7.4392080755205825 0 0 0 0 -74.071460231556273 11.24666540495673 0 11.24666540495673 -42.18883270653896 0 0 0 0 -13.896347834186265 -6.096043445097294 0 -6.096043445097294 51.271738685939454 0 0 0 0 -57.819411731677292 -56.934601984045003 0 -56.934601984045003 22.988491750875255 0 0 0 0 -12.623639753243424 -46.756211012150743 0 -46.756211012150743 -4.5175745918531902 0 0 0 0 -32.893095019709563 -34.241921740671387 0 -34.241921740671387 43.637585558841238 0 0 0 0 -20.051554949660613 4.9413299920791616 0 4.9413299920791616 45.666763173551203 0 0 0 0 -64.264008848354933 -68.305380117410095 0 -68.305380117410095 46.897678215398628 0 0 0 0 -58.623168092800142 -21.309781310330436 0 -21.309781310330436 43.342438661580672 0 0 0 0 -1.0303672021946113 -18.486741571388848 0 -18.486741571388848 28.175884546653833 0 0 0 0 -10.628602707690877 -16.377014218197843 0 -16.377014218197843 22.332096425236386 0 0 0 0 -11.332493589154183 -15.009889053384541 0 -15.009889053384541 37.881663087413472 0 0 0 0 1.1595661048481816 -35.497115620652039 0 -35.497115620652039 4.640217328153085 0 0 0 0 -6.9054529977396371 -11.331489507120409 0 -11.331489507120409 26.647857471020188 0 0 0 0 -34.973655746010991 13.237611816643039 0 13.237611816643039 23.36009040279896 0 0 0 0 -7.1279560973870488 -5.4176853645896372 0 -5.4176853645896372 41.308450591828773 0 0 0 0 -42.160659750763443 32.934410847898107 0 32.934410847898107 -3.0931815267686034 0 0 0 0 0.1142532864558552 -3.245721908342091 0 -3.245721908342091 8.0814039669844249 0 0 0 0 -82.019555683705562 11.752034514080151 0 11.752034514080151 5.1822309615672566 0 0 0 0 -57.586521887308891 59.405823454180791 0 59.405823454180791 39.222595546554658 0 0 0 0 -22.19255296210946 -13.625811942903965 0 -13.625811942903965 -60.463126827875385 0 0 0 0 4.9480654706126188 31.823512146031135 0 31.823512146031135 8.6059494458895642 0 0 0 0 13.730097363803452 161.26692302292213 0 161.26692302292213 141.89329921551689 0 0 0 0 27.523220069874228 76.605902084710578 0 76.605902084710578 -56.966488307487452 0 0 0 0 -73.953934553850559 28.814269096154021 0 28.814269096154021 43.942460239428328 0 0 0 0 -66.560918313873799 -6.4685385564152966 0 -6.4685385564152966 101.51751296117436 0 0 0 0 -12.218888844283356 -29.438910662269336 0 -29.438910662269336 34.809608604584355 0 0 0 0 -168.7680594413971 -101.75087065493426 0 -101.75087065493426 41.698851279536029 0 0 0 0 755.54351000375584 -1153.713987487994 0 -1153.713987487994 896.97593693202361 0 0 0 0 7.9887901604966016 -13.22013499445336 0 -13.22013499445336 28.78140797451681 0 0 0 0 -203.86781992469355 -16.648676214950683 0 -16.648676214950683 226.26840734591315 0 0 0 0 -142.24868236014808 98.981888106827682 0 98.981888106827682 442.09465270167857 0 0 0 0 -394.59462058316149 1502.8767261761568 0 1502.8767261761568 4998.4275042524532 0 0 0 0 311.26481153162371 -442.05317637198459 0 -442.05317637198459 -85.66203506779857 0 0 0 0 4.494800377093898 -6.7072452628672181 0 -6.7072452628672181 11.702532205942958 0 0 0 0 -424.57678488622821 1120.7707153397387 0 1120.7707153397387 2243.132428568555 0 0 0 0 -558.99150237118488 -122.4835148404236 0 -122.4835148404236 4989.7770023862467 0 0 0 0 -0.62794712800553454 -4.6823067207522655 0 -4.6823067207522655 14.322084954375782 0 0 0 0 -369.46419802968626 938.24465665433308 0 938.24465665433308 972.22183097392553 0 0 0 0 -721.62922454243426 609.81814344386294 0 609.81814344386294 4971.9782837960229 0 0 0 0 177.15467427462087 -837.86164131100668 0 -837.86164131100668 1659.6168977990746 0 0 0 0 106.87647663717939 207.14991801866563 0 207.14991801866563 385.28223042375612 0 0 0 0 171.99276849289629 246.53098773380043 0 246.53098773380043 137.45491791084351 0 0 0 0 7.7959256833903749 -618.52841124831139 0 -618.52841124831139 -197.03238829388283 0 0 0 0 -9.7897306371393071 -18.279115312205818 0 -18.279115312205818 69.480343073798281 0 0 0 0 201.85474759258841 16.476265234632592 0 16.476265234632592 -199.46722646948183 0 0 0 0 -52.27118257354698 -197.65900281893846 0 -197.65900281893846 -160.52729661357989 0 0 0 0 -10.121887175474203 -12.20457185065564 0 -12.20457185065564 62.405532742651303 0 0 0 0 -7.7382894650942688 -39.798879362038861 0 -39.798879362038861 -13.889915004576324 0 0 0 0 -70.657456911928506 -50.31460326760498 0 -50.31460326760498 10.944524350983556 0 0 0 0 -84.388853135144245 -154.69011873431009 0 -154.69011873431009 2.0858522045309655 0 0 0 0 111.68777623871244 -171.38094458013802 0 -171.38094458013802 283.07353650142613 0 0 0 0 4.1792766588157519 -13.519461213840259 0 -13.519461213840259 52.677962094327086 0 0 0 0 -818.38175361270828 529.63456983408832 0 529.63456983408832 383.74041668800055 0 0 0 0 -2.3836526639389568 -1.7901026196322647 0 -1.7901026196322647 -5.5770858901599922 0 0 0 0 534.89943506263535 -212.33422057253483 0 -212.33422057253483 -331.81410495919408 0 0 0 0 9.2796996129313811 -133.32967261083832 0 -133.32967261083832 -10.178616948567651 0 0 0 0 -8.6580264251565016 -20.009584236513717 0 -20.009584236513717 -12.399834969410335 0 0 0 0 -509.61040105393522 474.54818157105183 0 474.54818157105183 239.57772852381459 0 0 0 0 743.09170535892792 -322.75404179935867 0 -322.75404179935867 -349.74819929618388 0 0 0 0 -2.9147696508591054 -2.4654999985737618 0 -2.4654999985737618 6.7861415090545734 0 0 0 0 -276.51369087490991 -304.54366976540223 0 -304.54366976540223 757.59167765415623 0 0 0 0 844.08560585634291 -1230.8673981804886 0 -1230.8673981804886 602.29204915111768 0 0 0 0 3.7410338047247444 -10.425295080773409 0 -10.425295080773409 13.200966640663921 0 0 0 0 1876.5426608239873 -1912.9797859673563 0 -1912.9797859673563 1322.7493249026011 0 0 0 0 -5.6169987831913346 -49.566563051645062 0 -49.566563051645062 4972.6820944437641 0 0 0 0 -66.403798273093926 -1527.6209581092626 0 -1527.6209581092626 4557.747472331539 0 0 0 0 -30.94826929493032 -2781.8712445179062 0 -2781.8712445179062 4986.886690569896 0 0 0 0 -47.592828118979412 -229.94093722470279 0 -229.94093722470279 2388.2031940460438 0 0 0 0 2.1735519889523247 -74.37103442453008 0 -74.37103442453008 1121.3880777867016 0 0 0 0 -2.7539633887497166 -2.1819838547433505 0 -2.1819838547433505 5.904286977156346 0 0 0 0 565.34627426819407 -857.27971879465622 0 -857.27971879465622 844.71727255170117 0 0 0 0 -235.19744143137802 -345.21570548877207 0 -345.21570548877207 617.88870958745247 0 0 0 0 641.59189717678976 -228.21734941197064 0 -228.21734941197064 22.712177017659997 0 0 0 0 759.89559510344702 -846.56301624274056 0 -846.56301624274056 1074.7503057627036 0 0 0 0 -0.60878898049421726 -1.4795215641081256 0 -1.4795215641081256 2.7672183822017473 0 0 0 0 8.8068361614032256 -223.20017314188317 0 -223.20017314188317 756.12066615000367 0 0 0 0 202.59759445436572 253.89725232055207 0 253.89725232055207 1392.6349429910842 0 0 0 0 -0.013188334699226091 -1.1353269604878733 0 -1.1353269604878733 18.354348670458421 0 0 0 0 -0.32886664593718373 0.58016383339418098 0 0.58016383339418098 8.1118463344953398 0 0 0 0 869.17159720115444 989.99635508928623 0 989.99635508928623 849.9055244706833 0 0 0 0 253.33332762883236 228.89726874287771 0 228.89726874287771 191.56621558978804 0 0 0 0 -49.022280641574525 93.800667494535446 0 93.800667494535446 344.71910867263796 0 0 0 0 -90.518950223829734 108.58779909485747 0 108.58779909485747 447.92711472643714 0 0 0 0 -22.209809165824538 125.48140579674055 0 125.48140579674055 381.87022699892987 0 0 0 0 -244.54574871453099 396.79681826729211 0 396.79681826729211 862.28069210302056 0 0 0 0 -111.99807722020978 78.635347422095947 0 78.635347422095947 408.37926113254798 0 0 0 0 -31.323120568016577 312.39736900091157 0 312.39736900091157 561.05424291361123 0 0 0 0 56.018392918414975 322.72198291498353 0 322.72198291498353 530.18036597159517 0 0 0 0 -61.200850593456607 306.46714772044652 0 306.46714772044652 543.25897242230712 0 0 0 0 121.83735060998293 271.20304168941948 0 271.20304168941948 490.54813346006267 0 0 0 0 414.23091996311621 439.48029748484987 0 439.48029748484987 508.1605636059976 0 0 0 0 254.22977745258149 455.47453843840049 0 455.47453843840049 521.83223296485085 0 0 0 0 -1.2118974074006896 -2.702205074399501 0 -2.702205074399501 11.257576314169739 0 0 0 0 3.4946579579377612 2.1822914889198728 0 2.1822914889198728 14.65188921688241 0 0 0 0 1.235747805361413 -10.676106342318235 0 -10.676106342318235 -6.0114648403314277 0 0 0 0 8.8658838769021031 -4.2739133976465382 0 -4.2739133976465382 20.207067602983443 0 0 0 0 -0.015453886852472537 -4.1038392281197389 0 -4.1038392281197389 7.4534493632426688 0 0 0 0 0.12693884116659504 -1.0205847116864248 0 -1.0205847116864248 -0.052624652508256986 0 0 0 0 0.057867819389458994 6.4708603221224621 0 6.4708603221224621 16.626849809385021 0 0 0 0 8.7912714876883111 14.807090394227998 0 14.807090394227998 24.269336963134265 0 0 0 0 -1.8825662477006937 -2.7219867413940761 0 -2.7219867413940761 7.1653457410308761 0 0 0 0 -1.7289904073520148 11.748378653574036 0 11.748378653574036 14.918475502694491 0 0 0 0 -0.059694783618194601 -22.341811411984963 0 -22.341811411984963 25.695650059147738 0 0 0 0 0.094668350413439961 0.45130475616363697 0 0.45130475616363697 1.3592302281168145 0 0 0 0 0.48024769232335762 1.8747530072765528 0 1.8747530072765528 3.550765476203253 0 0 0 0 -0.16139805215789238 66.445490535639692 0 66.445490535639692 94.422791168781259 0 0 0 0 15.559945683809929 58.634782004780391 0 58.634782004780391 196.64280011769188 0 0 0 0 -292.31150815625733 -2.2794781475271293 0 -2.2794781475271293 752.72717299609576 0 0 0 0 -12.033226369472686 75.901550924188996 0 75.901550924188996 380.33422114374525 0 0 0 0 6.285899254558899 65.702998664164625 0 65.702998664164625 94.002953366209113 0 0 0 0 13.684678229299607 51.732556720373395 0 51.732556720373395 120.37983365586842 0 0 0 0 -19.69924320076106 65.831608572820826 0 65.831608572820826 97.62527351202057 0 0 0 0 -6.1889172594892443 -156.73042356839983 0 -156.73042356839983 346.83910636776625 0 0 0 0 -367.79768568484315 358.821573165416 0 358.821573165416 -390.84431202694395 0 0 0 0 -0.26329055765282305 0.61749206939827417 0 0.61749206939827417 3.204768247480545 0 0 0 0 -89.836471545124368 -60.003768430508671 0 -60.003768430508671 321.25059999915175 0 0 0 0 -43.883771546170465 -45.397519682056554 0 -45.397519682056554 277.60058129097024 0 0 0 0 -80.994792820158182 -25.566572259548593 0 -25.566572259548593 444.53597787912076 0 0 0 0 -7.4898191043466795 13.562515712680579 0 13.562515712680579 240.35736025974074 0 0 0 0 -53.863486757250939 -47.389698907583806 0 -47.389698907583806 380.64859584016995 0 0 0 0 -12.893959176844874 -19.981902924607652 0 -19.981902924607652 178.96352540228099 0 0 0 0 -64.74765024719818 1.9836310545233573 0 1.9836310545233573 195.53713822377074 0 0 0 0 -9.7660975967737613 2.0549447953426352 0 2.0549447953426352 236.80810878615739 0 0 0 0 -0.83692935965626702 0.19139575502381589 0 0.19139575502381589 -1.6251765525383577 0 0 0 0 -103.5676482485469 -81.71279061799919 0 -81.71279061799919 255.51866448900137 0 0 0 0 5.5243687945257989 -6.454434393682277 0 -6.454434393682277 177.30738930175733 0 0 0 0 -2.3741283102243784 -1.0471947045094439 0 -1.0471947045094439 28.346994853028065 0 0 0 0 5.6574209584386423 45.642251688482432 0 45.642251688482432 92.5022747565028 0 0 0 0 -17.048560623989033 32.113232921152985 0 32.113232921152985 67.10763948039812 0 0 0 0 -136.76775958310463 107.06159939040981 0 107.06159939040981 222.65158613138829 0 0 0 0 11.097990369711624 -36.431933230273216 0 -36.431933230273216 148.02705094626526 0 0 0 0 4.7576959159341641 51.688502908280498 0 51.688502908280498 61.773423868318787 0 0 0 0 0.73845748895347896 29.366074792850924 0 29.366074792850924 77.802891990062932 0 0 0 0 5.9504338485348853 51.739400170918088 0 51.739400170918088 55.818245202681283 0 0 0 0 1.5286764783231774 56.969639924718649 0 56.969639924718649 50.304658876870235 0 0 0 0 -10.29723333165748 45.307602651497291 0 45.307602651497291 58.086754697837023 0 0 0 0 -25.276805355140823 2.3703384777763858 0 2.3703384777763858 291.47717872596149 0 0 0 0 4.7179346794222141 0.096227004482322798 0 0.096227004482322798 25.469877191317273 0 0 0 0 -4.8833388617422315 59.792719155113446 0 59.792719155113446 56.738765126145154 0 0 0 0 -4.7532438543194075 60.068672957864692 0 60.068672957864692 11.973819385020761 0 0 0 0 -14.450072915849887 34.527720768597646 0 34.527720768597646 37.087759401634685 0 0 0 0 -13.089076848234981 86.110996595256438 0 86.110996595256438 44.302514554743539 0 0 0 0 -3.5207594850726309 63.268372111408098 0 63.268372111408098 50.997876844718121 0 0 0 0 -14.351880076967063 83.206544046330237 0 83.206544046330237 66.770000168544357 0 0 0 0 -13.157711995918362 73.257989771122084 0 73.257989771122084 89.703875444261939 0 0 0 0 -20.010188268213824 102.20522466899274 0 102.20522466899274 81.285843206183927 0 0 0 0 -14.600929494300544 80.892779158879421 0 80.892779158879421 50.684761734315543 0 0 0 0 4.2525074450823013 48.886423711664975 0 48.886423711664975 84.394828869255434 0 0 0 0 -1.7774644295786857 57.177588746773836 0 57.177588746773836 80.100128112797393 0 0 0 0 -3.4529925577589893 64.766624278621748 0 64.766624278621748 60.065332139607563 0 0 0 0 -10.94895908961189 71.635562964751443 0 71.635562964751443 77.17998711006021 0 0 0 0 -5.4493632002668164 61.929717320483178 0 61.929717320483178 93.848890900568222 0 0 0 0 -2.9964150796295144 69.488434616774612 0 69.488434616774612 91.149090847560728 0 0 0 0 -2.589866591617465 66.360524712788902 0 66.360524712788902 102.82556270805799 0 0 0 0 -21.219060729719786 70.603353338050511 0 70.603353338050511 102.96469779078325 0 0 0 0 -27.911950613721274 82.712974723646767 0 82.712974723646767 91.190226290413193 0 0 0 0 -29.77642119691518 95.324808040133576 0 95.324808040133576 84.767562934168382 0 0 0 0 -29.070271226068144 88.847100699778821 0 88.847100699778821 111.82670199207496 0 0 0 0 -44.863856274168938 90.639096950159001 0 90.639096950159001 112.97316394873633 0 0 0 0 -44.12037025396603 96.136583608547426 0 96.136583608547426 129.17008413038275 0 0 0 0 -38.71086528331216 75.958666557537072 0 75.958666557537072 130.98432092876465 0 0 0 0 -70.411718282251968 58.278830448783992 0 58.278830448783992 121.40473538092556 0 0 0 0 -66.668284548522934 80.98361261651371 0 80.98361261651371 173.72432526216289 0 0 0 0 -55.007522190790041 42.011839546641568 0 42.011839546641568 110.90720233648062 0 0 0 0 -39.962304310285049 55.719477710961883 0 55.719477710961883 101.8549923937826 0 0 0 0 -39.268929563146941 13.323607919835467 0 13.323607919835467 73.089081232390186 0 0 0 0 -91.945773537902369 2.6698564147336583 0 2.6698564147336583 84.207822125466919 0 0 0 0 -88.682411012082412 3.9116426225664327 0 3.9116426225664327 84.679996034697979 0 0 0 0 4.8618075860395038 74.736775554338237 0 74.736775554338237 99.254547835938865 0 0 0 0 -43.120025384466054 27.373067553291293 0 27.373067553291293 65.89233656608792 0 0 0 0 -89.925421640705736 9.3845364736225747 0 9.3845364736225747 79.597670210139768 0 0 0 0 4.8489317819767166 74.481798188942776 0 74.481798188942776 104.92950448658667 0 0 0 0 -2.291025475897186 66.303914823287414 0 66.303914823287414 104.2897235579876 0 0 0 0 61.46321397574502 -102.76733293682423 0 -102.76733293682423 192.93815750146587 0 0 0 0 -500.67879980339058 422.97919411208841 0 422.97919411208841 -192.97534975003691 0 0 0 0 -46.696096343861193 -11.654087367398393 0 -11.654087367398393 73.190351613730385 0 0 0 0 -88.039474948274574 19.049168120677905 0 19.049168120677905 69.443023338557396 0 0 0 0 -365.78474373969948 348.22866045997671 0 348.22866045997671 -363.15532525976596 0 0 0 0 -36.670015716482567 -30.0634132822629 0 -30.0634132822629 57.419017179912771 0 0 0 0 -45.173802971017722 0.8611151133372914 0 0.8611151133372914 65.861031691849348 0 0 0 0 -66.525358458031405 9.0387066052935552 0 9.0387066052935552 67.674216495924156 0 0 0 0 -88.756914106416843 2.9513267758993607 0 2.9513267758993607 81.09694626849523 0 0 0 0 -71.429593446498984 -7.0416544806830643 0 -7.0416544806830643 78.65826020653185 0 0 0 0 -86.842448072691695 -15.580430687397893 0 -15.580430687397893 81.609587601267776 0 0 0 0 -122.7030270727837 -24.793610504122626 0 -24.793610504122626 82.801757176464889 0 0 0 0 -75.366980579845404 -39.043027468280343 0 -39.043027468280343 61.663368336601707 0 0 0 0 -62.018891517230259 -37.967323229840986 0 -37.967323229840986 61.711060232293676 0 0 0 0 -62.608139968581781 -39.684218356171186 0 -39.684218356171186 56.713966737661394 0 0 0 0 -48.920581134534586 -39.673076759681862 0 -39.673076759681862 55.720689359197422 0 0 0 0 -41.112124027796881 -36.011803244122348 0 -36.011803244122348 57.617730666286661 0 0 0 0 -187.30753092348459 121.60086660859997 0 121.60086660859997 -60.463886761982394 0 0 0 0 -48.39592018174168 1.0959961193064274 0 1.0959961193064274 50.330553239628273 0 0 0 0 -5.4791998358959688 6.2860563656909356 0 6.2860563656909356 4.0297585248540146 0 0 0 0 -199.54934682527528 143.4036764378784 0 143.4036764378784 -62.88929727793402 0 0 0 0 -23.564163225979428 36.96228448650163 0 36.96228448650163 -7.0053782129880346 0 0 0 0 -230.52638742947784 131.78132323131445 0 131.78132323131445 -16.785568726550082 0 0 0 0 -13.465370496480318 23.181671752135117 0 23.181671752135117 -7.8910922082525303 0 0 0 0 -19.239756915943872 30.504085316927785 0 30.504085316927785 -1.5467668826868248 0 0 0 0 -50.181749808456516 14.590425775416406 0 14.590425775416406 -9.8394942683680711 0 0 0 0 -166.36520282599668 132.73052722031343 0 132.73052722031343 -93.789978630077712 0 0 0 0 -55.326873758254806 13.079371028081823 0 13.079371028081823 -8.193303721387565 0 0 0 0 -60.762836167064961 1.8693732736944639 0 1.8693732736944639 -7.4046562311100388 0 0 0 0 -16.20762486843887 -2.4736210279271518 0 -2.4736210279271518 15.411140065997415 0 0 0 0 -59.997799717595626 7.2727638424511838 0 7.2727638424511838 -7.5049897644785233 0 0 0 0 -22.373330399052065 9.446511871248731 0 9.446511871248731 8.1928046416105644 0 0 0 0 -22.842986014928403 8.0512719753775528 0 8.0512719753775528 15.050567231609794 0 0 0 0 -22.669676395276781 13.82480850698898 0 13.82480850698898 10.962107356458663 0 0 0 0 -51.59082817104354 3.9758509044272614 0 3.9758509044272614 -8.8688796507931329 0 0 0 0 -48.204299943405204 10.780022846335669 0 10.780022846335669 -9.2253681043011966 0 0 0 0 -8.9221112930364299 2.3021988611265023 0 2.3021988611265023 7.0517615143736219 0 0 0 0 -15.210161997278192 -2.6671770647236599 0 -2.6671770647236599 -1.4689348176684689 0 0 0 0 -33.148841520277529 21.20175427386296 0 21.20175427386296 -21.606455739314697 0 0 0 0 -53.478331521298969 4.2353027055424946 0 4.2353027055424946 -2.7989376941268347 0 0 0 0 -5.4185071105302676 1.5621158789069938 0 1.5621158789069938 -0.36980672810925252 0 0 0 0 -40.790267503467476 -4.4860694334912523 0 -4.4860694334912523 -11.24006921663613 0 0 0 0 -5.2081262225292448 63.020176606901146 0 63.020176606901146 -35.556648213651442 0 0 0 0 46.992859135543767 -17.896415123923077 0 -17.896415123923077 -34.69588968167227 0 0 0 0 55.367890403049387 8.4630838582447723 0 8.4630838582447723 -26.698500440089333 0 0 0 0 -63.749591292602418 41.391176691684905 0 41.391176691684905 216.80850232346393 0 0 0 0 -20.016164172717254 98.947785540652035 0 98.947785540652035 131.62617760544072 0 0 0 0 -46.818660470169561 34.647875941434904 0 34.647875941434904 105.12528020327238 0 0 0 0 -43.202325044250756 5.9072753793411721 0 5.9072753793411721 213.45218698121471 0 0 0 0 21.752354547952564 -16.58053473805262 0 -16.58053473805262 14.381601907994991 0 0 0 0 12.74898112286246 -28.829442000332506 0 -28.829442000332506 76.772224916043342 0 0 0 0 2.5489229420636548 45.911372666186026 0 45.911372666186026 48.916353570098181 0 0 0 0 23.58168254091288 46.985943263142417 0 46.985943263142417 -11.154077993512033 0 0 0 0 6.3773077657970134 51.950595973104555 0 51.950595973104555 -3.2984985114535448 0 0 0 0 6.5520965685645933 49.649936054498994 0 49.649936054498994 4.781960025497483 0 0 0 0 -19.552540725100698 49.221585797009539 0 49.221585797009539 97.08377656675566 0 0 0 0 -80.984111345773272 -43.334811934354775 0 -43.334811934354775 85.720394296381528 0 0 0 0 -66.790581846597433 -50.917984657406748 0 -50.917984657406748 120.30652343462452 0 0 0 0 -68.465452965945587 -37.875229043491572 0 -37.875229043491572 66.160446940643396 0 0 0 0 -71.834963564878308 -10.046931064702079 0 -10.046931064702079 94.01722352557681 0 0 0 0 -72.358720827417528 -15.786594522031152 0 -15.786594522031152 46.467459667096591 0 0 0 0 -111.82323240365895 -4.5477917107990038 0 -4.5477917107990038 35.545264222524565 0 0 0 0 -110.9475379044452 0.31940539900551812 0 0.31940539900551812 56.088099312652048 0 0 0 0 -86.745017056273355 -14.582629511286996 0 -14.582629511286996 2.0258666776462633 0 0 0 0 -68.489708241657354 -44.957034266109076 0 -44.957034266109076 49.121904685454979 0 0 0 0 -81.382414626255922 -51.510341985558853 0 -51.510341985558853 68.942324354458378 0 0 0 0 -2.9313451676795079 -4.5247397538113603 0 -4.5247397538113603 14.002196722679164 0 0 0 0 -237.17959546917155 24.778490240717701 0 24.778490240717701 53.055440249951971 0 0 0 0 -218.48849591782346 23.693534641736278 0 23.693534641736278 42.919261755265325 0 0 0 0 -106.13051062363957 -10.133594821931183 0 -10.133594821931183 -0.78799724133421023 0 0 0 0 -109.49540683643136 -7.9881396102616691 0 -7.9881396102616691 8.2473458763106464 0 0 0 0 -171.40805790651939 36.112816991233558 0 36.112816991233558 -10.461816159175896 0 0 0 0 -115.20583516800252 -15.962801573244178 0 -15.962801573244178 35.41516988091098 0 0 0 0 -209.07714597279119 18.297248058013793 0 18.297248058013793 52.436363768210867 0 0 0 0 -165.79117960843723 25.522192615428139 0 25.522192615428139 33.793017013255422 0 0 0 0 -176.26523350310163 1.885744141657824 0 1.885744141657824 39.158418661118048 0 0 0 0 -171.80032468739955 55.677672928326501 0 55.677672928326501 -62.335996210300891 0 0 0 0 -330.64478084878647 -76.355871351677251 0 -76.355871351677251 7.549395142312278 0 0 0 0 -235.4648343168883 71.226838577070168 0 71.226838577070168 4.9818960441689342 0 0 0 0 -11.14129207082442 -25.205167333763256 0 -25.205167333763256 -33.486851518184267 0 0 0 0 -2.3339202550336644 -2.6195523461739896 0 -2.6195523461739896 11.253289591553695 0 0 0 0 149.97384479919128 118.65248131495741 0 118.65248131495741 142.02424579576223 0 0 0 0 -64.052376324307261 -181.42859334274647 0 -181.42859334274647 153.51854314985644 0 0 0 0 -104.84402330275043 -12.157633369628456 0 -12.157633369628456 -69.836806914244789 0 0 0 0 -61.49415477184084 -97.225190138893197 0 -97.225190138893197 -11.230119678585169 0 0 0 0 -46.980624865158461 -85.132096750849996 0 -85.132096750849996 15.213947568244748 0 0 0 0 -59.865565255557158 -102.90480659038644 0 -102.90480659038644 80.600158170812847 0 0 0 0 -76.807342984029674 -77.035709963058252 0 -77.035709963058252 74.845190345985884 0 0 0 0 -93.476464013314398 -143.37161820028547 0 -143.37161820028547 197.57007422114384 0 0 0 0 -53.190398179744079 -157.75035868259016 0 -157.75035868259016 90.116622092031903 0 0 0 0 -77.404985142593887 -93.711526273837734 0 -93.711526273837734 168.71307977373954 0 0 0 0 -77.652655687270453 -89.949679287673462 0 -89.949679287673462 118.59847557192279 0 0 0 0 -140.32747961129098 -183.55857495787029 0 -183.55857495787029 383.3528071297942 0 0 0 0 -102.35728925331205 -111.61732665099714 0 -111.61732665099714 210.87545163289619 0 0 0 0 -0.14851120949165164 -1.3797508962429319 0 -1.3797508962429319 5.3437728080580333 0 0 0 0 84.69202397373374 109.45772388587625 0 109.45772388587625 274.31498782427502 0 0 0 0 141.31900228215454 -177.14408422121778 0 -177.14408422121778 148.32466018024388 0 0 0 0 -141.78203565447257 7.6706341033793706 0 7.6706341033793706 483.19268447033107 0 0 0 0 -168.70079835362958 27.700702016279592 0 27.700702016279592 321.96997962011301 0 0 0 0 -154.12656232453264 -47.04841779516903 0 -47.04841779516903 292.50943476631983 0 0 0 0 -151.53749326466641 17.188665903815945 0 17.188665903815945 341.17652282611607 0 0 0 0 -170.3770283756603 -31.747105556955148 0 -31.747105556955148 303.16705973550683 0 0 0 0 -62.101488106050965 -29.640283218680793 0 -29.640283218680793 302.13493787575953 0 0 0 0 -85.159855668927776 16.128794256287279 0 16.128794256287279 211.34979372845601 0 0 0 0 -80.918315944523783 55.342415258820665 0 55.342415258820665 306.14559367094625 0 0 0 0 -65.999611480190651 49.929649155280003 0 49.929649155280003 220.59037949681226 0 0 0 0 -19.102870754853939 146.21061694393791 0 146.21061694393791 418.08627489914397 0 0 0 0 -85.051150777439034 -89.587673300044571 0 -89.587673300044571 484.58541203808244 0 0 0 0 -106.32018311137654 -61.088335265861133 0 -61.088335265861133 192.01842006314541 0 0 0 0 -86.460219714614595 -64.315272311338646 0 -64.315272311338646 190.38307258838859 0 0 0 0 -60.64112223054326 -121.86866571148312 0 -121.86866571148312 89.18854664235505 0 0 0 0 -107.42453170928638 -50.379802612256952 0 -50.379802612256952 135.22971340931872 0 0 0 0 -41.384892989454556 -19.361308761026066 0 -19.361308761026066 68.870581056719402 0 0 0 0 -73.808252263937902 111.42885215694878 0 111.42885215694878 355.94051527232386 0 0 0 0 4.8912157927017432 -3.1721900154917968 0 -3.1721900154917968 -1.7032737000364353 0 0 0 0 -20.12438311275946 -92.815650662169674 0 -92.815650662169674 -33.136871780659476 0 0 0 0 -27.121663063346205 67.068329543895288 0 67.068329543895288 266.36095842807163 0 0 0 0 -86.458135082524677 12.492418062771321 0 12.492418062771321 127.89684384298505 0 0 0 0 -172.00493304818156 -89.824675181111616 0 -89.824675181111616 28.298490959423361 0 0 0 0 -46.073290333906698 -27.850324595925372 0 -27.850324595925372 135.64177509862384 0 0 0 0 -123.20039003851161 34.574094842743762 0 34.574094842743762 70.764029191021109 0 0 0 0 49.480590355644381 -102.32558728496315 0 -102.32558728496315 -153.24733680896452 0 0 0 0 -22.033309231417661 -199.17876405253674 0 -199.17876405253674 -193.91376980688983 0 0 0 0 1.5861748299702612 -0.67188621386067526 0 -0.67188621386067526 0.84087106173344939 0 0 0 0 -79.959636531501928 -89.650603576984054 0 -89.650603576984054 14.833405570590003 0 0 0 0 -342.69901406261124 -187.61945793878749 0 -187.61945793878749 29.067113112670086 0 0 0 0 -404.20959226557807 96.923674636531359 0 96.923674636531359 -18.933613281167709 0 0 0 0 -3.5550243253265563 0.42212822222493074 0 0.42212822222493074 0.56592945523239191 0 0 0 0 176.61508281833812 -98.793489470051099 0 -98.793489470051099 -94.577172121261356 0 0 0 0 -244.77568685981714 41.749351321141148 0 41.749351321141148 157.98254543950316 0 0 0 0 -340.57295479135792 -141.11433122438609 0 -141.11433122438609 181.63862654756667 0 0 0 0 -362.50087148679722 -33.552547273954133 0 -33.552547273954133 215.60787389306279 0 0 0 0 -263.42475556023419 -22.512210121467433 0 -22.512210121467433 208.69931174275825 0 0 0 0 -170.35417342274741 -105.39025756961792 0 -105.39025756961792 257.40656325472082 0 0 0 0 -87.157343462327844 17.809154813003261 0 17.809154813003261 154.58404965234422 0 0 0 0 25.789445143555895 -54.986890514137713 0 -54.986890514137713 131.71775553112093 0 0 0 0 42.207174945368024 -141.96487658326987 0 -141.96487658326987 127.84876131597548 0 0 0 0 14.606103847369013 -110.48110456826089 0 -110.48110456826089 117.42779230039559 0 0 0 0 -69.236826456613926 -140.4931281553911 0 -140.4931281553911 225.91131670206596 0 0 0 0 -3.6414458032159018 -170.55351731497467 0 -170.55351731497467 238.75069077151056 0 0 0 0 -206.67086719982763 -89.482887315734843 0 -89.482887315734843 274.905879400495 0 0 0 0 -82.252859548215383 -87.928925498971239 0 -87.928925498971239 181.28705749266373 0 0 0 0 -146.27948493511212 -62.724280521424589 0 -62.724280521424589 171.44783574729354 0 0 0 0 -266.41539708477649 -5.1945922131399129 0 -5.1945922131399129 197.22128656512359 0 0 0 0 -144.33005133194229 -9.8631937221138344 0 -9.8631937221138344 190.55131337643616 0 0 0 0 -257.0846462300542 -22.680448454078942 0 -22.680448454078942 228.27005458163148 0 0 0 0 -249.9202215835121 -13.659729611449166 0 -13.659729611449166 168.92975920382742 0 0 0 0 -223.21745719640239 -16.79131312609934 0 -16.79131312609934 196.98121005879511 0 0 0 0 -278.17406712510819 43.140568173159863 0 43.140568173159863 160.83593650998955 0 0 0 0 -307.76299448138161 29.890280856834579 0 29.890280856834579 207.90879231060899 0 0 0 0 -289.64318850408563 -3.8192555568650732 0 -3.8192555568650732 135.74768869138643 0 0 0 0 -286.89102838078543 -27.034625336124918 0 -27.034625336124918 215.1649696916993 0 0 0 0 45.619046714102296 27.818292401722829 0 27.818292401722829 -44.618122319744089 0 0 0 0 -16.862591032212748 -3.3037045318442537 0 -3.3037045318442537 7.1392547619626239 0 0 0 0 -33.166635268049504 -56.186459476450182 0 -56.186459476450182 165.3964652368677 0 0 0 0 -50.013166435128369 27.074771094025436 0 27.074771094025436 71.600562562817686 0 0 0 0 41.083385527439532 -109.2897212293592 0 -109.2897212293592 87.765117941761673 0 0 0 0 -8.9892410655224353 -1.7891868892694482 0 -1.7891868892694482 -0.56708076336261115 0 0 0 0 -106.09457292126899 -48.651812678976967 0 -48.651812678976967 70.973173062464866 0 0 0 0 96.946962017762417 87.979968126179301 0 87.979968126179301 105.68467892026138 0 0 0 0 125.3625627574711 43.296659815888233 0 43.296659815888233 99.64597906794188 0 0 0 0 -3.3470145878973199 -99.965635890477131 0 -99.965635890477131 97.712187409906619 0 0 0 0 101.56015755250701 -122.9541758406649 0 -122.9541758406649 81.130648496696267 0 0 0 0 -14.917336526482813 8.4694609733090829 0 8.4694609733090829 67.708542369207862 0 0 0 0 41.14121657159194 -143.39491963522005 0 -143.39491963522005 148.94183574917042 0 0 0 0 139.25706361451739 -196.37277029327925 0 -196.37277029327925 165.43734512062656 0 0 0 0 152.68869182319213 -121.72945581756983 0 -121.72945581756983 113.6005216216945 0 0 0 0 91.596294812946326 -36.142309685156249 0 -36.142309685156249 35.132993883034942 0 0 0 0 87.402597695116128 -136.92725031830923 0 -136.92725031830923 132.21139648423559 0 0 0 0 115.42710755620283 -125.15701584977251 0 -125.15701584977251 136.78485162572906 0 0 0 0 0.1527471473156794 0.52706075752601222 0 0.52706075752601222 2.4211262156704123 0 0 0 0 -67.108607226655295 105.22161343310381 0 105.22161343310381 -33.448589067511421 0 0 0 0 96.384375842124427 -43.957829721599865 0 -43.957829721599865 27.611650787917824 0 0 0 0 69.523469649760955 30.834177127117073 0 30.834177127117073 -37.801658616430359 0 0 0 0 41.268163962762628 -30.866570623580628 0 -30.866570623580628 47.363099321692061 0 0 0 0 10.929255651812127 14.549116245392725 0 14.549116245392725 430.43202220340862 0 0 0 0 14.670794157599943 -15.157133340456246 0 -15.157133340456246 21.771036126681523 0 0 0 0 -5.581104874421726 55.420071254793584 0 55.420071254793584 423.07685763040399 0 0 0 0 53.359564079699339 16.496648727777938 0 16.496648727777938 49.146069435846584 0 0 0 0 -2.4203514171546345 11.085764829559494 0 11.085764829559494 27.790084367866271 0 0 0 0 -9.4233264946578856 6.1766261973334622 0 6.1766261973334622 32.743274645103156 0 0 0 0 66.46674702386008 40.253143910947074 0 40.253143910947074 212.07648269291167 0 0 0 0 12.397804453054903 1.7952771867586748 0 1.7952771867586748 6.5343499153359801 0 0 0 0 -7.8039497128484072 63.054697635710909 0 63.054697635710909 109.68979398057127 0 0 0 0 1.0514160867532354 -2.1086073757284751 0 -2.1086073757284751 12.230251599618171 0 0 0 0 -63.791230018898204 47.516550681521039 0 47.516550681521039 128.91629738255142 0 0 0 0 -17.651766482333187 5.1794138117438706 0 5.1794138117438706 83.194806704170333 0 0 0 0 -26.387784060962986 -79.775487155492669 0 -79.775487155492669 50.585792960667277 0 0 0 0 -12.546633884225301 -14.337830183341154 0 -14.337830183341154 42.530186870891484 0 0 0 0 76.635824350511029 11.93103746140946 0 11.93103746140946 19.746797363019141 0 0 0 0 -27.638615265619592 -138.97839237856897 0 -138.97839237856897 153.57876556742849 0 0 0 0 -40.10374094825238 1.7827948113763341 0 1.7827948113763341 198.58620478912508 0 0 0 0 1.6340810296054897 -21.793875858501078 0 -21.793875858501078 54.547810923808768 0 0 0 0 130.86428704791251 62.194429707864401 0 62.194429707864401 -44.481343142324477 0 0 0 0 9.3510745438616141 -30.916105221851922 0 -30.916105221851922 147.34658706142454 0 0 0 0 33.357770347156475 -22.761548832502513 0 -22.761548832502513 118.68207809351679 0 0 0 0 19.524943687749328 -18.259713970346183 0 -18.259713970346183 114.72753586971112 0 0 0 0 9.0704547712158359 -3.261392415264579 0 -3.261392415264579 21.623439047629571 0 0 0 0 34.616966043715365 -2.3962740861725251 0 -2.3962740861725251 119.72293548817015 0 0 0 0 -29.863471022374142 -6.4786578582788934 0 -6.4786578582788934 125.19416844251236 0 0 0 0 -21.624997585924575 14.127920747203916 0 14.127920747203916 68.531903146049899 0 0 0 0 -22.443226267088903 10.252769219703623 0 10.252769219703623 288.20511120258016 0 0 0 0 29.688707405045534 162.5269228122479 0 162.5269228122479 19.79169073263256 0 0 0 0 -15.52838246376632 -47.67231998891657 0 -47.67231998891657 326.97205373042743 0 0 0 0 -15.439136769135075 14.557056534493313 0 14.557056534493313 114.51047710420607 0 0 0 0 -0.28721873212650451 -1.0958073223671008 0 -1.0958073223671008 18.486842274414876 0 0 0 0 16.2854507731128 2.4775830655264102 0 2.4775830655264102 16.946511327417713 0 0 0 0 -5.4618830134804739 55.662416398472487 0 55.662416398472487 315.99461554380105 0 0 0 0 19.88415095245 -1.1988212156666123 0 -1.1988212156666123 108.91447597168371 0 0 0 0 28.12889886488847 -27.985408264998114 0 -27.985408264998114 241.30765193913248 0 0 0 0 -14.626898611199621 7.0657585253933917 0 7.0657585253933917 26.802104641466229 0 0 0 0 12.607828692620387 -16.057166568152752 0 -16.057166568152752 108.26391040906128 0 0 0 0 9.0634971308754757 -18.08569186112436 0 -18.08569186112436 112.83628090559796 0 0 0 0 12.607828692896874 -16.057166568157299 0 -16.057166568157299 108.26391040904491 0 0 0 0 5.0863251864288372 -39.572674539941048 0 -39.572674539941048 64.444261541396102 0 0 0 0 12.607828692845942 -16.057166568071807 0 -16.057166568071807 108.26391040907765 0 0 0 0 8.2700785081251524 -16.294386903660779 0 -16.294386903660779 114.78756875963586 0 0 0 0 24.235658453078941 -6.1070946001218545 0 -6.1070946001218545 119.61602372579745 0 0 0 0 21.008241720177466 4.7850507409125385 0 4.7850507409125385 124.60079552903881 0 0 0 0 19.442121607920853 -8.4292654745786422 0 -8.4292654745786422 119.40796007502468 0 0 0 0 15.420353183111729 -7.731345025779774 0 -7.731345025779774 121.25724099446234 0 0 0 0 16.342817715150886 -10.6923369668948 0 -10.6923369668948 115.35674341597769 0 0 0 0 13.641416983562522 -12.572030440074741 0 -12.572030440074741 116.28331069912383 0 0 0 0 25.098871885922563 91.798987529848091 0 91.798987529848091 289.50530873877142 0 0 0 0 -1.617686078802457 -1.8832582996628968 0 -1.8832582996628968 3.6666874482935796 0 0 0 0 -89.407927386197116 -114.00092578678596 0 -114.00092578678596 327.61244717618683 0 0 0 0 -94.826842735095852 -76.206149853416719 0 -76.206149853416719 261.07371337305085 0 0 0 0 218.27906568791241 71.355032200250207 0 71.355032200250207 9.4160487456756528 0 0 0 0 -7.0681745792935544 -97.185888417076058 0 -97.185888417076058 122.73393449856303 0 0 0 0 19.61854594012766 -83.382397526844215 0 -83.382397526844215 107.49715079500857 0 0 0 0 39.325117705178855 -94.882276867087057 0 -94.882276867087057 113.30553178575792 0 0 0 0 -6.4157555224264797 14.04987169211563 0 14.04987169211563 46.558987218417315 0 0 0 0 52.941152870886071 -29.631627849574215 0 -29.631627849574215 14.379981098492863 0 0 0 0 9.5338090438513348 3.0757170757938468 0 3.0757170757938468 0.92730553115477932 0 0 0 0 12.127412310715044 35.340883877164742 0 35.340883877164742 -12.510976042995026 0 0 0 0 -25.046035889444283 17.557501509133544 0 17.557501509133544 140.8434753715519 0 0 0 0 188.08106656726522 -12.448350379127078 0 -12.448350379127078 -63.178903642188743 0 0 0 0 100.52187825314286 -6.4710552364003888 0 -6.4710552364003888 85.695401251105068 0 0 0 0 57.077779707003174 -7.2610863345726102 0 -7.2610863345726102 165.8948111524378 0 0 0 0 384.93137584148417 337.22400872604612 0 337.22400872604612 331.01133791085522 0 0 0 0 -24.955022043845929 211.04646206682446 0 211.04646206682446 505.12104217914293 0 0 0 0 253.32027755427453 603.58178261895046 0 603.58178261895046 552.04327465209371 0 0 0 0 -2.3728720740749054 360.58691669104201 0 360.58691669104201 1315.1826025137125 0 0 0 0 280.7668081288175 171.97352648495325 0 171.97352648495325 -200.65686152783201 0 0 0 0 6.2328932100086618 0.8255950460867183 0 0.8255950460867183 0.21175593759680567 0 0 0 0 135.06832711928655 199.31916437942982 0 199.31916437942982 335.86281932746351 0 0 0 0 12.755502509091833 4.8649771117053149 0 4.8649771117053149 2.1871225538296386 0 0 0 0 -39.050057575547953 77.214183062353641 0 77.214183062353641 160.23250543031463 0 0 0 0 33.186496595402787 51.609962761667703 0 51.609962761667703 -102.78846922283992 0 0 0 0 -17.605108269972959 -83.270774635293606 0 -83.270774635293606 184.03194104606155 0 0 0 0 121.43308297109434 49.319513343289145 0 49.319513343289145 -266.5949674903959 0 0 0 0 98.337531811537247 44.510699329854106 0 44.510699329854106 323.26994563563494 0 0 0 0 1.3255701581258741 -2.6846920034135948 0 -2.6846920034135948 -0.56336700070088241 0 0 0 0 2.2948836603913634 -1.2336423127560039 0 -1.2336423127560039 0.10009373783448794 0 0 0 0 -87.406124188008107 -46.947918847072287 0 -46.947918847072287 376.70909351238151 0 0 0 0 53.195532815338083 -15.932927530422603 0 -15.932927530422603 167.66905355253948 0 0 0 0 51.528908885349665 -69.429208772036873 0 -69.429208772036873 107.93118117273116 0 0 0 0 37.259209067735355 -21.632038124997052 0 -21.632038124997052 339.07940335435342 0 0 0 0 -27.471346251184514 24.479738911522873 0 24.479738911522873 328.87079033099872 0 0 0 0 39.727384996811452 85.206721933958761 0 85.206721933958761 6.7357562934939779 0 0 0 0 -25.402022118344121 20.739386044391722 0 20.739386044391722 79.837298012116662 0 0 0 0 15.375730281711107 6.6774023863987679 0 6.6774023863987679 0.95268766294303475 0 0 0 0 -58.429989902630041 -7.4364552153092518 0 -7.4364552153092518 172.8003597654706 0 0 0 0 -270.12137012542485 -91.282823683159222 0 -91.282823683159222 1306.2504300806067 0 0 0 0 -379.45611205294767 -308.08682493867127 0 -308.08682493867127 889.02800416992977 0 0 0 0 -911.25163702748398 -575.13811938873732 0 -575.13811938873732 721.45974601799026 0 0 0 0 -281.1512116239245 494.05939099889474 0 494.05939099889474 1063.5263249707623 0 0 0 0 -538.16040598964514 -123.55582894821418 0 -123.55582894821418 1227.2282537985739 0 0 0 0 -139.22174493555281 234.51123127621759 0 234.51123127621759 1453.3041558279401 0 0 0 0 43.892215178480683 558.17259368861505 0 558.17259368861505 1122.1086560971671 0 0 0 0 161.88261900453836 522.0744241514185 0 522.0744241514185 309.03320455611038 0 0 0 0 -2.6838888612414324 1.1480108548585921 0 1.1480108548585921 10.368592296622964 0 0 0 0 204.83274732239443 201.14245800622848 0 201.14245800622848 1014.9367534223747 0 0 0 0 -138.46099992061022 235.66957434925462 0 235.66957434925462 1117.4520727527306 0 0 0 0 334.86402469414014 376.57393423360782 0 376.57393423360782 386.33945093172224 0 0 0 0 116.85395784505033 33.275116016978245 0 33.275116016978245 267.09940071237361 0 0 0 0 -27.703100772517701 166.69022947673147 0 166.69022947673147 44.351782098009608 0 0 0 0 197.84981614807785 39.657570151791333 0 39.657570151791333 26.379134305516345 0 0 0 0 -24.155400653912125 -240.98701567516582 0 -240.98701567516582 461.1546244690835 0 0 0 0 -128.20622553276834 166.24194493729374 0 166.24194493729374 383.92626172581913 0 0 0 0 -136.59141719109891 80.003889524156875 0 80.003889524156875 -119.10769399473429 0 0 0 0 -2.7833577038684254 7.8603125947668904 0 7.8603125947668904 8.3050422414965936 0 0 0 0 -679.23603343689138 158.58477153461899 0 158.58477153461899 63.963575990333993 0 0 0 0 376.59954421896475 218.82913424493381 0 218.82913424493381 0.68225937667193648 0 0 0 0 178.15166357275803 30.373951229248632 0 30.373951229248632 222.16054965486728 0 0 0 0 -1.3888072541120613 5.0068336867202916 0 5.0068336867202916 3.7664679225248818 0 0 0 0 929.56766413711819 356.81846331730549 0 356.81846331730549 -302.23775968873815 0 0 0 0 -1181.9470995072534 -238.71683348285296 0 -238.71683348285296 552.9267992201967 0 0 0 0 115.6198459724551 110.87451162387333 0 110.87451162387333 47.216738179020467 0 0 0 0 1.383550489988135 17.943207620830638 0 17.943207620830638 12.892347315761072 0 0 0 0 -468.25866910431614 78.828791539632221 0 78.828791539632221 60.787848113548534 0 0 0 0 1.7834897112719155 7.6605358820339973 0 7.6605358820339973 9.274687845532366 0 0 0 0 -450.03785659901041 61.482764970394783 0 61.482764970394783 12.558185485555441 0 0 0 0 -324.95827413526968 3.910943683309597 0 3.910943683309597 3.0750111808993097 0 0 0 0 -343.65265989166983 26.439950058724207 0 26.439950058724207 14.581704054711736 0 0 0 0 -325.19395741354197 149.94118467734188 0 149.94118467734188 -34.246442924071744 0 0 0 0 -156.62783200700892 105.10856628612601 0 105.10856628612601 -48.603283534121147 0 0 0 0 -153.63552614283162 87.411925113709003 0 87.411925113709003 -33.219023192352324 0 0 0 0 -153.71896617237977 83.725993682974149 0 83.725993682974149 -22.481231674086303 0 0 0 0 -353.05524842536408 42.020847135639997 0 42.020847135639997 26.302085118513787 0 0 0 0 -210.15628842005935 115.73163259510329 0 115.73163259510329 -22.641966482358839 0 0 0 0 -247.01398525947297 87.130483450440806 0 87.130483450440806 23.6280748567915 0 0 0 0 -282.18809248891421 68.924904013761989 0 68.924904013761989 36.496938883312396 0 0 0 0 -112.14770589495788 90.287060912425659 0 90.287060912425659 -6.2039230181014773 0 0 0 0 -160.27101015743065 60.465436720751313 0 60.465436720751313 -4.4910906504956074 0 0 0 0 -39.79875787633955 53.273851274974731 0 53.273851274974731 -17.955564067662635 0 0 0 0 -11.450150653159653 78.396781664545415 0 78.396781664545415 -56.815672876380631 0 0 0 0 -90.225051712910044 101.84772325928134 0 101.84772325928134 -25.866762309095066 0 0 0 0 -54.609802574126206 123.59264120159787 0 123.59264120159787 -30.921112690462905 0 0 0 0 -142.15571472031559 73.714409332113064 0 73.714409332113064 -20.844478233906557 0 0 0 0 14.946499574997233 72.787121123526958 0 72.787121123526958 -58.22075369135564 0 0 0 0 45.238840330672247 74.943288896272861 0 74.943288896272861 -117.07763136382164 0 0 0 0 161.4286148540059 138.29325856949072 0 138.29325856949072 -109.22375331232615 0 0 0 0 70.269636334271127 43.39436482183919 0 43.39436482183919 -78.89123916200333 0 0 0 0 51.794122395860541 46.763580175105744 0 46.763580175105744 -79.098665772056847 0 0 0 0 18.695923766043052 42.609819262455858 0 42.609819262455858 -15.062644092628034 0 0 0 0 20.331914095768298 54.760128708629054 0 54.760128708629054 32.612750950123882 0 0 0 0 35.587875791404258 48.002101546697304 0 48.002101546697304 -16.300027790610329 0 0 0 0 7.3765699412632557 61.823078360266209 0 61.823078360266209 134.88370385746384 0 0 0 0 71.640263870598574 46.968038279948814 0 46.968038279948814 138.18134164396906 0 0 0 0 -17.026369887305009 69.412392313119199 0 69.412392313119199 142.49419935634069 0 0 0 0 10.670105003962561 34.923659962641977 0 34.923659962641977 71.388693674758542 0 0 0 0 -58.20363974004249 63.702735567778291 0 63.702735567778291 152.02339455337278 0 0 0 0 -52.425747041245984 53.364377429073102 0 53.364377429073102 90.395511934053502 0 0 0 0 -121.76212532626903 68.726002116007294 0 68.726002116007294 91.372767773616943 0 0 0 0 -41.720490672773522 47.044510879040445 0 47.044510879040445 29.495852223182737 0 0 0 0 -43.14077048503168 55.384316589657828 0 55.384316589657828 63.614065097015555 0 0 0 0 -106.68459021002195 74.837372004738427 0 74.837372004738427 18.334249028528575 0 0 0 0 -191.52430870390253 40.984432732762798 0 40.984432732762798 53.59104511905025 0 0 0 0 -180.74791484109392 69.857046609140525 0 69.857046609140525 61.700811005262949 0 0 0 0 -129.47445993215706 51.520455940724787 0 51.520455940724787 151.3821766592082 0 0 0 0 -126.40592745209409 28.737695847273244 0 28.737695847273244 86.569159401595243 0 0 0 0 -143.1484381962955 76.624976674494974 0 76.624976674494974 107.17127192420776 0 0 0 0 -161.22169426905384 11.887960228079464 0 11.887960228079464 89.468172825008878 0 0 0 0 -6.7914286966980661 16.369197990410086 0 16.369197990410086 93.50086783588776 0 0 0 0 -247.780239654041 -11.365990794271056 0 -11.365990794271056 98.780648036137791 0 0 0 0 -271.2608940353698 7.8469868765405408 0 7.8469868765405408 87.108584795845672 0 0 0 0 -416.76189588497255 -43.367103126882284 0 -43.367103126882284 96.748264883101001 0 0 0 0 -241.3372598195474 38.082880589237902 0 38.082880589237902 9.5860215464181238 0 0 0 0 9.3000188961059393 106.73905856836791 0 106.73905856836791 2.3237529330945108 0 0 0 0 -8.6450089592362929 77.437087525472634 0 77.437087525472634 11.76885349060467 0 0 0 0 -19.866727145767072 94.94880283245584 0 94.94880283245584 57.486452433666273 0 0 0 0 -11.526204836442048 99.907999286209815 0 99.907999286209815 36.119200734536207 0 0 0 0 -13.963879724178696 73.150099124919507 0 73.150099124919507 24.913028241679058 0 0 0 0 -9.9036582708140486 60.625019255523512 0 60.625019255523512 -26.632537029705418 0 0 0 0 -6.3469286873964847 85.94586101803543 0 85.94586101803543 -1.7573135926213581 0 0 0 0 3.4101889189699932 0.40649341810400585 0 0.40649341810400585 -2.1257260904473974 0 0 0 0 13.846331024280516 63.282315567783371 0 63.282315567783371 -101.97761070114666 0 0 0 0 -4.002306720110937 25.568745257107366 0 25.568745257107366 -46.708143347415898 0 0 0 0 -19.46952513187648 77.118224625045514 0 77.118224625045514 -42.787545174163824 0 0 0 0 -14.683007823748937 20.034022796886575 0 20.034022796886575 -90.787960739260598 0 0 0 0 21.740764008780388 78.262711649116682 0 78.262711649116682 -204.85715807099041 0 0 0 0 38.597353185830798 -13.468286196901317 0 -13.468286196901317 -167.76901778690444 0 0 0 0 -25.134838659210345 36.930253825082218 0 36.930253825082218 -83.492619047261542 0 0 0 0 51.234041082801014 19.853028672037908 0 19.853028672037908 -17.812355669979297 0 0 0 0 39.490458233573008 21.743315959327447 0 21.743315959327447 -80.72346323137026 0 0 0 0 60.645148185800281 66.537297451108316 0 66.537297451108316 -27.689246544938214 0 0 0 0 34.51806948650119 90.616373857876169 0 90.616373857876169 -62.658901983259057 0 0 0 0 -3.2441946848912266 65.661915503935234 0 65.661915503935234 -12.045856172160711 0 0 0 0 68.433490084378718 78.399230484297732 0 78.399230484297732 -11.000002300565029 0 0 0 0 20.064171319729212 101.90364663864602 0 101.90364663864602 57.477013056879514 0 0 0 0 30.522572793557629 55.837535875472895 0 55.837535875472895 32.208375932576018 0 0 0 0 111.45903388804436 66.968728724903485 0 66.968728724903485 33.280716709158241 0 0 0 0 60.596776273519026 129.36033765244429 0 129.36033765244429 116.08228461239923 0 0 0 0 56.274526418281312 98.591390183428302 0 98.591390183428302 57.692609945130243 0 0 0 0 82.738777674261655 23.832062504970963 0 23.832062504970963 45.350832541302225 0 0 0 0 57.100952988522295 65.451209438762817 0 65.451209438762817 114.01857765716704 0 0 0 0 171.200758886529 60.796732593218621 0 60.796732593218621 114.18403910350025 0 0 0 0 52.062119127484948 62.203139375782484 0 62.203139375782484 218.83769570469303 0 0 0 0 114.44046042671471 104.52532458947826 0 104.52532458947826 123.43181402989285 0 0 0 0 173.59859111118203 149.20360342189088 0 149.20360342189088 156.06764382401161 0 0 0 0 123.57049049352645 61.361616479567601 0 61.361616479567601 196.64394360836013 0 0 0 0 88.795452881156962 179.31444527503481 0 179.31444527503481 241.51911838544038 0 0 0 0 43.903404346367097 154.37942849122919 0 154.37942849122919 166.54369036047865 0 0 0 0 36.29859820134152 138.81175267631625 0 138.81175267631625 211.33859001153905 0 0 0 0 -36.721805927965761 136.18920658072238 0 136.18920658072238 262.16949788588681 0 0 0 0 -5.0837407305989473 118.41074220803057 0 118.41074220803057 141.02931389250443 0 0 0 0 37.442297999448783 151.0813808444509 0 151.0813808444509 113.58003663556883 0 0 0 0 -6.7331357266339182 106.8426600789935 0 106.8426600789935 78.504356821620604 0 0 0 0 44.06448817009732 112.93953888994292 0 112.93953888994292 23.672687638481875 0 0 0 0 3.3188596481340937 125.69624063835636 0 125.69624063835636 70.993019668661873 0 0 0 0 -32.161065688320377 113.32154053196791 0 113.32154053196791 128.64488399693801 0 0 0 0 -31.863314248330425 112.62585402934201 0 112.62585402934201 107.92181922829332 0 0 0 0 -40.858151148637262 111.62030272118136 0 111.62030272118136 147.2430275553852 0 0 0 0 -20.598142926843138 141.7197375733158 0 141.7197375733158 186.8655379943084 0 0 0 0 -36.917202764012472 109.59496003235108 0 109.59496003235108 127.95279025141008 0 0 0 0 -44.55393986490526 106.30810669311904 0 106.30810669311904 178.11034465740704 0 0 0 0 -81.748376845326675 61.875609255966992 0 61.875609255966992 157.51724806403217 0 0 0 0 -72.19472708023568 93.375827369631224 0 93.375827369631224 250.41177894054272 0 0 0 0 -98.286211036956956 15.336717925358244 0 15.336717925358244 204.22757474060927 0 0 0 0 -110.03474036778425 -57.037153823886911 0 -57.037153823886911 138.61218775773523 0 0 0 0 -93.12196835506802 12.290213947648226 0 12.290213947648226 202.6751250760135 0 0 0 0 -106.29527459741075 -11.329259473535785 0 -11.329259473535785 152.46214303469606 0 0 0 0 -83.018867245467845 -53.267046653108991 0 -53.267046653108991 85.161498598616163 0 0 0 0 -51.110331832149313 -42.285745887398662 0 -42.285745887398662 259.65674989172112 0 0 0 0 -76.859115079579567 -3.813764756554761 0 -3.813764756554761 215.94216378600686 0 0 0 0 -76.58551258539228 -69.020241067672032 0 -69.020241067672032 230.82211630321399 0 0 0 0 -79.899411469727056 46.073390165252931 0 46.073390165252931 237.12602905659878 0 0 0 0 -106.11296016633332 42.014844942013951 0 42.014844942013951 429.01792961283354 0 0 0 0 32.640698350071034 179.76643535460244 0 179.76643535460244 289.13776483105175 0 0 0 0 79.316910910260049 127.53054862676072 0 127.53054862676072 265.01393050171828 0 0 0 0 373.69773202050237 -24.419314396196569 0 -24.419314396196569 322.99988045374994 0 0 0 0 286.05063136582066 281.50025778197596 0 281.50025778197596 362.19891400483175 0 0 0 0 149.63956126786798 112.397196910817 0 112.397196910817 243.17227445177559 0 0 0 0 177.5933881629594 -11.159489165394461 0 -11.159489165394461 259.82769343143445 0 0 0 0 104.71542968217364 -23.916879639829858 0 -23.916879639829858 644.17419761597557 0 0 0 0 43.953774223323308 108.8762816252638 0 108.8762816252638 364.25001871286076 0 0 0 0 -24.923288879208485 281.05494661367629 0 281.05494661367629 447.31979157609749 0 0 0 0 230.53752775636167 432.97157077475276 0 432.97157077475276 649.20268191754894 0 0 0 0 8.6929571470154769 172.58100439771079 0 172.58100439771079 228.8286602317894 0 0 0 0 122.33005620706354 226.10253953101346 0 226.10253953101346 253.97320570405282 0 0 0 0 97.057109697538181 -185.85227203798786 0 -185.85227203798786 125.76499515563046 0 0 0 0 -70.024885252658351 38.320190566799283 0 38.320190566799283 773.33740638528252 0 0 0 0 -3.3462828905954964 1.9467859387578663 0 1.9467859387578663 7.3299213360372732 0 0 0 0 -51.860885222862578 -45.404408769118639 0 -45.404408769118639 43.067559868772271 0 0 0 0 -29.570647644373821 -39.626547629846755 0 -39.626547629846755 -64.378096272121184 0 0 0 0 -39.309003910522108 18.456502422534754 0 18.456502422534754 6.1805140596043202 0 0 0 0 228.69472839501759 -448.04848380171461 0 -448.04848380171461 -283.58044857198911 0 0 0 0 -179.3057210539373 135.77317330479855 0 135.77317330479855 248.01684424710402 0 0 0 0 -72.908114733247203 93.536645944383054 0 93.536645944383054 243.18024982142379 0 0 0 0 -7.1744301153356496 -12.129673505263195 0 -12.129673505263195 4.079693532509566 0 0 0 0 -368.98133410694572 -228.84212763642427 0 -228.84212763642427 -39.023751995409839 0 0 0 0 -32.375888871496691 -6.2870240049182335 0 -6.2870240049182335 111.81331052668926 0 0 0 0 -341.3611940357232 60.578005797096466 0 60.578005797096466 320.45643619247858 0 0 0 0 -421.32338968717977 -132.13362358220184 0 -132.13362358220184 58.104973772818994 0 0 0 0 -0.058512398279916056 2.1003929096414993 0 2.1003929096414993 12.878561263594364 0 0 0 0 -300.51793733129534 168.80229411154778 0 168.80229411154778 393.36019319248589 0 0 0 0 -111.49562635682014 191.31053936924582 0 191.31053936924582 287.59343399737918 0 0 0 0 55.901246346326388 -758.78689530333395 0 -758.78689530333395 607.59140821747496 0 0 0 0 -254.88908479065049 229.52923656556959 0 229.52923656556959 1387.8087052576739 0 0 0 0 -398.02182265076488 227.23660660307723 0 227.23660660307723 1199.5138496622239 0 0 0 0 454.28655251646501 710.56899717781039 0 710.56899717781039 295.59828069960349 0 0 0 0 -388.375871979213 -155.56090922149224 0 -155.56090922149224 440.93060225158843 0 0 0 0 -401.34591076970014 -48.428282394866983 0 -48.428282394866983 577.50324234447908 0 0 0 0 -195.70970806008478 52.459898003318813 0 52.459898003318813 180.24865322190817 0 0 0 0 -178.14286511698145 167.6297525088703 0 167.6297525088703 530.76766520009141 0 0 0 0 -55.823596170970475 -50.053820294746643 0 -50.053820294746643 25.941588013107683 0 0 0 0 2.3661856218805042 -117.83660311644053 0 -117.83660311644053 -29.583132949141145 0 0 0 0 123.76954943557354 31.036297945356637 0 31.036297945356637 -245.62144324591827 0 0 0 0 -31.788016419055566 -183.83997948321485 0 -183.83997948321485 171.28529660258209 0 0 0 0 -59.16806006452407 89.863341355321609 0 89.863341355321609 113.61277050744502 0 0 0 0 -97.7027096038168 55.896136621935511 0 55.896136621935511 84.547475291714363 0 0 0 0 -202.19694723520445 26.233358903334647 0 26.233358903334647 121.96443078752054 0 0 0 0 -122.10793361347146 31.378471764150163 0 31.378471764150163 95.984737563310773 0 0 0 0 -95.616582749225643 105.59998689613258 0 105.59998689613258 176.58545066252555 0 0 0 0 -66.218525394774588 101.84566060721409 0 101.84566060721409 103.55858582649671 0 0 0 0 -2.4315130242766827 229.81281802347439 0 229.81281802347439 224.92021224522614 0 0 0 0 10.939279489575711 157.9628992987673 0 157.9628992987673 140.77887666863171 0 0 0 0 -54.168781215140143 125.58252973577282 0 125.58252973577282 225.7167604185961 0 0 0 0 -60.292388936592715 80.82535711249875 0 80.82535711249875 131.43163532150902 0 0 0 0 -37.412501217779209 106.07456815837577 0 106.07456815837577 247.76131156481279 0 0 0 0 -18.861482115245053 58.678495377707804 0 58.678495377707804 269.01802951107675 0 0 0 0 -11.574031271267813 129.23754982943501 0 129.23754982943501 248.54784086172003 0 0 0 0 4.2594183777277976 76.096674414398876 0 76.096674414398876 402.43912741828535 0 0 0 0 -32.827362390794406 227.01209868392834 0 227.01209868392834 315.5433971175662 0 0 0 0 -33.243877364936452 233.29438047330768 0 233.29438047330768 269.15885487792639 0 0 0 0 -15.270267470001272 307.28738918911404 0 307.28738918911404 266.43240436446649 0 0 0 0 -21.831767382590613 329.58472840922559 0 329.58472840922559 182.13898929496645 0 0 0 0 -26.414765325211192 307.68634364295576 0 307.68634364295576 271.11834570953215 0 0 0 0 -325.85286607825253 221.91386870700308 0 221.91386870700308 391.32669547227852 0 0 0 0 -50.203059015180315 289.02627461446173 0 289.02627461446173 343.28214205276163 0 0 0 0 -426.4387396959437 -139.44652284685435 0 -139.44652284685435 154.6226217230469 0 0 0 0 -353.36025616526285 105.20331078893287 0 105.20331078893287 684.52656144639695 0 0 0 0 144.06318280468489 220.08825220152141 0 220.08825220152141 55.35504216269328 0 0 0 0 156.93883338387059 421.6360039976862 0 421.6360039976862 220.36962596633384 0 0 0 0 -119.64999737714356 771.24653257570026 0 771.24653257570026 1244.1503623595727 0 0 0 0 5.3612253049100689 -2.401768326880088 0 -2.401768326880088 0.64550497753695169 0 0 0 0 26.485996044841158 59.727578128895402 0 59.727578128895402 -125.18513953627553 0 0 0 0 11.984532178632548 46.948392526297084 0 46.948392526297084 34.68258177198004 0 0 0 0 20.323559727233118 0.12754017117015337 0 0.12754017117015337 10.967473266481512 0 0 0 0 18.929695466378689 74.123544285987009 0 74.123544285987009 78.518018415489678 0 0 0 0 398.94633651053232 323.98019132907939 0 323.98019132907939 329.71879300773253 0 0 0 0 568.17686045181063 734.27458531318189 0 734.27458531318189 1168.4175659587927 0 0 0 0 481.4498885976513 341.50730193741038 0 341.50730193741038 288.47458673014989 0 0 0 0 297.2574925027983 546.67154526149898 0 546.67154526149898 291.00887988302566 0 0 0 0 182.16083748742574 378.89462066654232 0 378.89462066654232 462.92950200221094 0 0 0 0 -238.59209790124999 523.47533596629728 0 523.47533596629728 428.48837941823149 0 0 0 0 291.93949626029951 577.45328211713422 0 577.45328211713422 -49.416068145648751 0 0 0 0 -416.85927992953521 118.32453463052502 0 118.32453463052502 887.4453328326781 0 0 0 0 -555.0713381254277 -606.19408261972785 0 -606.19408261972785 -374.90364283381496 0 0 0 0 -417.59496664228311 86.264893695210048 0 86.264893695210048 -34.698324577970197 0 0 0 0 -1360.0534916278204 -431.59704891536967 0 -431.59704891536967 -130.07354554379708 0 0 0 0 -1858.2654139467511 372.60764644803203 0 372.60764644803203 19.704899461939931 0 0 0 0 -19.064152268176084 -9.0285534297199206 0 -9.0285534297199206 28.148683752103011 0 0 0 0 -220.37698579027528 577.66875760023686 0 577.66875760023686 -361.54618175648466 0 0 0 0 134.81319904616828 458.4449428716689 0 458.4449428716689 424.17832600558177 0 0 0 0 -1078.1380950994492 -38.457249601975491 0 -38.457249601975491 246.46166765539965 0 0 0 0 -446.97422341108813 -287.12201379877297 0 -287.12201379877297 86.814957585673255 0 0 0 0 -207.07025094435994 -207.27288493737797 0 -207.27288493737797 17.398427657710272 0 0 0 0 -22.562874260256937 4.7810387816273447 0 4.7810387816273447 111.76066890079855 0 0 0 0 78.749951946999317 73.982263731522835 0 73.982263731522835 84.886864932210301 0 0 0 0 8.8643052408049527 -364.10674308287707 0 -364.10674308287707 605.1340912199812 0 0 0 0 275.91322013377157 -12.996121842128559 0 -12.996121842128559 123.12870856928748 0 0 0 0 268.76423602311047 394.95077650507301 0 394.95077650507301 834.48154146911111 0 0 0 0 22.784702480578936 27.402046705016176 0 27.402046705016176 45.706710631055927 0 0 0 0 -287.94748796170865 -266.78811402202336 0 -266.78811402202336 1299.4420198057705 0 0 0 0 -460.10854947086153 392.46260199326753 0 392.46260199326753 4993.8403478563487 0 0 0 0 945.8947951631792 2015.6720793660061 0 2015.6720793660061 2229.3203631227007 0 0 0 0 1.3008085950863497 -4.7211193157411557 0 -4.7211193157411557 17.673266159663513 0 0 0 0 182.59903813250355 -2396.0572627877482 0 -2396.0572627877482 946.45422203950875 0 0 0 0 -1594.6830863866076 -276.41674674590467 0 -276.41674674590467 243.89390125666978 0 0 0 0 -545.5002358785481 119.71385482705227 0 119.71385482705227 481.13570344486652 0 0 0 0 3.6266462253884693 -1.9915981293256522 0 -1.9915981293256522 44.777883499201408 0 0 0 0 -1588.6037878303921 -212.31759995487118 0 -212.31759995487118 735.25414627237478 0 0 0 0 316.98812760038982 -514.69237067062204 0 -514.69237067062204 370.02927145441936 0 0 0 0 -950.22584111400579 -1691.4296322257069 0 -1691.4296322257069 4990.6034403185331 0 0 0 0 -253.14896000326948 -492.35490607297834 0 -492.35490607297834 2986.3891452804528 0 0 0 0 -239.0123955300823 -568.84371049782203 0 -568.84371049782203 2432.8856954570292 0 0 0 0 49.294800137074731 -134.81711484916741 0 -134.81711484916741 1207.4104500676103 0 0 0 0 29.280537087161548 -593.9316423528544 0 -593.9316423528544 2408.3727245880727 0 0 0 0 4.5581748299022298 16.215248890717358 0 16.215248890717358 33.45712152002443 0 0 0 0 -1509.91077446237 460.69875048988251 0 460.69875048988251 678.77265457334579 0 0 0 0 -326.4820963614236 -198.98273284067454 0 -198.98273284067454 147.60500326397778 0 0 0 0 3.2315728719372667 7.8892820547357214 0 7.8892820547357214 13.4459384922921 0 0 0 0 -722.82047760942953 -403.30691191126789 0 -403.30691191126789 973.804085908449 0 0 0 0 413.46780117618584 849.19484177626691 0 849.19484177626691 -136.91007512276701 0 0 0 0 357.6649914886043 480.02520476245991 0 480.02520476245991 -13.579819980925095 0 0 0 0 289.71270517242715 929.25784684000701 0 929.25784684000701 490.57662443359732 0 0 0 0 157.95808986725206 222.44335142763157 0 222.44335142763157 146.25344177630814 0 0 0 0 -235.06830581359827 79.150326479004434 0 79.150326479004434 213.50056080636568 0 0 0 0 302.61448192203352 115.78054400112705 0 115.78054400112705 -0.80564318364758947 0 0 0 0 234.53911413050287 215.46364032797646 0 215.46364032797646 15.697806757223589 0 0 0 0 528.60108808132145 454.59166601945617 0 454.59166601945617 -602.49317816854818 0 0 0 0 508.94028758402771 59.380902747030632 0 59.380902747030632 -345.31209253398083 0 0 0 0 367.44861011934881 31.430243589840757 0 31.430243589840757 108.46150066074188 0 0 0 0 13.245268381644003 10.455326700067729 0 10.455326700067729 14.891335928188425 0 0 0 0 -120.78215724558844 -1294.6588908347912 0 -1294.6588908347912 4994.640624544867 0 0 0 0 2103.1760318775664 211.32969266360305 0 211.32969266360305 9.5704621529766882 0 0 0 0 118.50070845084385 1813.7476686243353 0 1813.7476686243353 4990.6598970231862 0 0 0 0 -783.94402363153938 -174.2350688283841 0 -174.2350688283841 652.09687140721508 0 0 0 0 -788.38771106457887 1289.0177030283267 0 1289.0177030283267 344.23086193576455 0 0 0 0 -59.965581050892354 19.427936321015295 0 19.427936321015295 -224.39553956751479 0 0 0 0 -1567.4820196231217 -197.21934795136622 0 -197.21934795136622 4989.5570405510734 0 0 0 0 3.2086720591730469 9.866948171158846 0 9.866948171158846 18.640331885840965 0 0 0 0 1128.6138877367496 2540.544081399913 0 2540.544081399913 1126.8667177757634 0 0 0 0 -527.59342230797154 1241.1034305311214 0 1241.1034305311214 2502.9141984271409 0 0 0 0 -576.6404185484871 1106.6416524236056 0 1106.6416524236056 3140.4431351916464 0 0 0 0 -506.76747555579186 2568.7490991609029 0 2568.7490991609029 4990.303502515023 0 0 0 0 443.7886670021075 1180.0215502832357 0 1180.0215502832357 1544.1447574327976 0 0 0 0 -602.92001168523666 605.43636701009518 0 605.43636701009518 3884.5019344527336 0 0 0 0 -857.60412098558686 624.76103946580952 0 624.76103946580952 5000.6202529813745 0 0 0 0 -216.06427047717841 -315.89344882130627 0 -315.89344882130627 3572.5817851281204 0 0 0 0 -56.776000911101683 -594.50515695645936 0 -594.50515695645936 1608.697986549927 0 0 0 0 17.012232863427982 -91.249066679564748 0 -91.249066679564748 1399.0640596727244 0 0 0 0 67.426650349296438 -341.66155985333899 0 -341.66155985333899 1289.2239740330651 0 0 0 0 225.59493574833567 -491.03075118843753 0 -491.03075118843753 1634.0770766800651 0 0 0 0 297.85707787909979 -51.652621446118701 0 -51.652621446118701 464.33920059561569 0 0 0 0 -8.4469770694635145 -203.05469377791451 0 -203.05469377791451 641.3779932030684 0 0 0 0 -87.85476518732321 -59.853203359682084 0 -59.853203359682084 2234.0466204065306 0 0 0 0 178.51550546599788 149.77960475034979 0 149.77960475034979 981.5422233649042 0 0 0 0 244.50635424726636 -178.22535213631727 0 -178.22535213631727 560.51677749237933 0 0 0 0 -144.34130157562834 -252.61775551213032 0 -252.61775551213032 942.16354245452794 0 0 0 0 -117.77989193859389 -288.98154250691186 0 -288.98154250691186 556.17503526144174 0 0 0 0 -341.23141143694875 -172.96164101006389 0 -172.96164101006389 829.90720127444365 0 0 0 0 -87.691098689266141 -344.94795074273316 0 -344.94795074273316 298.80232537687334 0 0 0 0 -261.13971030614698 -277.47949158768097 0 -277.47949158768097 556.0478089538301 0 0 0 0 -64.181638922780536 -39.217800204121673 0 -39.217800204121673 40.287069947529687 0 0 0 0 -43.417019118772942 -84.698368943700189 0 -84.698368943700189 108.30135669066476 0 0 0 0 -72.229791907024378 -154.55013672598579 0 -154.55013672598579 423.88183576784104 0 0 0 0 -74.949855863668006 -194.37556567296826 0 -194.37556567296826 84.990336466958979 0 0 0 0 -8.0706008478837497 -10.641549148164003 0 -10.641549148164003 -9.1431551210832112 0 0 0 0 -48.744981845684379 -1.44584273329383 0 -1.44584273329383 135.41855388473232 0 0 0 0 -60.441018772789107 -52.541415591395889 0 -52.541415591395889 4.6263763913993898 0 0 0 0 -48.300565410957688 -9.5497694113637408 0 -9.5497694113637408 -136.43343985238027 0 0 0 0 -82.517619312760928 -337.12219041687922 0 -337.12219041687922 -119.88224142234321 0 0 0 0 -1.5341982191196775 -0.34094432844420197 0 -0.34094432844420197 1.3950803754753522 0 0 0 0 -98.536156360434802 -139.2390465495173 0 -139.2390465495173 559.84628959089514 0 0 0 0 231.53372802441515 85.214867347379368 0 85.214867347379368 -69.096017727235449 0 0 0 0 114.99657625956277 -74.326452939767478 0 -74.326452939767478 472.91935655539419 0 0 0 0 169.86698621578125 161.6986071699539 0 161.6986071699539 80.109497566911159 0 0 0 0 78.139939913927378 -102.61306804911328 0 -102.61306804911328 -131.5470995358728 0 0 0 0 96.847197994220323 32.690980590032268 0 32.690980590032268 73.691924215682775 0 0 0 0 99.737240061584998 -20.555007379074596 0 -20.555007379074596 -46.260018312910688 0 0 0 0 190.90819873584508 -24.042878565219326 0 -24.042878565219326 -164.52771178593684 0 0 0 0 -3.6429834210507526 -0.13451620356168092 0 -0.13451620356168092 -0.41090717986190839 0 0 0 0 -2.2930251952850242 1.7958612916494729 0 1.7958612916494729 -1.9613582129982277 0 0 0 0 -182.78387767197091 -194.65247955807354 0 -194.65247955807354 -142.95420065556755 0 0 0 0 -122.41668754910279 92.489638534661935 0 92.489638534661935 93.386161449183419 0 0 0 0 -401.89435695977318 58.785685058556737 0 58.785685058556737 108.19215818064549 0 0 0 0 -418.01887001344585 -54.612147501775326 0 -54.612147501775326 -12.728286550438497 0 0 0 0 7.0886713190192268 9.1493440304911928 0 9.1493440304911928 -52.460790253528103 0 0 0 0 19.056522987448787 30.591600082765581 0 30.591600082765581 -30.815493136993609 0 0 0 0 -477.54535275885428 -317.98370424666427 0 -317.98370424666427 -18.89619591999508 0 0 0 0 -28.6701971347984 -378.53708563614782 0 -378.53708563614782 -324.55858612836892 0 0 0 0 141.96554700415891 -222.33891417688938 0 -222.33891417688938 -268.64282181706221 0 0 0 0 137.06657702378396 -32.201839163812849 0 -32.201839163812849 -85.375761069364671 0 0 0 0 -58.213145473346231 -81.884132970586506 0 -81.884132970586506 13.839792540573399 0 0 0 0 -84.959545714637443 -70.253112065322057 0 -70.253112065322057 47.768618036847329 0 0 0 0 -124.30092268470253 -108.07713069037709 0 -108.07713069037709 65.290310721214155 0 0 0 0 -214.93635024707692 -135.67596705277538 0 -135.67596705277538 66.991599908666103 0 0 0 0 -101.42996345118672 5.7510949075331155 0 5.7510949075331155 97.597975249111187 0 0 0 0 -237.94574165949598 0.84842933325307968 0 0.84842933325307968 99.136143590789288 0 0 0 0 -71.896910480531005 -54.368547005586151 0 -54.368547005586151 58.184433874270326 0 0 0 0 -94.734605252398069 -55.888257663591503 0 -55.888257663591503 63.474527077458333 0 0 0 0 -62.738427838521602 -51.3600910691639 0 -51.3600910691639 56.067264071694808 0 0 0 0 -66.512250123356353 -46.202877054616692 0 -46.202877054616692 57.176221239675215 0 0 0 0 -30.534577141675982 -63.102539684921794 0 -63.102539684921794 23.998188997982652 0 0 0 0 -93.707271284435024 41.073759872048413 0 41.073759872048413 83.043205116282479 0 0 0 0 -45.586770033889934 58.390460600387996 0 58.390460600387996 73.782395216683653 0 0 0 0 -101.23584904429663 55.918296852192725 0 55.918296852192725 80.748281787346059 0 0 0 0 -52.081445955205709 48.785899128164601 0 48.785899128164601 125.87677807993896 0 0 0 0 -79.45761153771673 8.7784676646406297 0 8.7784676646406297 93.483486037439434 0 0 0 0 -79.851264676701248 36.907811348130053 0 36.907811348130053 188.01510713897005 0 0 0 0 -99.968527419669044 -12.655371948579159 0 -12.655371948579159 139.37685436208267 0 0 0 0 -101.74923134226265 -26.797602150516468 0 -26.797602150516468 118.70393821580001 0 0 0 0 -92.084888569064788 -10.388887857759983 0 -10.388887857759983 126.19277867171331 0 0 0 0 -7.0906955510858189 6.6585099241986896 0 6.6585099241986896 12.924217549576522 0 0 0 0 -44.828641482606919 -3.3429742304179264 0 -3.3429742304179264 80.602874695348021 0 0 0 0 10.787977701189902 7.6581254215680019 0 7.6581254215680019 97.733943303643173 0 0 0 0 39.527586398236963 25.748584508783097 0 25.748584508783097 48.541611858372562 0 0 0 0 32.764567573711247 -72.352693811739755 0 -72.352693811739755 83.823143970996171 0 0 0 0 -224.1355049387621 112.28811760775625 0 112.28811760775625 -24.965724176189724 0 0 0 0 -248.91849481742247 81.125424570384098 0 81.125424570384098 60.009888310762108 0 0 0 0 1.4010872214421397 -74.551768365078715 0 -74.551768365078715 85.603088571044736 0 0 0 0 1.5635054986457959 -4.9026335327209907 0 -4.9026335327209907 5.7520563779360598 0 0 0 0 -47.372469531267207 -28.524316811829301 0 -28.524316811829301 28.109161785289096 0 0 0 0 -157.59355339694594 105.31582286823141 0 105.31582286823141 64.739606595750047 0 0 0 0 -51.009411326249392 -24.707098759121891 0 -24.707098759121891 41.812123392848207 0 0 0 0 -4.9810125114636321 62.440809274509775 0 62.440809274509775 53.801479335340446 0 0 0 0 -160.51073374648695 -18.160386734682106 0 -18.160386734682106 93.939839143195286 0 0 0 0 -222.28859813541203 8.3638520084550692 0 8.3638520084550692 104.69536325943409 0 0 0 0 -154.35276417083514 23.214018847605985 0 23.214018847605985 61.42017387894839 0 0 0 0 -109.27900704690546 49.726573044203178 0 49.726573044203178 22.075612492626533 0 0 0 0 -86.222178869204072 24.752882324676193 0 24.752882324676193 49.856526440361847 0 0 0 0 -78.82411076430617 6.8835216541851878 0 6.8835216541851878 76.019964633173004 0 0 0 0 -108.87744320071943 -2.8671751876770486 0 -2.8671751876770486 33.271244396379188 0 0 0 0 -210.35522617342258 3.0444011516081275 0 3.0444011516081275 25.28595435855641 0 0 0 0 -171.08370903632385 4.7129934537979352 0 4.7129934537979352 29.782838833569258 0 0 0 0 -163.33023994498944 24.023601469383721 0 24.023601469383721 52.765340036732596 0 0 0 0 -194.73779597084649 23.967176299874154 0 23.967176299874154 41.746872428875577 0 0 0 0 -154.04114336554994 18.591557827746101 0 18.591557827746101 1.7972865333176742 0 0 0 0 -193.37384375575311 19.238788341014128 0 19.238788341014128 -24.279775670042 0 0 0 0 -13.517576690710733 -9.4868487091733584 0 -9.4868487091733584 28.623605016863586 0 0 0 0 -14.265511768491479 0.46032675757462727 0 0.46032675757462727 19.809976253863169 0 0 0 0 -35.660589423095381 17.138669152011076 0 17.138669152011076 23.857480010828425 0 0 0 0 -61.277920516061045 17.509820270365026 0 17.509820270365026 30.515480659632885 0 0 0 0 -27.654011181130464 9.2307890226212947 0 9.2307890226212947 16.850150241370887 0 0 0 0 -58.831286570752127 17.055878199460494 0 17.055878199460494 30.587646024014248 0 0 0 0 -66.495871268024999 30.044520299702764 0 30.044520299702764 29.633362742674841 0 0 0 0 -29.815572778601471 -1.9257604445584882 0 -1.9257604445584882 29.744938137488994 0 0 0 0 -23.519389820464539 -20.18133482158737 0 -20.18133482158737 25.740294491799432 0 0 0 0 -51.559462319463137 13.422748259235931 0 13.422748259235931 37.686865978226706 0 0 0 0 -13.631121004248751 3.7363143302602495 0 3.7363143302602495 4.3220288562580578 0 0 0 0 -47.857366872973671 66.848142800605274 0 66.848142800605274 -3.0680347811503452 0 0 0 0 43.378515333981341 26.247436812787782 0 26.247436812787782 25.979100706339523 0 0 0 0 -29.096405443097865 -17.711122235334187 0 -17.711122235334187 66.277549769962206 0 0 0 0 -34.966205773233469 -28.514145027354971 0 -28.514145027354971 64.243578773872287 0 0 0 0 -15.944098647258215 -25.185734587124898 0 -25.185734587124898 51.501549040480313 0 0 0 0 -44.653377085596276 -44.26157393095491 0 -44.26157393095491 48.220409520465182 0 0 0 0 -21.839423596060506 39.521295490127329 0 39.521295490127329 7.8908085583971115 0 0 0 0 -146.98454267786781 106.90704188390191 0 106.90704188390191 -14.827202507949551 0 0 0 0 -67.601231662029846 86.324371129083374 0 86.324371129083374 -24.8017402255864 0 0 0 0 -44.179993444032434 55.668232878706476 0 55.668232878706476 5.6001603366676136 0 0 0 0 -84.25871341864422 60.423692051106627 0 60.423692051106627 -12.416764862122363 0 0 0 0 -92.705499873829694 66.716484902397497 0 66.716484902397497 -2.1390859164130234 0 0 0 0 -35.974094461749928 54.148267704505997 0 54.148267704505997 -29.964905371812165 0 0 0 0 -73.597155415716657 17.057564061108678 0 17.057564061108678 -36.290120169018337 0 0 0 0 -191.60476878740576 53.789631909428863 0 53.789631909428863 24.840249180662795 0 0 0 0 -11.124329324255918 5.1046227969431488 0 5.1046227969431488 10.721873346408643 0 0 0 0 -33.216552019435568 -8.1131229277486447 0 -8.1131229277486447 44.780937550541353 0 0 0 0 -26.236040206643889 -14.530420780270818 0 -14.530420780270818 55.419053402997775 0 0 0 0 -55.768107921339833 3.1977937633446345 0 3.1977937633446345 38.239770527969711 0 0 0 0 -95.655347040686593 -4.157508347692783 0 -4.157508347692783 22.691489552154962 0 0 0 0 -163.07802077601195 -74.516949863631481 0 -74.516949863631481 110.22114184882548 0 0 0 0 -12.137652448470455 -2.0412129322513533 0 -2.0412129322513533 74.19378582597821 0 0 0 0 -226.47047574275916 6.9165634162218339 0 6.9165634162218339 308.55690950453936 0 0 0 0 99.225125643361451 65.514610191739848 0 65.514610191739848 -66.304727361304685 0 0 0 0 -19.830074536232644 69.1959831285767 0 69.1959831285767 -57.340220271136786 0 0 0 0 -82.557502026579186 112.37963712757482 0 112.37963712757482 -68.764555615118297 0 0 0 0 -103.8780364749407 -10.645961183427062 0 -10.645961183427062 -89.560876714506321 0 0 0 0 -56.648983375043997 103.34516830220673 0 103.34516830220673 100.53955913350728 0 0 0 0 174.69614234232958 85.008920857351768 0 85.008920857351768 84.792918721444948 0 0 0 0 -132.28904134486547 289.03102806894367 0 289.03102806894367 377.41076304211674 0 0 0 0 0.82989963015248291 -1.2981826352350616 0 -1.2981826352350616 3.2037399734704763 0 0 0 0 0.71195294725180491 -5.2316380047735844 0 -5.2316380047735844 65.090084348856465 0 0 0 0 -978.92347134860347 148.44943562923254 0 148.44943562923254 1047.5950293758178 0 0 0 0 -446.8338936341803 41.616058646288366 0 41.616058646288366 248.98615483302274 0 0 0 0 -22.194464360917436 -34.005110892671837 0 -34.005110892671837 -702.56953088282171 0 0 0 0 8.4197740086769812 -87.783710450050449 0 -87.783710450050449 36.281125524560139 0 0 0 0 172.45894856927362 62.6471108581934 0 62.6471108581934 58.780070516070452 0 0 0 0 -157.61844539589697 29.843923140892002 0 29.843923140892002 50.730077408532452 0 0 0 0 -3.3070596825391902 -68.544878949213171 0 -68.544878949213171 -27.36786891785971 0 0 0 0 5.4038192911859149 -32.372720752405414 0 -32.372720752405414 114.68455426492164 0 0 0 0 -72.279786730089285 -13.164232035081568 0 -13.164232035081568 8.144154241126671 0 0 0 0 -11.551401619851763 -7.1594727975945727 0 -7.1594727975945727 12.052681604083347 0 0 0 0 -35.700234708351104 10.426835559225879 0 10.426835559225879 35.396464835147526 0 0 0 0 -1.744209309101695 13.575484408352056 0 13.575484408352056 8.9080715608009964 0 0 0 0 -67.175740300019413 16.437787831596808 0 16.437787831596808 4.8606297489565371 0 0 0 0 -59.53985731008504 45.993130688862038 0 45.993130688862038 14.327219421961217 0 0 0 0 -97.978022934709543 74.73710688411029 0 74.73710688411029 27.185796239188903 0 0 0 0 -97.687122381799838 39.723747778347196 0 39.723747778347196 52.260266338038491 0 0 0 0 -212.80026358045507 255.11769243233357 0 255.11769243233357 862.92906481904947 0 0 0 0 -14.032862933334627 25.273914567890529 0 25.273914567890529 907.94575331317947 0 0 0 0 6.0172585927889006 3.3513369410546341 0 3.3513369410546341 2.0283341119778848 0 0 0 0 92.036804842588793 -138.2210195983813 0 -138.2210195983813 -31.91690898691013 0 0 0 0 -110.96949353866012 -201.22778483321895 0 -201.22778483321895 38.621452365945061 0 0 0 0 -371.04886786195721 249.30979537706935 0 249.30979537706935 3048.0173826672681 0 0 0 0 830.2240094654652 741.41316107284524 0 741.41316107284524 19.746842465040118 0 0 0 0 75.577336235264738 14.235308295567393 0 14.235308295567393 -12.400088195184253 0 0 0 0 -364.97390299940105 -46.617477838882223 0 -46.617477838882223 500.51820170092014 0 0 0 0 672.55808238505756 -211.94591715105526 0 -211.94591715105526 -105.74402082711458 0 0 0 0 -149.71394723843355 143.70442569852821 0 143.70442569852821 451.77528870042443 0 0 0 0 325.66946405174531 258.67735309786622 0 258.67735309786622 -453.10202683410171 0 0 0 0 -335.2080455469935 -126.84810091547865 0 -126.84810091547865 128.66375185672496 0 0 0 0 -637.20501440899397 656.77332231927085 0 656.77332231927085 64.010007328117354 0 0 0 0 0.58754828946372695 -2.2945217409877374 0 -2.2945217409877374 29.300622716199705 0 0 0 0 619.38987435117713 1342.4491193444383 0 1342.4491193444383 2765.5196010208983 0 0 0 0 517.97914558564389 -1486.204391695519 0 -1486.204391695519 1138.1200978186307 0 0 0 0 -306.45144201184439 -805.76614032994235 0 -805.76614032994235 4955.0742741288395 0 0 0 0 -327.29879720180298 -46.121121875961762 0 -46.121121875961762 5892.6141742815507 0 0 0 0 1054.3353179161636 -617.18192607192191 0 -617.18192607192191 4796.0499810241545 0 0 0 0 1045.7489892695532 579.74337035072267 0 579.74337035072267 4502.8910120940463 0 0 0 0 -374.02644405921842 100.19761719220151 0 100.19761719220151 4999.2751415065195 0 0 0 0 -212.61501684809394 224.79382260466195 0 224.79382260466195 5825.2574953852036 0 0 0 0 -5.421573217429466 -7.6800406192861521 0 -7.6800406192861521 6.5017783155844633 0 0 0 0 -90.404855045434289 232.54710365740129 0 232.54710365740129 2969.7372191478612 0 0 0 0 -481.6671283326715 -203.63162431224919 0 -203.63162431224919 5314.352019249417 0 0 0 0 -8.5068578694567858 -259.75251130325887 0 -259.75251130325887 4999.9451295623439 0 0 0 0 -0.29238948090772665 -119.34501464260302 0 -119.34501464260302 5300.4365665694922 0 0 0 0 5.2705814488329326 -22.360109424399752 0 -22.360109424399752 5000.2341235298545 0 0 0 0 -171.73799899814401 -128.25347183201529 0 -128.25347183201529 4950.0457392016997 0 0 0 0 117.05401832796321 373.29481802015925 0 373.29481802015925 4880.9887271716907 0 0 0 0 -46.891559401709934 132.90399891640857 0 132.90399891640857 4596.6784628479581 0 0 0 0 -254.85236595116345 -64.944863882249365 0 -64.944863882249365 4999.4178162241442 0 0 0 0 -456.75520290975879 -438.15853115663094 0 -438.15853115663094 4483.5987236693636 0 0 0 0 -728.8905061843094 -869.46604154914348 0 -869.46604154914348 4999.5516368240469 0 0 0 0 -449.76297494511113 -422.43794082193381 0 -422.43794082193381 4097.922445503631 0 0 0 0 -330.63239660737872 -804.48600003814317 0 -804.48600003814317 3617.532741526793 0 0 0 0 -256.67016558175237 -118.64813237100861 0 -118.64813237100861 3327.9729776407721 0 0 0 0 -41.004502092447865 330.18133236506128 0 330.18133236506128 3957.6320725773694 0 0 0 0 -96.65767116978077 8.7884769591638019 0 8.7884769591638019 348.27261045071327 0 0 0 0 -88.331228580924289 -13.892918139004223 0 -13.892918139004223 384.69504211094591 0 0 0 0 -75.081438555223826 -180.41860487875601 0 -180.41860487875601 3285.9192837012979 0 0 0 0 -31.246871590801618 -29.834795989812687 0 -29.834795989812687 7.7290575236073655 0 0 0 0 -15.473003471761331 -46.194026475196551 0 -46.194026475196551 313.96010261375955 0 0 0 0 -77.293131888982316 41.672568135874542 0 41.672568135874542 260.87167545192102 0 0 0 0 -48.711918836605037 22.058885802912016 0 22.058885802912016 221.04543271177334 0 0 0 0 -47.016943757713307 121.98180989170646 0 121.98180989170646 308.2393951931881 0 0 0 0 -68.623408365510613 11.443345161356007 0 11.443345161356007 343.01338635215097 0 0 0 0 83.360891721560165 367.04966887964861 0 367.04966887964861 538.93113805814664 0 0 0 0 -88.419137766209133 -101.67673814086174 0 -101.67673814086174 699.2353904363664 0 0 0 0 222.38977634998037 312.20547704967544 0 312.20547704967544 315.90411720063821 0 0 0 0 123.3362365214349 -269.07744105337292 0 -269.07744105337292 395.80488590501864 0 0 0 0 -93.527224910862287 21.766869941191317 0 21.766869941191317 401.66801593064429 0 0 0 0 -17.439376794530354 -20.672643158099575 0 -20.672643158099575 10.675646116307581 0 0 0 0 123.16788411305788 -141.17919788526751 0 -141.17919788526751 127.55378312029654 0 0 0 0 42.4366357092916 35.107462368600501 0 35.107462368600501 37.140401331793377 0 0 0 0 735.24514274717512 1001.7496278963081 0 1001.7496278963081 224.26264405743859 0 0 0 0 -368.18727722026961 70.925343817951216 0 70.925343817951216 700.01323104572657 0 0 0 0 278.83455702790889 628.48216656334262 0 628.48216656334262 366.3089381429163 0 0 0 0 -836.14930403942526 810.76996583969594 0 810.76996583969594 628.22963812433591 0 0 0 0 -1334.3246987397906 -68.656640092523958 0 -68.656640092523958 682.79004547929799 0 0 0 0 1314.102442132845 -1198.9015855185662 0 -1198.9015855185662 5003.0909787806377 0 0 0 0 -601.61410189121204 -1627.590890966223 0 -1627.590890966223 4933.3115258379439 0 0 0 0 1411.9016699146671 -2712.2750774743818 0 -2712.2750774743818 4834.8369979401323 0 0 0 0 930.5780555238855 -926.20540640057334 0 -926.20540640057334 5411.4550127730254 0 0 0 0 601.43780744572064 1022.926065956497 0 1022.926065956497 1892.4679746941201 0 0 0 0 -84.069980631125873 -436.65619311442424 0 -436.65619311442424 -304.17568527129879 0 0 0 0 12.047881722849748 6.6129783487686176 0 6.6129783487686176 10.49934672999315 0 0 0 0 1109.994779710797 -1953.1389778295306 0 -1953.1389778295306 2947.2073922908075 0 0 0 0 296.31412641709034 -856.58321982006237 0 -856.58321982006237 2217.4503818506855 0 0 0 0 -8.8066135893850088 -2.6544388165208019 0 -2.6544388165208019 28.666182098977917 0 0 0 0 461.7818791370583 -1232.947282071053 0 -1232.947282071053 2523.3410177253318 0 0 0 0 -512.75779827118981 -1136.3863847715775 0 -1136.3863847715775 4799.1679134155729 0 0 0 0 176.3927698989815 -1509.3636429063763 0 -1509.3636429063763 4999.1093121181566 0 0 0 0 -511.01635154777898 -957.99425752687648 0 -957.99425752687648 3908.6802278255709 0 0 0 0 -247.02813169337833 -982.06082949329357 0 -982.06082949329357 3910.7484112421412 0 0 0 0 95.671760840958996 -718.54277214471767 0 -718.54277214471767 2836.0401092599868 0 0 0 0 -289.70909959677283 -536.98893382179085 0 -536.98893382179085 2938.9424413307606 0 0 0 0 -46.517412567709556 -26.098015497805523 0 -26.098015497805523 36.291915784399009 0 0 0 0 -107.15357175706777 79.632824656965568 0 79.632824656965568 311.99625811949841 0 0 0 0 222.95296033702209 -401.32668213488068 0 -401.32668213488068 679.68350677029503 0 0 0 0 -98.666012648340768 148.95830443335672 0 148.95830443335672 847.66785665554198 0 0 0 0 0.95109399408873418 -2.9594462569128552 0 -2.9594462569128552 0.36976427424382052 0 0 0 0 327.01149954163463 -520.84658619337824 0 -520.84658619337824 1953.4373262244717 0 0 0 0 -8.761978967672917 63.66575211453938 0 63.66575211453938 266.72316553177325 0 0 0 0 -110.6486261753962 33.505185861300788 0 33.505185861300788 257.8355272738163 0 0 0 0 -74.850442448303511 89.985742120962186 0 89.985742120962186 174.192712942566 0 0 0 0 -94.721503623921308 24.058756718603945 0 24.058756718603945 161.22821087689442 0 0 0 0 -56.701488962786243 72.6483852607725 0 72.6483852607725 79.270983064834923 0 0 0 0 -120.19920097754584 13.095965807031462 0 13.095965807031462 109.77590215242526 0 0 0 0 -117.30033244020797 47.51064143122818 0 47.51064143122818 285.65483762900612 0 0 0 0 -249.10668972470376 117.6286331086485 0 117.6286331086485 137.61653094524809 0 0 0 0 -7.3238813793601665 43.484860144699979 0 43.484860144699979 139.44396673152409 0 0 0 0 -247.19284858609899 15.495132012038084 0 15.495132012038084 181.46254659260012 0 0 0 0 -98.590923725831885 48.477694674833401 0 48.477694674833401 234.97783396207342 0 0 0 0 -28.369491498600098 -102.02853653183229 0 -102.02853653183229 555.85302228313958 0 0 0 0 -121.80868669930419 130.80829597382083 0 130.80829597382083 42.241988098416186 0 0 0 0 400.29303614103992 255.03047743212664 0 255.03047743212664 104.70402327759075 0 0 0 0 -16.755827905952795 7.1491215183600048 0 7.1491215183600048 6.1031972909989634 0 0 0 0 8.6046066695907797 52.543256060292748 0 52.543256060292748 115.24725208985836 0 0 0 0 -265.51246428733248 145.74678663465238 0 145.74678663465238 243.27579536575649 0 0 0 0 -102.07375654803593 3.1861591130077898 0 3.1861591130077898 89.793310030562665 0 0 0 0 -3.2389670521520486 38.944302023663653 0 38.944302023663653 74.424540636461131 0 0 0 0 -101.53874070416123 80.901581929101667 0 80.901581929101667 -7.4458180635265308 0 0 0 0 -120.32265716655183 164.03127802087874 0 164.03127802087874 -28.281565956349368 0 0 0 0 -76.599735528113342 66.678252836180036 0 66.678252836180036 -15.498843811277766 0 0 0 0 -66.003660930165097 96.537358162255259 0 96.537358162255259 -40.308688109558716 0 0 0 0 11.956673120982487 60.261903949824045 0 60.261903949824045 -29.53698991528654 0 0 0 0 1.6602545578425634 33.203958624886582 0 33.203958624886582 -59.186767354603262 0 0 0 0 -21.944410685523508 37.964324613472854 0 37.964324613472854 -40.357342107410659 0 0 0 0 -45.265044756677526 43.159372491376416 0 43.159372491376416 1.2925364101392915 0 0 0 0 -56.208986968511454 54.00974358763051 0 54.00974358763051 251.08557721303077 0 0 0 0 -58.147178913579687 22.262628638918187 0 22.262628638918187 12.631118783152012 0 0 0 0 7.936254670850758 95.479244368543732 0 95.479244368543732 108.84006464824415 0 0 0 0 -71.185135224382975 25.41407292970689 0 25.41407292970689 114.37969028341467 0 0 0 0 -16.082348004236927 1.0040265514805213 0 1.0040265514805213 15.589034586271026 0 0 0 0 -217.8452869223056 66.249930219812086 0 66.249930219812086 318.60734840866644 0 0 0 0 -201.57884717859633 97.555021657550242 0 97.555021657550242 370.60365431188256 0 0 0 0 -336.99253338897688 307.82674297362246 0 307.82674297362246 293.11967002472375 0 0 0 0 236.00340980369583 219.33973140873422 0 219.33973140873422 168.25569415846257 0 0 0 0 -364.98044667351769 183.14084295479461 0 183.14084295479461 497.84369297954254 0 0 0 0 -263.58413496839785 109.80688471201574 0 109.80688471201574 368.533297172733 0 0 0 0 151.71708106286133 101.35279678450024 0 101.35279678450024 151.42844222600252 0 0 0 0 141.81761720161603 104.29015615038952 0 104.29015615038952 110.80809372104704 0 0 0 0 108.61146554560401 -17.400514439887047 0 -17.400514439887047 296.46429724173504 0 0 0 0 77.54675658288653 137.46895681254637 0 137.46895681254637 40.57616794911155 0 0 0 0 63.65003310931192 6.8075283988323463 0 6.8075283988323463 14.07442275743233 0 0 0 0 31.811377669660033 35.246862199019233 0 35.246862199019233 -59.224848864289129 0 0 0 0 35.435123905021555 54.446953690476221 0 54.446953690476221 -18.141093527156045 0 0 0 0 39.090162548989383 109.59328320397071 0 109.59328320397071 -46.656458481695154 0 0 0 0 -11.39390591200231 100.66247326058328 0 100.66247326058328 -77.999855315851164 0 0 0 0 -25.955572734254929 71.454183320533048 0 71.454183320533048 -0.4075486665678909 0 0 0 0 -108.24402652230992 90.142817450003349 0 90.142817450003349 268.31523008061049 0 0 0 0 34.345665590393764 7.5265029037836939 0 7.5265029037836939 80.644201181399694 0 0 0 0 -3.0219155744780437 179.41401652930654 0 179.41401652930654 -40.509234643177479 0 0 0 0 -316.18164642759666 203.74954125057593 0 203.74954125057593 116.21023365737346 0 0 0 0 12.842859381046953 22.504856600467129 0 22.504856600467129 48.301245188690814 0 0 0 0 -114.80209336765438 203.03948336965186 0 203.03948336965186 14.870237422710488 0 0 0 0 -21.749573624956611 157.90550691024691 0 157.90550691024691 -65.624674912403862 0 0 0 0 13.07299027805238 48.924176716367057 0 48.924176716367057 138.20629771350755 0 0 0 0 -133.94253040083231 84.316778687554148 0 84.316778687554148 162.04431442458736 0 0 0 0 -153.06019396515876 173.00080838160375 0 173.00080838160375 114.20755746778332 0 0 0 0 -22.625639842302661 115.52247697410701 0 115.52247697410701 -7.1029984820925165 0 0 0 0 -112.54465050714134 155.92616035433093 0 155.92616035433093 85.959417475907685 0 0 0 0 461.77474325295134 196.78279617068074 0 196.78279617068074 -156.29560184662841 0 0 0 0 3.782391560211563 8.2562338024059407 0 8.2562338024059407 16.968307999915226 0 0 0 0 -191.73278479381997 250.4259956592341 0 250.4259956592341 -25.190407755308115 0 0 0 0 -95.123635130768889 -269.49189308572022 0 -269.49189308572022 683.52839119950659 0 0 0 0 -155.06122355686239 326.20620710842195 0 326.20620710842195 960.20625925518652 0 0 0 0 -239.9197849636148 -96.045517136699345 0 -96.045517136699345 983.64901396555069 0 0 0 0 -147.38714482264277 -78.254453884052054 0 -78.254453884052054 668.39430696742784 0 0 0 0 -238.67858900329026 -118.40760461244156 0 -118.40760461244156 654.50846093955624 0 0 0 0 -116.34704293357618 -37.494378872797824 0 -37.494378872797824 606.042848290439 0 0 0 0 -54.253913285755061 -208.75587520316549 0 -208.75587520316549 97.60358252331207 0 0 0 0 -18.215692371843943 171.89670080390351 0 171.89670080390351 340.73967705053656 0 0 0 0 -83.041735473469089 -89.586967354975968 0 -89.586967354975968 439.46881525295612 0 0 0 0 -166.9252627951455 -113.38859702753689 0 -113.38859702753689 645.53331858667661 0 0 0 0 -111.14771879540604 -214.47839397033749 0 -214.47839397033749 826.92519918383914 0 0 0 0 -33.288840171615448 86.353309068465023 0 86.353309068465023 704.9666109152422 0 0 0 0 216.26922406372 -559.95265454513174 0 -559.95265454513174 1185.2607420526765 0 0 0 0 -32.146563502335617 -40.059009105291182 0 -40.059009105291182 1204.2949520654729 0 0 0 0 139.09424816419869 -278.95152430074086 0 -278.95152430074086 570.20374431787786 0 0 0 0 2.1463460396463905 3.1723662882661756 0 3.1723662882661756 4.596159507138168 0 0 0 0 262.11008653096451 239.42726212320849 0 239.42726212320849 524.83653220724227 0 0 0 0 37.071467376127657 105.70403282571579 0 105.70403282571579 69.439597027957461 0 0 0 0 96.642721128366134 175.89690254722453 0 175.89690254722453 144.2613578407545 0 0 0 0 133.31022628385472 65.902339313694597 0 65.902339313694597 -12.60698386406284 0 0 0 0 3.7763292447962158 63.835170653652312 0 63.835170653652312 58.31494388621968 0 0 0 0 232.61534506077032 207.95526777823881 0 207.95526777823881 -12.929460374712335 0 0 0 0 28.397991311222995 0.081911514023886411 0 0.081911514023886411 5.043693609177808 0 0 0 0 10.241109607748513 123.2853474648432 0 123.2853474648432 194.79934395383452 0 0 0 0 3.1628326521604322 99.418159593483551 0 99.418159593483551 144.41441723168828 0 0 0 0 10.21516665190893 136.1162502819692 0 136.1162502819692 201.04790461041375 0 0 0 0 -75.072176769497673 81.217298156586594 0 81.217298156586594 100.27007859641799 0 0 0 0 -81.326901124579308 108.99889420350655 0 108.99889420350655 165.86814647163374 0 0 0 0 -46.096961937011656 64.437559861588284 0 64.437559861588284 191.77527300006409 0 0 0 0 -46.591689327517088 127.61659129126383 0 127.61659129126383 167.6881014598498 0 0 0 0 -121.76827817344019 146.50268291202156 0 146.50268291202156 105.54470046925599 0 0 0 0 12.751899191432592 51.708777783063994 0 51.708777783063994 146.11612082584097 0 0 0 0 -31.766883823098397 137.14536568634639 0 137.14536568634639 76.830738572542941 0 0 0 0 34.845032612021896 121.88467947689287 0 121.88467947689287 84.703030139764451 0 0 0 0 -37.840576889100703 129.24086926933478 0 129.24086926933478 139.09039332228349 0 0 0 0 18.893641909101461 101.07600291968765 0 101.07600291968765 88.366387269148618 0 0 0 0 18.716299037630961 90.903063282406947 0 90.903063282406947 94.425619110934349 0 0 0 0 -8.2136307760047202 120.35135755336159 0 120.35135755336159 84.933222130547165 0 0 0 0 -23.647242488053053 93.515490761000819 0 93.515490761000819 91.430877525594042 0 0 0 0 -611.69564651180201 407.8669993837384 0 407.8669993837384 383.0953429719666 0 0 0 0 7.0590163836031898 53.919847239020342 0 53.919847239020342 150.66813256390805 0 0 0 0 -630.22989092827447 609.17048483670078 0 609.17048483670078 1064.8121589282673 0 0 0 0 -43.59911369333895 122.25459454813154 0 122.25459454813154 109.53289695616422 0 0 0 0 -30.220568016482957 67.795174903858651 0 67.795174903858651 128.41167562685951 0 0 0 0 16.234900124826254 132.68538018408935 0 132.68538018408935 125.17334386255607 0 0 0 0 -4.8121017138776505 3.0629541600967691 0 3.0629541600967691 11.241386023985804 0 0 0 0 -30.187706445691944 -13.771993669474274 0 -13.771993669474274 87.43100578995876 0 0 0 0 -22.322249405857292 7.7338297500100452 0 7.7338297500100452 86.267834306403529 0 0 0 0 -13.254031701065262 41.340278674925614 0 41.340278674925614 62.683270670560233 0 0 0 0 -41.26876605302823 -16.391550374100916 0 -16.391550374100916 137.26761950813943 0 0 0 0 -10.153127954450611 54.529832028632882 0 54.529832028632882 135.12064394224581 0 0 0 0 14.250951604699367 36.859847502893899 0 36.859847502893899 111.01305167831015 0 0 0 0 0.8748356952200993 34.739048993577853 0 34.739048993577853 112.12252476906519 0 0 0 0 -18.721811177012569 70.650706404427183 0 70.650706404427183 119.35769427393461 0 0 0 0 -29.873286898318852 5.8197612547121622 0 5.8197612547121622 22.116846674592132 0 0 0 0 0.92935635792673565 32.038891569816769 0 32.038891569816769 133.47529069323537 0 0 0 0 0.40091115067480132 40.125580030596211 0 40.125580030596211 113.18724840645973 0 0 0 0 -17.412733085857326 44.212965471912412 0 44.212965471912412 116.05813525122539 0 0 0 0 27.127833035961885 99.855875505459153 0 99.855875505459153 72.980125553124708 0 0 0 0 12.140217023705191 97.564376494610769 0 97.564376494610769 105.42007666356585 0 0 0 0 -0.92007342802389758 77.852457769722605 0 77.852457769722605 79.781776305459061 0 0 0 0 39.050231979571436 93.797918857871082 0 93.797918857871082 68.730504514367567 0 0 0 0 39.135761837692371 58.24909052406656 0 58.24909052406656 44.472519774169996 0 0 0 0 15.568813934182799 41.296992356580631 0 41.296992356580631 47.024145167901224 0 0 0 0 -48.641802693312776 8.6581442686514709 0 8.6581442686514709 3.979216923867579 0 0 0 0 -22.403318736545771 66.973853074459385 0 66.973853074459385 94.594242891008435 0 0 0 0 -32.502391941234237 14.126569103864767 0 14.126569103864767 43.252786291789448 0 0 0 0 -15.732526880741716 45.85689044527976 0 45.85689044527976 81.742178950770722 0 0 0 0 -25.222804443808855 40.449365268777001 0 40.449365268777001 95.755636191194753 0 0 0 0 -27.853498158430739 10.585624921441649 0 10.585624921441649 88.985178712850143 0 0 0 0 -43.155966652105008 2.0099023124049182 0 2.0099023124049182 117.91645539556339 0 0 0 0 -43.494625063351123 -4.9426778999800263 0 -4.9426778999800263 62.504111123361781 0 0 0 0 -35.347462033507327 -4.8925519484923825 0 -4.8925519484923825 110.01207481645088 0 0 0 0 -32.971741960565851 -13.453864691245485 0 -13.453864691245485 140.46347503562538 0 0 0 0 -53.121092857407348 -39.810678538631464 0 -39.810678538631464 149.05750923430878 0 0 0 0 -53.365694345906377 -35.795280307076382 0 -35.795280307076382 85.977915080406774 0 0 0 0 -10.254994823568268 40.439966318412644 0 40.439966318412644 169.26044623381313 0 0 0 0 -19.063985326793045 7.0627969394722641 0 7.0627969394722641 169.15420328857607 0 0 0 0 14.222948964010357 43.445384948505989 0 43.445384948505989 136.94205731438342 0 0 0 0 -15.67620049269317 18.91043231460435 0 18.91043231460435 135.78547507494795 0 0 0 0 -22.952874667789729 26.821746074731209 0 26.821746074731209 132.48815031463528 0 0 0 0 -34.354774305029423 -44.798619382597053 0 -44.798619382597053 186.25070931260663 0 0 0 0 -29.715835093560599 7.5951127107787215 0 7.5951127107787215 187.09328538155614 0 0 0 0 -2.3101413939330087 -69.672313211878418 0 -69.672313211878418 281.60819734822235 0 0 0 0 -26.398768340242896 31.983018205754433 0 31.983018205754433 293.91042789857784 0 0 0 0 -25.943611112503277 -66.233830767195514 0 -66.233830767195514 213.29335432740223 0 0 0 0 -26.386491464436403 -29.569049551159424 0 -29.569049551159424 214.81089551298464 0 0 0 0 -51.347591094712698 -68.022245424843504 0 -68.022245424843504 185.33822530484849 0 0 0 0 -41.219217678037239 -50.716301852792753 0 -50.716301852792753 207.59912056221719 0 0 0 0 -27.139927162905224 -57.678123986637871 0 -57.678123986637871 199.26329057439062 0 0 0 0 -27.055180845321985 -50.917154253500549 0 -50.917154253500549 199.4738406909064 0 0 0 0 10.038786219425674 -49.08429327131114 0 -49.08429327131114 199.1899417962054 0 0 0 0 -62.78116015130945 -68.87395735950804 0 -68.87395735950804 116.30429824287012 0 0 0 0 -62.806343373454638 -67.30563889970972 0 -67.30563889970972 183.16760267553354 0 0 0 0 -48.494842006773979 -42.103328948237049 0 -42.103328948237049 198.00475843123604 0 0 0 0 -48.91239247253543 -49.97076833872984 0 -49.97076833872984 140.25746119329597 0 0 0 0 -70.028827867354266 -81.515559919349244 0 -81.515559919349244 178.11718538771893 0 0 0 0 -65.833304289091757 -68.555591319829546 0 -68.555591319829546 216.7874939405641 0 0 0 0 -76.367153088762279 -76.069566123838797 0 -76.069566123838797 186.996458210882 0 0 0 0 -151.49455023485643 -44.133054932201503 0 -44.133054932201503 270.17395467104848 0 0 0 0 -102.51775347993657 -112.96595481222724 0 -112.96595481222724 219.79692032164746 0 0 0 0 -101.82912973043494 -79.13058567701961 0 -79.13058567701961 275.28714695229326 0 0 0 0 -93.293516003404875 -76.662944555979777 0 -76.662944555979777 214.6434934735413 0 0 0 0 -73.254989294013285 -48.605477346863843 0 -48.605477346863843 216.72441805391773 0 0 0 0 6.072701299439359 -38.365729393730817 0 -38.365729393730817 187.09816356284821 0 0 0 0 -19.002395379129666 -33.287513635899785 0 -33.287513635899785 187.98948202120175 0 0 0 0 -47.288506364184286 -11.299979177112846 0 -11.299979177112846 196.64969966256194 0 0 0 0 -59.75914370800092 -32.86505990484136 0 -32.86505990484136 229.44549701529581 0 0 0 0 -73.71785613719112 15.186798398884889 0 15.186798398884889 210.52880265674548 0 0 0 0 -118.15884600118443 -14.620091357748834 0 -14.620091357748834 226.4043758052685 0 0 0 0 -39.46087661765705 -4.4839539161916946 0 -4.4839539161916946 199.90280284247694 0 0 0 0 -24.259187631398163 24.978120051741769 0 24.978120051741769 177.04889298142234 0 0 0 0 -55.546008682420506 59.368432722974376 0 59.368432722974376 205.07549504188864 0 0 0 0 -81.966402769256092 -0.47061123651928938 0 -0.47061123651928938 203.2357564013264 0 0 0 0 -113.89401816443933 -30.129005737769916 0 -30.129005737769916 254.1466805030791 0 0 0 0 -151.82200357874899 36.912906162468062 0 36.912906162468062 210.49872823584951 0 0 0 0 12.873434790395549 -46.820412183162261 0 -46.820412183162261 172.8829095968249 0 0 0 0 1.3722750889646704 -4.1439819210719975 0 -4.1439819210719975 142.28842377838427 0 0 0 0 -4.2444183632774539 34.898141957482835 0 34.898141957482835 61.757793248968014 0 0 0 0 -91.305051160597941 40.530647222004518 0 40.530647222004518 155.74047598610747 0 0 0 0 -54.946866528014652 -107.14301642873693 0 -107.14301642873693 198.91806964762418 0 0 0 0 107.18462228183762 -32.550361790906209 0 -32.550361790906209 144.68656430925057 0 0 0 0 70.136346270453942 46.420227393555706 0 46.420227393555706 181.04079144276056 0 0 0 0 38.045413284169626 -6.5781594395004959 0 -6.5781594395004959 165.79627663206043 0 0 0 0 21.038011803197151 -40.382095251378132 0 -40.382095251378132 144.86003436954934 0 0 0 0 -19.962972534616711 -31.249144982127802 0 -31.249144982127802 170.95088943118964 0 0 0 0 5.2513765785142823 -23.544567359869411 0 -23.544567359869411 173.25296352083527 0 0 0 0 1.7745460359437857 -17.281741458548709 0 -17.281741458548709 165.79711291693374 0 0 0 0 11.369881274589716 -29.655757500762434 0 -29.655757500762434 177.36268903240955 0 0 0 0 -2.4805233115293959 -8.9115958589571846 0 -8.9115958589571846 188.36701443823927 0 0 0 0 9.4493259592818504 -24.098030127423442 0 -24.098030127423442 164.50329292110609 0 0 0 0 8.1892721650219755 -7.6267654789446624 0 -7.6267654789446624 181.83343654239798 0 0 0 0 16.195249939559289 -15.699244779690503 0 -15.699244779690503 181.46661685445451 0 0 0 0 8.2122119698342431 -9.4055600928576268 0 -9.4055600928576268 187.32765196815376 0 0 0 0 7.6631284845425398 -45.04303334182714 0 -45.04303334182714 169.63898896754444 0 0 0 0 13.6029943798967 -9.6495906528414253 0 -9.6495906528414253 171.74582675262582 0 0 0 0 1.7632696858790951 -26.677083723010185 0 -26.677083723010185 184.08526433384714 0 0 0 0 45.101238615396142 -34.476472628591182 0 -34.476472628591182 185.46858572649273 0 0 0 0 68.404779726664856 -6.2754203823451462 0 -6.2754203823451462 209.3566114095712 0 0 0 0 13.145453868279219 -18.920167750673556 0 -18.920167750673556 206.53974753409011 0 0 0 0 5.5036997780007368 -44.288093956827538 0 -44.288093956827538 206.24533428470659 0 0 0 0 79.07052926459437 -60.097118205619608 0 -60.097118205619608 209.34369602515733 0 0 0 0 -32.382837112432753 -87.730375873247567 0 -87.730375873247567 302.86023607112202 0 0 0 0 7.539939851325471 -21.182051643008435 0 -21.182051643008435 280.25570248892927 0 0 0 0 -16.483106466939702 -29.030617022537356 0 -29.030617022537356 37.410789640332098 0 0 0 0 -37.892336331568536 -16.503927579871728 0 -16.503927579871728 172.73133803711946 0 0 0 0 52.892889222566737 15.513690985226731 0 15.513690985226731 141.55169135656797 0 0 0 0 25.061466431914596 77.15671919167653 0 77.15671919167653 192.48016317459133 0 0 0 0 6.0754381231417938 27.815246070757439 0 27.815246070757439 158.39693014530349 0 0 0 0 -15.104624738267376 -111.77399738838722 0 -111.77399738838722 453.97006782099197 0 0 0 0 -15.046882338010196 -56.362854534820784 0 -56.362854534820784 146.99060165748062 0 0 0 0 -16.577601260047231 -94.287586875160287 0 -94.287586875160287 219.94805614614597 0 0 0 0 54.018667392617772 170.20763390763022 0 170.20763390763022 218.09480364334013 0 0 0 0 -618.47994724302498 -644.34766732241405 0 -644.34766732241405 -249.0466193285647 0 0 0 0 -2.4788215032603347 12.08547962516748 0 12.08547962516748 49.304282108536682 0 0 0 0 -723.53535739448489 -595.33793499197054 0 -595.33793499197054 1167.4752993880334 0 0 0 0 22.282174596679397 -790.19254899291263 0 -790.19254899291263 -757.53204969096259 0 0 0 0 1282.7296978032327 250.06351267801074 0 250.06351267801074 -398.56210704728437 0 0 0 0 -221.65082193970738 651.35298390579828 0 651.35298390579828 705.40461011345906 0 0 0 0 0.86161766352734759 -0.59086783755259376 0 -0.59086783755259376 0.43644593727660208 0 0 0 0 -124.41929216548579 11.912292589826393 0 11.912292589826393 403.44809329332202 0 0 0 0 -119.5511397923724 -19.428426141043019 0 -19.428426141043019 605.18095545785036 0 0 0 0 -52.735496496734413 -84.257122679977329 0 -84.257122679977329 421.33860559885215 0 0 0 0 27.168288490354826 -23.473081649266533 0 -23.473081649266533 202.0812435397238 0 0 0 0 -91.702910010280902 -102.95319863970508 0 -102.95319863970508 428.62605466129025 0 0 0 0 210.27268526638727 89.13541050774802 0 89.13541050774802 313.01187882060549 0 0 0 0 30.026162787426728 -104.52282837918972 0 -104.52282837918972 140.33065871940926 0 0 0 0 59.642510467956527 -37.12616311499005 0 -37.12616311499005 -9.6682950425747549 0 0 0 0 -29.570906159541138 -43.238478974657127 0 -43.238478974657127 -10.485962853362622 0 0 0 0 -55.309613677055495 -78.034760476285555 0 -78.034760476285555 45.410917576125939 0 0 0 0 -100.93534566102608 -60.981330696151417 0 -60.981330696151417 132.28691277863982 0 0 0 0 -45.991590697911306 33.634721390684717 0 33.634721390684717 64.074886290742143 0 0 0 0 65.13269422756639 -152.81853079004941 0 -152.81853079004941 -9.737021054737852 0 0 0 0 -138.29954942508448 -322.66840284479258 0 -322.66840284479258 199.39545922910474 0 0 0 0 -16.369316254011139 -67.826184571736889 0 -67.826184571736889 142.2381665021426 0 0 0 0 332.76873271510522 -475.5723034706316 0 -475.5723034706316 248.56050784562103 0 0 0 0 9.3114270057546946 -0.21189657270847206 0 -0.21189657270847206 198.76166720233675 0 0 0 0 165.42075571079431 394.62188182692989 0 394.62188182692989 -280.08254497328016 0 0 0 0 -235.654936915333 -20.866912073371168 0 -20.866912073371168 224.45055865769973 0 0 0 0 -253.02361146540534 181.22555671871669 0 181.22555671871669 7.4250106005056296 0 0 0 0 23.493658850817155 -139.09018323639611 0 -139.09018323639611 458.21360627610557 0 0 0 0 47.588937363763762 -142.63369922352285 0 -142.63369922352285 453.15012885496253 0 0 0 0 2.0247289108536517 8.0634969843722786 0 8.0634969843722786 17.041144129289364 0 0 0 0 -30.268396579314867 -149.26781526581908 0 -149.26781526581908 608.52655801334913 0 0 0 0 0.21335658879170882 -0.76726660298493243 0 -0.76726660298493243 -0.31358006134752259 0 0 0 0 -77.392060045429389 -267.32911126608087 0 -267.32911126608087 178.54819418322586 0 0 0 0 -79.141942249400017 -126.91685837453042 0 -126.91685837453042 28.081294017356413 0 0 0 0 -6.143352159539635 -11.083510761432912 0 -11.083510761432912 78.752332738427441 0 0 0 0 -265.3155748518484 -51.896618450431561 0 -51.896618450431561 130.92270199439372 0 0 0 0 -1.6941624631854211 19.688604100425437 0 19.688604100425437 171.50142089901783 0 0 0 0 -165.32199448923302 -89.789809212761611 0 -89.789809212761611 181.83050180276041 0 0 0 0 85.507990480702119 94.245211473244126 0 94.245211473244126 161.46048869356946 0 0 0 0 -216.81391548663714 7.0197774777825543 0 7.0197774777825543 163.70337520171597 0 0 0 0 -127.66276595919499 -118.66536123793321 0 -118.66536123793321 177.78877842218208 0 0 0 0 -128.45735004977428 -106.7851938437816 0 -106.7851938437816 2.3661085473286221 0 0 0 0 5.0693377913776203 -91.776624586458638 0 -91.776624586458638 -0.29529102435662935 0 0 0 0 517.39031623245683 124.38802201994622 0 124.38802201994622 -627.03854377961761 0 0 0 0 11.10686519724824 -4.997253344908728 0 -4.997253344908728 -0.42381016143048811 0 0 0 0 -306.24536532266256 -240.79517825495896 0 -240.79517825495896 -11.547385511388711 0 0 0 0 -279.03599450084675 -170.78457046141921 0 -170.78457046141921 143.1316015245684 0 0 0 0 0.046152831485416712 -17.358117607357489 0 -17.358117607357489 114.08609833517841 0 0 0 0 -157.02201887649471 -29.294037581414159 0 -29.294037581414159 52.434744937472033 0 0 0 0 9.061901726933911 -26.63352725416101 0 -26.63352725416101 203.18012575387752 0 0 0 0 -3.682072702750645 28.902546892039247 0 28.902546892039247 88.337482168303893 0 0 0 0 15.573617376054155 -15.480502949211782 0 -15.480502949211782 17.14544492234964 0 0 0 0 9.8703485155256203 -32.089577739414381 0 -32.089577739414381 44.207101181102473 0 0 0 0 10.578187680572228 12.461473161278263 0 12.461473161278263 163.43103600062022 0 0 0 0 14.489699514135282 20.459377823750401 0 20.459377823750401 169.24597380717569 0 0 0 0 12.272613717246713 22.802172582638377 0 22.802172582638377 129.28500606218586 0 0 0 0 13.319059808385646 -24.632245033641084 0 -24.632245033641084 186.11805496388479 0 0 0 0 -36.017304558370597 -41.148276327223812 0 -41.148276327223812 181.00603530674562 0 0 0 0 2.977499341357543 -58.560983954193944 0 -58.560983954193944 152.38259215390644 0 0 0 0 -27.325363463938629 -12.014661894902019 0 -12.014661894902019 266.83626828524575 0 0 0 0 -37.917659393896429 -96.339489445411346 0 -96.339489445411346 163.26847417269164 0 0 0 0 57.27864037375366 106.16514973487483 0 106.16514973487483 319.11774581110876 0 0 0 0 -60.723931096792512 -68.405605532580921 0 -68.405605532580921 381.70769373380608 0 0 0 0 -14.298794679378261 -108.15013459669899 0 -108.15013459669899 -20.38212085905252 0 0 0 0 -34.94902939630083 -47.019284504094685 0 -47.019284504094685 145.95989377954174 0 0 0 0 10.215611511008319 -60.033010942709097 0 -60.033010942709097 30.50978714561279 0 0 0 0 -699.46918729646166 -143.61930616861855 0 -143.61930616861855 702.96270828867273 0 0 0 0 -139.94835764818072 -144.82894374802709 0 -144.82894374802709 117.75882373675995 0 0 0 0 -143.33671310015143 -122.58460300321894 0 -122.58460300321894 142.6441941675439 0 0 0 0 -12.878182053266254 -27.894182667194581 0 -27.894182667194581 136.70902597104435 0 0 0 0 -134.89803174873487 -98.927480225705949 0 -98.927480225705949 137.66265198099427 0 0 0 0 -58.011929220912862 -117.98329663990444 0 -117.98329663990444 76.055594516277779 0 0 0 0 -82.964335042684979 -141.04142461057927 0 -141.04142461057927 57.006851758576431 0 0 0 0 -479.54028180233081 725.37901140909435 0 725.37901140909435 1915.736919583389 0 0 0 0 2.5792443867521797 144.00489731632479 0 144.00489731632479 698.66660823065467 0 0 0 0 31.167121346588829 -115.45731992946821 0 -115.45731992946821 315.72838989715092 0 0 0 0 84.393537847439802 46.617469901106233 0 46.617469901106233 152.61319660055415 0 0 0 0 160.69253789849063 -237.5801879550836 0 -237.5801879550836 390.8363896492956 0 0 0 0 315.20957396175436 -102.41456916151947 0 -102.41456916151947 203.42788499159542 0 0 0 0 -124.12227740470735 -3.1686956129033206 0 -3.1686956129033206 86.365154433491213 0 0 0 0 -58.697605311992135 -32.040619334349373 0 -32.040619334349373 20.353999261054959 0 0 0 0 57.380248388496511 92.459875053176802 0 92.459875053176802 -196.36864654682313 0 0 0 0 85.207796708054047 -103.13291633140216 0 -103.13291633140216 85.254033746303321 0 0 0 0 -9.2556611703366798 -131.98872537251373 0 -131.98872537251373 -117.18350400308918 0 0 0 0 -127.70548733813575 -99.066186770285185 0 -99.066186770285185 259.98604802847694 0 0 0 0 -30.909463926404186 2.354012581166522 0 2.354012581166522 174.55546199842274 0 0 0 0 -144.19032998715738 -138.42621484550136 0 -138.42621484550136 166.00817460554208 0 0 0 0 45.753720974142198 -124.82960273495519 0 -124.82960273495519 188.1814267288355 0 0 0 0 -109.82361284084982 -64.775017903766638 0 -64.775017903766638 253.85075396603133 0 0 0 0 7.3430057109462723 -94.478348294544503 0 -94.478348294544503 222.35734748823961 0 0 0 0 -213.67207726246852 1.9330369860108476 0 1.9330369860108476 191.7769995365652 0 0 0 0 -109.35575255339609 -73.110578804947181 0 -73.110578804947181 191.07199936785764 0 0 0 0 -44.869466823725816 -34.890187748644166 0 -34.890187748644166 57.440602420898358 0 0 0 0 11.452299244188453 -190.21391020814463 0 -190.21391020814463 341.99049310984628 0 0 0 0 -23.311282796415703 -11.31138097209868 0 -11.31138097209868 -9.8332463149570266 0 0 0 0 8.8755454220136016 0.91930603466244065 0 0.91930603466244065 -69.155541498481853 0 0 0 0 5.4130268042572425 -87.950316683780329 0 -87.950316683780329 292.23650359990552 0 0 0 0 58.087066816358856 -171.10380873552549 0 -171.10380873552549 380.24656110539672 0 0 0 0 32.392572035301782 14.453031480503341 0 14.453031480503341 -20.42846598379947 0 0 0 0 9.8171627286246803 5.4911300146814028 0 5.4911300146814028 58.772868187395943 0 0 0 0 5.2533054292174626 3.5095132501850159 0 3.5095132501850159 3.6271342991841031 0 0 0 0 43.319608039833838 -63.866112082454492 0 -63.866112082454492 54.067324015108056 0 0 0 0 78.278316706451733 -76.479580766701474 0 -76.479580766701474 103.76676857361281 0 0 0 0 52.099948002968631 -46.181756013143058 0 -46.181756013143058 42.78512165502616 0 0 0 0 143.98341797011744 -62.734062034596718 0 -62.734062034596718 57.543217359138907 0 0 0 0 -8.9589625067730978 6.3626806858273923 0 6.3626806858273923 77.258888440813408 0 0 0 0 -265.71871937906235 45.869757259537437 0 45.869757259537437 139.52108997226696 0 0 0 0 -226.21287737725652 9.2068483731718516 0 9.2068483731718516 98.694758616353283 0 0 0 0 -299.11902176103285 122.14512481277188 0 122.14512481277188 12.418633381375912 0 0 0 0 -188.22491210310295 69.178983610770842 0 69.178983610770842 135.67083065159841 0 0 0 0 32.518196465993242 -187.59802738368808 0 -187.59802738368808 136.55424084283604 0 0 0 0 -165.27030078380631 -68.55939043203125 0 -68.55939043203125 169.4333241333843 0 0 0 0 -0.65209302907085487 0.82115162394945429 0 0.82115162394945429 1.823632968841121 0 0 0 0 -230.97463286036509 100.34225807375424 0 100.34225807375424 -149.98607170433752 0 0 0 0 79.489953585705734 -8.7193266064159616 0 -8.7193266064159616 93.804015669515138 0 0 0 0 -8.5360865574971712 13.195951346639607 0 13.195951346639607 73.799868090576553 0 0 0 0 -75.02784405667353 7.9277076953496248 0 7.9277076953496248 132.14563829466124 0 0 0 0 -104.595588444638 77.694035890866417 0 77.694035890866417 8.9158815910777776 0 0 0 0 119.8712249477685 -58.913941117613831 0 -58.913941117613831 107.05171577532383 0 0 0 0 -1.3497339988914803 -1.972447510003029 0 -1.972447510003029 15.824303120845489 0 0 0 0 -88.957505179565487 30.253841033913432 0 30.253841033913432 37.732302024802266 0 0 0 0 -185.48575479743522 132.66735765657177 0 132.66735765657177 -63.177638513393049 0 0 0 0 -232.76729878361948 106.52426843655167 0 106.52426843655167 -64.494607634884233 0 0 0 0 -206.2239567166871 -14.091300809628592 0 -14.091300809628592 42.267396890834334 0 0 0 0 -197.71753386762066 80.938812625073751 0 80.938812625073751 116.24482483792508 0 0 0 0 -124.39003513163698 0.77980098575335433 0 0.77980098575335433 153.20534837600098 0 0 0 0 -60.045939621426442 -5.6115164253710645 0 -5.6115164253710645 157.82558936249279 0 0 0 0 -46.22724519698022 2.3193036836937608 0 2.3193036836937608 44.932777390138426 0 0 0 0 -120.97484256118219 46.388342807343477 0 46.388342807343477 155.92786903795513 0 0 0 0 82.826071796363976 166.98581331554885 0 166.98581331554885 -30.338656340302805 0 0 0 0 0.45403366264458356 7.3121980692853796 0 7.3121980692853796 -4.4003746188787236 0 0 0 0 -8.0159695752938305 26.447825803003525 0 26.447825803003525 69.302409954584789 0 0 0 0 61.211007561421866 -75.624260849972416 0 -75.624260849972416 168.28054297862388 0 0 0 0 33.086367255102232 -33.764440615872445 0 -33.764440615872445 171.562490031175 0 0 0 0 72.953559982535808 -48.71263750790331 0 -48.71263750790331 149.0746275576239 0 0 0 0 20.094315834499866 -49.144647294308015 0 -49.144647294308015 160.57217130512981 0 0 0 0 -2.5228819644344185 -37.642862661865365 0 -37.642862661865365 138.14403653943737 0 0 0 0 29.139207998603524 -35.208853737547543 0 -35.208853737547543 135.38392229555302 0 0 0 0 54.320374298276874 -32.689263537566148 0 -32.689263537566148 126.0378401468115 0 0 0 0 71.497163024021575 -34.724830031975216 0 -34.724830031975216 167.27408905827048 0 0 0 0 59.766682003000824 -59.29973104106648 0 -59.29973104106648 117.6766077916327 0 0 0 0 1.5337912907920099 147.18408127397925 0 147.18408127397925 630.62522512712167 0 0 0 0 40.869430989082957 154.1799918301549 0 154.1799918301549 528.07088809952984 0 0 0 0 81.182239151799422 202.79389583907323 0 202.79389583907323 583.97984020991134 0 0 0 0 -24.884863084557765 227.47880179580534 0 227.47880179580534 583.6849575952516 0 0 0 0 46.811489727031471 222.42338294456567 0 222.42338294456567 426.287783052132 0 0 0 0 102.52559951920693 134.11409767642908 0 134.11409767642908 460.44400334451348 0 0 0 0 -9.5780855308905188 -1.7779328364310771 0 -1.7779328364310771 7.103309606130523 0 0 0 0 -75.342303201344691 -5.9272406659656554 0 -5.9272406659656554 11.172944364916475 0 0 0 0 25.83540812109004 241.65626419405453 0 241.65626419405453 661.36888390532113 0 0 0 0 -8.2813677514198254 -1.5732335073389976 0 -1.5732335073389976 4.6084411049871363 0 0 0 0 -171.82725574155609 -122.0496462709998 0 -122.0496462709998 -33.180975095670874 0 0 0 0 -70.68885943362163 -26.221645185618399 0 -26.221645185618399 52.384039790398674 0 0 0 0 -193.82517776606591 -57.761616306418546 0 -57.761616306418546 117.59135965922178 0 0 0 0 52.658736125219434 497.15210830819615 0 497.15210830819615 836.35083141359792 0 0 0 0 54.425878379115431 393.29418409124855 0 393.29418409124855 727.93211234634509 0 0 0 0 124.10172975795012 126.53760828257873 0 126.53760828257873 504.75844784694345 0 0 0 0 -47.22848601034957 273.19373419213298 0 273.19373419213298 405.66796843927659 0 0 0 0 -0.11247403783885906 -0.06202684439940942 0 -0.06202684439940942 0.48167552989792739 0 0 0 0 376.2468827511118 250.00570629555295 0 250.00570629555295 173.22397713010287 0 0 0 0 -310.53271737898967 -18.15082126379275 0 -18.15082126379275 142.0924077048403 0 0 0 0 -137.21170290301052 -9.3933542257727822 0 -9.3933542257727822 63.340123336241959 0 0 0 0 9.0959089918727045 6.068612311373272 0 6.068612311373272 29.856622571751359 0 0 0 0 -0.26005097759225537 0.90522590433258365 0 0.90522590433258365 2.1520541998466172 0 0 0 0 -88.779341681336035 -95.403873206693333 0 -95.403873206693333 221.11402251578693 0 0 0 0 -41.548292013301761 242.05825903525329 0 242.05825903525329 474.26703108278889 0 0 0 0 -134.40127906593489 -13.385615106464684 0 -13.385615106464684 46.436204123892821 0 0 0 0 -0.40981320721599523 0.8900712273322533 0 0.8900712273322533 3.6501349300756942 0 0 0 0 -66.554633241485135 10.957212907524081 0 10.957212907524081 4.5091781323062605 0 0 0 0 -35.674475668259149 -11.228090619124487 0 -11.228090619124487 18.08904379773594 0 0 0 0 -33.096222562452937 10.851582357146981 0 10.851582357146981 113.35304681168782 0 0 0 0 -15.317095361554607 -17.239928296818107 0 -17.239928296818107 52.432207928556636 0 0 0 0 -138.82305071815935 3.0421214608759328 0 3.0421214608759328 49.881156254819871 0 0 0 0 -58.256610567981284 -94.374725530784417 0 -94.374725530784417 98.826583239824686 0 0 0 0 7.5244567244016025 -44.760612930655043 0 -44.760612930655043 -7.666855826560095 0 0 0 0 -23.668878575486154 19.391567810825151 0 19.391567810825151 148.67826505934929 0 0 0 0 -262.99697398291937 -41.850255445804578 0 -41.850255445804578 184.73458910224872 0 0 0 0 -128.53800959292312 -154.76815844522935 0 -154.76815844522935 181.44636699879902 0 0 0 0 -35.228981458416229 -6.7132375623114058 0 -6.7132375623114058 154.52197278264794 0 0 0 0 -16.175278085689371 5.1041627721164105 0 5.1041627721164105 60.054680545447297 0 0 0 0 171.24422477615147 -446.60558559857691 0 -446.60558559857691 373.06364079973719 0 0 0 0 65.673497079810204 -67.969569299842988 0 -67.969569299842988 239.13343799248105 0 0 0 0 6.3644919645107549 10.276118230658454 0 10.276118230658454 19.04308368951834 0 0 0 0 -180.55055990568508 -11.354799105261918 0 -11.354799105261918 488.71889836201444 0 0 0 0 -101.23483572169971 78.998780637833988 0 78.998780637833988 112.37197766677127 0 0 0 0 -209.41874781926344 74.352535569516476 0 74.352535569516476 351.17340556241106 0 0 0 0 -306.17275894763679 41.74277171054564 0 41.74277171054564 300.68395336971298 0 0 0 0 -7.4669248474924643 4.7860563910544442 0 4.7860563910544442 -108.35347959815408 0 0 0 0 -6.3124634398301556 1.1901019495876213 0 1.1901019495876213 2.5692288850769955 0 0 0 0 -20.913362860938953 -3.7723618650133091 0 -3.7723618650133091 60.943212119156129 0 0 0 0 -286.96442446250694 99.409297388192499 0 99.409297388192499 345.39981870864722 0 0 0 0 -325.89210560477306 -40.846381773595567 0 -40.846381773595567 435.46846050288877 0 0 0 0 -300.96449436367311 43.577405440453731 0 43.577405440453731 68.847123959407327 0 0 0 0 -186.87374352677057 -339.22130353187458 0 -339.22130353187458 135.02945611636096 0 0 0 0 -479.27380130562597 76.886090707550466 0 76.886090707550466 376.58840499582584 0 0 0 0 25.937091712941179 -76.97963706156952 0 -76.97963706156952 404.86395139675005 0 0 0 0 -1.8226456131027033 2.8143893732924781 0 2.8143893732924781 12.023575652553262 0 0 0 0 131.30160987652607 56.488883579499088 0 56.488883579499088 -197.98661883508248 0 0 0 0 -777.89126469534187 282.77370478974626 0 282.77370478974626 -88.999019950562797 0 0 0 0 -748.03338038705328 417.30064614460571 0 417.30064614460571 423.65921283333591 0 0 0 0 -779.64613111972358 -315.14320528572716 0 -315.14320528572716 227.4573518263569 0 0 0 0 117.50062296083429 -136.95846677486588 0 -136.95846677486588 52.637625251954887 0 0 0 0 -845.53963063267497 509.27093022184408 0 509.27093022184408 -281.30346039260621 0 0 0 0 111.39994953307743 -57.880495958669599 0 -57.880495958669599 42.127126871375367 0 0 0 0 -0.72141251714644916 -2.1992311617875941 0 -2.1992311617875941 2.0873452558873424 0 0 0 0 -44.455536753545061 -62.949370328080477 0 -62.949370328080477 123.05500446481165 0 0 0 0 44.588912006320697 -125.19258188637468 0 -125.19258188637468 49.057909797567845 0 0 0 0 -45.880884192800295 -28.938249162834836 0 -28.938249162834836 158.19650977129641 0 0 0 0 -103.93607644094882 196.86166991509162 0 196.86166991509162 653.77824348260765 0 0 0 0 1.2945164801710121 273.79972700852522 0 273.79972700852522 560.04592352830514 0 0 0 0 -0.44420379416911931 1.3945276407713223 0 1.3945276407713223 8.9000286895536931 0 0 0 0 -68.243798262557675 259.69165830402198 0 259.69165830402198 73.991980275697642 0 0 0 0 845.34840791564727 -775.98127271581143 0 -775.98127271581143 295.89798708556918 0 0 0 0 -295.70808829764405 -181.0824719457014 0 -181.0824719457014 938.59372226423875 0 0 0 0 142.8391118014963 46.438905742870702 0 46.438905742870702 711.2280735499553 0 0 0 0 261.98356713766702 26.038975998944807 0 26.038975998944807 385.71181381073256 0 0 0 0 -0.20482216604538461 0.96886929555540746 0 0.96886929555540746 1.3872365509617737 0 0 0 0 337.05741590258151 -64.928475369313674 0 -64.928475369313674 477.54559868176148 0 0 0 0 592.79043825926681 460.96996745077195 0 460.96996745077195 242.45329631408458 0 0 0 0 117.10587932408595 -5.0048970248826663 0 -5.0048970248826663 -200.1255794158933 0 0 0 0 -0.05976705937271154 1.5766782881655033 0 1.5766782881655033 5.5311710520714428 0 0 0 0 -29.121874686196634 465.07542695246957 0 465.07542695246957 -143.19225389951862 0 0 0 0 57.46887174847916 4.1434711525580497 0 4.1434711525580497 -130.49428635908407 0 0 0 0 155.00792010277019 215.82729627269327 0 215.82729627269327 100.82807476269954 0 0 0 0 45.484435562943872 -155.28869190590922 0 -155.28869190590922 110.36058482680164 0 0 0 0 67.956887260097403 -126.05585509610773 0 -126.05585509610773 95.44972789795429 0 0 0 0 118.79241027036915 -73.416569071829144 0 -73.416569071829144 107.19209966164999 0 0 0 0 -87.476251230694743 -135.37533575337875 0 -135.37533575337875 119.15523461012344 0 0 0 0 59.251720470126656 -94.502780721602903 0 -94.502780721602903 42.741848554624084 0 0 0 0 279.39324177813842 -273.81236583441569 0 -273.81236583441569 356.43013564980356 0 0 0 0 -38.14860099758971 -30.989831676524773 0 -30.989831676524773 232.3084935064835 0 0 0 0 47.001111368638476 -35.713177565674414 0 -35.713177565674414 209.13458513804653 0 0 0 0 113.28072283055963 240.35141809556808 0 240.35141809556808 340.19966931782255 0 0 0 0 -11.15390259034416 16.986977574455523 0 16.986977574455523 359.22968857832893 0 0 0 0 -36.270936394244245 141.52531746635577 0 141.52531746635577 576.49703467839572 0 0 0 0 45.042347972661858 -56.283244358498564 0 -56.283244358498564 633.22755318883719 0 0 0 0 177.589486528208 460.86135128930619 0 460.86135128930619 -31.316180358480779 0 0 0 0 16.561474223636196 176.05346246897534 0 176.05346246897534 560.84957304687123 0 0 0 0 1.974511618421066 1.4610960700344577 0 1.4610960700344577 0.83912729735037317 0 0 0 0 -1.1386713368522123 -73.716488925905651 0 -73.716488925905651 373.10227421049058 0 0 0 0 292.17876892529489 -68.801166546834793 0 -68.801166546834793 164.84558163491602 0 0 0 0 59.547130235579516 19.075467816292075 0 19.075467816292075 132.33690313950501 0 0 0 0 67.765881100860497 -144.08908517824966 0 -144.08908517824966 213.30436776754323 0 0 0 0 44.771829914195223 -48.433339025887108 0 -48.433339025887108 237.77114306559815 0 0 0 0 -19.048467489010363 -75.977118771595997 0 -75.977118771595997 226.36260129571019 0 0 0 0 0.37876377198165301 2.6688233766108169 0 2.6688233766108169 59.550625044335902 0 0 0 0 -11.230369765898558 -27.510598262302665 0 -27.510598262302665 251.41910903625194 0 0 0 0 12.147153880467158 94.642241566158191 0 94.642241566158191 -11.336277360675012 0 0 0 0 -14.846450598553702 -12.984068533649406 0 -12.984068533649406 44.207776862116589 0 0 0 0 -47.288066230709887 79.507886282560321 0 79.507886282560321 7.7741258509631734 0 0 0 0 -24.340178706711413 59.013457607528835 0 59.013457607528835 -37.500269990210654 0 0 0 0 5.5044799163395197 8.9032623228953867 0 8.9032623228953867 10.879913830515392 0 0 0 0 -92.400799422311707 19.520386169177073 0 19.520386169177073 24.187360286494368 0 0 0 0 -18.320614694119286 18.712530252953002 0 18.712530252953002 -34.303382823294669 0 0 0 0 26.869344635822017 -30.262213987662108 0 -30.262213987662108 -129.78065314407286 0 0 0 0 0.47673872851877874 4.0889886097973829 0 4.0889886097973829 6.2267271889047606 0 0 0 0 72.762441444289493 49.766616951765172 0 49.766616951765172 -91.083817969250958 0 0 0 0 -22.895050215135598 4.5753754093384487 0 4.5753754093384487 -76.957706630870234 0 0 0 0 -222.35349720216539 47.236125329094648 0 47.236125329094648 352.48433597924304 0 0 0 0 -88.858417293153693 2.3790347077333536 0 2.3790347077333536 52.336870314145926 0 0 0 0 -202.71963525190279 59.835794732964132 0 59.835794732964132 28.048893411556492 0 0 0 0 5.6645267388479237 7.3066877695167705 0 7.3066877695167705 8.9101363385248646 0 0 0 0 -151.31535627060609 115.56902253274166 0 115.56902253274166 47.606044320102228 0 0 0 0 4.157969879494205 5.1985396442390766 0 5.1985396442390766 6.025033421577632 0 0 0 0 -113.51265778740526 154.44854533371836 0 154.44854533371836 -100.56575206291745 0 0 0 0 -34.204320659914288 148.94901084464072 0 148.94901084464072 -100.20254257280612 0 0 0 0 48.84823726106697 -53.662491027029319 0 -53.662491027029319 24.145635369938645 0 0 0 0 -22.837206543106959 47.355697473507462 0 47.355697473507462 90.447078429206158 0 0 0 0 73.894879526911154 -202.15841520639515 0 -202.15841520639515 187.19039098534085 0 0 0 0 26.730994788761791 -11.097006238179347 0 -11.097006238179347 334.89513360666751 0 0 0 0 52.983465291390985 -154.77416098306639 0 -154.77416098306639 660.12022022620658 0 0 0 0 87.268305019307945 -75.723051078610297 0 -75.723051078610297 367.49837665850646 0 0 0 0 12.895451602294202 -211.69601735384822 0 -211.69601735384822 516.89307502189331 0 0 0 0 23.379291424581112 -97.491894538465203 0 -97.491894538465203 167.22702802714048 0 0 0 0 -63.371758078357061 -89.019693534903126 0 -89.019693534903126 680.33883766746294 0 0 0 0 1.0145878628758931 0.59045291429050906 0 0.59045291429050906 0.96037439247479028 0 0 0 0 4.8590288441475877 -48.832301139264018 0 -48.832301139264018 491.49823258261313 0 0 0 0 -57.357854765687989 -124.23786450266925 0 -124.23786450266925 658.90832293743006 0 0 0 0 -47.742878861828331 38.01449158394098 0 38.01449158394098 625.95992505831873 0 0 0 0 -45.248299993095998 -66.856017458587303 0 -66.856017458587303 485.3104882454827 0 0 0 0 -70.310071388030792 160.7816387603998 0 160.7816387603998 242.49045830277464 0 0 0 0 92.663095966471246 490.25659753754735 0 490.25659753754735 1264.4470969808608 0 0 0 0 -2.8960136977275717 3.097832363953188 0 3.097832363953188 -1.2901820218934432 0 0 0 0 61.145989163601143 37.784136232123274 0 37.784136232123274 108.75132343916994 0 0 0 0 -86.721612169052605 682.39813664985195 0 682.39813664985195 1467.4986603936413 0 0 0 0 -144.02471385995705 -448.69880910110805 0 -448.69880910110805 2023.8742518224171 0 0 0 0 8.5378339087987456 56.898497561071963 0 56.898497561071963 1398.0068011431213 0 0 0 0 186.94056127751719 -286.49011772367157 0 -286.49011772367157 663.09283915431683 0 0 0 0 -29.743661442425946 -110.98057972680908 0 -110.98057972680908 899.28808561214828 0 0 0 0 309.40676018303066 -127.26246565975816 0 -127.26246565975816 389.92703148444707 0 0 0 0 -141.31555533404344 -114.26113636143054 0 -114.26113636143054 677.19675470768198 0 0 0 0 -185.92442193636953 22.818943889711591 0 22.818943889711591 505.98657081692363 0 0 0 0 -85.699747526940655 41.359741051543097 0 41.359741051543097 554.54412896953727 0 0 0 0 -142.47865838856751 -20.29159299238745 0 -20.29159299238745 547.00725203440379 0 0 0 0 2.8864617502989818 2.2652788598977054 0 2.2652788598977054 1.5788202623839922 0 0 0 0 -105.09357966584162 55.240235538600245 0 55.240235538600245 403.54958694799279 0 0 0 0 -26.212735978129786 -6.081114317792526 0 -6.081114317792526 445.14658488297573 0 0 0 0 8.7648403143152791 -106.26680735378977 0 -106.26680735378977 471.64033441907668 0 0 0 0 -87.271459308810108 36.64864861965998 0 36.64864861965998 465.92155108858424 0 0 0 0 -99.231239617263782 -76.525983628747781 0 -76.525983628747781 232.6259380797128 0 0 0 0 47.312573292803563 69.739880440776687 0 69.739880440776687 43.791392978513613 0 0 0 0 -27.765474521682108 10.315245357360254 0 10.315245357360254 80.479196935863001 0 0 0 0 -71.813949424210591 47.834913661819883 0 47.834913661819883 51.807445534912404 0 0 0 0 -121.87934579459898 -6.7324432605128095 0 -6.7324432605128095 65.280032761977054 0 0 0 0 -0.71962771321532593 -0.28408253534638561 0 -0.28408253534638561 1.319459643992559 0 0 0 0 -99.121177242001707 -162.70532954948888 0 -162.70532954948888 -71.498345754473121 0 0 0 0 17.123800365417765 26.460396367136127 0 26.460396367136127 70.980468954396201 0 0 0 0 -76.853474311121545 -92.68055309895135 0 -92.68055309895135 -38.93367417047557 0 0 0 0 -0.58532412174384074 0.34339256830276099 0 0.34339256830276099 -0.05370529323528217 0 0 0 0 -28.316327705880894 -133.35544382091393 0 -133.35544382091393 50.92441453030915 0 0 0 0 -23.535304172452697 18.314675193381845 0 18.314675193381845 26.933819363126531 0 0 0 0 70.757232806169213 -6.2761654439964332 0 -6.2761654439964332 -87.027183549202164 0 0 0 0 -10.980066233039679 11.394808388176898 0 11.394808388176898 330.0439424639917 0 0 0 0 141.11776619345756 -82.14492561188672 0 -82.14492561188672 87.757243153340823 0 0 0 0 -28.172576550362056 14.97390653651334 0 14.97390653651334 -7.3875700344404649 0 0 0 0 -44.059958345207633 16.385045166112832 0 16.385045166112832 114.24020165210095 0 0 0 0 912.1449024564663 606.58533868717495 0 606.58533868717495 680.92210647617071 0 0 0 0 -364.59901778868516 6.5348324912047246 0 6.5348324912047246 507.22520467975846 0 0 0 0 -241.4450421076458 50.091895117117019 0 50.091895117117019 459.81730798142962 0 0 0 0 -174.01895094399515 -20.100578315119492 0 -20.100578315119492 421.86482467950555 0 0 0 0 -31.915531175782235 -67.038215987042349 0 -67.038215987042349 200.66433298427728 0 0 0 0 -41.987446026677844 -38.096163743968646 0 -38.096163743968646 28.73051735071931 0 0 0 0 -18.647330984032365 -31.527175086543366 0 -31.527175086543366 -69.666436159197474 0 0 0 0 -9.7311515969033078 2.2553531424573237 0 2.2553531424573237 1.3675628421785575 0 0 0 0 -12.962190578180017 12.692917034000615 0 12.692917034000615 -5.8674096771755231 0 0 0 0 -45.905221407030687 37.520869924124099 0 37.520869924124099 11.817543871104135 0 0 0 0 -33.768951733284439 -9.9623728725709952 0 -9.9623728725709952 101.32909158112307 0 0 0 0 -7.2711324310123446 -1.403015528997571 0 -1.403015528997571 7.5062682610712272 0 0 0 0 -15.959771294344527 -11.479616224853089 0 -11.479616224853089 29.902282565148198 0 0 0 0 16.536238147070435 657.78824292925128 0 657.78824292925128 1402.4132190940609 0 0 0 0 786.95875637470363 226.0572134128015 0 226.0572134128015 682.58623847571937 0 0 0 0 1405.9144308014388 1269.1178243973918 0 1269.1178243973918 1289.8575416705107 0 0 0 0 429.42452012393738 1127.2160328377213 0 1127.2160328377213 1799.8056550805559 0 0 0 0 503.98782990694235 1630.1314270924995 0 1630.1314270924995 2310.0124510068053 0 0 0 0 453.21847168439467 1173.7456805169277 0 1173.7456805169277 1758.0609263346196 0 0 0 0 503.6301357187649 1205.8692758133475 0 1205.8692758133475 1301.1254870344274 0 0 0 0 0.57179680399902111 1.6064013667481305 0 1.6064013667481305 -2.1500495165139952 0 0 0 0 16.064035194344797 48.630011817316699 0 48.630011817316699 2.4515227184820105 0 0 0 0 -9.1215448827414747 10.252828860864341 0 10.252828860864341 -3.1743501023308909 0 0 0 0 -40.14708414015945 82.040540017063904 0 82.040540017063904 104.88796972383534 0 0 0 0 618.28718298245349 785.99803783709649 0 785.99803783709649 935.97887679908308 0 0 0 0 267.83450341130032 935.26832376368543 0 935.26832376368543 1753.0776706250617 0 0 0 0 284.5530583597855 661.84825467675546 0 661.84825467675546 1366.8845297571752 0 0 0 0 112.07250850377761 1259.7325177734965 0 1259.7325177734965 2641.2316096567956 0 0 0 0 456.65173407031409 1165.632687712492 0 1165.632687712492 1697.5663030415162 0 0 0 0 432.40965511801949 1123.4028966244223 0 1123.4028966244223 1741.5676629033624 0 0 0 0 30.129662934569694 1409.6185587903437 0 1409.6185587903437 2596.0053808222801 0 0 0 0 120.32896568198137 1764.9204532693384 0 1764.9204532693384 3660.0100418784859 0 0 0 0 -520.49104522020048 1908.8630659439477 0 1908.8630659439477 4999.0543836988036 0 0 0 0 593.97769579034934 2078.1906682382469 0 2078.1906682382469 3282.8165054126584 0 0 0 0 426.68824422992964 2388.7816063492464 0 2388.7816063492464 3671.0208461723814 0 0 0 0 707.08865552839393 1772.7137732406009 0 1772.7137732406009 2206.6837031112955 0 0 0 0 449.93959045818491 1434.1900920505241 0 1434.1900920505241 2110.6493912172155 0 0 0 0 659.08250663834042 1608.6965021731976 0 1608.6965021731976 2094.7299785141659 0 0 0 0 1891.8380186302652 1496.3275038022402 0 1496.3275038022402 907.94385108394272 0 0 0 0 930.6170540490084 564.06077718015513 0 564.06077718015513 750.20053807660588 0 0 0 0 1158.9664523723141 806.0932709417757 0 806.0932709417757 357.05141499121964 0 0 0 0 1261.0932432389181 2559.098326039224 0 2559.098326039224 3282.2554113215156 0 0 0 0 878.54546011425691 3204.080034400693 0 3204.080034400693 5911.5002088271503 0 0 0 0 4061.7303730302015 2344.2012476729724 0 2344.2012476729724 5001.3163350622017 0 0 0 0 3171.0160045672283 2944.5154487566924 0 2944.5154487566924 1391.1495085269416 0 0 0 0 22.459336655011899 14.160927543364295 0 14.160927543364295 10.455961965652705 0 0 0 0 1049.5864800827162 538.62569389822966 0 538.62569389822966 7771.0520203911437 0 0 0 0 1771.5426359187732 890.66560420348833 0 890.66560420348833 -1033.1109314107598 0 0 0 0 -450.11104551063545 -475.1377784968281 0 -475.1377784968281 -113.08886295231423 0 0 0 0 -371.78258555423054 -1.6705725190477096 0 -1.6705725190477096 604.22289427626674 0 0 0 0 1419.5061210131062 543.59360652623218 0 543.59360652623218 402.64349773825961 0 0 0 0 -375.68695764390986 720.19514094818078 0 720.19514094818078 2464.8732227320688 0 0 0 0 -365.36115225442813 439.40454862645674 0 439.40454862645674 2381.4044049420772 0 0 0 0 -379.1239129515464 394.14697415245882 0 394.14697415245882 2244.4892618918457 0 0 0 0 -171.90362332231848 608.76394380793863 0 608.76394380793863 1903.2454588160326 0 0 0 0 16.177180431356419 972.10198853314432 0 972.10198853314432 2045.9196165914655 0 0 0 0 21.070176929149284 799.99884304514126 0 799.99884304514126 1964.7938469309265 0 0 0 0 -403.85165169583433 668.35768705976443 0 668.35768705976443 2828.9222886014431 0 0 0 0 -421.4096341699331 1107.5991657538561 0 1107.5991657538561 3146.3264968302174 0 0 0 0 -428.56593542578173 1218.134659830288 0 1218.134659830288 3810.0314952930421 0 0 0 0 -716.61377144428491 1410.1466133231879 0 1410.1466133231879 3829.8158660113695 0 0 0 0 -1022.7733965941892 1096.5141929228921 0 1096.5141929228921 4998.3599817251416 0 0 0 0 -974.80754367601332 603.67586183872118 0 603.67586183872118 4070.5771646904686 0 0 0 0 -978.22068354809733 458.72524522919321 0 458.72524522919321 3557.3698218598292 0 0 0 0 -529.76571374971525 255.50358532695827 0 255.50358532695827 3279.1899099029397 0 0 0 0 -523.48308436617788 252.41549605347291 0 252.41549605347291 2781.8520534846684 0 0 0 0 -1213.9040618531117 -134.34218769721701 0 -134.34218769721701 5001.6109586358798 0 0 0 0 -1202.3280161477878 -745.3033818095646 0 -745.3033818095646 3126.856640031845 0 0 0 0 -1197.2780705995565 -1160.4565414745157 0 -1160.4565414745157 4988.6554920530007 0 0 0 0 -1.2812893977628184 -1.7488037260247467 0 -1.7488037260247467 24.228157846812564 0 0 0 0 -506.53700526984721 -2248.9360009787119 0 -2248.9360009787119 1890.6754312990088 0 0 0 0 -204.31090934537929 771.68783521480509 0 771.68783521480509 227.8235148432359 0 0 0 0 -109.27380420403381 283.03495392742479 0 283.03495392742479 2342.5232257731841 0 0 0 0 -1240.3669740430491 1535.1796580594892 0 1535.1796580594892 2448.3503685440664 0 0 0 0 -1.6267357896173342 -2.0482274579543489 0 -2.0482274579543489 24.147261728710362 0 0 0 0 -944.30360115334952 304.26204206765033 0 304.26204206765033 4218.4223410335981 0 0 0 0 -883.52660716538776 661.22204272570889 0 661.22204272570889 2372.238655368847 0 0 0 0 274.78106442515218 -787.34859742853587 0 -787.34859742853587 2708.4904685047732 0 0 0 0 396.05140188171424 -952.63319426329599 0 -952.63319426329599 2530.9401786534872 0 0 0 0 493.98437768313056 -1662.7643864070124 0 -1662.7643864070124 3866.4741808858525 0 0 0 0 -1087.9593364513485 -2110.0791269191018 0 -2110.0791269191018 4239.0980829089385 0 0 0 0 -341.79840459043317 -2519.8657523681031 0 -2519.8657523681031 4425.2230764266278 0 0 0 0 -996.88215072380808 -1694.154827794242 0 -1694.154827794242 5067.6272628773077 0 0 0 0 1.4772723630131306 6.3735584724011858 0 6.3735584724011858 22.769511511213182 0 0 0 0 247.86830577093355 427.37842943940632 0 427.37842943940632 676.75587523839204 0 0 0 0 304.29961860774051 337.64211496954522 0 337.64211496954522 -1015.7170742847811 0 0 0 0 -691.79563899467678 1616.5718092492707 0 1616.5718092492707 1960.9938627345255 0 0 0 0 -1172.4267906062059 451.29732276634604 0 451.29732276634604 4991.8780170287209 0 0 0 0 -671.62552808659996 17.977616118761944 0 17.977616118761944 1009.4772599908647 0 0 0 0 -218.24343340193818 -1373.4230976339859 0 -1373.4230976339859 4991.8949080010207 0 0 0 0 1265.6438345691229 1364.227206421936 0 1364.227206421936 4993.5685437576867 0 0 0 0 2929.2264099475278 2306.7047805815891 0 2306.7047805815891 783.34996921723359 0 0 0 0 5.8743129245237702 7.7298678742895959 0 7.7298678742895959 19.378555273417703 0 0 0 0 3101.2860948807447 1427.4340444405079 0 1427.4340444405079 4321.7925498924305 0 0 0 0 834.48535882463693 950.86090110860096 0 950.86090110860096 4226.2794909591576 0 0 0 0 2557.3586292628188 -976.81316253452678 0 -976.81316253452678 6375.3992273457261 0 0 0 0 4394.0357000765689 -1286.5882147905795 0 -1286.5882147905795 1019.5836113242794 0 0 0 0 -946.29359228452552 -2003.0982225785883 0 -2003.0982225785883 5968.8406502584985 0 0 0 0 -13.184709049919839 833.12428545662988 0 833.12428545662988 4785.1784787922079 0 0 0 0 1942.4836174447537 1068.8890882652686 0 1068.8890882652686 3771.4264956334955 0 0 0 0 344.14065255192725 1646.376476542755 0 1646.376476542755 4897.0882030280773 0 0 0 0 1421.7506245234003 1635.4748929485977 0 1635.4748929485977 4782.0047777163272 0 0 0 0 -98.895423901891263 2160.881770447937 0 2160.881770447937 4646.2071943267729 0 0 0 0 906.29227594614349 -528.62716315490979 0 -528.62716315490979 93.32309836227796 0 0 0 0 -337.50603572767659 -334.86412853951333 0 -334.86412853951333 3342.3122783784711 0 0 0 0 9.7387165191150835 12.872855730963849 0 12.872855730963849 13.048130068282035 0 0 0 0 3547.3545022013732 2408.1372958834036 0 2408.1372958834036 1270.7728830062115 0 0 0 0 -212.58436654829893 -2885.513911120077 0 -2885.513911120077 5296.2239006282034 0 0 0 0 870.66827826757572 -2654.7520918191985 0 -2654.7520918191985 1024.7405852978118 0 0 0 0 9.7706026356050764 -19.415358452307636 0 -19.415358452307636 39.12257867976308 0 0 0 0 598.99492962881141 1702.1517747162216 0 1702.1517747162216 5344.8856226180433 0 0 0 0 1000.4359135478715 1746.8729423867735 0 1746.8729423867735 1763.7200088451937 0 0 0 0 730.66355368555764 -409.77484310931686 0 -409.77484310931686 363.74380635474517 0 0 0 0 193.21327953327454 211.57148504081852 0 211.57148504081852 -98.385857384666451 0 0 0 0 -366.01260104728885 -37.466327245827415 0 -37.466327245827415 986.64247470365081 0 0 0 0 -1201.8301608541069 -200.32775632958692 0 -200.32775632958692 282.4031534372989 0 0 0 0 15.785910743385191 -36.743490081115894 0 -36.743490081115894 102.26889870813687 0 0 0 0 -723.94536376558972 518.10122464095912 0 518.10122464095912 608.20101439373684 0 0 0 0 -609.6233716339957 303.33339030492061 0 303.33339030492061 341.93253416105654 0 0 0 0 -286.95984001045508 245.76976242425917 0 245.76976242425917 -20.791091029554082 0 0 0 0 153.82053546658381 538.43480298005306 0 538.43480298005306 307.28559691148985 0 0 0 0 -144.11103382669785 490.40274005209358 0 490.40274005209358 311.49620086218056 0 0 0 0 153.95000125315164 353.2561810314146 0 353.2561810314146 555.55629807148944 0 0 0 0 953.76963955035058 590.96976225022809 0 590.96976225022809 442.46650998939003 0 0 0 0 1356.2187895249258 664.08246725533536 0 664.08246725533536 230.69273109805363 0 0 0 0 276.86267383471295 292.34024799217877 0 292.34024799217877 252.66003533324692 0 0 0 0 12.477547085333223 5.529265888684094 0 5.529265888684094 55.442630529705525 0 0 0 0 -4.9238488108912861 -134.29522174104204 0 -134.29522174104204 -73.458553840449895 0 0 0 0 -27.132914524727767 13.425406231319357 0 13.425406231319357 105.72256383197964 0 0 0 0 -13.072271904567039 -7.9445003219176868 0 -7.9445003219176868 111.59633702512619 0 0 0 0 31.004181895141301 -120.17241275718698 0 -120.17241275718698 179.53390547875642 0 0 0 0 -10.038672575280316 -7.6780599632954676 0 -7.6780599632954676 96.608543820705279 0 0 0 0 -279.28131958874042 361.12354391725239 0 361.12354391725239 658.18569335551001 0 0 0 0 134.57626439499199 143.78882728483586 0 143.78882728483586 177.9800175090495 0 0 0 0 -7.250809807240703 -5.9484183702164444 0 -5.9484183702164444 20.74496621758766 0 0 0 0 -280.38502391798937 92.751002622973829 0 92.751002622973829 509.89636262849672 0 0 0 0 -154.44917452004074 -111.4771555530242 0 -111.4771555530242 106.61454894474446 0 0 0 0 -142.06342634332373 -145.75229940779536 0 -145.75229940779536 136.63541476498358 0 0 0 0 -10.238679037241258 -3.6363080262390639 0 -3.6363080262390639 56.115537300772928 0 0 0 0 -11.824315494955158 7.924942354349696 0 7.924942354349696 83.993827811733354 0 0 0 0 -125.09905172111849 -143.01433501785505 0 -143.01433501785505 121.88080818884191 0 0 0 0 -270.1110945401108 185.86359966855798 0 185.86359966855798 -52.765351621608716 0 0 0 0 8.1875369998679162 -22.668369140548748 0 -22.668369140548748 97.596726719275466 0 0 0 0 -10.715162120064406 12.919537763053086 0 12.919537763053086 79.138935239039711 0 0 0 0 -15.258303098281377 12.582690672414031 0 12.582690672414031 61.466828600936964 0 0 0 0 -3.7891834227320942 8.9560950677769142 0 8.9560950677769142 81.377838542706741 0 0 0 0 3.4160057215217376 27.264281468753836 0 27.264281468753836 21.173981022685211 0 0 0 0 -8.7743003121736365 5.905880241713021 0 5.905880241713021 85.199377858363732 0 0 0 0 -16.329959267039033 17.507795822309376 0 17.507795822309376 89.052083619805728 0 0 0 0 -352.83657326469438 327.25248701047531 0 327.25248701047531 15.553667440142817 0 0 0 0 -31.286426231911605 11.315399928047555 0 11.315399928047555 98.679469173017424 0 0 0 0 -7.254017386046371 16.234126528506749 0 16.234126528506749 97.407563142449362 0 0 0 0 19.433307882757276 47.782172369174077 0 47.782172369174077 60.455614016391337 0 0 0 0 -5.6010854648107706 17.697681397419018 0 17.697681397419018 75.246030010642471 0 0 0 0 0.37704018240509463 42.920050456114609 0 42.920050456114609 28.073429501829082 0 0 0 0 -17.092985750809362 227.23393736844628 0 227.23393736844628 -122.57428950007306 0 0 0 0 -17.795277529221494 227.68930557183194 0 227.68930557183194 -96.906940590117301 0 0 0 0 -35.704975905583524 247.39036206179298 0 247.39036206179298 -91.970170432387022 0 0 0 0 65.910366062463709 47.096141321766481 0 47.096141321766481 8.0730018952308455 0 0 0 0 140.48365784438147 165.96291279514844 0 165.96291279514844 -98.861503040712705 0 0 0 0 200.2959453264582 206.59254059058003 0 206.59254059058003 -317.99448619786563 0 0 0 0 188.12322852573743 455.17934420213714 0 455.17934420213714 -325.67762848656503 0 0 0 0 -515.60209923817183 618.66610138126271 0 618.66610138126271 -179.25208444210875 0 0 0 0 -0.63792789034406072 -1.8658523254564514 0 -1.8658523254564514 -5.8223926284079823 0 0 0 0 -968.08913026261962 610.8497965017159 0 610.8497965017159 -391.36832791945199 0 0 0 0 365.16361480357688 -2.8131331421573122 0 -2.8131331421573122 -151.04907728956459 0 0 0 0 -1143.764211739468 588.37583990048006 0 588.37583990048006 -18.828821453498676 0 0 0 0 -574.92333575105476 82.272951011545956 0 82.272951011545956 -368.72936940721411 0 0 0 0 -1851.1100195643926 775.8467519124606 0 775.8467519124606 -428.69316740968497 0 0 0 0 3.0678642062939994 -0.84747686014443957 0 -0.84747686014443957 -3.6187716491021433 0 0 0 0 -471.27821628754373 320.12582210765686 0 320.12582210765686 -667.87633211337379 0 0 0 0 -206.05690124971306 390.54088331392268 0 390.54088331392268 7.4174777715161326 0 0 0 0 -24.577722735127963 -280.79184271350096 0 -280.79184271350096 335.01970976502344 0 0 0 0 -225.12635756061673 540.05929133424797 0 540.05929133424797 -442.34048836236616 0 0 0 0 111.48477896847407 128.31350283421489 0 128.31350283421489 -334.96084591407271 0 0 0 0 -465.8141210286733 377.09197367141678 0 377.09197367141678 -116.9563221866556 0 0 0 0 -571.09130679689952 118.35024115843407 0 118.35024115843407 -70.798396105303254 0 0 0 0 1.8147937403918259 1.8229020022386351 0 1.8229020022386351 2.1421691423445566 0 0 0 0 310.58956391423271 -108.83142931584734 0 -108.83142931584734 336.89692150264818 0 0 0 0 325.00786145741114 -139.23973280327391 0 -139.23973280327391 331.06623134119582 0 0 0 0 -74.852116140919975 -383.32005428025695 0 -383.32005428025695 1371.22522430354 0 0 0 0 170.30688142817144 -131.97847587330762 0 -131.97847587330762 1202.7721700817565 0 0 0 0 138.49012790189045 -505.75592729939672 0 -505.75592729939672 427.03477675762588 0 0 0 0 128.59076461305551 -438.3830279565118 0 -438.3830279565118 1413.2362039536383 0 0 0 0 11.868545762028532 -164.42979845810623 0 -164.42979845810623 1481.3505571013011 0 0 0 0 1021.3652172113264 -1358.6908279621857 0 -1358.6908279621857 2623.7738799126491 0 0 0 0 317.63874130446061 -54.508714011728443 0 -54.508714011728443 2909.7127529404934 0 0 0 0 719.17729508836373 -239.97314141834795 0 -239.97314141834795 952.231631835195 0 0 0 0 -213.99397836405183 460.32380027317777 0 460.32380027317777 572.26805495313602 0 0 0 0 122.19711635660451 -134.15216935351782 0 -134.15216935351782 1068.8995501227073 0 0 0 0 500.04199175958342 -284.2847830114406 0 -284.2847830114406 -30.356480830947476 0 0 0 0 -246.75738088438823 152.01914039378607 0 152.01914039378607 4996.2797950729146 0 0 0 0 -248.72768520087999 -90.677779207326239 0 -90.677779207326239 1734.9422660754281 0 0 0 0 99.289290193601346 1050.4094941241347 0 1050.4094941241347 2014.1868565798068 0 0 0 0 137.35629875348695 821.14794824931778 0 821.14794824931778 -374.1499924860691 0 0 0 0 -0.81293062439704911 -74.643059924529709 0 -74.643059924529709 4352.3593848585006 0 0 0 0 300.83823904115604 409.89053579823667 0 409.89053579823667 5117.4179837167467 0 0 0 0 -1209.577736700189 579.13705560059316 0 579.13705560059316 4978.7538513801483 0 0 0 0 -356.33127568109666 -939.7022101222683 0 -939.7022101222683 6483.0035026028781 0 0 0 0 -247.75008863293158 -806.21429851699304 0 -806.21429851699304 3433.0090002181823 0 0 0 0 -887.17412118279367 632.82056531655689 0 632.82056531655689 2180.3960190539656 0 0 0 0 1.5486288208069166 9.2166426055003967 0 9.2166426055003967 15.487747356249884 0 0 0 0 -176.11731626154497 -488.60612446092273 0 -488.60612446092273 1158.4223809754185 0 0 0 0 2.8348156456316564 20.505621317409094 0 20.505621317409094 27.166098131351703 0 0 0 0 -391.28446216450379 328.14986329603562 0 328.14986329603562 1496.4332422756415 0 0 0 0 -933.25864249322285 -322.07351055247273 0 -322.07351055247273 1719.1535658192734 0 0 0 0 -452.98388082133761 2331.8790607378978 0 2331.8790607378978 -484.22174936228112 0 0 0 0 -922.43010668407192 888.49733390321489 0 888.49733390321489 3447.9349686792921 0 0 0 0 -1301.1224686586525 56.637007402106065 0 56.637007402106065 4167.47987886591 0 0 0 0 -1153.5619623933144 585.03895971015663 0 585.03895971015663 5002.6924692697503 0 0 0 0 -66.190047155022256 542.62545769579447 0 542.62545769579447 3886.2773093153883 0 0 0 0 144.00454452551401 1431.3502360895291 0 1431.3502360895291 2291.1987922965491 0 0 0 0 -938.18991525129684 257.35941494843928 0 257.35941494843928 3809.5180726822 0 0 0 0 -207.54869213867323 1758.8032810603036 0 1758.8032810603036 2463.1139217725286 0 0 0 0 312.47074536588462 1058.0071941083515 0 1058.0071941083515 2520.3939595007396 0 0 0 0 1106.6813860500524 2382.4281879001637 0 2382.4281879001637 2776.6790935919562 0 0 0 0 379.82193707883334 1342.1146032118704 0 1342.1146032118704 1374.8310598167591 0 0 0 0 264.54845422671451 1321.3794150999893 0 1321.3794150999893 1374.5417152264936 0 0 0 0 -8.0880018420137674 1148.9502492746342 0 1148.9502492746342 1291.6547177473258 0 0 0 0 -515.34420087696935 1319.3294379836443 0 1319.3294379836443 1846.4959549479245 0 0 0 0 -80.756771038491991 1664.7627663364356 0 1664.7627663364356 1571.2363826858927 0 0 0 0 475.6600374404677 1194.674015929606 0 1194.674015929606 1549.8092292341171 0 0 0 0 668.97269450038061 453.56793447906966 0 453.56793447906966 740.18207026147866 0 0 0 0 215.02574603828339 449.41053892040509 0 449.41053892040509 1349.8988762617946 0 0 0 0 123.53047093662917 78.63987978635123 0 78.63987978635123 170.72207150925533 0 0 0 0 340.76662200642124 469.417244508164 0 469.417244508164 521.47789204688161 0 0 0 0 -112.59878391098027 -33.772286468214588 0 -33.772286468214588 548.83771974349202 0 0 0 0 6.9490600501464996 283.77999728514988 0 283.77999728514988 969.31052703707246 0 0 0 0 110.30165645436887 301.15819056754117 0 301.15819056754117 593.83121884422144 0 0 0 0 277.0465218132631 38.577856839401647 0 38.577856839401647 15.12093882082263 0 0 0 0 -25.567815588209214 -131.45973366474209 0 -131.45973366474209 286.76046808823594 0 0 0 0 -277.84588380108198 -62.175783308979589 0 -62.175783308979589 281.6809818308102 0 0 0 0 -375.67261488116606 -286.73807307380775 0 -286.73807307380775 -85.064957281254465 0 0 0 0 -133.59212644564104 -230.361577611955 0 -230.361577611955 -400.89334832731402 0 0 0 0 -134.48063661121068 -135.83415221579344 0 -135.83415221579344 -142.27095968986396 0 0 0 0 -540.17099706150429 403.55917745447368 0 403.55917745447368 -149.29179500031751 0 0 0 0 167.33857304077395 23.220207501110053 0 23.220207501110053 -387.61375843395945 0 0 0 0 -326.55756858395682 205.22065368310723 0 205.22065368310723 -28.035420978732873 0 0 0 0 125.97730441201725 464.53093701833859 0 464.53093701833859 -998.94551358820172 0 0 0 0 -897.52964541080155 193.53914378787158 0 193.53914378787158 92.626598338567419 0 0 0 0 -4.4054113002886002 -1.064281322242806 0 -1.064281322242806 11.605125873457496 0 0 0 0 -56.094307839375404 -71.264854288019706 0 -71.264854288019706 544.92455632114797 0 0 0 0 450.27638176373421 240.72790755215829 0 240.72790755215829 -393.38147312712681 0 0 0 0 4.5806515959401217 0.54007619237506788 0 0.54007619237506788 0.20722287091570024 0 0 0 0 499.45797599050229 93.674906908581761 0 93.674906908581761 -306.37060783943161 0 0 0 0 222.0426911863027 -68.617713576735696 0 -68.617713576735696 689.43034951962181 0 0 0 0 70.555039846235559 -263.81347787156847 0 -263.81347787156847 881.11500943933788 0 0 0 0 -205.46895658988575 547.63266152492542 0 547.63266152492542 1331.4292415668024 0 0 0 0 -64.423975289139946 -45.262334275583271 0 -45.262334275583271 524.57131053561898 0 0 0 0 6.9895835369873147 3.7886623794641423 0 3.7886623794641423 1.6603082383564356 0 0 0 0 266.31708090373877 409.11566799995489 0 409.11566799995489 331.62011735035048 0 0 0 0 -128.03096896010237 428.01700612341665 0 428.01700612341665 2046.7213758672879 0 0 0 0 -0.20415555214600811 8.0908251880631212 0 8.0908251880631212 5.6801837565748308 0 0 0 0 275.00270116688534 46.927968969175708 0 46.927968969175708 1491.0427003931763 0 0 0 0 1.8926577386084409 2.936011589817241 0 2.936011589817241 3.3849776076699563 0 0 0 0 1581.5638748596657 1347.4777612116741 0 1347.4777612116741 389.15877852316953 0 0 0 0 -320.99660361461974 393.08997711952543 0 393.08997711952543 3566.1258672446274 0 0 0 0 2.0052119797761172 10.182470043350804 0 10.182470043350804 13.378944906678839 0 0 0 0 -1109.0485655155678 -872.74920195183222 0 -872.74920195183222 4732.4369214198377 0 0 0 0 -81.515483483065395 -281.90813926456758 0 -281.90813926456758 3051.7676219404966 0 0 0 0 0.4991193391619132 45.281545368798106 0 45.281545368798106 1554.6392837010208 0 0 0 0 366.51353226063611 -201.53124868642044 0 -201.53124868642044 1693.1342830022913 0 0 0 0 -539.54216022400863 -248.41884841911815 0 -248.41884841911815 3170.4893923672789 0 0 0 0 -232.75233248782786 78.154974114782817 0 78.154974114782817 2037.5933035029739 0 0 0 0 18.078712279747108 348.55353482593455 0 348.55353482593455 1028.4527825996483 0 0 0 0 -1.9636686489873212 3.4350275564767969 0 3.4350275564767969 3.6837174045093306 0 0 0 0 56.103168243923733 221.07352337840712 0 221.07352337840712 1455.8374318964779 0 0 0 0 -185.2308442715821 172.3663330310228 0 172.3663330310228 1451.3535259198325 0 0 0 0 -174.4918236339746 296.21470180658071 0 296.21470180658071 1765.3384098186507 0 0 0 0 6.2209732354174037 -8.963231584559253 0 -8.963231584559253 366.647535900207 0 0 0 0 2.597400936875855 2.3744098205429225 0 2.3744098205429225 2.0370501356488688 0 0 0 0 -11.833080064841624 8.536549601747538 0 8.536549601747538 458.85406108407187 0 0 0 0 47.154507485824865 24.350562079940573 0 24.350562079940573 409.26244217266139 0 0 0 0 101.92921907404224 92.654018562760029 0 92.654018562760029 493.80360068996379 0 0 0 0 -148.01097103995539 498.20563788382424 0 498.20563788382424 1422.8932825682423 0 0 0 0 -283.45147232150248 127.17260687657836 0 127.17260687657836 1662.37068233022 0 0 0 0 -47.351008707044684 52.352360961514933 0 52.352360961514933 1383.4010901467118 0 0 0 0 0.39052735979382014 2.1232157631496023 0 2.1232157631496023 3.4760313164449883 0 0 0 0 -99.918884172412746 1.543301917718054 0 1.543301917718054 1779.9120892309293 0 0 0 0 -75.616571155423429 -36.098655490270176 0 -36.098655490270176 1661.4846619020391 0 0 0 0 14.364830340835042 -5.0804816123782075 0 -5.0804816123782075 207.87352496109088 0 0 0 0 -0.13856734120257722 0.035983512966964781 0 0.035983512966964781 0.27103434128703441 0 0 0 0 11.169716920566174 -2.153721304886858 0 -2.153721304886858 229.39976229059539 0 0 0 0 -15.126419840360668 -6.3719917134731077 0 -6.3719917134731077 231.96972312737489 0 0 0 0 -5.1028890927419184 -12.724420389818988 0 -12.724420389818988 240.40389225166291 0 0 0 0 1.6073294189229017 4.7523629595525563 0 4.7523629595525563 228.70254338681116 0 0 0 0 9.0346084985734336 25.850831718693371 0 25.850831718693371 278.4162955161155 0 0 0 0 9.089241475815907 9.2071886878226792 0 9.2071886878226792 242.31757223480963 0 0 0 0 0.016172597429336247 -14.690037827167544 0 -14.690037827167544 277.50727394522983 0 0 0 0 -17.220823037829366 11.101082279637922 0 11.101082279637922 344.84351842652541 0 0 0 0 6.3523602746021517 -16.638745884920354 0 -16.638745884920354 259.2294135124539 0 0 0 0 -2.3783606084197348 1.695736048699473 0 1.695736048699473 27.320814176157 0 0 0 0 0.12862962905500905 -0.37422444753309492 0 -0.37422444753309492 0.47234832432295093 0 0 0 0 0.015223404821298811 6.248239638609105 0 6.248239638609105 14.369116908608703 0 0 0 0 -0.014810700673032216 6.2359641054417612 0 6.2359641054417612 14.365505186171504 0 0 0 0 3.7049053301719095 5.2236180904947105 0 5.2236180904947105 3.122507304593455 0 0 0 0 0.68512965344405075 1.3694391377575812 0 1.3694391377575812 14.282983138691634 0 0 0 0 -0.5189142759500589 4.9065835513738421 0 4.9065835513738421 20.572456660607713 0 0 0 0 0.59173498996126273 -1.0877342943194321 0 -1.0877342943194321 0.43875851554165024 0 0 0 0 1.2086272790658945 5.236333206675198 0 5.236333206675198 5.0470212003152994 0 0 0 0 2.6229234673123756 -28.775722142978339 0 -28.775722142978339 555.90193410887878 0 0 0 0 3.8262116904261418 3.800199908160721 0 3.800199908160721 11.846760441694641 0 0 0 0 10.718552751438892 -88.915761214484519 0 -88.915761214484519 313.88477527123177 0 0 0 0 -7.6135788093370138 37.914182099018944 0 37.914182099018944 192.74669668269053 0 0 0 0 -13.916896152399204 -78.391882113166503 0 -78.391882113166503 408.00362825937918 0 0 0 0 2.878392778368891 -2.6938639336585766 0 -2.6938639336585766 191.3127705714578 0 0 0 0 1.5831038510705282 6.0343446526977118 0 6.0343446526977118 4.5719531865416343 0 0 0 0 0.98307348565559494 2.7521359978418332 0 2.7521359978418332 20.295104216827895 0 0 0 0 1.3750847590788697 -1.280898802944364 0 -1.280898802944364 2.3231869272587886 0 0 0 0 0.27466892688431699 9.492008018452907 0 9.492008018452907 207.5829155704705 0 0 0 0 -8.4376158936676404 6.1291800343606155 0 6.1291800343606155 230.55948529401212 0 0 0 0 -10.898565353929399 -3.3734083265990193 0 -3.3734083265990193 214.1321717062383 0 0 0 0 -10.418093551194644 -0.72242844790162053 0 -0.72242844790162053 220.17503567581298 0 0 0 0 -4.373961628568793 10.758405950240558 0 10.758405950240558 261.77729619502861 0 0 0 0 0.53059827771572543 11.728758759203629 0 11.728758759203629 218.50704320170917 0 0 0 0 -0.41851151495594657 0.084226695208087676 0 0.084226695208087676 0.39901583915373351 0 0 0 0 1.6801821002809163 -6.4103619829911622 0 -6.4103619829911622 209.05568097958167 0 0 0 0 -5.9203570639177485 -5.6825850833847653 0 -5.6825850833847653 229.77298070700908 0 0 0 0 -4.5169172143462788 2.1818073071517574 0 2.1818073071517574 195.59234854740498 0 0 0 0 -0.50522632604599427 0.027739895735976461 0 0.027739895735976461 0.41792782885546842 0 0 0 0 -8.805659395623934 15.698975670027721 0 15.698975670027721 236.99448227451649 0 0 0 0 15.04916073082731 0.10752156099260901 0 0.10752156099260901 157.53163492806198 0 0 0 0 -9.1597342424154817 38.473941310323426 0 38.473941310323426 279.12029247726605 0 0 0 0 -0.21504246563080098 -0.14704892881141518 0 -0.14704892881141518 0.29154973717316324 0 0 0 0 -3.8362713878803163 -68.359542197518749 0 -68.359542197518749 345.82815625962394 0 0 0 0 -9.3379427232324588 -15.349949858544278 0 -15.349949858544278 237.01883334267103 0 0 0 0 4.7200144053761051 -21.289345729295746 0 -21.289345729295746 212.99918335003895 0 0 0 0 1.8913715598652061 -10.880463208522997 0 -10.880463208522997 211.18939732484068 0 0 0 0 -0.63349938620854118 30.473963638432906 0 30.473963638432906 50.473841781611554 0 0 0 0 3.0475756004013306 -6.557486041347147 0 -6.557486041347147 187.40373689768603 0 0 0 0 3.046290306797339 4.3855014358435938 0 4.3855014358435938 6.0888042700413223 0 0 0 0 -82.962910949987929 -17.856130972999381 0 -17.856130972999381 320.54363004214247 0 0 0 0 49.074719792324586 -28.834253899647592 0 -28.834253899647592 280.85698142123874 0 0 0 0 5.3727992587942595 37.245663693072856 0 37.245663693072856 348.10793414141517 0 0 0 0 2.97080747269748 3.7473394157924247 0 3.7473394157924247 3.205168288599566 0 0 0 0 1.2904736498114815 102.48057280477951 0 102.48057280477951 -31.198648477104143 0 0 0 0 -41.030721460627753 -78.88210797915599 0 -78.88210797915599 264.45465204416541 0 0 0 0 -93.932378686447535 15.047911563393427 0 15.047911563393427 297.48576284788396 0 0 0 0 -31.479081309710011 -118.30425225649378 0 -118.30425225649378 458.98621090891538 0 0 0 0 42.791971721462517 -81.619594106610748 0 -81.619594106610748 280.48550184194755 0 0 0 0 33.27135503843715 -18.046349002994248 0 -18.046349002994248 396.6896856102976 0 0 0 0 45.476439613961475 125.68295343552745 0 125.68295343552745 340.64895205810899 0 0 0 0 -0.72378402828339117 4.1671075063145366 0 4.1671075063145366 7.7202079218092763 0 0 0 0 5.8105493603178502 -156.4369060432291 0 -156.4369060432291 70.034039188520183 0 0 0 0 116.99651177342932 -73.209521914024663 0 -73.209521914024663 3.0424280587903922 0 0 0 0 -9.8931782619281421 -63.852804071866558 0 -63.852804071866558 441.3270970567537 0 0 0 0 88.062537936551735 181.65377213458123 0 181.65377213458123 -157.10322242361144 0 0 0 0 1.6858165644472631 1.0936978680814775 0 1.0936978680814775 0.91799545273329386 0 0 0 0 46.061019316164334 -44.264242412180465 0 -44.264242412180465 204.1976196362375 0 0 0 0 -44.659883247482753 -33.479547751056089 0 -33.479547751056089 669.38605583072058 0 0 0 0 40.25694362163631 93.70318433878856 0 93.70318433878856 186.07406635725056 0 0 0 0 -31.937168602862016 30.964969426458993 0 30.964969426458993 215.45204613365877 0 0 0 0 81.496902915361375 174.73254834773979 0 174.73254834773979 283.32299560795946 0 0 0 0 62.822876100224903 -56.025251796367229 0 -56.025251796367229 -101.90831947299012 0 0 0 0 -9.7532077752744435 -21.087100858823703 0 -21.087100858823703 29.059391579758483 0 0 0 0 22.860584190457871 55.599576502878335 0 55.599576502878335 216.20670512196375 0 0 0 0 25.790062727178451 155.11400658763887 0 155.11400658763887 76.020358582420158 0 0 0 0 104.18365427165827 143.34539675355882 0 143.34539675355882 157.28712870510935 0 0 0 0 25.580740134654661 64.952760796157236 0 64.952760796157236 150.50641305903264 0 0 0 0 76.844084889390842 67.039673154355114 0 67.039673154355114 17.246553446850157 0 0 0 0 25.220321457102727 2.8780627808155259 0 2.8780627808155259 -7.1016205878913752 0 0 0 0 -13.52186329010059 -17.39408713406516 0 -17.39408713406516 25.321782700156206 0 0 0 0 -14.564678353085696 -54.399152360158041 0 -54.399152360158041 -2.1541793905562372 0 0 0 0 52.136072903304466 24.130350719671696 0 24.130350719671696 82.568061330792261 0 0 0 0 76.41054770450728 40.323019447307161 0 40.323019447307161 49.208725740521913 0 0 0 0 69.401983601522261 85.446201627586561 0 85.446201627586561 100.47394610475749 0 0 0 0 -20.79080919390168 -46.938719750003656 0 -46.938719750003656 -9.4278302427410381 0 0 0 0 -18.083952401328492 -14.269898795583288 0 -14.269898795583288 22.439284585776505 0 0 0 0 17.765856036105106 98.306817775679519 0 98.306817775679519 162.68380164218252 0 0 0 0 3.9779296447399588 -26.544928903022083 0 -26.544928903022083 -13.559537602850469 0 0 0 0 -0.9092420486998094 20.898767669400513 0 20.898767669400513 41.66789835804957 0 0 0 0 -1.3178467018390734 -14.751733505239827 0 -14.751733505239827 89.19834989427909 0 0 0 0 -0.52871547759504267 46.704579596724216 0 46.704579596724216 69.216412287685671 0 0 0 0 -27.263785957833363 -5.215535167750204 0 -5.215535167750204 238.79402036059309 0 0 0 0 8.8487987461040305 31.233886877220357 0 31.233886877220357 117.9683939650422 0 0 0 0 10.964394947518038 -1.6614139522207552 0 -1.6614139522207552 124.84701876157487 0 0 0 0 -18.182917268768165 11.25061911866942 0 11.25061911866942 217.14560320132023 0 0 0 0 -11.051345834638571 0.76245273493987042 0 0.76245273493987042 177.21666188223571 0 0 0 0 -3.1307940910942094 22.252638180332724 0 22.252638180332724 141.96693474832864 0 0 0 0 12.618379763552765 12.973382343690901 0 12.973382343690901 99.278845225955592 0 0 0 0 9.9500004750621152 15.483536097104661 0 15.483536097104661 56.27521506647463 0 0 0 0 -6.3506566292768536 12.541392574836209 0 12.541392574836209 99.27328105054039 0 0 0 0 -4.0807103803035716 27.542456419891096 0 27.542456419891096 104.7551093732036 0 0 0 0 3.164995294607877 -1.8563080250896746 0 -1.8563080250896746 60.836054004874313 0 0 0 0 -12.124586442547425 -0.97149970865575597 0 -0.97149970865575597 60.801667025720235 0 0 0 0 2.5974889541052768 10.420375340802138 0 10.420375340802138 24.624563103890978 0 0 0 0 -44.103857086231471 -9.6000978041702183 0 -9.6000978041702183 18.09040373339667 0 0 0 0 0.15979054583907271 -6.8845557020104025 0 -6.8845557020104025 1.6165943679225165 0 0 0 0 -25.802890213115845 -17.130199126564548 0 -17.130199126564548 19.605330614664126 0 0 0 0 -21.875802219472064 3.3775854059931589 0 3.3775854059931589 -1.5054665465431754 0 0 0 0 -3.4682942959763068 4.5393142403918318 0 4.5393142403918318 10.500999959709588 0 0 0 0 -8.5056515422201961 -2.0929123620007886 0 -2.0929123620007886 30.365065821795724 0 0 0 0 3.4494406022985231 -2.1547130888502579 0 -2.1547130888502579 29.858877353268326 0 0 0 0 -7.3950443217755879 17.696240483282963 0 17.696240483282963 56.130932180560194 0 0 0 0 -0.19270507670402726 2.0895938023604685 0 2.0895938023604685 59.856338706136739 0 0 0 0 2.3720212972971324 14.389991552138781 0 14.389991552138781 40.226931850338588 0 0 0 0 -6.8015246348824316 -1.2540224785334431 0 -1.2540224785334431 38.59117521303051 0 0 0 0 1.7502401946832364 -5.0904121989151463 0 -5.0904121989151463 19.269697081559571 0 0 0 0 3.4566469391657622 1.2808465616108151 0 1.2808465616108151 15.208339313161559 0 0 0 0 0.013973305264618674 2.0718961801976548 0 2.0718961801976548 43.689269622118445 0 0 0 0 0.68682254018759048 5.0283391138364095 0 5.0283391138364095 39.603886159515241 0 0 0 0 -0.47084837539966728 16.307629621648971 0 16.307629621648971 66.313668088929262 0 0 0 0 5.9011903605163667 12.609302862518234 0 12.609302862518234 67.309624322486343 0 0 0 0 -0.0034132474452111018 5.0655454324005404 0 5.0655454324005404 95.074104273080593 0 0 0 0 5.4795667311465186 15.812340497708647 0 15.812340497708647 66.854862379441329 0 0 0 0 -0.72247388982043304 14.288487042307679 0 14.288487042307679 99.887696915597189 0 0 0 0 1.1549867619545395 9.2757201695640106 0 9.2757201695640106 101.61342030287778 0 0 0 0 8.7556301197690587 3.2647930953535251 0 3.2647930953535251 126.47040545879281 0 0 0 0 -7.9114651655408599 11.485248429045896 0 11.485248429045896 126.19126891918131 0 0 0 0 0.9420216690344595 3.7727640731463907 0 3.7727640731463907 120.45663351824624 0 0 0 0 -7.0833893805968859 8.5698598073213361 0 8.5698598073213361 139.0331103995477 0 0 0 0 -0.013897735606146223 6.7390813104066183 0 6.7390813104066183 144.05090555880452 0 0 0 0 -4.6791288527378105 14.946828036248917 0 14.946828036248917 116.48537471485906 0 0 0 0 -55.483544660458392 -0.88973378393711755 0 -0.88973378393711755 271.57998099983706 0 0 0 0 -80.343306964250132 -73.858664117411536 0 -73.858664117411536 284.26851991632975 0 0 0 0 -80.673680552596124 -95.496625243715243 0 -95.496625243715243 139.70186978978745 0 0 0 0 -100.8608925251192 -62.725627374367832 0 -62.725627374367832 235.96903565016692 0 0 0 0 -87.275070666580632 -23.223169569413585 0 -23.223169569413585 249.75362614355981 0 0 0 0 -78.314087371619735 -31.57847593016777 0 -31.57847593016777 257.02899986637931 0 0 0 0 -56.458297974984134 -11.005083137769361 0 -11.005083137769361 219.55553476136993 0 0 0 0 -42.878508455141855 39.264551005377143 0 39.264551005377143 307.68601634399965 0 0 0 0 -40.830916792438074 -30.299382014938601 0 -30.299382014938601 330.60489428015717 0 0 0 0 -47.087581059413424 74.968249851979635 0 74.968249851979635 238.87026717151457 0 0 0 0 -43.476034001498647 122.81649587292486 0 122.81649587292486 404.24387937028223 0 0 0 0 66.727752106284925 196.75016066998433 0 196.75016066998433 335.17431303114427 0 0 0 0 -92.074624046378176 -3.5955228036546032 0 -3.5955228036546032 644.44919724093052 0 0 0 0 -101.47799267826144 -148.70523844312993 0 -148.70523844312993 183.17516111340592 0 0 0 0 -193.58847258088826 289.75360538712266 0 289.75360538712266 184.8696482754458 0 0 0 0 -223.47487634475658 405.92866326231342 0 405.92866326231342 -125.52807541257789 0 0 0 0 156.8577867880158 -258.80660489591537 0 -258.80660489591537 345.76905992372485 0 0 0 0 0.35568324405029017 0.99635804762252178 0 0.99635804762252178 5.4269747951589977 0 0 0 0 -79.837296586360026 186.7769012817007 0 186.7769012817007 -210.56826113645729 0 0 0 0 -67.276444975828326 209.94503735059698 0 209.94503735059698 -212.5132341087301 0 0 0 0 220.40134449001107 -58.350987650166644 0 -58.350987650166644 -55.610816706262995 0 0 0 0 203.90343281626815 254.08525786260452 0 254.08525786260452 -250.94913300371263 0 0 0 0 -556.37450983523013 265.36824701987643 0 265.36824701987643 -138.15059044407826 0 0 0 0 -681.33964105797031 520.9097097658705 0 520.9097097658705 -113.21553079706791 0 0 0 0 -560.52364614083672 358.57673785778024 0 358.57673785778024 -310.53102769547331 0 0 0 0 -3.2406952546573797 6.7570598402383126 0 6.7570598402383126 10.337873174000009 0 0 0 0 -12.855616262359263 -16.732272650348023 0 -16.732272650348023 81.624506844382267 0 0 0 0 4.9266470145525147 39.322037359673097 0 39.322037359673097 -5.3053672500708444 0 0 0 0 62.312657895429766 130.59035785817832 0 130.59035785817832 -15.124010397223174 0 0 0 0 -48.05202904156431 17.349702189007076 0 17.349702189007076 92.64995751430979 0 0 0 0 -8.3076500312073307 12.701405619315608 0 12.701405619315608 20.987383435666118 0 0 0 0 -80.593027804674421 -18.86104116270144 0 -18.86104116270144 94.497377048362978 0 0 0 0 51.228094126803171 -99.420232934349769 0 -99.420232934349769 107.049098456926 0 0 0 0 -95.850119139070557 4.6699125893646851 0 4.6699125893646851 75.74739880755078 0 0 0 0 -27.743340299209507 -33.524855893935069 0 -33.524855893935069 192.59253018039726 0 0 0 0 -473.41008036250844 -48.782413459280178 0 -48.782413459280178 444.27746927484986 0 0 0 0 -58.299926708449675 -120.62092185931397 0 -120.62092185931397 162.82502483113785 0 0 0 0 -450.30291481619219 207.50934728821176 0 207.50934728821176 773.46700670168502 0 0 0 0 -150.25547257935159 136.87260851488463 0 136.87260851488463 154.92855042652809 0 0 0 0 -85.052604181990546 174.19424738122325 0 174.19424738122325 -34.429605012308457 0 0 0 0 22.460825986872408 120.67085244585266 0 120.67085244585266 71.563986974230716 0 0 0 0 65.04205627805004 125.96054323432327 0 125.96054323432327 -81.149300650911755 0 0 0 0 -13.022476037260276 61.289798955083825 0 61.289798955083825 30.005123057489982 0 0 0 0 -4.9970962330939894 49.606267072458337 0 49.606267072458337 78.293610402996478 0 0 0 0 353.59895212785977 206.24521625479974 0 206.24521625479974 -6.6079201893589925 0 0 0 0 1.399767591040785 45.323629410595771 0 45.323629410595771 81.969345961335193 0 0 0 0 8.0814724180054149 28.057089410726064 0 28.057089410726064 19.589833499382067 0 0 0 0 19.165407524298416 -32.488605342347 0 -32.488605342347 182.92989565666358 0 0 0 0 -76.948154060584784 127.03480336058419 0 127.03480336058419 661.64353713801393 0 0 0 0 113.90477949124306 -208.29763284826913 0 -208.29763284826913 494.43473111162893 0 0 0 0 4.0417284963634303 13.768585748301376 0 13.768585748301376 -3.5933722054386408 0 0 0 0 -70.945623398515636 408.31901337175077 0 408.31901337175077 494.19575385018834 0 0 0 0 -34.999501787696317 -31.997743189771427 0 -31.997743189771427 280.75308820420469 0 0 0 0 36.446946677515029 83.446470649030744 0 83.446470649030744 143.09385053886217 0 0 0 0 -39.183483258365186 -37.245850985193101 0 -37.245850985193101 336.98090154539386 0 0 0 0 -43.811310147665608 56.163350826522219 0 56.163350826522219 332.56029667341409 0 0 0 0 -11.679470610415137 -31.126974891391001 0 -31.126974891391001 256.08376485106419 0 0 0 0 -10.448278316342567 50.791644508310128 0 50.791644508310128 184.94260139047401 0 0 0 0 51.460342377230518 119.08555011320277 0 119.08555011320277 239.66823748130992 0 0 0 0 -39.373562549223379 123.71694041368755 0 123.71694041368755 308.79785359158996 0 0 0 0 -86.000395166122416 70.018316054312891 0 70.018316054312891 291.9135813601315 0 0 0 0 -13.160490404572329 50.649947248732133 0 50.649947248732133 292.01751299860189 0 0 0 0 -25.699822307873546 63.297090647320147 0 63.297090647320147 239.9813180595811 0 0 0 0 -89.167104358530196 -7.0153105867939303 0 -7.0153105867939303 263.95635529161882 0 0 0 0 0.23703523513222535 -114.16483940293256 0 -114.16483940293256 254.00994212620753 0 0 0 0 -162.11941604561343 -185.8140386921732 0 -185.8140386921732 172.39150777374743 0 0 0 0 783.36767934281488 -103.72934843183612 0 -103.72934843183612 96.533595876957406 0 0 0 0 -16.959813289006313 -43.895773279415451 0 -43.895773279415451 190.31332236784425 0 0 0 0 -36.357800606463115 46.139618721586885 0 46.139618721586885 325.76008272459148 0 0 0 0 217.79073689642337 59.221344718367618 0 59.221344718367618 75.895665011383244 0 0 0 0 -21.073965160217085 87.815588699522777 0 87.815588699522777 318.56302884741308 0 0 0 0 23.769700339991687 -109.91085755926906 0 -109.91085755926906 44.939913603000605 0 0 0 0 0.91291668476310583 -21.190710403819679 0 -21.190710403819679 57.671465440074769 0 0 0 0 -16.799054584061423 53.650654333039711 0 53.650654333039711 245.73536941350903 0 0 0 0 -2.9456817994777111 -1.290407625264379 0 -1.290407625264379 186.1799712858483 0 0 0 0 2.6193154394654812 17.952404644893249 0 17.952404644893249 228.4540552845865 0 0 0 0 -18.339434136137282 -41.067542957698905 0 -41.067542957698905 122.90445390448991 0 0 0 0 41.197932140848934 27.230685458715016 0 27.230685458715016 196.74054043470824 0 0 0 0 -18.170053388655681 -28.473565842213006 0 -28.473565842213006 155.38040898666662 0 0 0 0 -48.655317743665364 -103.34024469579163 0 -103.34024469579163 176.6135418965132 0 0 0 0 49.099355350406768 -113.81138070253655 0 -113.81138070253655 143.30868102260865 0 0 0 0 46.760881429292112 8.2602489541604882 0 8.2602489541604882 227.05295869934707 0 0 0 0 41.790485385821739 31.832981995499722 0 31.832981995499722 216.97067317164328 0 0 0 0 17.019498693115988 75.075455157438356 0 75.075455157438356 111.25952727771448 0 0 0 0 -105.41497652649377 43.078202625656559 0 43.078202625656559 131.42413979175035 0 0 0 0 46.625452036357274 26.826527758887096 0 26.826527758887096 204.22911477132584 0 0 0 0 15.512480725363503 33.595644051692943 0 33.595644051692943 212.11830275447574 0 0 0 0 12.867646712005808 -54.649296321505972 0 -54.649296321505972 -30.240074677916709 0 0 0 0 -5.9807443365586987 -26.251105076372539 0 -26.251105076372539 28.67764668595558 0 0 0 0 -34.537109618985397 220.1037360552873 0 220.1037360552873 329.13201461317658 0 0 0 0 -192.89764017758898 66.382740166940494 0 66.382740166940494 192.20810542238178 0 0 0 0 168.01639447992932 73.009007949240186 0 73.009007949240186 168.24258654745063 0 0 0 0 -53.657979065947075 57.792391680908622 0 57.792391680908622 149.73251667825389 0 0 0 0 -231.79930664874882 153.1278609657893 0 153.1278609657893 98.809999864548445 0 0 0 0 -63.589765088155673 -14.281952280114638 0 -14.281952280114638 -16.877056308614556 0 0 0 0 -208.97823938493457 -115.39051637015655 0 -115.39051637015655 31.705903927329928 0 0 0 0 -16.271447689636389 2.3769930177366234 0 2.3769930177366234 28.069620883592449 0 0 0 0 -253.63118977168688 85.674666020277073 0 85.674666020277073 -59.915094230673276 0 0 0 0 -15.217875172017784 20.118672758704633 0 20.118672758704633 125.90222273132531 0 0 0 0 -78.055630429153211 -7.1541187705224729 0 -7.1541187705224729 189.8429080581991 0 0 0 0 -54.320423533604128 158.11332619435564 0 158.11332619435564 143.21054713905323 0 0 0 0 137.71561722191865 55.203123150378815 0 55.203123150378815 160.71307199297007 0 0 0 0 -78.687967122511168 79.66531754607422 0 79.66531754607422 354.49550967087271 0 0 0 0 4.070849955724384 -30.778479420710937 0 -30.778479420710937 252.09949704233441 0 0 0 0 -146.19777103437116 47.147511776078318 0 47.147511776078318 270.21609063728829 0 0 0 0 34.937392446150852 210.81329564115731 0 210.81329564115731 410.09585403629171 0 0 0 0 0.65180104737939715 14.612934744380652 0 14.612934744380652 17.108274662935742 0 0 0 0 76.499726687094835 152.75902880607464 0 152.75902880607464 364.6470531434752 0 0 0 0 -191.12123230984309 -110.86627570338896 0 -110.86627570338896 211.67834904944903 0 0 0 0 196.87539157974516 -9.38196656301443 0 -9.38196656301443 468.79181784015964 0 0 0 0 -162.61036407408881 -144.58116563087242 0 -144.58116563087242 101.55517570939264 0 0 0 0 -117.01933884971669 70.603213864699683 0 70.603213864699683 -302.82533972631791 0 0 0 0 -123.47847880938248 -39.413389851349621 0 -39.413389851349621 -259.06909906311193 0 0 0 0 57.722309718765018 30.398705387240625 0 30.398705387240625 -582.83922597320634 0 0 0 0 -44.840523334499494 129.80153482684545 0 129.80153482684545 -220.34877468291961 0 0 0 0 -308.87163037539949 49.124437185178977 0 49.124437185178977 547.21764877536043 0 0 0 0 -0.46526588397802837 0.0038353081398554423 0 0.0038353081398554423 0.16178369851083119 0 0 0 0 33.770797918037715 34.57272513222415 0 34.57272513222415 203.67789121007081 0 0 0 0 30.466281474482457 34.041345545847435 0 34.041345545847435 203.68061140872305 0 0 0 0 18.947410630892342 81.635604070529041 0 81.635604070529041 98.420817947580048 0 0 0 0 -63.64177776665997 109.13018849076434 0 109.13018849076434 310.61277258583868 0 0 0 0 -19.646597711913728 95.336791535315569 0 95.336791535315569 481.70908033059095 0 0 0 0 23.077276421452552 -51.233285774083924 0 -51.233285774083924 282.91070997342467 0 0 0 0 94.747528733113541 226.92793439383968 0 226.92793439383968 74.511435152497143 0 0 0 0 104.20815820508824 394.56085594472825 0 394.56085594472825 447.72320060258789 0 0 0 0 252.51285590611496 -46.053022563224658 0 -46.053022563224658 -528.56763874394892 0 0 0 0 -1.5359818610815168 2.2153294245646862 0 2.2153294245646862 -3.1841899201902173 0 0 0 0 -225.95593658665098 -153.47195876073238 0 -153.47195876073238 110.35100603368483 0 0 0 0 -11.697876120050296 -58.906955597718479 0 -58.906955597718479 -203.17337464450975 0 0 0 0 439.32245442846079 138.90622592977888 0 138.90622592977888 -345.73348102752425 0 0 0 0 -4.7432896746151982 9.4911558994879499 0 9.4911558994879499 46.563138095794557 0 0 0 0 -541.4267440794647 124.71443396873656 0 124.71443396873656 514.4748612929252 0 0 0 0 -209.55231338091164 194.4638832139135 0 194.4638832139135 449.59614876570413 0 0 0 0 -134.05981228774618 371.81677855186354 0 371.81677855186354 284.70194440375781 0 0 0 0 -210.1012540704603 157.83308519682032 0 157.83308519682032 126.14915445305815 0 0 0 0 10.244693229998923 83.98048433971266 0 83.98048433971266 105.11504647498487 0 0 0 0 -132.3781296963372 363.17522974588064 0 363.17522974588064 37.403537874750327 0 0 0 0 174.36916141656366 -24.071142900720588 0 -24.071142900720588 293.77004303548892 0 0 0 0 9.2747523089648745 19.144571479925645 0 19.144571479925645 -32.833173874865395 0 0 0 0 -89.733459588585902 -36.170442342336173 0 -36.170442342336173 435.61438256770543 0 0 0 0 470.93443591567211 460.07445028021175 0 460.07445028021175 -516.22360685500462 0 0 0 0 3.4313638380504847 76.52841834510005 0 76.52841834510005 118.41297160198889 0 0 0 0 -44.616292147780314 98.639982402077294 0 98.639982402077294 440.87824734637979 0 0 0 0 17.055741487983482 12.384954905063751 0 12.384954905063751 214.48073085636133 0 0 0 0 28.181774526693516 40.562984692354803 0 40.562984692354803 184.25592216964287 0 0 0 0 -43.082844761620436 46.214470977269229 0 46.214470977269229 187.23544318496715 0 0 0 0 22.495281148282857 36.732074282464964 0 36.732074282464964 176.56467145460192 0 0 0 0 0.71973096664985015 4.4416477890810597 0 4.4416477890810597 47.433216594575939 0 0 0 0 10.881332671395285 34.137858462156146 0 34.137858462156146 247.3759583740939 0 0 0 0 33.692716628517701 42.614862735303177 0 42.614862735303177 212.91028510253818 0 0 0 0 25.412334305836339 30.948550404340494 0 30.948550404340494 206.77689666698279 0 0 0 0 33.536737107255021 36.409198047342215 0 36.409198047342215 195.15548021804716 0 0 0 0 19.581324414446954 44.284615448401382 0 44.284615448401382 204.0822122838872 0 0 0 0 16.434742168692082 60.444220866549585 0 60.444220866549585 174.88453917816514 0 0 0 0 16.218234771476546 44.982318039110396 0 44.982318039110396 204.76269879876054 0 0 0 0 9.9044343973439481 84.362506422694423 0 84.362506422694423 168.857923026153 0 0 0 0 17.284866306011281 48.925064973533154 0 48.925064973533154 192.29009231863893 0 0 0 0 14.69387065216506 38.390913916387944 0 38.390913916387944 149.74642419662268 0 0 0 0 -6.6628423703273256 64.996555088218884 0 64.996555088218884 223.95853862151125 0 0 0 0 7.4051845760650394 76.165122031470673 0 76.165122031470673 210.57860493421322 0 0 0 0 -16.570085942192236 39.837913134906557 0 39.837913134906557 206.45484698556538 0 0 0 0 46.699069730668839 69.135235285257295 0 69.135235285257295 140.44740155187901 0 0 0 0 -154.14361847043392 -24.349672899705183 0 -24.349672899705183 137.09333542060267 0 0 0 0 -9.3977112705215404 31.844909035768069 0 31.844909035768069 129.0495520199911 0 0 0 0 -158.2303189874392 21.380045962287113 0 21.380045962287113 179.41052988904994 0 0 0 0 -46.187138023049556 33.53939685246587 0 33.53939685246587 165.00336573616369 0 0 0 0 -190.67282923478808 100.03756308082666 0 100.03756308082666 188.26356358437624 0 0 0 0 -276.89771311430604 -371.83549073803806 0 -371.83549073803806 -238.85727153578046 0 0 0 0 -3.2785389337710384 -0.48241006465997316 0 -0.48241006465997316 1.8973844526544923 0 0 0 0 -316.79394063270752 31.820265970061882 0 31.820265970061882 228.92772484887973 0 0 0 0 -38.610654336946482 259.89086745590612 0 259.89086745590612 609.70854709480045 0 0 0 0 -145.9885024868629 56.798399876257463 0 56.798399876257463 326.11486803460866 0 0 0 0 0.16152629122254503 -0.18071921085621057 0 -0.18071921085621057 -2.4388444395760267 0 0 0 0 -60.63267670034702 65.118950727490301 0 65.118950727490301 206.0628210559662 0 0 0 0 -116.48234167479586 60.858061446611828 0 60.858061446611828 172.9558400556125 0 0 0 0 -127.52571067866347 48.758135899726767 0 48.758135899726767 214.87046076580009 0 0 0 0 -128.31581516977803 52.024216121440986 0 52.024216121440986 429.17795432732055 0 0 0 0 -104.76585623515575 95.816593444964383 0 95.816593444964383 354.07041941445641 0 0 0 0 -65.093288587696861 -34.34908767601155 0 -34.34908767601155 196.09635454298405 0 0 0 0 -104.42535139800603 93.366479023281045 0 93.366479023281045 355.84047724268748 0 0 0 0 -27.786438035713672 191.31990451216552 0 191.31990451216552 251.51802514570954 0 0 0 0 113.33669061203807 21.886995440170722 0 21.886995440170722 -3.180700277822325 0 0 0 0 -11.566693137446009 183.6283310376748 0 183.6283310376748 71.70033599290764 0 0 0 0 -11.211107318203744 30.053910665817966 0 30.053910665817966 82.384332856876426 0 0 0 0 -6.6064138311741338 32.728448638860726 0 32.728448638860726 58.758710287016584 0 0 0 0 7.6181842597073732 49.324759028766621 0 49.324759028766621 54.100567287227989 0 0 0 0 -64.333983108577286 91.100219115425716 0 91.100219115425716 16.292315251655964 0 0 0 0 -13.389956643687697 55.516385100056141 0 55.516385100056141 75.368470931658521 0 0 0 0 -170.33514994546886 83.769899245038687 0 83.769899245038687 294.98905530886259 0 0 0 0 -2.1699607465703989 32.82811577028437 0 32.82811577028437 55.874282861781779 0 0 0 0 -95.106186423659437 121.87468567515316 0 121.87468567515316 -2.1178221473492158 0 0 0 0 2.5946371160681405 31.048558105689011 0 31.048558105689011 73.691522765024047 0 0 0 0 14.036587317661542 32.251458445498429 0 32.251458445498429 53.627182313706726 0 0 0 0 -7.7370331063780213 9.2281366095267003 0 9.2281366095267003 79.644114521710435 0 0 0 0 -46.534971577838633 27.646641134910169 0 27.646641134910169 62.895751491580086 0 0 0 0 -68.71425303923138 55.081147951044841 0 55.081147951044841 69.944577503061737 0 0 0 0 -23.603039078401707 44.304890163322852 0 44.304890163322852 26.244470567398821 0 0 0 0 -30.817704767666783 30.402852699364303 0 30.402852699364303 92.174098239920568 0 0 0 0 -108.38472216219651 71.638944392259873 0 71.638944392259873 48.726447364446358 0 0 0 0 -71.23663674030945 69.562703923529625 0 69.562703923529625 5.7210007831890834 0 0 0 0 -72.045295456771441 45.789211927738506 0 45.789211927738506 44.660615234670331 0 0 0 0 -90.637286375352005 47.521223268297035 0 47.521223268297035 55.019698213553056 0 0 0 0 -118.60795598355139 58.817692349599383 0 58.817692349599383 63.36052360964095 0 0 0 0 -105.92517525003552 27.648775292560458 0 27.648775292560458 47.856869943920174 0 0 0 0 -156.53118789087807 19.293610334512778 0 19.293610334512778 125.2478529465443 0 0 0 0 -100.07115298075482 48.682608477598478 0 48.682608477598478 100.0407087469066 0 0 0 0 -54.160821748292733 66.756557725420862 0 66.756557725420862 57.236173093682737 0 0 0 0 -31.470709633336128 103.80352512156242 0 103.80352512156242 133.96781471327995 0 0 0 0 -81.583043481243095 50.062459075445076 0 50.062459075445076 98.985769436760165 0 0 0 0 -129.01087777235844 102.78703190778106 0 102.78703190778106 153.82470918694162 0 0 0 0 -172.56415742916295 16.972616080336593 0 16.972616080336593 124.91363029158674 0 0 0 0 -150.79226310666934 62.177880160277709 0 62.177880160277709 180.21433204822824 0 0 0 0 -133.66100946275949 86.051631194683068 0 86.051631194683068 191.19175749077112 0 0 0 0 -284.62885002878079 1.6373494771833066 0 1.6373494771833066 361.83089868635579 0 0 0 0 0.25599335137598311 -1.3485668128897288 0 -1.3485668128897288 7.15302806136242 0 0 0 0 -348.33533826469386 -121.96789733600235 0 -121.96789733600235 149.46836172087933 0 0 0 0 472.18796720888668 608.60152283826756 0 608.60152283826756 338.03146618530445 0 0 0 0 299.39520481300281 333.63782712483589 0 333.63782712483589 318.05968244629912 0 0 0 0 276.08551408299058 231.9493433329917 0 231.9493433329917 245.08764323350624 0 0 0 0 -174.52078035157444 -56.983193753861997 0 -56.983193753861997 -12.291542905557435 0 0 0 0 11.424293087420153 -85.819784114408321 0 -85.819784114408321 -61.331200271932175 0 0 0 0 0.61790412021005281 0.03986366927389895 0 0.03986366927389895 0.42291706360560966 0 0 0 0 -1.8372242592079715 81.524954951382824 0 81.524954951382824 -248.46015721196636 0 0 0 0 -113.15570410283698 84.429714883954148 0 84.429714883954148 -98.177978044077463 0 0 0 0 213.8140740229519 350.38983482155891 0 350.38983482155891 469.15841373808507 0 0 0 0 181.36113083002351 237.21504799480317 0 237.21504799480317 415.65050525090192 0 0 0 0 40.396312642113571 172.83053833845042 0 172.83053833845042 302.26715548627544 0 0 0 0 168.66100887238179 156.22858484107564 0 156.22858484107564 117.415604372698 0 0 0 0 2.085966248415227 0.06228117152249979 0 0.06228117152249979 0.4262005945940075 0 0 0 0 23.398828254163391 225.76110865631199 0 225.76110865631199 428.67572774589644 0 0 0 0 121.5337514457533 421.31828009353922 0 421.31828009353922 516.73447794180538 0 0 0 0 109.71784039982452 29.502731198823312 0 29.502731198823312 64.301167489320505 0 0 0 0 347.35019389376146 225.0425815179733 0 225.0425815179733 119.27601257980859 0 0 0 0 -42.670907507642596 -48.547522237298836 0 -48.547522237298836 110.16684393577452 0 0 0 0 1.2985437162534565 -8.8031996179981746 0 -8.8031996179981746 27.838957163640089 0 0 0 0 96.822667897135148 10.547766159408638 0 10.547766159408638 43.841370649563032 0 0 0 0 224.29449158227703 268.90916095186549 0 268.90916095186549 284.44103013680433 0 0 0 0 -47.231246934281444 54.734084811338107 0 54.734084811338107 195.18663739578187 0 0 0 0 59.004567773887175 212.29134342355246 0 212.29134342355246 366.30085871260962 0 0 0 0 -114.10953205359419 25.619290026959789 0 25.619290026959789 3.7681333342261496 0 0 0 0 -135.68412795992845 21.186773198685842 0 21.186773198685842 23.12395647665835 0 0 0 0 64.619989215286978 130.63570708496991 0 130.63570708496991 313.27369868537426 0 0 0 0 0.67835283247957756 -4.7102758955885378 0 -4.7102758955885378 19.557254159119907 0 0 0 0 -33.395263842680606 4.2757253992385813 0 4.2757253992385813 25.885183086338657 0 0 0 0 -4.3993239213361317 0.52939878541161534 0 0.52939878541161534 6.5355420097781849 0 0 0 0 -36.147675397901821 6.8735023132612696 0 6.8735023132612696 38.619458802088047 0 0 0 0 -2.0614723019964458 -3.9784305440844037 0 -3.9784305440844037 42.211903870527749 0 0 0 0 -3.4849177149328625 1.8958372029592283 0 1.8958372029592283 32.878529437104589 0 0 0 0 -1.2262029316786993 -1.0751654609599655 0 -1.0751654609599655 10.08119435011157 0 0 0 0 -0.72327218484679179 -25.785201906081056 0 -25.785201906081056 70.722303537600965 0 0 0 0 6.2688299235251179 -83.547536658930767 0 -83.547536658930767 -91.063382818450918 0 0 0 0 -97.624890861776294 -95.278296374162892 0 -95.278296374162892 21.121855763398344 0 0 0 0 102.96420137815267 -58.817398793195025 0 -58.817398793195025 -40.886514029218233 0 0 0 0 -103.12224799579917 45.122183104715077 0 45.122183104715077 278.56368183426093 0 0 0 0 21.283095329444222 68.326180241623661 0 68.326180241623661 255.49815927699092 0 0 0 0 45.246168420318554 70.355490374910005 0 70.355490374910005 92.262229418265633 0 0 0 0 10.448404421877513 -11.425657840707572 0 -11.425657840707572 55.310977764369454 0 0 0 0 1.1245536666813223 -5.9609938756402698 0 -5.9609938756402698 35.004227191951941 0 0 0 0 -0.63237876989172026 -9.2138788835311232 0 -9.2138788835311232 30.996526631227766 0 0 0 0 -1.7348084721858763 -4.6471041339682699 0 -4.6471041339682699 3.4338404711629664 0 0 0 0 -7.5474078941865628 -39.910257618168544 0 -39.910257618168544 39.459530877531506 0 0 0 0 501.03153043732664 -670.96597052637662 0 -670.96597052637662 942.40143918757531 0 0 0 0 424.95473579168629 -526.00897354836343 0 -526.00897354836343 1006.731247437674 0 0 0 0 415.73722230727162 -454.97249907228979 0 -454.97249907228979 804.14396970692178 0 0 0 0 570.17661984879896 -657.30780268571107 0 -657.30780268571107 889.20399998632638 0 0 0 0 285.41112635390255 -592.64706554346049 0 -592.64706554346049 606.14069768225454 0 0 0 0 -4.3298435277360392 4.1671026719963891 0 4.1671026719963891 30.375481507803897 0 0 0 0 225.23859763005584 -245.53468365279241 0 -245.53468365279241 618.04592362616677 0 0 0 0 582.38962324966133 -436.10693720969721 0 -436.10693720969721 550.4768496765173 0 0 0 0 282.22651306142512 -836.2393966633972 0 -836.2393966633972 830.08779458221397 0 0 0 0 614.12827870220679 -475.92470425555075 0 -475.92470425555075 636.026088366154 0 0 0 0 -5.8282033536276732 3.8016789213993434 0 3.8016789213993434 14.946460221296206 0 0 0 0 111.64044342023348 -584.31327305380273 0 -584.31327305380273 890.03670418277034 0 0 0 0 160.437059400208 -238.42638760391583 0 -238.42638760391583 118.06905642684433 0 0 0 0 2.0005072272613234 -6.6729568033551914 0 -6.6729568033551914 35.131946443299967 0 0 0 0 1.9984773198341372 -7.1136060265998822 0 -7.1136060265998822 26.248700717333122 0 0 0 0 585.3399164609898 -484.7187154112471 0 -484.7187154112471 167.03155190915277 0 0 0 0 -1.3271932858459081 -5.1043845467356732 0 -5.1043845467356732 25.038642789542791 0 0 0 0 572.42994417062175 -613.59833305107895 0 -613.59833305107895 614.88881878480606 0 0 0 0 -3.7729590941688977 2.3804286306402105 0 2.3804286306402105 7.5389597295756516 0 0 0 0 39.106923276447276 -15.7403751514139 0 -15.7403751514139 24.919348100724164 0 0 0 0 1.0589856504599311 6.4248323509018519 0 6.4248323509018519 33.856314446380566 0 0 0 0 121.83667901294183 126.1253782242693 0 126.1253782242693 -1.8705806364305317 0 0 0 0 74.906741684240615 127.11866894455306 0 127.11866894455306 79.663624846667517 0 0 0 0 -127.08219856227606 419.23597644268739 0 419.23597644268739 -151.46123238341534 0 0 0 0 126.55494985216819 197.14311786530743 0 197.14311786530743 -24.199088826466323 0 0 0 0 -75.846744797659539 248.04882699959126 0 248.04882699959126 -1.4931854263413697 0 0 0 0 -11.441008854767006 115.84924703868455 0 115.84924703868455 -2.5481610575498053 0 0 0 0 0.41788441155017608 175.2002139743563 0 175.2002139743563 56.876889312654384 0 0 0 0 -31.761034061388614 51.737708080487209 0 51.737708080487209 151.25432845449541 0 0 0 0 -41.858020219286118 88.97705665443209 0 88.97705665443209 63.764414423407288 0 0 0 0 -29.629411176809299 86.750363653962268 0 86.750363653962268 10.490676449844614 0 0 0 0 -34.715085665182187 77.761730495436495 0 77.761730495436495 57.129573108366458 0 0 0 0 -54.32533102226472 33.298075837905344 0 33.298075837905344 -31.874800733872689 0 0 0 0 -129.94506818514037 68.614694306052115 0 68.614694306052115 41.394680358369442 0 0 0 0 -93.914033842551532 107.20729765147553 0 107.20729765147553 -37.18257606428233 0 0 0 0 -1.6903602815637742 1.1702274993328672 0 1.1702274993328672 -0.95131484205340655 0 0 0 0 -12.974820814885916 -13.275831632570771 0 -13.275831632570771 27.799845983885461 0 0 0 0 -61.400377672634363 3.9939388187412987 0 3.9939388187412987 35.180902303320181 0 0 0 0 -53.979582448073813 148.98194820168283 0 148.98194820168283 -18.746571038980619 0 0 0 0 11.777762052652577 8.0895277068557334 0 8.0895277068557334 60.747796241550532 0 0 0 0 -5.7470763915245726 19.288950321744778 0 19.288950321744778 68.565133121788676 0 0 0 0 10.671326257959109 24.202229080947291 0 24.202229080947291 45.082818637296441 0 0 0 0 7.1295828506859493 24.306605519435834 0 24.306605519435834 45.080628641182557 0 0 0 0 -9.2488656299775514 33.424875446595252 0 33.424875446595252 55.402708549649105 0 0 0 0 -11.59112042540756 21.853939649648964 0 21.853939649648964 41.694698073304608 0 0 0 0 0.0044326956060342197 28.317898942121246 0 28.317898942121246 37.028582578903297 0 0 0 0 -2.8513893179748835 17.175322274932114 0 17.175322274932114 11.005058710608864 0 0 0 0 -13.771529117007749 20.919616911894991 0 20.919616911894991 10.637683467884017 0 0 0 0 -0.022902865009032651 17.851098860172019 0 17.851098860172019 -3.429529945802642 0 0 0 0 0.39241267129543556 -0.29466005443023846 0 -0.29466005443023846 -0.37162881048402596 0 0 0 0 -10.99048249635671 10.534301368928936 0 10.534301368928936 22.887439163663657 0 0 0 0 -5.984707874876392 3.5089180567665608 0 3.5089180567665608 9.7781506257306319 0 0 0 0 -16.448431478576062 -9.9517168996972032 0 -9.9517168996972032 16.672568870246323 0 0 0 0 -2.4384753046930356 0.48043901848046744 0 0.48043901848046744 6.491919613643887 0 0 0 0 1.6331631809030287 3.1726935441635078 0 3.1726935441635078 5.3705287296930919 0 0 0 0 14.46394314429341 20.92038619084633 0 20.92038619084633 16.265766061420436 0 0 0 0 -0.57294584290677619 36.445180473634537 0 36.445180473634537 27.42373472408508 0 0 0 0 19.886252058311769 21.552198095011022 0 21.552198095011022 19.96875304407007 0 0 0 0 14.533758441397698 19.130903961727199 0 19.130903961727199 33.421776490460616 0 0 0 0 13.904004516398487 25.270126314164372 0 25.270126314164372 32.302890794067935 0 0 0 0 47.92731262515008 27.198220411781222 0 27.198220411781222 80.129841827787459 0 0 0 0 56.99186413042662 62.695602805222734 0 62.695602805222734 48.021727699982875 0 0 0 0 -20.945106455408787 -8.7373876267052992 0 -8.7373876267052992 22.616158466820423 0 0 0 0 -8.7079149029714369 -20.263233640187536 0 -20.263233640187536 4.3537702076755522 0 0 0 0 -5.2219542244292336 -16.624790009191202 0 -16.624790009191202 -9.3672291398252128 0 0 0 0 -36.513237056916296 30.519635870972706 0 30.519635870972706 74.594184758054325 0 0 0 0 3.3431416184403902 4.2117621169091475 0 4.2117621169091475 -0.55831086033322208 0 0 0 0 -5.4895142821333138 66.311925916117616 0 66.311925916117616 115.87430060096813 0 0 0 0 0.058794771302927984 49.068099768206594 0 49.068099768206594 127.044220165757 0 0 0 0 -11.366000100005749 55.70357262322068 0 55.70357262322068 125.1196307510254 0 0 0 0 20.443231687084335 59.13172563209082 0 59.13172563209082 112.62041973980376 0 0 0 0 -4.2055050722865417 -0.92754911138763418 0 -0.92754911138763418 -2.4523037326871417 0 0 0 0 -2.8941032993508742 1.1338598050154474 0 1.1338598050154474 6.7054112891629813 0 0 0 0 33.210450052998567 31.974802962242393 0 31.974802962242393 -47.767153133419924 0 0 0 0 16.258339705329149 17.759522687651042 0 17.759522687651042 42.860417149960995 0 0 0 0 5.8318304267451122 13.596891444881857 0 13.596891444881857 29.844716230860627 0 0 0 0 8.0656833164221098 25.246378146957795 0 25.246378146957795 43.309336445643567 0 0 0 0 8.2528641166644974 26.056534121693403 0 26.056534121693403 49.830433280265424 0 0 0 0 114.11807664630815 -77.512363607791485 0 -77.512363607791485 110.19818979791307 0 0 0 0 1.7138633644756029 0.034885022109818919 0 0.034885022109818919 5.8105879990941958 0 0 0 0 3.0956805274961017 2.6116177651303616 0 2.6116177651303616 17.582191943776536 0 0 0 0 -106.45012867227504 102.77376343630021 0 102.77376343630021 71.241556813532952 0 0 0 0 -227.68939573497892 -132.2316782821872 0 -132.2316782821872 420.36831546283793 0 0 0 0 1.9790817301833157 -0.72790383225321875 0 -0.72790383225321875 0.62596109128534749 0 0 0 0 251.78239284708934 282.29352551912598 0 282.29352551912598 89.190037038672017 0 0 0 0 401.34019927357792 197.2674952581292 0 197.2674952581292 -98.080801824358787 0 0 0 0 241.59117061036704 -39.947596537269419 0 -39.947596537269419 -79.53182769963496 0 0 0 0 47.759762760792213 236.95931301653036 0 236.95931301653036 375.06097429673537 0 0 0 0 -229.21195508827577 -118.12336321668408 0 -118.12336321668408 300.92593509980361 0 0 0 0 -25.765329918312602 43.846474798425334 0 43.846474798425334 336.64391366711789 0 0 0 0 70.007118357037371 115.99714496600063 0 115.99714496600063 208.71553312015021 0 0 0 0 27.7082238311732 28.122438146398054 0 28.122438146398054 5.1966732241344289 0 0 0 0 14.336151016026621 -0.26557048586292353 0 -0.26557048586292353 4.2437552072598237 0 0 0 0 24.620589559601285 11.943392775268876 0 11.943392775268876 8.3744683559343684 0 0 0 0 152.09860230254714 65.254389116671518 0 65.254389116671518 70.201270109020697 0 0 0 0 30.433702596903458 13.048221289878711 0 13.048221289878711 0.2534431404346833 0 0 0 0 33.280536789705366 40.192444566026097 0 40.192444566026097 6.0072334389260504 0 0 0 0 24.72097246649264 26.097936410398688 0 26.097936410398688 27.370488416810986 0 0 0 0 28.173946673592582 19.5214217074099 0 19.5214217074099 -2.2079565749736503 0 0 0 0 9.5152960789073404 28.152997511409922 0 28.152997511409922 54.008742865000386 0 0 0 0 25.385058309133456 43.996154636581196 0 43.996154636581196 61.586881950133829 0 0 0 0 35.290181390480029 40.000349929709046 0 40.000349929709046 39.755003544152714 0 0 0 0 20.61409316612594 28.306907621707069 0 28.306907621707069 53.977392321889056 0 0 0 0 43.017205281427778 39.739597920517554 0 39.739597920517554 49.87322424256854 0 0 0 0 4.1262154832043052 11.515857055674132 0 11.515857055674132 12.05111463268986 0 0 0 0 44.661901993042989 14.542511716534136 0 14.542511716534136 8.571810144232586 0 0 0 0 37.128007162082554 -12.012673765479121 0 -12.012673765479121 -31.97610033962701 0 0 0 0 9.1977105462896009 -1.2388692078175438 0 -1.2388692078175438 -1.069546287111848 0 0 0 0 24.734044821590714 14.204771319156862 0 14.204771319156862 -12.102969509985996 0 0 0 0 40.153788406417988 2.8377878141745896 0 2.8377878141745896 -3.9414819881203584 0 0 0 0 64.782626927262299 54.180693340676953 0 54.180693340676953 30.732052001709235 0 0 0 0 -8.0416772931996547 -30.537366288372141 0 -30.537366288372141 10.856607151188655 0 0 0 0 -5.8854163642413369 -27.166423202172155 0 -27.166423202172155 -9.673199703793216 0 0 0 0 45.541276357892542 -2.876010252357446 0 -2.876010252357446 -34.056452136515873 0 0 0 0 4.1044030355072438 0.053924543445447171 0 0.053924543445447171 -0.13636458537763474 0 0 0 0 74.882264783966363 133.02024667736259 0 133.02024667736259 195.77440861912328 0 0 0 0 -25.101947071027439 39.61181871536246 0 39.61181871536246 265.5742000420978 0 0 0 0 69.219286319893939 129.94783770426875 0 129.94783770426875 211.09456174483057 0 0 0 0 4.5837698905120359 -0.026995415786899457 0 -0.026995415786899457 0.068443230672613709 0 0 0 0 75.72925353646383 120.13437542959582 0 120.13437542959582 191.34172538024723 0 0 0 0 327.63608207421839 85.890377477539005 0 85.890377477539005 92.809700673416955 0 0 0 0 -67.867583013157173 266.45072167702892 0 266.45072167702892 243.9609972113758 0 0 0 0 370.8204623730258 -18.579063909812248 0 -18.579063909812248 411.08868594095111 0 0 0 0 462.64867646266748 296.43218045670073 0 296.43218045670073 208.29759640180419 0 0 0 0 146.56212335010287 339.02870363117108 0 339.02870363117108 545.63349810872751 0 0 0 0 68.25999516491629 209.42312488761672 0 209.42312488761672 364.18320102195139 0 0 0 0 49.520411378153085 214.14264014165383 0 214.14264014165383 364.40605059571681 0 0 0 0 126.79534640560041 101.82902811470558 0 101.82902811470558 251.72312233853154 0 0 0 0 673.81355464974604 496.00448731565848 0 496.00448731565848 1366.9333639116085 0 0 0 0 0.74875418075009126 -0.068272334524607459 0 -0.068272334524607459 0.14446103041041169 0 0 0 0 95.009403369707087 -78.346247596457033 0 -78.346247596457033 487.97655203798786 0 0 0 0 46.734204703464798 165.88097900210414 0 165.88097900210414 625.48690859915223 0 0 0 0 283.76045407194761 -286.67462325702945 0 -286.67462325702945 838.55558160491637 0 0 0 0 96.187921279544298 -3.2166470034280792 0 -3.2166470034280792 410.66137914225692 0 0 0 0 -290.5846919973601 80.760793016044772 0 80.760793016044772 945.69131394475698 0 0 0 0 -178.69641009798124 -94.743194719674648 0 -94.743194719674648 1220.0661488411715 0 0 0 0 -719.11803546113379 355.99345530109713 0 355.99345530109713 1024.9870962754503 0 0 0 0 -219.79957524308134 365.88959003606578 0 365.88959003606578 354.8141287745384 0 0 0 0 640.44951498762839 -575.26760712463874 0 -575.26760712463874 739.27776561645442 0 0 0 0 -952.82022389326494 848.85326519927185 0 848.85326519927185 331.82418220455293 0 0 0 0 -1.6480916472614426 1.0898697852628203 0 1.0898697852628203 12.266756036373579 0 0 0 0 917.76857782473985 -1568.0178019135928 0 -1568.0178019135928 828.57215059464215 0 0 0 0 -267.7001408183271 323.83613088843413 0 323.83613088843413 -290.68426963713137 0 0 0 0 -830.67575948796241 60.996769426223182 0 60.996769426223182 179.16516559786396 0 0 0 0 -279.55568140150149 142.52810224895074 0 142.52810224895074 116.00535881973337 0 0 0 0 -289.00366749040336 -271.99680503765626 0 -271.99680503765626 278.98765515652485 0 0 0 0 -122.71002932959402 -75.133502694319759 0 -75.133502694319759 510.89190051148762 0 0 0 0 -310.28659853239265 116.01317094032493 0 116.01317094032493 465.85370491188951 0 0 0 0 -48.675291815055971 124.24328629627416 0 124.24328629627416 253.87897994286959 0 0 0 0 -58.65994056416389 63.600300742138643 0 63.600300742138643 542.39227462768758 0 0 0 0 90.695142899591076 -201.34765564191184 0 -201.34765564191184 403.60086397935811 0 0 0 0 135.33317736527485 1.8326360582649315 0 1.8326360582649315 544.68049201494432 0 0 0 0 255.34703370712253 -112.76809931083699 0 -112.76809931083699 610.80740361881908 0 0 0 0 202.26307399909274 -66.188609310542233 0 -66.188609310542233 529.75545763777882 0 0 0 0 193.49253753031303 -191.40369211284269 0 -191.40369211284269 516.84415752736277 0 0 0 0 483.24473164680853 -1.7348737350694137 0 -1.7348737350694137 565.56357213965384 0 0 0 0 231.04909873529965 -103.67503216260957 0 -103.67503216260957 578.54607895141817 0 0 0 0 495.58922703117832 -165.65764567579026 0 -165.65764567579026 909.71772420267371 0 0 0 0 12.237634481946913 119.00584976723803 0 119.00584976723803 1349.7184450158093 0 0 0 0 135.33648869322531 4.4003019838273758 0 4.4003019838273758 834.5003413806844 0 0 0 0 -99.969014195286491 261.91550443708547 0 261.91550443708547 745.54908539634198 0 0 0 0 -174.84867250724045 216.71866245327692 0 216.71866245327692 795.72701168703497 0 0 0 0 40.844715635138527 179.78087570457137 0 179.78087570457137 791.24349741797778 0 0 0 0 -109.36868480364046 316.864749709639 0 316.864749709639 917.87519163027173 0 0 0 0 -104.4811572397083 300.02835280053841 0 300.02835280053841 745.37403134052147 0 0 0 0 -267.49178873642609 184.08389027403791 0 184.08389027403791 663.19137878177571 0 0 0 0 37.467451429647554 227.22344220271043 0 227.22344220271043 529.58257994893938 0 0 0 0 19.738894745688551 151.20869466801742 0 151.20869466801742 297.93027500138851 0 0 0 0 227.88311394027062 431.53392914085998 0 431.53392914085998 543.98898514862958 0 0 0 0 229.66643526178791 -95.710595396201825 0 -95.710595396201825 -353.31599842337891 0 0 0 0 419.03997920926713 316.17738554530661 0 316.17738554530661 57.673752195725683 0 0 0 0 307.42291353852056 266.32125189343787 0 266.32125189343787 95.281183277082164 0 0 0 0 539.25800308353894 732.57325442513684 0 732.57325442513684 632.22461141734675 0 0 0 0 138.7643170439643 564.11001596653659 0 564.11001596653659 1242.2683044945006 0 0 0 0 91.530677384503406 338.63159504768555 0 338.63159504768555 557.68454702086092 0 0 0 0 62.951131730547843 -404.83198801556136 0 -404.83198801556136 792.73724975879304 0 0 0 0 760.30307468199203 506.62135325674899 0 506.62135325674899 136.38588106141833 0 0 0 0 0.63914033957651195 1.6347555703598964 0 1.6347555703598964 7.2573408377976989 0 0 0 0 171.52170001128778 -162.58183513779659 0 -162.58183513779659 78.703784004435875 0 0 0 0 85.818445356163465 37.201457129747723 0 37.201457129747723 177.03067658840155 0 0 0 0 73.273625915379228 -212.48467377732595 0 -212.48467377732595 814.75068049519905 0 0 0 0 61.269235265373084 43.745775886287447 0 43.745775886287447 794.62069103493013 0 0 0 0 -53.792570243513794 -62.674489540273498 0 -62.674489540273498 889.08472061535576 0 0 0 0 -36.215297491736862 167.25084357596279 0 167.25084357596279 1412.8505491788965 0 0 0 0 711.82516304918147 235.61516011659114 0 235.61516011659114 815.13412396343665 0 0 0 0 315.20259950278722 140.19792714869254 0 140.19792714869254 810.30659500614638 0 0 0 0 197.17178633372075 33.781249106876203 0 33.781249106876203 714.36597659612016 0 0 0 0 312.86552191821909 19.011035552637622 0 19.011035552637622 691.41119665509905 0 0 0 0 207.38816342288771 -110.2926716223883 0 -110.2926716223883 671.69047730284001 0 0 0 0 175.81001135366733 -98.140877636280493 0 -98.140877636280493 454.26972454995848 0 0 0 0 208.57764872995293 -9.5712603869178565 0 -9.5712603869178565 878.83105572045315 0 0 0 0 11.456707015694548 20.701223185256822 0 20.701223185256822 915.30850619272678 0 0 0 0 41.119223821765985 -38.451265623320069 0 -38.451265623320069 825.97566981756245 0 0 0 0 0.4115988282829397 -0.64969699252580426 0 -0.64969699252580426 1.537686530311646 0 0 0 0 -20.667178975487317 21.972195224298048 0 21.972195224298048 1026.3036034592515 0 0 0 0 -45.471470384018644 96.704529459238984 0 96.704529459238984 824.63631725941377 0 0 0 0 0.10313275585574186 -43.420868278743001 0 -43.420868278743001 515.11626020311087 0 0 0 0 8.9102480213881705 -61.429143968518474 0 -61.429143968518474 816.05283267267987 0 0 0 0 -0.11880973517797055 -60.113426057527249 0 -60.113426057527249 823.3243809259875 0 0 0 0 2.6511791052834806 -68.650881698908051 0 -68.650881698908051 801.17448066658108 0 0 0 0 19.71045258240909 -72.356294812023407 0 -72.356294812023407 786.21055520414666 0 0 0 0 -5.4677817512283298 -56.487680446662125 0 -56.487680446662125 832.9613234229073 0 0 0 0 0.39889806805392886 -1.4558070581024367 0 -1.4558070581024367 0.78487029011586174 0 0 0 0 -87.595914692461037 33.692095423670253 0 33.692095423670253 757.25317696454294 0 0 0 0 -18.875403405495678 -46.002320584964764 0 -46.002320584964764 847.31706842438143 0 0 0 0 0.10367374688728227 -19.133215261867807 0 -19.133215261867807 676.87344747898169 0 0 0 0 22.579420751614613 -76.21398434517323 0 -76.21398434517323 800.47238444323557 0 0 0 0 -8.0221235980405794 35.539491075251135 0 35.539491075251135 488.05265875629993 0 0 0 0 -0.032094691552186791 -67.887499104348535 0 -67.887499104348535 602.04486060151248 0 0 0 0 -60.243103737813584 -22.040264653871418 0 -22.040264653871418 623.39004105266395 0 0 0 0 12.80615505685671 -64.763045866766333 0 -64.763045866766333 615.30343888656353 0 0 0 0 -4.6338158217206455 -14.283176446697325 0 -14.283176446697325 787.19065752625852 0 0 0 0 45.381607570878742 -161.22090357501656 0 -161.22090357501656 787.24587881041225 0 0 0 0 -37.487256733334569 -31.377691046662221 0 -31.377691046662221 712.90082259035262 0 0 0 0 4.138009499002635 -83.192104803267284 0 -83.192104803267284 707.17349303763513 0 0 0 0 0.0081645852950683537 -84.071259293472394 0 -84.071259293472394 711.41640502182418 0 0 0 0 1.7532338870681485 -82.349543250020361 0 -82.349543250020361 713.06613469914009 0 0 0 0 -0.22680654542921908 -0.14254114567765441 0 -0.14254114567765441 1.7973355511827407 0 0 0 0 0.31601426503803465 -0.66015458398624105 0 -0.66015458398624105 2.0813456785274695 0 0 0 0 -4.3454936927879544 -57.382710080215475 0 -57.382710080215475 1032.7887847608654 0 0 0 0 0.12939051580951133 -152.21467796096113 0 -152.21467796096113 1094.5910315541987 0 0 0 0 -52.030761733502203 -52.046285860022181 0 -52.046285860022181 1166.0059333979443 0 0 0 0 -43.500181587251262 -40.743057505569595 0 -40.743057505569595 1093.0084373201535 0 0 0 0 -0.675465946365847 -9.8406020955153508 0 -9.8406020955153508 647.46624107455136 0 0 0 0 6.7163964874032729 -80.458496752005885 0 -80.458496752005885 710.04535955323081 0 0 0 0 114.31461209683528 -88.842114579114423 0 -88.842114579114423 699.93601911068254 0 0 0 0 -33.742673661434765 -129.38991182927566 0 -129.38991182927566 995.14409614934266 0 0 0 0 -0.1973222783741273 -0.14633776810075005 0 -0.14633776810075005 1.3810167422446682 0 0 0 0 168.10581464044694 -135.06468084184326 0 -135.06468084184326 657.53238037307165 0 0 0 0 232.79193805595872 -144.61956589978217 0 -144.61956589978217 604.8390332814015 0 0 0 0 228.77794240668334 -145.68185616654227 0 -145.68185616654227 644.96593873725215 0 0 0 0 185.43875221020892 -174.9027115576464 0 -174.9027115576464 835.71312286646571 0 0 0 0 132.01127013505788 -81.49644964064646 0 -81.49644964064646 677.97188212411857 0 0 0 0 364.72785352834217 -74.178692131281423 0 -74.178692131281423 832.50304960113135 0 0 0 0 -46.908022222276031 4.9641029649064876 0 4.9641029649064876 936.57837505819771 0 0 0 0 171.17937018797488 -197.21214090714784 0 -197.21214090714784 945.21485952060902 0 0 0 0 -93.966650476367562 167.33661009052594 0 167.33661009052594 557.82507705324679 0 0 0 0 37.884047112334429 -30.876695089609711 0 -30.876695089609711 606.92362516643334 0 0 0 0 61.95795508660791 -33.871211216421216 0 -33.871211216421216 607.29501158220228 0 0 0 0 74.489550720232728 -58.732237379619619 0 -58.732237379619619 540.16011474697734 0 0 0 0 45.687895837420683 19.591983303660527 0 19.591983303660527 395.69214086933061 0 0 0 0 75.157368386573353 -55.546305366369779 0 -55.546305366369779 548.0140675038565 0 0 0 0 309.14846460805984 229.35610012151301 0 229.35610012151301 188.90448775782716 0 0 0 0 9.0459791561867746 391.13995847200022 0 391.13995847200022 268.46719981328351 0 0 0 0 -46.459557161461362 -131.47984991584963 0 -131.47984991584963 534.80286422914651 0 0 0 0 -35.684463775121458 -141.32146850843856 0 -141.32146850843856 533.01945446629179 0 0 0 0 -136.6272385897455 -159.06596537410951 0 -159.06596537410951 989.52809443231672 0 0 0 0 163.33342688380077 -374.77355667524625 0 -374.77355667524625 798.64030861103674 0 0 0 0 124.8567983925019 -534.59144639877195 0 -534.59144639877195 1368.0181213762262 0 0 0 0 163.94343029865877 7.923290410253685 0 7.923290410253685 1182.7863865742256 0 0 0 0 -0.018816268399283409 1.7714244964212469 0 1.7714244964212469 4.5706883334366353 0 0 0 0 107.59712039368222 -200.77695114295432 0 -200.77695114295432 949.15204605596955 0 0 0 0 268.00500559005195 -86.401333662171965 0 -86.401333662171965 729.86347245361685 0 0 0 0 137.73919384385817 -163.56280159161543 0 -163.56280159161543 704.45872027809673 0 0 0 0 8.6025904916981517 -167.59813032972306 0 -167.59813032972306 642.60485922005319 0 0 0 0 148.51393184273974 -143.99392762109528 0 -143.99392762109528 641.6453323943133 0 0 0 0 -89.805938350971701 -231.83851999115723 0 -231.83851999115723 782.12137944596179 0 0 0 0 108.75505476743326 -127.2727136276493 0 -127.2727136276493 836.9326900683227 0 0 0 0 -124.01093392174835 -167.30384382878401 0 -167.30384382878401 862.63425056354026 0 0 0 0 -194.40250784995021 -276.07710860908264 0 -276.07710860908264 709.99263710764353 0 0 0 0 -183.15681721329054 -242.70059736487747 0 -242.70059736487747 874.0687938409319 0 0 0 0 -266.07679516490794 -240.61113404215575 0 -240.61113404215575 715.11011286292342 0 0 0 0 -0.52475232788572157 -220.46812486523413 0 -220.46812486523413 430.08825573367358 0 0 0 0 -142.20534574945339 -183.93067304647411 0 -183.93067304647411 196.66251341255338 0 0 0 0 -166.13342024907257 -384.5581646401406 0 -384.5581646401406 558.96589914495416 0 0 0 0 -327.76465415276374 -178.10656979206396 0 -178.10656979206396 810.92993129228125 0 0 0 0 -262.25339235624745 -312.14356330927694 0 -312.14356330927694 873.88980743920547 0 0 0 0 -344.08486161116895 -44.97724745407686 0 -44.97724745407686 1389.2116975023819 0 0 0 0 -252.50918896833224 -94.666286812585895 0 -94.666286812585895 956.31189847059431 0 0 0 0 -285.26636461850603 -172.08954750238627 0 -172.08954750238627 1020.5902401868952 0 0 0 0 -351.64191464996162 -105.62081677783499 0 -105.62081677783499 961.81388941488694 0 0 0 0 -282.5649944812867 -183.97904679184285 0 -183.97904679184285 923.06424493924715 0 0 0 0 -240.99439655198518 -130.62619469118363 0 -130.62619469118363 902.7248297785336 0 0 0 0 -59.30905238610967 -188.44742973754182 0 -188.44742973754182 709.91235096351011 0 0 0 0 -92.420869915728645 -65.897394969673769 0 -65.897394969673769 401.1497232040274 0 0 0 0 -121.67957201470921 -43.833669679035665 0 -43.833669679035665 589.81721029961773 0 0 0 0 -105.45297662335967 -19.425773274517269 0 -19.425773274517269 681.57317733800301 0 0 0 0 3.0401122777559237 68.593001257977448 0 68.593001257977448 467.98134721216047 0 0 0 0 -8.257985753930825 27.614748144147597 0 27.614748144147597 321.46194320000359 0 0 0 0 -165.31639652723217 76.868539609295112 0 76.868539609295112 939.26683360961033 0 0 0 0 -163.11112970947582 64.424936341674766 0 64.424936341674766 723.77141670160927 0 0 0 0 -7.3046383540888655 -7.4501732468779664 0 -7.4501732468779664 219.81234114684048 0 0 0 0 73.390941967415216 -0.5776522474916419 0 -0.5776522474916419 193.05604048201349 0 0 0 0 13.817262272468213 59.98906128219096 0 59.98906128219096 142.83277656693826 0 0 0 0 -27.497065075935865 -20.34129646501242 0 -20.34129646501242 191.48741376365069 0 0 0 0 -10.227083848677925 34.408341253270919 0 34.408341253270919 323.13642207472003 0 0 0 0 -12.407813425802077 65.306489501828764 0 65.306489501828764 149.31034257943975 0 0 0 0 -63.592583345087803 -92.578970876667881 0 -92.578970876667881 389.61717324466736 0 0 0 0 -11.900687079488989 -128.53367048403015 0 -128.53367048403015 67.229610397393117 0 0 0 0 -43.536527863511765 -180.56529255253554 0 -180.56529255253554 340.57492716782144 0 0 0 0 72.410853306338538 21.937657027170644 0 21.937657027170644 -67.848795349913416 0 0 0 0 -0.62401957060890423 1.5735740357122836 0 1.5735740357122836 4.4271570828427684 0 0 0 0 83.062617799600503 -133.07232008740539 0 -133.07232008740539 373.07404143444001 0 0 0 0 -0.47836127984084165 3.4955858443934744 0 3.4955858443934744 7.0236759948145391 0 0 0 0 352.65556474391155 -507.3203660298459 0 -507.3203660298459 666.3161426911829 0 0 0 0 43.170784675565073 -172.96299190146965 0 -172.96299190146965 602.1346372027765 0 0 0 0 331.13857392141801 -503.32991150571615 0 -503.32991150571615 541.49184949463233 0 0 0 0 184.61201769105037 -217.61095555871725 0 -217.61095555871725 335.05399695975939 0 0 0 0 -84.114152442092688 224.85842094488908 0 224.85842094488908 29.77968357939244 0 0 0 0 -190.98243365886327 -837.69594879022043 0 -837.69594879022043 761.55660239950521 0 0 0 0 -224.87727185280946 102.8056411682046 0 102.8056411682046 237.73712526881718 0 0 0 0 -145.61017203959895 -64.44881885319046 0 -64.44881885319046 288.88991823146353 0 0 0 0 857.5443780764117 294.04909614441567 0 294.04909614441567 365.57270908413921 0 0 0 0 0.92486892886012129 -53.601446305503487 0 -53.601446305503487 227.60468793468317 0 0 0 0 0.32070725502887654 2.0773781408844059 0 2.0773781408844059 4.6821476796581578 0 0 0 0 187.64854128108806 -502.16456965933321 0 -502.16456965933321 1693.7007213121105 0 0 0 0 258.75089835360791 -467.45691383788972 0 -467.45691383788972 584.03922451264225 0 0 0 0 261.58323502438037 -641.94902168992553 0 -641.94902168992553 1171.2814767343225 0 0 0 0 32.171851200348328 -201.31642445073521 0 -201.31642445073521 1296.0535601402225 0 0 0 0 -2.6423488304539831 -184.48068643696024 0 -184.48068643696024 1458.1179671377758 0 0 0 0 96.283959146283109 -333.68883647774055 0 -333.68883647774055 1681.3345576060237 0 0 0 0 10.611764340794991 62.960445474775042 0 62.960445474775042 1597.4427237480704 0 0 0 0 21.183384230617037 11.236317375805811 0 11.236317375805811 1515.1045544269437 0 0 0 0 58.239400406505411 239.91843738858006 0 239.91843738858006 1189.9316840630199 0 0 0 0 34.700633044989786 209.26016474801872 0 209.26016474801872 1778.6409744070843 0 0 0 0 -33.529547372875385 162.13906032597879 0 162.13906032597879 1132.8065924594994 0 0 0 0 -3.9048508642266597 340.87300042524657 0 340.87300042524657 881.10474861049443 0 0 0 0 38.447432122095094 249.6749075156622 0 249.6749075156622 887.71250895172125 0 0 0 0 22.972614241738142 368.68100064342434 0 368.68100064342434 1216.6473502367153 0 0 0 0 179.08526071079524 409.41534425299324 0 409.41534425299324 847.56773803301621 0 0 0 0 -47.911150831367138 275.89398322193301 0 275.89398322193301 784.0947682785918 0 0 0 0 -59.756831621112156 165.71227026369888 0 165.71227026369888 784.15643831899433 0 0 0 0 -66.851635197596181 173.45611156398081 0 173.45611156398081 888.39774680271512 0 0 0 0 -42.187825133699334 112.73765099892626 0 112.73765099892626 1037.8707400693238 0 0 0 0 -79.238580626391013 122.08571147856128 0 122.08571147856128 886.78498226494412 0 0 0 0 -73.288272939447438 1.5807634971424704 0 1.5807634971424704 769.94978244707454 0 0 0 0 -79.890071103300784 1.7821412318298826 0 1.7821412318298826 774.70991932561446 0 0 0 0 -75.508717244547825 -36.040679641111637 0 -36.040679641111637 1099.0870651300502 0 0 0 0 -26.883381067687992 -55.532447982739541 0 -55.532447982739541 936.40207486273721 0 0 0 0 89.020583552657286 -411.48143382783746 0 -411.48143382783746 1108.5154380573658 0 0 0 0 12.977751613341866 -176.9963489107613 0 -176.9963489107613 674.36487110890448 0 0 0 0 15.682579258785836 -192.03588116998253 0 -192.03588116998253 603.38726025272626 0 0 0 0 -35.65929606966597 -174.18584251058928 0 -174.18584251058928 708.30350952318986 0 0 0 0 -87.44369391922919 -55.018236482617795 0 -55.018236482617795 585.83174140493793 0 0 0 0 -39.555364356097357 -91.860822697548429 0 -91.860822697548429 589.77002654671378 0 0 0 0 -50.568733815497808 -27.244676748130587 0 -27.244676748130587 551.9197482126765 0 0 0 0 -76.604974210330852 -13.92507861701597 0 -13.92507861701597 725.43172761172173 0 0 0 0 -79.275921356005682 115.90606365438475 0 115.90606365438475 705.7415626385482 0 0 0 0 -19.406345721399589 76.626958936460142 0 76.626958936460142 617.58773926919093 0 0 0 0 -56.70415967588815 113.24138887121808 0 113.24138887121808 674.81595095898956 0 0 0 0 -29.447482463374257 233.80591604407709 0 233.80591604407709 642.24135915745865 0 0 0 0 31.598552039989499 172.2825604101381 0 172.2825604101381 533.36042460454337 0 0 0 0 -49.45223280071923 4.6437022502941545 0 4.6437022502941545 446.39631009399454 0 0 0 0 -88.5987629527948 -26.198072045808658 0 -26.198072045808658 552.10728429643495 0 0 0 0 -83.254121450351533 -62.978776936644863 0 -62.978776936644863 499.94466805763659 0 0 0 0 17.91991243050029 -7.2461727966292528 0 -7.2461727966292528 431.71489464931074 0 0 0 0 -29.930848031894129 -132.34141098533291 0 -132.34141098533291 292.13527302298098 0 0 0 0 -85.205104319271413 -84.32199759449577 0 -84.32199759449577 280.95281433049968 0 0 0 0 -43.073315524732379 -119.89792245565332 0 -119.89792245565332 463.20389938680455 0 0 0 0 -54.772487098408533 -74.88265269252588 0 -74.88265269252588 435.65075694280677 0 0 0 0 38.824258345018563 -143.21907654068127 0 -143.21907654068127 428.15789898036746 0 0 0 0 -1.8400266329158512 -175.25218967939145 0 -175.25218967939145 422.75725255562793 0 0 0 0 1.9386175852328051 -207.70456973862019 0 -207.70456973862019 237.29436742601683 0 0 0 0 -0.7058332099406055 3.5999962713951277 0 3.5999962713951277 8.4834293863227117 0 0 0 0 43.065884913440641 -92.369179090266698 0 -92.369179090266698 93.454235874902224 0 0 0 0 339.17234885729067 -169.93459964069189 0 -169.93459964069189 511.49794370267773 0 0 0 0 -0.60180770576373499 1.0964251753062797 0 1.0964251753062797 2.8631039082717962 0 0 0 0 -113.48690621200888 -578.74150036323408 0 -578.74150036323408 643.75429759482358 0 0 0 0 -87.642799354400722 124.24164119071793 0 124.24164119071793 147.76654750731541 0 0 0 0 -246.62078974701978 46.864090927156212 0 46.864090927156212 489.12632258085068 0 0 0 0 20.280704945475236 -187.62725391877029 0 -187.62725391877029 373.75045451693586 0 0 0 0 -34.267678607948653 -311.44829134986867 0 -311.44829134986867 95.450636242196197 0 0 0 0 0.46805838657701049 -1.3924566394530302 0 -1.3924566394530302 1.9285263627784275 0 0 0 0 65.814079893623102 -173.60235911778 0 -173.60235911778 433.68947130044035 0 0 0 0 57.680036785927342 -163.89449421038444 0 -163.89449421038444 640.09998032313888 0 0 0 0 -27.581704321155129 127.84340384725147 0 127.84340384725147 447.34075741413108 0 0 0 0 1.5139559510673735 31.063258491878514 0 31.063258491878514 766.1975539565392 0 0 0 0 35.83714726645799 -65.930843408445071 0 -65.930843408445071 531.06940200216195 0 0 0 0 73.447705913441041 -105.56681612312968 0 -105.56681612312968 109.23107002832057 0 0 0 0 -0.36094293604159144 -0.95251487388560463 0 -0.95251487388560463 1.9881055589257812 0 0 0 0 -161.59495054512581 -269.68419833005464 0 -269.68419833005464 110.94195114003378 0 0 0 0 -15.018365001412747 94.178421266438818 0 94.178421266438818 290.38313276317785 0 0 0 0 -101.14474658793245 -0.51347919568615907 0 -0.51347919568615907 408.02277042943751 0 0 0 0 -79.190969268481126 -0.87048593788676953 0 -0.87048593788676953 313.86595281188784 0 0 0 0 -46.856464095608885 245.79891261923331 0 245.79891261923331 685.56656668446522 0 0 0 0 -8.2329425851683595 92.546520023839548 0 92.546520023839548 420.94675458694019 0 0 0 0 -0.70943630115970513 -2.030154757635529 0 -2.030154757635529 3.899523697745451 0 0 0 0 -54.756539187878502 6.0277026420226321 0 6.0277026420226321 412.83603941112415 0 0 0 0 0.34822486445949957 -120.0638174375199 0 -120.0638174375199 490.90671759778343 0 0 0 0 28.40205014282682 108.74721739215965 0 108.74721739215965 127.91002098808531 0 0 0 0 0.11479779235914225 -62.632788131562997 0 -62.632788131562997 32.71696272524423 0 0 0 0 0.038036208807545879 -0.89003232417496747 0 -0.89003232417496747 1.9386824405427205 0 0 0 0 -64.616423566484968 210.23513529339107 0 210.23513529339107 689.05624532380898 0 0 0 0 -1.6387625005043276 86.429037408146542 0 86.429037408146542 204.52362428807828 0 0 0 0 0.61272705439013531 -2.3858833882657393 0 -2.3858833882657393 3.2686926299749075 0 0 0 0 17.496734083145583 -47.027428154840891 0 -47.027428154840891 192.89830001541122 0 0 0 0 -0.080562196448033474 -63.627015212981618 0 -63.627015212981618 388.02486107828736 0 0 0 0 509.0427446547867 -68.791038837043743 0 -68.791038837043743 1048.3808992410122 0 0 0 0 693.72152350537942 -663.42027843951564 0 -663.42027843951564 1093.8077602587146 0 0 0 0 285.38258523197266 -550.40989720995276 0 -550.40989720995276 1325.7190446451859 0 0 0 0 1056.8702517999036 -1123.0104104647799 0 -1123.0104104647799 1706.3242849032904 0 0 0 0 1865.0241006462402 -56.770292086497648 0 -56.770292086497648 1018.8247469728358 0 0 0 0 70.659762280447694 -150.51603785951011 0 -150.51603785951011 1274.8644718411379 0 0 0 0 117.61215820498273 346.13859382021838 0 346.13859382021838 1231.3509082774835 0 0 0 0 580.86879794934509 -184.99840101256086 0 -184.99840101256086 591.68131917559367 0 0 0 0 156.5548114352971 49.625248102351179 0 49.625248102351179 -91.339357580523938 0 0 0 0 63.526947652867541 -38.408989655055848 0 -38.408989655055848 629.50126838700089 0 0 0 0 214.14774532978606 230.28765918652789 0 230.28765918652789 104.47477629959576 0 0 0 0 264.71134130963304 -549.72347032459584 0 -549.72347032459584 1109.2736999641493 0 0 0 0 263.4606275797384 31.570682139979908 0 31.570682139979908 3.1744721322465921 0 0 0 0 -1.166714433709596 0.84770955775661605 0 0.84770955775661605 3.8864442686742677 0 0 0 0 546.65191055777836 -208.66243700749328 0 -208.66243700749328 507.9870971538694 0 0 0 0 256.96812654612773 -424.00836015065579 0 -424.00836015065579 1345.1640004117071 0 0 0 0 404.70854884825167 -249.15204768255353 0 -249.15204768255353 323.73725256345642 0 0 0 0 560.38965227749725 -233.17124129668082 0 -233.17124129668082 108.69546851889754 0 0 0 0 -287.05269979737108 -231.22799873938493 0 -231.22799873938493 3103.4587150103762 0 0 0 0 616.22241342266273 1221.5508515262045 0 1221.5508515262045 1743.8164197716105 0 0 0 0 -286.46482778537433 -497.55126005876809 0 -497.55126005876809 1527.5694383867667 0 0 0 0 -3.9142248549730341 6.7402746305250787 0 6.7402746305250787 36.814653124572658 0 0 0 0 -352.33732053191028 -9.1747134171637299 0 -9.1747134171637299 388.07939967630955 0 0 0 0 -710.86639213922456 -79.747806166640657 0 -79.747806166640657 303.92817791336711 0 0 0 0 -122.0041720668611 -969.84639291664644 0 -969.84639291664644 -512.36849929176969 0 0 0 0 -0.31958304471752441 4.3157773240552046 0 4.3157773240552046 17.746435403430269 0 0 0 0 795.87836186412164 -1542.1021416360018 0 -1542.1021416360018 2217.8194235698611 0 0 0 0 -1788.0827851714068 1677.8283252289111 0 1677.8283252289111 3014.8678992315254 0 0 0 0 761.49129771873993 908.21407998870382 0 908.21407998870382 -1348.9031548102503 0 0 0 0 513.45909673453218 -760.27477913223083 0 -760.27477913223083 608.11572936573066 0 0 0 0 -307.60087111965407 -366.84594387127436 0 -366.84594387127436 1215.9143152580364 0 0 0 0 -276.18881690369915 -238.35055016707338 0 -238.35055016707338 1625.1271371176117 0 0 0 0 -242.76587854936338 204.32826844586816 0 204.32826844586816 1075.8650451773719 0 0 0 0 -132.74497609067066 -208.32724039324967 0 -208.32724039324967 1497.2503124146315 0 0 0 0 -242.11576753564111 181.09772594204696 0 181.09772594204696 1893.7161726041668 0 0 0 0 168.39493163398384 813.53313693345262 0 813.53313693345262 889.68994282223866 0 0 0 0 166.61145521750575 659.67333820865315 0 659.67333820865315 528.40988618377014 0 0 0 0 -475.32567519664644 -566.13874361123817 0 -566.13874361123817 3884.8636889235931 0 0 0 0 -539.96710969704475 1643.339584511501 0 1643.339584511501 3137.2444872158521 0 0 0 0 -139.41429458248825 -471.30468704691157 0 -471.30468704691157 -638.7694607486992 0 0 0 0 605.42215364768504 561.53979384235208 0 561.53979384235208 -1528.9884029808745 0 0 0 0 359.61851146028079 521.30205853795633 0 521.30205853795633 -124.17852566528018 0 0 0 0 169.62256176451393 -40.396090752707096 0 -40.396090752707096 -141.1605612295225 0 0 0 0 349.07215958822178 694.10902361085755 0 694.10902361085755 492.86988010938512 0 0 0 0 102.46570370041616 358.04871839802945 0 358.04871839802945 709.0871816532599 0 0 0 0 126.52924342498937 274.19494162373303 0 274.19494162373303 315.08010132465279 0 0 0 0 150.30298752453956 102.82956457673572 0 102.82956457673572 322.69809805848854 0 0 0 0 52.552515807605232 305.68078069624607 0 305.68078069624607 681.20813658405677 0 0 0 0 -86.495147136470734 -859.61957348618307 0 -859.61957348618307 1677.3446609885577 0 0 0 0 -2175.8382405518032 33.013525288995879 0 33.013525288995879 3179.1956166333985 0 0 0 0 -0.66590039053671901 4.2581104457494519 0 4.2581104457494519 22.798952220616343 0 0 0 0 -224.01524027701538 -1119.5880947927799 0 -1119.5880947927799 1910.4512833864283 0 0 0 0 -1391.92458977213 587.53884142452443 0 587.53884142452443 86.940698460575732 0 0 0 0 3.3222756738774137 -1020.0058831503411 0 -1020.0058831503411 674.16153715722612 0 0 0 0 -229.66703273883741 2044.8878364145057 0 2044.8878364145057 155.75999648621655 0 0 0 0 260.87380177905237 -728.35127514462602 0 -728.35127514462602 371.55092986617819 0 0 0 0 169.95687912072805 166.24977135592053 0 166.24977135592053 -500.23104797373526 0 0 0 0 -846.12166639801512 -590.65633205787526 0 -590.65633205787526 1453.9496793942308 0 0 0 0 -885.53295299845195 71.476547061767633 0 71.476547061767633 52.993014226900414 0 0 0 0 -1.7501586901643433 6.9735140283033132 0 6.9735140283033132 43.977402891455426 0 0 0 0 6.9405075882715437 -665.81301936059754 0 -665.81301936059754 968.43672892522591 0 0 0 0 110.13421140673921 40.369136990280822 0 40.369136990280822 -127.33220478020667 0 0 0 0 -427.79992679494922 1704.015505240488 0 1704.015505240488 796.15754461951292 0 0 0 0 0.1611684611053863 4.6322111832971729 0 4.6322111832971729 20.08229927311146 0 0 0 0 176.23168484821986 -46.64878174594196 0 -46.64878174594196 139.4895225482469 0 0 0 0 75.735951644432674 5.4112776842885069 0 5.4112776842885069 208.13721308903769 0 0 0 0 148.41601981883525 78.769700248682057 0 78.769700248682057 218.12824944517342 0 0 0 0 266.66093263282414 107.68162974971347 0 107.68162974971347 54.15923625670257 0 0 0 0 169.4568864029327 -76.336164306587307 0 -76.336164306587307 53.688462747988524 0 0 0 0 122.58232098398257 -183.71108953654766 0 -183.71108953654766 8.065175901123439 0 0 0 0 142.65769199224377 -24.394197277579224 0 -24.394197277579224 -45.136835341749247 0 0 0 0 29.412072453358775 -13.286137331044301 0 -13.286137331044301 12.991067656723317 0 0 0 0 -90.9966129137471 -243.97980039100366 0 -243.97980039100366 464.2328581007605 0 0 0 0 29.179570073464276 9.6715663134091301 0 9.6715663134091301 574.85528109454026 0 0 0 0 96.800955195990994 -149.9707124016204 0 -149.9707124016204 289.60332418588223 0 0 0 0 120.0406614166196 -18.789827457847423 0 -18.789827457847423 295.23918006086024 0 0 0 0 -5.1657553861322043 -95.66158263561374 0 -95.66158263561374 589.11560854062554 0 0 0 0 -0.17275596253401204 -6.9498013205447933 0 -6.9498013205447933 440.23015286264126 0 0 0 0 77.723970503995105 -66.726170816022204 0 -66.726170816022204 138.56289184282377 0 0 0 0 79.261513012859751 -55.385169963017688 0 -55.385169963017688 172.46481993445195 0 0 0 0 180.33291605778385 257.82699499708542 0 257.82699499708542 376.93411855804152 0 0 0 0 727.76611095672115 -25.72855009190971 0 -25.72855009190971 1888.0619104979996 0 0 0 0 266.08737763336109 -132.38353539688978 0 -132.38353539688978 1892.0961581467418 0 0 0 0 90.286137491616302 293.22593399515608 0 293.22593399515608 698.82333259262668 0 0 0 0 10.778330182249391 -4.2042890776938293 0 -4.2042890776938293 437.6647022809484 0 0 0 0 105.24654564169889 426.85808761815315 0 426.85808761815315 947.88383527193218 0 0 0 0 44.042028835750742 168.40568858181723 0 168.40568858181723 933.13252231589286 0 0 0 0 -322.82629127446506 343.67667565758165 0 343.67667565758165 1780.3522616533228 0 0 0 0 -371.64615223606597 -262.09365488747426 0 -262.09365488747426 1231.2633674781973 0 0 0 0 -385.10793470103977 361.92950095770357 0 361.92950095770357 1578.1345225337573 0 0 0 0 -329.23724622420428 307.5972230172265 0 307.5972230172265 1621.9865142932686 0 0 0 0 134.10728234102194 -416.14258290521502 0 -416.14258290521502 935.43973749375436 0 0 0 0 3.3090188747268163 5.2558740610643611 0 5.2558740610643611 7.8189135726952941 0 0 0 0 82.26152168261001 -351.15245084718481 0 -351.15245084718481 1525.696699128137 0 0 0 0 -469.90935048477496 36.541515578632243 0 36.541515578632243 1303.9654092488345 0 0 0 0 -50.83048551008585 123.67485754401423 0 123.67485754401423 1717.9080224545105 0 0 0 0 -310.62848389755686 411.30803692097834 0 411.30803692097834 1733.5872257275623 0 0 0 0 258.08849359057092 481.92552170735144 0 481.92552170735144 599.49641915221582 0 0 0 0 559.5203276956471 638.09758038341533 0 638.09758038341533 2032.6248277783161 0 0 0 0 1133.8403569403908 -79.700250782858348 0 -79.700250782858348 1802.8265275605954 0 0 0 0 238.27836580699062 591.44889566153142 0 591.44889566153142 1327.6948198481114 0 0 0 0 365.97854402329403 480.29474117854261 0 480.29474117854261 598.42987528062076 0 0 0 0 142.41757844237009 452.43506062291272 0 452.43506062291272 1331.2020847867825 0 0 0 0 177.22169561558701 371.95088849138119 0 371.95088849138119 1301.2462063737039 0 0 0 0 105.88624338943043 200.42941408004845 0 200.42941408004845 2172.769542508875 0 0 0 0 684.82011657688599 -278.65373734603054 0 -278.65373734603054 2039.9158366114716 0 0 0 0 134.02559628507646 -89.360848369338783 0 -89.360848369338783 2075.8973495982937 0 0 0 0 157.16962233647746 -50.885352189652622 0 -50.885352189652622 1678.4418644006364 0 0 0 0 -344.44052552316248 556.73799288603186 0 556.73799288603186 2326.8019708123575 0 0 0 0 -358.74761154777696 -146.99703416114789 0 -146.99703416114789 2146.839601000509 0 0 0 0 -32.5463207830785 468.82312688752427 0 468.82312688752427 955.52829718706198 0 0 0 0 -71.792648901205354 -48.808791997693334 0 -48.808791997693334 243.29414281994104 0 0 0 0 701.04246326618318 913.94675206895045 0 913.94675206895045 1172.5768621980678 0 0 0 0 -1.0030798633029252 -1.542941484002796 0 -1.542941484002796 -1.6906658292845123 0 0 0 0 927.12538765366492 -51.040869793170714 0 -51.040869793170714 -209.58361973718274 0 0 0 0 143.03916023842703 115.20343552414124 0 115.20343552414124 -110.52743386558723 0 0 0 0 -77.627795266665089 84.897035625283024 0 84.897035625283024 335.63155504587485 0 0 0 0 37.594881121733579 102.37134970360421 0 102.37134970360421 168.60064498962311 0 0 0 0 -173.1008662336651 -52.427584851729989 0 -52.427584851729989 303.86210463757743 0 0 0 0 -293.50495397682607 -307.73268958163681 0 -307.73268958163681 48.819410390160556 0 0 0 0 40.577601998112868 1250.4037880046817 0 1250.4037880046817 890.05924030437018 0 0 0 0 11.730087757015696 -29.784536115457627 0 -29.784536115457627 71.65641380065955 0 0 0 0 -208.77581589984743 325.35500588826471 0 325.35500588826471 1649.072009034724 0 0 0 0 1410.2576914279082 1036.5528013912117 0 1036.5528013912117 325.6724048408505 0 0 0 0 863.57178895373909 -1020.6145885793594 0 -1020.6145885793594 389.43951853473845 0 0 0 0 1661.8228649217056 1765.4727120380703 0 1765.4727120380703 2039.3837595210935 0 0 0 0 5.2937735055690425 -9.5454815579396666 0 -9.5454815579396666 26.221417942268886 0 0 0 0 420.58860543056744 764.86841477907728 0 764.86841477907728 2975.197791647377 0 0 0 0 86.084595242031355 233.3151941848173 0 233.3151941848173 2136.0324914652738 0 0 0 0 -5.7751188766137602 -761.74114889976045 0 -761.74114889976045 2311.233705232632 0 0 0 0 449.73560302427995 470.70190179805286 0 470.70190179805286 2239.4415394287353 0 0 0 0 84.948379101402452 -573.93742026463588 0 -573.93742026463588 1000.7936911796714 0 0 0 0 526.19656035828154 -491.76965070768347 0 -491.76965070768347 438.21578602859518 0 0 0 0 42.262963873739409 -509.61639540765464 0 -509.61639540765464 989.52095364492561 0 0 0 0 163.18925559863487 -32.101838289847365 0 -32.101838289847365 180.34920514656915 0 0 0 0 146.05022096993429 -78.296162190617906 0 -78.296162190617906 300.3454705341137 0 0 0 0 126.69381235406911 -163.85026258386642 0 -163.85026258386642 375.65480999769352 0 0 0 0 20.886936640320073 -123.88204227981623 0 -123.88204227981623 427.3343584054503 0 0 0 0 -13.919105713413956 -352.58908346536919 0 -352.58908346536919 717.4500063079613 0 0 0 0 -65.571434951724768 -304.18534605459718 0 -304.18534605459718 768.24270203251217 0 0 0 0 -74.111922555153797 -463.98405980960524 0 -463.98405980960524 934.90536276697458 0 0 0 0 -90.357735101402795 -412.66004501682619 0 -412.66004501682619 948.43912375683431 0 0 0 0 54.411509251845018 -502.98524699046538 0 -502.98524699046538 832.64961261460121 0 0 0 0 107.57384177211009 -205.5948521939813 0 -205.5948521939813 1240.7660034463042 0 0 0 0 -61.129509266710556 -364.38038605967449 0 -364.38038605967449 1071.9335766246149 0 0 0 0 -63.033848909240987 -328.08832234716101 0 -328.08832234716101 782.13937767774041 0 0 0 0 -62.342179485580345 -433.79183411216945 0 -433.79183411216945 961.24502301092434 0 0 0 0 44.504102854916709 -419.50823306170787 0 -419.50823306170787 943.35363661409065 0 0 0 0 36.161669614308721 -318.60588100263931 0 -318.60588100263931 1137.0415702690952 0 0 0 0 13.265501736948863 -419.63410437532184 0 -419.63410437532184 858.35655302302621 0 0 0 0 -12.889621404549416 -356.89166168613701 0 -356.89166168613701 932.8933039380936 0 0 0 0 -62.092450018928503 -436.35706422578551 0 -436.35706422578551 983.64151900594879 0 0 0 0 -91.418565168810346 -201.71511665215075 0 -201.71511665215075 744.53967736706545 0 0 0 0 33.750106624978798 -266.51228223755243 0 -266.51228223755243 565.66733025568828 0 0 0 0 -37.572664139705012 -295.48077527375426 0 -295.48077527375426 896.80791874243732 0 0 0 0 -67.48318574683617 -120.97655705742 0 -120.97655705742 662.40990869473899 0 0 0 0 -77.891241363480731 -507.2054664205134 0 -507.2054664205134 1041.2844880631601 0 0 0 0 -107.28580257688009 -423.39900348856463 0 -423.39900348856463 1051.9019265466131 0 0 0 0 -93.979540228074256 -423.89928221850278 0 -423.89928221850278 980.00123681772675 0 0 0 0 -136.88604340862457 -230.67800855763926 0 -230.67800855763926 1124.4485770086394 0 0 0 0 -79.860787823003648 -564.57117748705059 0 -564.57117748705059 1388.90335974966 0 0 0 0 -150.02893785293554 -65.845891882097931 0 -65.845891882097931 1495.0513235468352 0 0 0 0 -146.81071994517606 292.860441552868 0 292.860441552868 820.76805517450703 0 0 0 0 -196.29430220541781 44.715344513155287 0 44.715344513155287 1099.0130805459339 0 0 0 0 -128.96213513823068 -145.55665964511718 0 -145.55665964511718 961.40256334665173 0 0 0 0 -47.324467958005698 -168.49110498682421 0 -168.49110498682421 768.78414862628415 0 0 0 0 -20.51827154680268 83.013360789180297 0 83.013360789180297 448.58751426028903 0 0 0 0 -96.08809735914565 76.597669231450709 0 76.597669231450709 692.47430860846362 0 0 0 0 -94.257620268275787 85.138008391455514 0 85.138008391455514 649.2075513965865 0 0 0 0 -3.8968374935666361 243.01934242597781 0 243.01934242597781 450.04777990428556 0 0 0 0 -110.14803144633152 299.94848580386315 0 299.94848580386315 587.18643048838567 0 0 0 0 -37.273986314323338 196.75336711539421 0 196.75336711539421 456.99831291577721 0 0 0 0 -4.1396558998494584 235.9783528964108 0 235.9783528964108 323.76721895679657 0 0 0 0 97.446217966074073 233.11693706683218 0 233.11693706683218 300.98749603974284 0 0 0 0 12.890958261552441 219.78671142489475 0 219.78671142489475 325.75156416466052 0 0 0 0 35.095974245075922 130.60012416078825 0 130.60012416078825 237.6158969400567 0 0 0 0 -47.708598669159073 370.37822410857916 0 370.37822410857916 223.40301860345062 0 0 0 0 9.0885399365124613 181.44286861553701 0 181.44286861553701 212.87456554971232 0 0 0 0 -258.0742255167188 500.20678713375673 0 500.20678713375673 166.94949601947155 0 0 0 0 -421.14368016501658 190.08484369088546 0 190.08484369088546 641.94453868844266 0 0 0 0 -19.965656783439499 48.806579941003292 0 48.806579941003292 655.86286837390799 0 0 0 0 -59.811512322183717 228.69599919970278 0 228.69599919970278 533.496941739053 0 0 0 0 -163.16642762458923 290.93675335517764 0 290.93675335517764 534.64918621146353 0 0 0 0 -302.76540227574878 370.93317150315852 0 370.93317150315852 411.83587458511465 0 0 0 0 -226.46843582217116 159.99131101775856 0 159.99131101775856 545.63127715732844 0 0 0 0 -220.9514920177171 -75.904540018877015 0 -75.904540018877015 803.24657370937712 0 0 0 0 -297.78726147824636 304.99053814643412 0 304.99053814643412 394.25834706801106 0 0 0 0 -280.84698974872299 207.36334008656559 0 207.36334008656559 725.49973026482985 0 0 0 0 -860.45743104754729 -372.50585646570835 0 -372.50585646570835 1680.6060044064798 0 0 0 0 -5.9156611645725938 -2.8952890601169088 0 -2.8952890601169088 216.79888651757921 0 0 0 0 -70.856523300088156 398.83184273482038 0 398.83184273482038 -130.82283094171135 0 0 0 0 638.91977841461267 -120.98124542792357 0 -120.98124542792357 -139.49651912515401 0 0 0 0 -112.49992801676126 37.439736076208646 0 37.439736076208646 183.46021789512452 0 0 0 0 -170.68164960800277 120.56904902053066 0 120.56904902053066 291.52710886746354 0 0 0 0 -248.05661818472254 31.751447528342396 0 31.751447528342396 375.78741012394312 0 0 0 0 -219.96980491753857 220.99059175459843 0 220.99059175459843 255.70068813009129 0 0 0 0 -170.86475819141788 127.38152746475316 0 127.38152746475316 380.53765989089152 0 0 0 0 -243.63672691148895 75.517796726191591 0 75.517796726191591 360.41744060401106 0 0 0 0 -10.474383233264234 151.16893297311617 0 151.16893297311617 330.22986856203715 0 0 0 0 -70.43286806834476 132.14945363924926 0 132.14945363924926 337.06556977764558 0 0 0 0 -143.35338344328738 207.66610731940455 0 207.66610731940455 361.40367200833862 0 0 0 0 -209.38791088216385 162.6988663309603 0 162.6988663309603 384.80427825526476 0 0 0 0 -143.80406666664157 208.94615302420425 0 208.94615302420425 274.47169976682926 0 0 0 0 -75.604538666746521 117.06378434809449 0 117.06378434809449 390.18248128958658 0 0 0 0 -70.927501713229503 130.53948599572323 0 130.53948599572323 425.85256536914676 0 0 0 0 20.800065436218574 -109.12002239884896 0 -109.12002239884896 453.22575855596551 0 0 0 0 -163.24581026936721 101.77890947448032 0 101.77890947448032 353.33437156811851 0 0 0 0 -23.456137727600435 -73.194279579431168 0 -73.194279579431168 204.56501982935151 0 0 0 0 -314.95325876728384 -103.08036181495845 0 -103.08036181495845 -77.63421316899985 0 0 0 0 -316.14714156460832 80.854495612446044 0 80.854495612446044 197.77643093850929 0 0 0 0 -174.36380020740398 50.28195307693386 0 50.28195307693386 118.4435374691966 0 0 0 0 -193.98771526932978 253.26666875557567 0 253.26666875557567 189.60889532809597 0 0 0 0 -214.15322757345893 167.45100153265594 0 167.45100153265594 251.41317227663239 0 0 0 0 -158.44442447635265 173.83808239979044 0 173.83808239979044 314.27151975719607 0 0 0 0 -165.69342382491232 39.552104388429143 0 39.552104388429143 460.16957199847093 0 0 0 0 218.58336291595333 -198.8146193700959 0 -198.8146193700959 -531.58602882281411 0 0 0 0 -257.66970006352676 337.16629610241944 0 337.16629610241944 274.14198532167939 0 0 0 0 0.51028216797676684 -14.99257116039054 0 -14.99257116039054 163.52935977178436 0 0 0 0 -0.05363998677636328 -3.807837146377743 0 -3.807837146377743 14.207038353956307 0 0 0 0 -183.84262993281664 247.91865510467323 0 247.91865510467323 -106.62201551391627 0 0 0 0 -100.93327972206316 -64.635702332696383 0 -64.635702332696383 -39.774519537633751 0 0 0 0 -3.1607165906760835 -12.106080650105653 0 -12.106080650105653 41.348695055453391 0 0 0 0 -750.95073126512273 41.839934398813512 0 41.839934398813512 207.40491018936154 0 0 0 0 -1.3941251306104263 10.730805750517447 0 10.730805750517447 114.05974721761203 0 0 0 0 -23.990908590976687 -53.353849367032126 0 -53.353849367032126 149.32308427503449 0 0 0 0 -241.04821820583311 33.633336670965946 0 33.633336670965946 -122.81430551256926 0 0 0 0 -186.13858592761153 -184.98933722116817 0 -184.98933722116817 336.22696997458115 0 0 0 0 -97.712979112329776 48.862703735765535 0 48.862703735765535 61.572303422464756 0 0 0 0 -345.48888988311955 -278.9298102894827 0 -278.9298102894827 168.46357370402256 0 0 0 0 -21.869905045209634 -411.31221678008296 0 -411.31221678008296 705.31735026821843 0 0 0 0 -99.966318403054174 -71.662635579115886 0 -71.662635579115886 83.135760517732706 0 0 0 0 -2.5014435077867159 0.50686392564235661 0 0.50686392564235661 112.99556111763667 0 0 0 0 -941.86761593297342 77.813036356397788 0 77.813036356397788 303.51413760302239 0 0 0 0 -437.1923782752433 976.49488591331192 0 976.49488591331192 -183.42647906910861 0 0 0 0 -326.30135711772186 -152.48917521927183 0 -152.48917521927183 463.0466180841031 0 0 0 0 -0.16642205276844813 11.161469006843447 0 11.161469006843447 3.0360534205470344 0 0 0 0 -23.391922974475165 -17.459130145723975 0 -17.459130145723975 401.37780731805833 0 0 0 0 56.243856287688686 -173.24541356820555 0 -173.24541356820555 186.50238057851675 0 0 0 0 45.203354727393162 -392.35378301837045 0 -392.35378301837045 495.73930772630592 0 0 0 0 46.326654442045765 -269.45949739350908 0 -269.45949739350908 754.31653390589054 0 0 0 0 31.282538801040573 -407.11211527300475 0 -407.11211527300475 804.35086529757973 0 0 0 0 96.469182095250289 -429.19557072720636 0 -429.19557072720636 959.63710366105806 0 0 0 0 49.886605844116275 -260.01169629592187 0 -260.01169629592187 1264.913102181963 0 0 0 0 13.348695249667799 -543.41429020518262 0 -543.41429020518262 876.51316111151391 0 0 0 0 -77.698551694256821 -499.457523105164 0 -499.457523105164 1400.4364200931159 0 0 0 0 -288.23663045145804 -546.70037221667008 0 -546.70037221667008 1426.274090331608 0 0 0 0 -158.3851514769749 -105.87914560070021 0 -105.87914560070021 2055.7313591293641 0 0 0 0 -12.598969819268859 495.79079695330074 0 495.79079695330074 2090.1495764210704 0 0 0 0 -429.14367849798873 180.77003307272389 0 180.77003307272389 1865.5613244081469 0 0 0 0 -61.549462793202565 285.97127826513861 0 285.97127826513861 1341.4346753102436 0 0 0 0 -133.04496176728117 -237.42730365506213 0 -237.42730365506213 1270.4831562681939 0 0 0 0 232.2324249895355 -324.26611493583914 0 -324.26611493583914 1105.3860851928257 0 0 0 0 255.67780772506012 67.236682978778845 0 67.236682978778845 1485.2890918147605 0 0 0 0 3201.6791917734918 2660.4128544637633 0 2660.4128544637633 2136.7902890076512 0 0 0 0 1858.1085959116535 -1639.674167351488 0 -1639.674167351488 1366.2345610748453 0 0 0 0 3.4522578358770089 3.7833373045571719 0 3.7833373045571719 44.22184519758423 0 0 0 0 750.2504005246883 -1086.8215006330283 0 -1086.8215006330283 772.75356113741873 0 0 0 0 1213.6900789134379 -1460.1529850472289 0 -1460.1529850472289 869.08691221202025 0 0 0 0 1808.7678679720411 1046.9127219633447 0 1046.9127219633447 530.76489665248664 0 0 0 0 729.81831716067973 -258.34191004381864 0 -258.34191004381864 -319.07905693067005 0 0 0 0 811.10491594829364 -137.05974104616325 0 -137.05974104616325 -721.13572309797746 0 0 0 0 929.54944467107998 -14.711537044087891 0 -14.711537044087891 -1002.859641181567 0 0 0 0 1304.3977096196322 -605.22247598547256 0 -605.22247598547256 -537.90365474915598 0 0 0 0 1322.652620280815 -1082.1634865428241 0 -1082.1634865428241 -68.367018010059837 0 0 0 0 956.62567483769044 -578.62096765228671 0 -578.62096765228671 -100.87893811310641 0 0 0 0 236.95994038328354 -675.32493321153743 0 -675.32493321153743 595.59998038953927 0 0 0 0 166.89152575610206 -387.95738111583341 0 -387.95738111583341 348.1758637483872 0 0 0 0 849.07925016117224 -1276.4720435925701 0 -1276.4720435925701 642.32382824452361 0 0 0 0 50.001830124234402 -610.61409693506721 0 -610.61409693506721 1100.6699423458194 0 0 0 0 101.59162874644244 -629.49029257365328 0 -629.49029257365328 660.77404826347629 0 0 0 0 -297.76314751344034 -645.6086651684891 0 -645.6086651684891 2496.0381822588388 0 0 0 0 88.115189675037982 -1101.4200386723242 0 -1101.4200386723242 1427.1213759753737 0 0 0 0 93.068421045711148 -1049.9025857404195 0 -1049.9025857404195 1437.5857041504933 0 0 0 0 374.56030518218176 -1605.5643158926541 0 -1605.5643158926541 2401.7236577202275 0 0 0 0 -834.37054825297673 -874.06510842101852 0 -874.06510842101852 4416.2581175439991 0 0 0 0 -635.41712396660296 -772.75554790081515 0 -772.75554790081515 3025.6320325482811 0 0 0 0 545.39753246832697 -1711.4629508614307 0 -1711.4629508614307 2438.4603081977912 0 0 0 0 -871.97430913378776 -377.54846695391461 0 -377.54846695391461 2398.4601684945956 0 0 0 0 -423.69179267643631 377.87048675572441 0 377.87048675572441 3395.742573272204 0 0 0 0 406.38136786078792 1070.7217593339665 0 1070.7217593339665 2008.4186870425765 0 0 0 0 2879.8760978153878 2811.4884722706047 0 2811.4884722706047 3523.0553409567801 0 0 0 0 386.69979509928089 208.59967115375912 0 208.59967115375912 1158.968942400752 0 0 0 0 -397.4863057991206 -1842.4054790529044 0 -1842.4054790529044 6281.6254644809669 0 0 0 0 4.9099671993062088 6.9860951451212827 0 6.9860951451212827 8.0281342470575225 0 0 0 0 6190.2845046778675 1562.3424251583056 0 1562.3424251583056 7006.4813809340412 0 0 0 0 200.01811434427509 -237.92273434227536 0 -237.92273434227536 664.62246008202783 0 0 0 0 1477.7710302364412 -2191.955905626688 0 -2191.955905626688 2891.3426425455546 0 0 0 0 737.46294814555404 -2391.0662249411725 0 -2391.0662249411725 4798.1823142290523 0 0 0 0 -1118.5130981899347 2424.0320603622968 0 2424.0320603622968 8412.5155177088964 0 0 0 0 -560.1919741051388 -624.34810220295913 0 -624.34810220295913 2104.0765023441782 0 0 0 0 -1333.8982426197326 -737.00353305290992 0 -737.00353305290992 2535.2576569874946 0 0 0 0 -540.4022218620521 -55.903800777567085 0 -55.903800777567085 2861.1629437230877 0 0 0 0 -1160.1632843097341 248.98138183419724 0 248.98138183419724 2897.26574261926 0 0 0 0 -2040.8893959817942 -23.971807979483856 0 -23.971807979483856 3619.9050997890299 0 0 0 0 -728.64225045690546 1327.3143002676807 0 1327.3143002676807 4712.1731047867797 0 0 0 0 1375.6763143779899 2452.9555820654787 0 2452.9555820654787 3042.5029237431299 0 0 0 0 613.44836007284539 1230.7226950120166 0 1230.7226950120166 1136.4776614417788 0 0 0 0 125.5680147478779 1181.5274877618067 0 1181.5274877618067 3077.8640790830796 0 0 0 0 -104.14465660226961 594.92852967687577 0 594.92852967687577 1583.6049885376706 0 0 0 0 625.6942829350628 555.64769554466693 0 555.64769554466693 629.2126173642464 0 0 0 0 645.36376565095998 693.24240625278617 0 693.24240625278617 1183.2365916326271 0 0 0 0 995.52974262236239 562.55020371045975 0 562.55020371045975 471.27506561772316 0 0 0 0 313.76746700625154 -25.465770552902541 0 -25.465770552902541 1486.8760869994949 0 0 0 0 339.09827198584026 390.16202290129877 0 390.16202290129877 932.8366499216645 0 0 0 0 340.1932996178657 450.52033733612188 0 450.52033733612188 1539.6612791111293 0 0 0 0 -79.135393217547971 245.77490059738193 0 245.77490059738193 2393.2658416256018 0 0 0 0 -115.26450495336758 98.5389348026074 0 98.5389348026074 1805.6938871469465 0 0 0 0 -32.845099276368273 -256.14678619689948 0 -256.14678619689948 1968.9611012914029 0 0 0 0 -527.48567839455063 -127.43925594921166 0 -127.43925594921166 2260.6478458939164 0 0 0 0 -224.38210784729017 -294.81582721278392 0 -294.81582721278392 2228.0461829964624 0 0 0 0 -380.80775020850524 -422.29837795883941 0 -422.29837795883941 2192.8193842335895 0 0 0 0 -70.022234544405364 -372.73062261491577 0 -372.73062261491577 2098.8715569110791 0 0 0 0 -66.593201263916399 -413.59691311154484 0 -413.59691311154484 1983.8602289423579 0 0 0 0 111.20599058850712 -177.95542394780205 0 -177.95542394780205 2221.1887460933212 0 0 0 0 446.55904787097461 -129.49168203408772 0 -129.49168203408772 1848.2534225866693 0 0 0 0 454.10583899140329 -639.40094265632797 0 -639.40094265632797 2555.6569349447814 0 0 0 0 806.17400342907786 -551.72151466557261 0 -551.72151466557261 1544.2341965369706 0 0 0 0 79.474863332705354 -489.83714521116599 0 -489.83714521116599 2261.9547409836523 0 0 0 0 7.8270674495884336 -5.1628126502879184 0 -5.1628126502879184 2.0445288684123692 0 0 0 0 747.52166579943878 0.058009503620269243 0 0.058009503620269243 928.69944990027579 0 0 0 0 217.08392656020078 139.029957947816 0 139.029957947816 1019.2560104774893 0 0 0 0 1142.525397561014 -802.73202847257926 0 -802.73202847257926 1931.4449495230147 0 0 0 0 -222.73477134987297 -1007.1058774076737 0 -1007.1058774076737 2508.206677443839 0 0 0 0 246.36867465492287 128.26633976188532 0 128.26633976188532 697.60714360316342 0 0 0 0 283.76002791513019 253.04001710679586 0 253.04001710679586 978.71586303808726 0 0 0 0 614.68489753558788 63.348611667039222 0 63.348611667039222 779.5660204202868 0 0 0 0 299.89158829802909 71.567640905763255 0 71.567640905763255 1178.5670004442982 0 0 0 0 345.14703971585186 274.50474382936227 0 274.50474382936227 790.02254858631272 0 0 0 0 498.38755197187311 223.83053097084485 0 223.83053097084485 424.70642149307241 0 0 0 0 408.94192476253193 215.70447344959757 0 215.70447344959757 417.74517298326828 0 0 0 0 176.80303546200957 291.01558858805583 0 291.01558858805583 720.38673657923937 0 0 0 0 285.35060703505951 240.95481432487213 0 240.95481432487213 213.327892597139 0 0 0 0 269.31089505547789 310.11365732029662 0 310.11365732029662 428.99655153921049 0 0 0 0 444.19786602233398 240.89011776141706 0 240.89011776141706 203.2153221620174 0 0 0 0 369.86696676402062 260.32190126968635 0 260.32190126968635 424.16162825310312 0 0 0 0 473.79730527121137 145.3058098042311 0 145.3058098042311 137.50058233373056 0 0 0 0 310.04941078740285 169.08982262913423 0 169.08982262913423 333.98453880989109 0 0 0 0 345.6344765664835 2.0120490434273961 0 2.0120490434273961 18.374344589050452 0 0 0 0 82.326950149814365 160.84927781294391 0 160.84927781294391 254.02540346368914 0 0 0 0 588.85064959072497 38.949433345866055 0 38.949433345866055 66.49245117517421 0 0 0 0 493.71552039149356 411.12165783627825 0 411.12165783627825 689.8465062774485 0 0 0 0 592.92395044706791 239.18008942286542 0 239.18008942286542 301.31162140029483 0 0 0 0 392.11095089586161 215.90351943639689 0 215.90351943639689 845.20398808745085 0 0 0 0 -1051.9505644556361 -129.00959950217839 0 -129.00959950217839 -43.525169303626171 0 0 0 0 -864.11345524903209 745.26764700761123 0 745.26764700761123 182.98219510503623 0 0 0 0 -1529.9804684209778 929.64184421602113 0 929.64184421602113 735.39253717873362 0 0 0 0 -993.97002415299721 155.77793124152959 0 155.77793124152959 -48.786175327579258 0 0 0 0 -635.36562353912086 386.75505452961806 0 386.75505452961806 587.95620164980869 0 0 0 0 4.4707778665562827 -1.0399518597747033 0 -1.0399518597747033 0.72323263803304538 0 0 0 0 -352.23559091685047 122.12719177886538 0 122.12719177886538 386.91765354035306 0 0 0 0 -663.32540273384893 442.63918982858013 0 442.63918982858013 409.07505306597523 0 0 0 0 30.556305461534066 205.10494540676518 0 205.10494540676518 244.20321353847976 0 0 0 0 -96.848850807737108 280.12323747832124 0 280.12323747832124 422.11637519259602 0 0 0 0 16.643256113112642 -117.66988772761169 0 -117.66988772761169 649.54699211230036 0 0 0 0 928.23869856682995 -130.64573109185585 0 -130.64573109185585 153.58066514226812 0 0 0 0 12.258771107557195 -3.899962704395989 0 -3.899962704395989 1.2629729619493171 0 0 0 0 -72.636447376557044 -12.29114119309088 0 -12.29114119309088 887.43205370791929 0 0 0 0 -35.936157278048086 100.29347211758432 0 100.29347211758432 661.60859491127485 0 0 0 0 7.0622277704715088 -58.852614793027897 0 -58.852614793027897 841.40780818824715 0 0 0 0 67.83443689124033 221.43201660522755 0 221.43201660522755 782.93904412331904 0 0 0 0 178.96759297465269 210.18980554998234 0 210.18980554998234 347.32753252084512 0 0 0 0 -31.73239578121229 246.80604039307218 0 246.80604039307218 263.97054191063216 0 0 0 0 75.669490688040241 356.21035920191389 0 356.21035920191389 375.13584077367705 0 0 0 0 -31.039361928301332 275.91971868295877 0 275.91971868295877 0.23045181632915046 0 0 0 0 -167.04588593711605 203.98666020341625 0 203.98666020341625 343.66900312565122 0 0 0 0 -663.24955604183629 -24.439035946161312 0 -24.439035946161312 -14.376692714380624 0 0 0 0 -428.66048855558711 312.12712007093432 0 312.12712007093432 373.98155312876042 0 0 0 0 -1215.9853408275367 232.52009452493803 0 232.52009452493803 759.3833661228573 0 0 0 0 -987.18362894027541 565.94811451471469 0 565.94811451471469 695.61023626103088 0 0 0 0 -1031.5276161265349 633.85543560495717 0 633.85543560495717 609.82519703134312 0 0 0 0 -651.03140325705726 488.55611051116648 0 488.55611051116648 491.5939644198952 0 0 0 0 -544.38472164907307 80.166593581889174 0 80.166593581889174 172.52450797030724 0 0 0 0 -404.80240405666382 217.98585303969048 0 217.98585303969048 102.39471364849305 0 0 0 0 -969.34894783392872 175.29391596846835 0 175.29391596846835 143.51562805262802 0 0 0 0 -497.61282766714066 446.23662726298789 0 446.23662726298789 -109.72565496694824 0 0 0 0 -308.86412701113068 249.32944281667733 0 249.32944281667733 26.456142947616172 0 0 0 0 -305.07035451004413 436.75277911284502 0 436.75277911284502 96.171329642083947 0 0 0 0 -458.15284667730248 240.59980795413503 0 240.59980795413503 182.27895309649466 0 0 0 0 -94.57204135712982 420.73929892478554 0 420.73929892478554 121.47126573610149 0 0 0 0 -142.42143427773954 321.45653986897105 0 321.45653986897105 139.81584568986727 0 0 0 0 -40.378507310015266 318.52274548587229 0 318.52274548587229 51.603643900773022 0 0 0 0 -216.08040056550317 424.70798361552988 0 424.70798361552988 164.6121931594389 0 0 0 0 -0.0031622371679986827 394.18212417304312 0 394.18212417304312 134.53557849735807 0 0 0 0 142.98307974754607 372.15820064962463 0 372.15820064962463 66.772805809028796 0 0 0 0 157.0697146185255 277.68563588155757 0 277.68563588155757 135.88852811223478 0 0 0 0 92.250996616371594 315.73375766093159 0 315.73375766093159 91.631959090504097 0 0 0 0 66.810711284328136 382.69836464085893 0 382.69836464085893 93.708436634871759 0 0 0 0 27.917392886070274 347.63848551901083 0 347.63848551901083 132.33620524613798 0 0 0 0 -12.543259634247988 342.04874078926514 0 342.04874078926514 136.06913938451908 0 0 0 0 -60.322454226162336 347.27834552611603 0 347.27834552611603 167.82915272884929 0 0 0 0 12.489070864061432 311.47199812869803 0 311.47199812869803 185.16163017328654 0 0 0 0 -88.058743143729998 293.92179265612413 0 293.92179265612413 214.61279587448371 0 0 0 0 -218.52151128661399 279.33072753732995 0 279.33072753732995 187.59210720955707 0 0 0 0 -252.66239335190448 348.71801881227293 0 348.71801881227293 206.23759849166163 0 0 0 0 -217.7888715501897 264.38867351265435 0 264.38867351265435 269.64458776716492 0 0 0 0 -97.930953366395443 300.73946188692571 0 300.73946188692571 221.11243391696917 0 0 0 0 -206.9399061067802 188.46731924144842 0 188.46731924144842 320.54948117241292 0 0 0 0 -169.81929894343875 190.44753256142576 0 190.44753256142576 284.66017049650645 0 0 0 0 -323.69969789504967 227.37850971619991 0 227.37850971619991 282.6874627578145 0 0 0 0 -223.91420066236742 117.01210449022619 0 117.01210449022619 171.35326245607871 0 0 0 0 224.26391900221461 141.31713023894918 0 141.31713023894918 98.121117269271053 0 0 0 0 239.46168936629329 122.69618602525588 0 122.69618602525588 114.04702225745132 0 0 0 0 223.52236080391231 77.271276632454828 0 77.271276632454828 97.784085941137164 0 0 0 0 118.38328441551857 113.63750469478327 0 113.63750469478327 175.23066405440477 0 0 0 0 162.80167345169684 67.461475332052942 0 67.461475332052942 126.28462507468066 0 0 0 0 -58.402861262675287 1.4487470604171904 0 1.4487470604171904 164.77349772911111 0 0 0 0 159.23909966173744 80.087978723169385 0 80.087978723169385 118.55020589813648 0 0 0 0 163.01682635963516 -14.773158959862485 0 -14.773158959862485 81.210380713324412 0 0 0 0 224.93570072951115 17.632130609090382 0 17.632130609090382 85.644974888418801 0 0 0 0 253.83617615511048 100.91672277709677 0 100.91672277709677 103.32446755671117 0 0 0 0 269.41459397178187 75.933324346871814 0 75.933324346871814 142.53055977476879 0 0 0 0 394.36999346131597 174.78961872213404 0 174.78961872213404 104.29677501147671 0 0 0 0 204.75511347274733 265.44768792182731 0 265.44768792182731 122.41371496442252 0 0 0 0 292.16330880585156 242.69576838094508 0 242.69576838094508 205.27554652741856 0 0 0 0 329.01494452773113 232.77369917673423 0 232.77369917673423 120.63211992724973 0 0 0 0 212.82161242103393 345.86004020833207 0 345.86004020833207 218.72718622312414 0 0 0 0 143.28754230513005 364.51750836211431 0 364.51750836211431 124.6920737943783 0 0 0 0 214.80339088674464 268.53797088600732 0 268.53797088600732 112.46094119873305 0 0 0 0 140.02708718905342 318.12538646295434 0 318.12538646295434 100.24788885011367 0 0 0 0 172.20270053427157 226.845874335595 0 226.845874335595 137.2273319290216 0 0 0 0 275.81073642065166 222.80519079352962 0 222.80519079352962 104.89903371437686 0 0 0 0 88.104764790852641 261.261758303448 0 261.261758303448 123.15352835077647 0 0 0 0 102.74194972203986 240.63538992323447 0 240.63538992323447 133.17593503515673 0 0 0 0 108.30642067908411 282.51032916088661 0 282.51032916088661 127.60020018582145 0 0 0 0 115.13533157963047 310.29473439937465 0 310.29473439937465 113.11561490639724 0 0 0 0 78.984496812619909 325.20869627558568 0 325.20869627558568 110.12399396500859 0 0 0 0 39.674819837317045 313.17164547440188 0 313.17164547440188 144.01528670030166 0 0 0 0 50.397937307183383 292.92646591156517 0 292.92646591156517 160.49473144629883 0 0 0 0 37.154782373647777 315.97681176620154 0 315.97681176620154 142.80343998753233 0 0 0 0 48.332096314232331 281.53927322001982 0 281.53927322001982 128.40572115568284 0 0 0 0 57.420110194685549 266.08955769281238 0 266.08955769281238 136.39903998345108 0 0 0 0 26.169577732340258 246.98614722767888 0 246.98614722767888 132.64927812573114 0 0 0 0 -26.337342534177878 262.74735375765522 0 262.74735375765522 132.34407370189729 0 0 0 0 42.616459340042638 225.44369160800125 0 225.44369160800125 52.0498263558693 0 0 0 0 47.608497883424207 157.37782759619768 0 157.37782759619768 282.41655473294668 0 0 0 0 177.27407351833972 107.02757557175573 0 107.02757557175573 133.84079510213633 0 0 0 0 -84.74968382113002 -87.559392927716544 0 -87.559392927716544 390.65115615664399 0 0 0 0 -3.2151454222715188 -10.849940048100223 0 -10.849940048100223 31.740981639794256 0 0 0 0 -37.823282847282826 204.69697708408057 0 204.69697708408057 11.728628583907266 0 0 0 0 -325.12543881898455 119.1589314167577 0 119.1589314167577 103.9718359885228 0 0 0 0 1.1882382652926786 40.206767097393474 0 40.206767097393474 10.986126439540271 0 0 0 0 -72.651484994028579 208.78123143501944 0 208.78123143501944 104.90660410455894 0 0 0 0 -113.12077741536996 159.98853533222427 0 159.98853533222427 170.14477496893596 0 0 0 0 -106.01453982036401 198.95094092998443 0 198.95094092998443 272.87832313326726 0 0 0 0 -117.9122459890641 171.84000010903401 0 171.84000010903401 230.46380149927609 0 0 0 0 -91.071075149964599 199.48111394660373 0 199.48111394660373 213.13016881801013 0 0 0 0 -62.432862291396304 200.16139303377349 0 200.16139303377349 197.17861062967131 0 0 0 0 -62.704664000750199 203.49450593859365 0 203.49450593859365 219.73173212089023 0 0 0 0 -94.187034583482728 178.02861881774152 0 178.02861881774152 201.04149684790173 0 0 0 0 -19.419613461909648 230.90157102223566 0 230.90157102223566 200.73959740685677 0 0 0 0 -38.24431674290463 192.92613244163294 0 192.92613244163294 143.00790672226867 0 0 0 0 -74.52766957416236 175.52345366213513 0 175.52345366213513 134.67693177612819 0 0 0 0 21.841548056019747 269.20505786597278 0 269.20505786597278 204.98906470745715 0 0 0 0 4.3170835359014745 235.3167301786707 0 235.3167301786707 139.8452338902207 0 0 0 0 26.350765585142653 282.59127822919254 0 282.59127822919254 162.02948516953575 0 0 0 0 25.113147710632347 281.53041218257204 0 281.53041218257204 199.47586490885442 0 0 0 0 -10.099845180775446 280.05512883732808 0 280.05512883732808 297.33562425251148 0 0 0 0 -26.274266904605611 238.74922288476228 0 238.74922288476228 215.67890471078317 0 0 0 0 -32.298061099934785 246.13016767379941 0 246.13016767379941 265.68870323715964 0 0 0 0 -92.546122619751259 193.80157134104593 0 193.80157134104593 283.13867299472622 0 0 0 0 -73.919418467096932 229.73966381585296 0 229.73966381585296 337.09185415341926 0 0 0 0 -19.52581892480157 258.5415626316244 0 258.5415626316244 294.2607858330307 0 0 0 0 -74.275987633951445 238.75719257807941 0 238.75719257807941 382.23037524151732 0 0 0 0 -80.76809886747651 224.1906774706149 0 224.1906774706149 440.00545970780513 0 0 0 0 -82.483646736229275 194.34221918748517 0 194.34221918748517 381.13616561258402 0 0 0 0 -82.067027631277597 185.37922328400236 0 185.37922328400236 335.52919492256933 0 0 0 0 -116.33941750299982 177.80499956626318 0 177.80499956626318 380.10784404882725 0 0 0 0 -123.79991814848836 154.12600023295818 0 154.12600023295818 305.2018990525678 0 0 0 0 -121.50682555171625 177.86689606157688 0 177.86689606157688 278.05765814290135 0 0 0 0 -142.92558273943723 128.936698130693 0 128.936698130693 252.27562395406494 0 0 0 0 -119.06631842294519 178.06733464693752 0 178.06733464693752 270.17863406279503 0 0 0 0 -98.592782647909189 206.00069138625258 0 206.00069138625258 308.28079822313839 0 0 0 0 -26.906500280180268 91.566023355866491 0 91.566023355866491 288.10677757416761 0 0 0 0 -34.752913903538982 29.735244021022481 0 29.735244021022481 149.79104442992684 0 0 0 0 -143.24537794733851 84.697412746332702 0 84.697412746332702 292.12787740532167 0 0 0 0 -124.90840955708285 122.83761052592354 0 122.83761052592354 347.32525329008786 0 0 0 0 -135.17284398556967 184.25195300333098 0 184.25195300333098 272.21203516489186 0 0 0 0 -79.145394584677888 217.38759228659183 0 217.38759228659183 283.54560420392045 0 0 0 0 -40.982800871490952 138.97820831499484 0 138.97820831499484 240.88925383254536 0 0 0 0 -23.753708194850333 163.15229145133708 0 163.15229145133708 270.46455810619591 0 0 0 0 -15.189650083170363 254.76145514091877 0 254.76145514091877 251.76247181921281 0 0 0 0 8.3070129850912053 236.05687121166193 0 236.05687121166193 243.9810672643585 0 0 0 0 -96.283590651247323 248.7744589332633 0 248.7744589332633 244.31247095536673 0 0 0 0 -34.16308790986659 280.2268248106484 0 280.2268248106484 214.58046458906679 0 0 0 0 -39.612439774976792 290.57935101197836 0 290.57935101197836 215.02059320762783 0 0 0 0 15.156711491392343 306.10662377511107 0 306.10662377511107 179.29373583530105 0 0 0 0 23.844071191275361 270.16514435597128 0 270.16514435597128 219.2489265749673 0 0 0 0 6.5598424027430156 265.28614287740766 0 265.28614287740766 243.44727545497153 0 0 0 0 12.591195397022602 295.00501505895591 0 295.00501505895591 219.82719412211009 0 0 0 0 -20.480365318382155 265.70823283920799 0 265.70823283920799 375.78428323699336 0 0 0 0 29.27507918421361 316.81305478907598 0 316.81305478907598 305.83139568875413 0 0 0 0 -81.299071726700276 223.37719764348003 0 223.37719764348003 529.53006537252077 0 0 0 0 4.020416258217665 298.82070495821245 0 298.82070495821245 398.63701731543733 0 0 0 0 -0.89039805914705994 288.03934638827582 0 288.03934638827582 491.30021442868019 0 0 0 0 130.20418221919226 349.58822633866112 0 349.58822633866112 339.98988953561638 0 0 0 0 48.551113486957547 250.65343819860254 0 250.65343819860254 249.24342298115516 0 0 0 0 130.76202610582914 187.70080826452431 0 187.70080826452431 178.51406903504176 0 0 0 0 68.38624116223744 203.10855866612292 0 203.10855866612292 231.06223369636427 0 0 0 0 229.61411483971199 476.54652157494638 0 476.54652157494638 286.60564021318532 0 0 0 0 86.179108870087362 160.33163331972537 0 160.33163331972537 178.87597982185252 0 0 0 0 91.477828156253622 168.97266469501119 0 168.97266469501119 -289.62900627123599 0 0 0 0 6.2681761370833016 159.28900806408637 0 159.28900806408637 216.64156316250956 0 0 0 0 8.1306145653066721 158.98561920646353 0 158.98561920646353 169.50209679271939 0 0 0 0 -152.24209079578122 1287.2323325958932 0 1287.2323325958932 4049.7864143819825 0 0 0 0 2035.4752459480019 230.73155009069615 0 230.73155009069615 951.88647520682935 0 0 0 0 198.34711963137408 1005.7505764036723 0 1005.7505764036723 -283.30076621356056 0 0 0 0 146.70874328350408 1148.1117315343347 0 1148.1117315343347 1089.4284770335216 0 0 0 0 182.93964918236361 308.02204708418139 0 308.02204708418139 499.2982369184756 0 0 0 0 -261.11707762711922 270.56779147814086 0 270.56779147814086 2493.561186081688 0 0 0 0 582.2627572898059 -1177.803870477368 0 -1177.803870477368 1707.8271879379172 0 0 0 0 -168.02347593994637 22.916141971903926 0 22.916141971903926 1068.6778098259401 0 0 0 0 -201.87671648600463 134.49912583494461 0 134.49912583494461 842.37709160523082 0 0 0 0 61.443636927850093 514.12163045208354 0 514.12163045208354 974.93034658456963 0 0 0 0 -7.6109332057530992 305.92250492642961 0 305.92250492642961 499.41108224989603 0 0 0 0 -88.021328610147066 262.71686196854353 0 262.71686196854353 810.59928444355319 0 0 0 0 -103.77014542134384 179.85879642316468 0 179.85879642316468 501.70222364932124 0 0 0 0 -122.17048402746332 -15.693585585260735 0 -15.693585585260735 688.14957668855732 0 0 0 0 -102.57560421382459 -21.179162431277291 0 -21.179162431277291 517.31962636194294 0 0 0 0 68.565350972729675 -182.56785383945066 0 -182.56785383945066 391.80994483961331 0 0 0 0 72.710155460103124 28.074167393827338 0 28.074167393827338 -2.1626429830180314 0 0 0 0 144.59205300678241 -263.21234960153106 0 -263.21234960153106 147.3443927484368 0 0 0 0 85.247361505077379 -243.92627567193108 0 -243.92627567193108 435.51027609714947 0 0 0 0 36.557998554086083 18.087605119314404 0 18.087605119314404 7.5714211869985242 0 0 0 0 -49.150168589236273 -430.16839599817285 0 -430.16839599817285 660.7393418298434 0 0 0 0 83.646492747083926 -255.73056202448515 0 -255.73056202448515 663.68200116807202 0 0 0 0 -196.8709020743654 -482.54268057991067 0 -482.54268057991067 542.10186012117629 0 0 0 0 42.43278263330285 -20.94238619470525 0 -20.94238619470525 103.63533907067449 0 0 0 0 116.50934617049097 -7.120382038732032 0 -7.120382038732032 27.472475677819602 0 0 0 0 116.50934617048188 -7.120382038752723 0 -7.120382038752723 27.472475677834154 0 0 0 0 4.1138070690469668 11.618179031031886 0 11.618179031031886 66.700330437797362 0 0 0 0 -349.35151451498677 184.01560736049487 0 184.01560736049487 36.633789853756753 0 0 0 0 -359.30455219504074 195.40978636408545 0 195.40978636408545 73.365161705223727 0 0 0 0 59.107729409980941 30.445017339583153 0 30.445017339583153 28.756594130127688 0 0 0 0 116.50934617046005 -7.120382038750904 0 -7.120382038750904 27.472475677835973 0 0 0 0 885.00633303735299 -1250.5879721330712 0 -1250.5879721330712 -338.51094523593565 0 0 0 0 931.93648553467153 271.26411494796594 0 271.26411494796594 -971.79240797120292 0 0 0 0 -154.11222745095074 26.734344690499711 0 26.734344690499711 340.02952751375119 0 0 0 0 -129.61449449457359 115.11974869701044 0 115.11974869701044 348.13098405731944 0 0 0 0 -147.09239695722135 16.432195124847567 0 16.432195124847567 258.00793872259237 0 0 0 0 -141.58550448009555 109.24830954633671 0 109.24830954633671 238.80272662522111 0 0 0 0 -131.11629823130897 157.21093474038116 0 157.21093474038116 310.72642760705639 0 0 0 0 -141.21767315839315 91.691626418907617 0 91.691626418907617 300.96701491857675 0 0 0 0 -122.17057890257274 104.25743491292997 0 104.25743491292997 363.64813329023855 0 0 0 0 -112.9130171463612 134.45650573154126 0 134.45650573154126 439.8273510489671 0 0 0 0 -101.57711955189734 119.19942454102966 0 119.19942454102966 450.80001045469203 0 0 0 0 -103.55619675150956 156.72574979289493 0 156.72574979289493 576.80719664640856 0 0 0 0 -80.038476759926198 2.5169408771907911 0 2.5169408771907911 535.68995438681668 0 0 0 0 -93.179263004625682 33.2523534733009 0 33.2523534733009 470.88166814866781 0 0 0 0 -89.356215859072108 22.213751340876115 0 22.213751340876115 397.08381612530684 0 0 0 0 -52.748971226660615 -43.808084009604045 0 -43.808084009604045 304.44901709053738 0 0 0 0 -60.793582414964476 -44.614754219282077 0 -44.614754219282077 386.39921690149095 0 0 0 0 -124.34202909244232 58.899591245539341 0 58.899591245539341 360.18612389903865 0 0 0 0 -33.970559147419408 -66.144811618854874 0 -66.144811618854874 402.92887823191177 0 0 0 0 -43.653959149394723 -105.10599561278832 0 -105.10599561278832 565.61292008366217 0 0 0 0 66.568142420690037 -138.19201067371137 0 -138.19201067371137 306.14284946667613 0 0 0 0 -123.27533462047722 -14.713485009673605 0 -14.713485009673605 308.46127211539533 0 0 0 0 -120.24113286470947 -8.7944159157930244 0 -8.7944159157930244 184.77150933265511 0 0 0 0 -294.94726813329908 -5.9993744767198223 0 -5.9993744767198223 307.74045267150086 0 0 0 0 -145.60202763116104 28.30229425178095 0 28.30229425178095 281.8725906101572 0 0 0 0 -218.87821276041723 26.859798528328383 0 26.859798528328383 104.2643141069384 0 0 0 0 -232.56932054427307 -2.3792756602160807 0 -2.3792756602160807 244.66350944607075 0 0 0 0 -381.48708470127531 146.70303894167228 0 146.70303894167228 188.5530038105062 0 0 0 0 -17.47045734325809 56.086443319283717 0 56.086443319283717 182.30220023596121 0 0 0 0 42.06951907119867 70.722915034290054 0 70.722915034290054 146.63692384971364 0 0 0 0 -20.324850259658774 45.580914052065054 0 45.580914052065054 186.40064373651694 0 0 0 0 -21.075745544120352 -11.379913261831847 0 -11.379913261831847 22.061718445087728 0 0 0 0 -34.491272865474357 28.729780286043379 0 28.729780286043379 175.67479898222501 0 0 0 0 -141.97581053366048 -255.29680531980648 0 -255.29680531980648 255.31492199121567 0 0 0 0 -209.89602951101551 74.739317182062223 0 74.739317182062223 231.36915657987561 0 0 0 0 -38.559714272925845 31.181774999518744 0 31.181774999518744 162.60097871730616 0 0 0 0 -338.5801518841763 -6.9146446286704304 0 -6.9146446286704304 247.18865646188351 0 0 0 0 -38.521852966297473 80.061103934260245 0 80.061103934260245 176.10685551130882 0 0 0 0 -39.217281632942012 32.206703143862207 0 32.206703143862207 146.15161692380261 0 0 0 0 -151.25749399645065 56.814435680049428 0 56.814435680049428 155.58606362534192 0 0 0 0 -163.51936102155014 117.748394047685 0 117.748394047685 280.94332070000019 0 0 0 0 -34.778091788546135 78.636797321840277 0 78.636797321840277 191.41958062867343 0 0 0 0 -119.34274373575664 39.83415970288479 0 39.83415970288479 194.98586334549327 0 0 0 0 -46.264919304959534 76.869365875365474 0 76.869365875365474 181.13282928724402 0 0 0 0 -41.95812590521075 70.620900418902238 0 70.620900418902238 187.94523584935087 0 0 0 0 -54.766193698709742 96.2377119704488 0 96.2377119704488 169.73362349998206 0 0 0 0 -40.953704127204503 55.354957268704311 0 55.354957268704311 115.24392947188608 0 0 0 0 -37.506410098671921 70.769887081438355 0 70.769887081438355 149.75648371594434 0 0 0 0 -17.920396835455445 13.612319545166883 0 13.612319545166883 105.53402134629141 0 0 0 0 -41.617155086730804 59.346655765140895 0 59.346655765140895 109.06403174850129 0 0 0 0 -45.774332467856468 3.7876240666239482 0 3.7876240666239482 -13.660177368452423 0 0 0 0 -88.663450114253465 -26.449674294326542 0 -26.449674294326542 3.348560577207536 0 0 0 0 -137.37420217433146 -5.1072606786838151 0 -5.1072606786838151 -2.4536754841756192 0 0 0 0 -102.69199060645752 -68.847714729370637 0 -68.847714729370637 107.14249069872312 0 0 0 0 -0.26946915061394305 0.88573553328632926 0 0.88573553328632926 1.6418533671584328 0 0 0 0 -29.088142890557947 99.292185465226794 0 99.292185465226794 112.28021042067121 0 0 0 0 -102.55421968585915 72.400000987690873 0 72.400000987690873 -16.362559815301211 0 0 0 0 -230.90122583863013 72.969643049844308 0 72.969643049844308 8.0286140798270935 0 0 0 0 -134.59026675618838 3.8938713828174514 0 3.8938713828174514 26.64712882177264 0 0 0 0 89.112246505952498 130.70287958421977 0 130.70287958421977 190.45849401096348 0 0 0 0 1.2601899656536752 8.0035766873274063 0 8.0035766873274063 -0.35850884425019558 0 0 0 0 43.199417477035695 66.188385924237082 0 66.188385924237082 -30.715518879347655 0 0 0 0 -242.90998433481946 71.566780383960577 0 71.566780383960577 34.361483170709107 0 0 0 0 -60.090997948113909 152.29194429310155 0 152.29194429310155 -29.15251935053675 0 0 0 0 -2.3812862131443842 29.848423863684772 0 29.848423863684772 61.359655111919039 0 0 0 0 -9.8030691115780115 -4.0553350918599875 0 -4.0553350918599875 12.015311240187032 0 0 0 0 -36.911869979634503 -125.8730277877039 0 -125.8730277877039 7.2346386950812303 0 0 0 0 172.18665585143117 -2.8319132775213802 0 -2.8319132775213802 -139.58049338986166 0 0 0 0 -19.871549833377884 26.59044634887055 0 26.59044634887055 85.943638312295775 0 0 0 0 -42.487773239380061 -59.908238158121776 0 -59.908238158121776 142.0374307729071 0 0 0 0 6.1916406819045307 50.705877648299804 0 50.705877648299804 -14.727534224590784 0 0 0 0 -296.84419537168196 99.827737563027767 0 99.827737563027767 117.29459401140957 0 0 0 0 -283.5295791232852 146.83035014472262 0 146.83035014472262 -41.684209126207861 0 0 0 0 -4.0210517749442722 -1.6017968288217617 0 -1.6017968288217617 12.454137470369716 0 0 0 0 -212.5127960014097 68.539330418105237 0 68.539330418105237 69.585918774151651 0 0 0 0 -299.35258953093739 40.347063840615647 0 40.347063840615647 124.67798993569158 0 0 0 0 -288.19467312635425 106.32875384129875 0 106.32875384129875 103.24404031618906 0 0 0 0 17.50669835470152 29.453800674493664 0 29.453800674493664 27.979136582826641 0 0 0 0 -16.843933680641321 17.754400691005657 0 17.754400691005657 90.491611259992283 0 0 0 0 -339.72897575802926 91.039825853629736 0 91.039825853629736 -53.551906536216848 0 0 0 0 -321.93499875578982 103.76736573818198 0 103.76736573818198 127.22132082003372 0 0 0 0 -169.21417716585347 157.69692296095309 0 157.69692296095309 -36.856260326050688 0 0 0 0 -311.97095113691023 43.182186408848793 0 43.182186408848793 93.931741087581031 0 0 0 0 12.601088350752008 14.766997479176553 0 14.766997479176553 64.229367869294947 0 0 0 0 4.5256960255905341 14.764439115283277 0 14.764439115283277 -0.44478414854012271 0 0 0 0 40.261677645657073 -10.253974378225394 0 -10.253974378225394 82.534416166148731 0 0 0 0 -46.859311221937389 59.568415259544054 0 59.568415259544054 188.69893944892101 0 0 0 0 34.382419074671816 50.964365036510571 0 50.964365036510571 182.4304820607249 0 0 0 0 34.73607376506925 43.946764202366467 0 43.946764202366467 104.64275708654895 0 0 0 0 -172.34799144252247 105.77378791636147 0 105.77378791636147 185.8129786806785 0 0 0 0 -247.13472901155683 60.526997918874258 0 60.526997918874258 150.45682086209126 0 0 0 0 -191.34234498127125 41.079842008039122 0 41.079842008039122 93.237897754879668 0 0 0 0 -138.26961325209709 105.58567256064816 0 105.58567256064816 139.98990822155611 0 0 0 0 -141.18709816753881 76.726759973856133 0 76.726759973856133 38.145064832235221 0 0 0 0 -244.30868227864721 108.78277821883967 0 108.78277821883967 143.11149810589086 0 0 0 0 -215.56715450217052 32.609329234343022 0 32.609329234343022 13.605248167310492 0 0 0 0 90.875309772416131 36.100596196120023 0 36.100596196120023 119.62777395894227 0 0 0 0 45.450893379815625 169.37150300083158 0 169.37150300083158 222.60761740973612 0 0 0 0 5.0251014765983335 0.40186453530546373 0 0.40186453530546373 -0.30422278256844493 0 0 0 0 -125.90782380382599 270.14070878657185 0 270.14070878657185 -175.01264436214115 0 0 0 0 -105.05602899101314 404.51096389707527 0 404.51096389707527 141.70602269937808 0 0 0 0 -343.22276527793747 389.30637613547151 0 389.30637613547151 118.50983244605595 0 0 0 0 -334.33262433974141 399.5101580854971 0 399.5101580854971 129.97490306466352 0 0 0 0 -3.2795055275807918 34.010075190912829 0 34.010075190912829 110.34587629966296 0 0 0 0 9.550332240552212 8.8438774208396325 0 8.8438774208396325 8.1977151156180526 0 0 0 0 -285.76186128793961 210.84790435114701 0 210.84790435114701 397.25500779029971 0 0 0 0 -219.6922746071923 280.17373158574628 0 280.17373158574628 -40.990056191283657 0 0 0 0 -176.8545067329087 365.42178575183789 0 365.42178575183789 76.596228188369423 0 0 0 0 -263.43288851042576 201.59414049318002 0 201.59414049318002 -81.32364849789883 0 0 0 0 -423.6618951312912 205.45699181023519 0 205.45699181023519 -16.00116629054537 0 0 0 0 1119.5427697248761 569.18371078366181 0 569.18371078366181 -1709.6199754905902 0 0 0 0 -227.11718594355125 149.87602510994475 0 149.87602510994475 -125.44844034565904 0 0 0 0 1.778496793605882 -68.195716649643146 0 -68.195716649643146 550.16752586717485 0 0 0 0 43.48776612598158 93.034548862604424 0 93.034548862604424 618.80817562181619 0 0 0 0 200.11459048106008 154.21008177497424 0 154.21008177497424 281.65472198813222 0 0 0 0 742.30417310764824 -2599.230229224544 0 -2599.230229224544 2537.3681141205016 0 0 0 0 -8.9662937964585581 4.4287564131955151 0 4.4287564131955151 488.09270283579826 0 0 0 0 249.76296026833916 248.44928121409612 0 248.44928121409612 455.40484044211917 0 0 0 0 -455.00795701437028 -128.80082450615737 0 -128.80082450615737 629.54719454277074 0 0 0 0 -142.52304550140457 186.90411463479541 0 186.90411463479541 -109.52838601011899 0 0 0 0 -122.09604323350044 157.75337069325178 0 157.75337069325178 -205.09668689667888 0 0 0 0 -116.45519194022791 186.82947641068313 0 186.82947641068313 -118.32739838635462 0 0 0 0 -136.27047100235677 229.54137195787916 0 229.54137195787916 -87.899938698508777 0 0 0 0 -18.869938165767508 67.44601695392339 0 67.44601695392339 164.77106539378292 0 0 0 0 65.884660493907177 1.3964854544101399 0 1.3964854544101399 165.05157182834228 0 0 0 0 -424.9255128812074 575.65598356681585 0 575.65598356681585 -245.76568211085396 0 0 0 0 60.046274451897261 -181.34965354847373 0 -181.34965354847373 387.72792695940007 0 0 0 0 14.498314694258937 90.861891392865346 0 90.861891392865346 105.58003269444453 0 0 0 0 41.971059713582235 -53.122184891952202 0 -53.122184891952202 47.108662801096216 0 0 0 0 84.267986994614148 -152.02732076302345 0 -152.02732076302345 197.15710283798398 0 0 0 0 29.473415445395403 -115.00295938435011 0 -115.00295938435011 366.14409971772693 0 0 0 0 -26.267422376960894 54.672495989361778 0 54.672495989361778 398.04313227289822 0 0 0 0 4.2818670105152705 124.47290244366741 0 124.47290244366741 233.56278864006708 0 0 0 0 -17.375465977197564 -6.962879265731317 0 -6.962879265731317 245.07637883894495 0 0 0 0 -19.69423177020326 -35.232827207451919 0 -35.232827207451919 237.1280037129909 0 0 0 0 -65.578428813037135 -24.390479064677493 0 -24.390479064677493 298.09742838006059 0 0 0 0 -20.994752264665749 89.23880268886569 0 89.23880268886569 106.98482485696877 0 0 0 0 -130.3574740140798 147.20566483521725 0 147.20566483521725 164.17073352608713 0 0 0 0 -90.986290244954944 53.699611458869185 0 53.699611458869185 172.54008925447852 0 0 0 0 -123.06413242419831 167.92072607850423 0 167.92072607850423 113.63589605910238 0 0 0 0 27.436620705099813 56.384091674874071 0 56.384091674874071 10.466159449875704 0 0 0 0 -165.81715530018016 1.2013381599463173 0 1.2013381599463173 146.37507658047252 0 0 0 0 -213.13414609818619 -72.343080893810111 0 -72.343080893810111 -58.414196634403197 0 0 0 0 -4.9827517988125827 3.6537864822258257 0 3.6537864822258257 -3.7601381144422135 0 0 0 0 17.478520488502909 240.61496731434454 0 240.61496731434454 -190.76641078969988 0 0 0 0 -488.70634439986861 171.39768152550096 0 171.39768152550096 114.19420176920357 0 0 0 0 -10.417034783674811 47.228787101281114 0 47.228787101281114 109.11531689278593 0 0 0 0 -147.5526522129374 209.77914715633233 0 209.77914715633233 -48.630224141612416 0 0 0 0 -141.20314177421892 188.11222686105612 0 188.11222686105612 -116.66138108125233 0 0 0 0 -365.85638630162703 136.4020897057926 0 136.4020897057926 226.75952746451367 0 0 0 0 -8.0361749148428316 3.9187282125349157 0 3.9187282125349157 -66.552396805629542 0 0 0 0 -2.2114165492412212 -33.374433715143823 0 -33.374433715143823 34.146860909356292 0 0 0 0 13.820118847606864 -14.229776847045287 0 -14.229776847045287 168.82040997115837 0 0 0 0 201.06158964733731 18.296531707776012 0 18.296531707776012 29.614866055344464 0 0 0 0 7.4155425263306824 44.548024185540271 0 44.548024185540271 213.41614418651443 0 0 0 0 18.552043452229555 218.31033544532693 0 218.31033544532693 301.27507353146211 0 0 0 0 -18.582493130063106 9.7483946845395621 0 9.7483946845395621 10.154348388460932 0 0 0 0 267.40442741389415 193.0380273750925 0 193.0380273750925 50.503083915013121 0 0 0 0 -75.403395703227943 74.361600812801044 0 74.361600812801044 595.67061002674745 0 0 0 0 -6.8675918773071309 13.077783236622494 0 13.077783236622494 -10.171568433592199 0 0 0 0 135.11923346973163 350.69272912679298 0 350.69272912679298 463.65775461221347 0 0 0 0 289.05237465957543 234.73343222435506 0 234.73343222435506 263.72893530703368 0 0 0 0 98.021242713066385 -26.03278520690219 0 -26.03278520690219 198.91650354809826 0 0 0 0 -553.12554605513287 210.08890114660608 0 210.08890114660608 290.5123595102923 0 0 0 0 -553.12554605513287 210.08890114663518 0 210.08890114663518 290.51235951035051 0 0 0 0 1.9057962894548837 579.7921474223549 0 579.7921474223549 443.18279999910737 0 0 0 0 -553.12554605510377 210.08890114643145 0 210.08890114643145 290.51235951046692 0 0 0 0 -30.499132038803509 234.48630359333765 0 234.48630359333765 61.584595799697126 0 0 0 0 -183.43568698127342 212.54268637369387 0 212.54268637369387 5.0758283189279609 0 0 0 0 -46.652416824507277 87.795727923597155 0 87.795727923597155 -16.783860698841252 0 0 0 0 -553.12554605513651 210.08890114659152 0 210.08890114659152 290.51235951042327 0 0 0 0 64.452116226786529 323.30565643519003 0 323.30565643519003 6.0080960260238498 0 0 0 0 -553.12554605513287 210.08890114664246 0 210.08890114664246 290.51235951017588 0 0 0 0 -6.4490942767459671 37.949599595464456 0 37.949599595464456 19.797523728080705 0 0 0 0 171.80907331932394 118.94740959716 0 118.94740959716 225.05209058011314 0 0 0 0 -21.332218450705113 172.64221495859965 0 172.64221495859965 312.17556660627451 0 0 0 0 10.913067862369601 20.58511857448795 0 20.58511857448795 32.09633737556647 0 0 0 0 91.731888431611878 383.83072702401478 0 383.83072702401478 100.23668080774951 0 0 0 0 -11.748419171774003 248.02886928393855 0 248.02886928393855 241.02200666535646 0 0 0 0 -49.891559242117182 140.31017346534645 0 140.31017346534645 -20.651521954452619 0 0 0 0 17.154726241810664 93.707469171144652 0 93.707469171144652 181.12886930415226 0 0 0 0 0.71572529372497229 197.98178019588704 0 197.98178019588704 120.2591978125638 0 0 0 0 -91.210182362016894 211.38450478775076 0 211.38450478775076 134.6136764832263 0 0 0 0 -52.3260266828147 148.9235641754276 0 148.9235641754276 183.30956918280572 0 0 0 0 -119.52817027636524 190.57425822715459 0 190.57425822715459 238.71266006772203 0 0 0 0 26.798387261465436 129.50471490366726 0 129.50471490366726 185.4562173275859 0 0 0 0 -22.180795484484406 134.16811278223759 0 134.16811278223759 253.87468338632607 0 0 0 0 -35.906008495709102 116.76801641898237 0 116.76801641898237 245.5021233463558 0 0 0 0 -76.880821346552693 166.50649598562813 0 166.50649598562813 240.08390594450839 0 0 0 0 -40.260596404668831 129.99045112977001 0 129.99045112977001 252.96756089532573 0 0 0 0 24.869319077537511 179.64126943456722 0 179.64126943456722 238.06677152337943 0 0 0 0 -87.697955818432092 161.54771287482436 0 161.54771287482436 264.05076730948713 0 0 0 0 -123.96913831797428 172.76239052757228 0 172.76239052757228 267.47647888766187 0 0 0 0 -150.24727413113214 87.815047417909227 0 87.815047417909227 221.96832959210224 0 0 0 0 -62.934170772852667 118.17960893664713 0 118.17960893664713 203.71024144547118 0 0 0 0 -100.57241405309605 -30.13785109926539 0 -30.13785109926539 145.8537055230081 0 0 0 0 -75.524152093335374 53.775270555910538 0 53.775270555910538 176.58376741806569 0 0 0 0 3.0602418985167787 -106.61844545607892 0 -106.61844545607892 319.18450169482276 0 0 0 0 -75.263442318390389 67.808491721872997 0 67.808491721872997 363.1905050606656 0 0 0 0 -45.19894231424621 10.83941631536436 0 10.83941631536436 63.015125388425076 0 0 0 0 -14.675040276583825 16.536296954580294 0 16.536296954580294 0.12109469518631499 0 0 0 0 -108.21121125792911 42.990113302614191 0 42.990113302614191 71.799755774816731 0 0 0 0 -183.47843080616144 152.60272000616533 0 152.60272000616533 -9.1624205771076959 0 0 0 0 -172.96314970765434 132.31976018636487 0 132.31976018636487 -127.2572546779702 0 0 0 0 35.614922253713303 203.4755245119668 0 203.4755245119668 254.24708706494857 0 0 0 0 -40.595084889828755 58.084142326083125 0 58.084142326083125 146.11283553384698 0 0 0 0 -129.8674539813444 4.0100558759841078 0 4.0100558759841078 108.71354157381575 0 0 0 0 86.413641742878099 104.13663865280068 0 104.13663865280068 274.3037964935138 0 0 0 0 
</DataArray>
<DataArray type="Float64" Name="cross_section_updated" format="ascii">
1 1 1 1 0.010322629189989279 1 1 1 1 1 1 1 1 0.010216407207271423 1 1 0.010538361172588077 1 1 1 1 1 0.011227493632371209 1 1 1 0.012070012749524267 0.012621714115536094 1 1 1 1 1 1 1 1 1 1 1 1 1 1 1 1 1 1 0.013747313213631776 1 1 1 1 1 1 1 1 0.013380315899568042 1 1 1 1 1 1 0.01139923461857216 1 1 0.010347795872133581 1 1 1 1 0.010348426599157821 1 1 1 1 1 1 1 1 1 1 1 1 1 1 1 1 1 1 1 1 1 0.011186025899144678 1 1 1 1 1 1 0.012364082527126367 1 1 1 1 1 1 1 1 1 1 1 1 1 0.0090090136510185166 1 0.0067710172905838251 1 1 1 1 0.010581151749276395 1 1 1 1 1 1 1 1 1 1 1 0.0117592083772581 1 1 1 1 0.013581788314707591 1 1 1 1 1 1 1 1 1 1 0.019129143342386641 1 1 1 1 1 1 1 1 1 1 1 1 1 1 0.024563386786094002 1 1 1 1 0.022618147142608264 1 1 1 1 1 1 1 1 1 1 1 1 1 1 1 1 1 1 1 1 1 1 1 1 1 1 1 1 1 1 1 1 1 1 1 1 1 1 1 1 1 1 1 0.010570039698137693 1 1 0.011297603391965279 1 1 1 1 1 1 1 1 1 1 0.0099071220218641242 0.0096068832286198454 1 1 1 1 1 1 1 1 1 1 1 1 1 0.0097598455109566603 1 1 1 1 1 0.0081704442083687899 1 1 1 1 1 0.010641065250530192 1 1 1 1 1 1 0.0097291372513372311 1 1 0.0059274181269767679 1 1 1 0.010051981889277297 1 1 1 1 0.0091520514445813592 1 1 1 0.0089766675762169498 0.016904873671751489 1 0.0099214829198437868 1 1 1 1 1 1 1 1 0.011939877071469582 1 1 1 1 1 1 1 1 1 1 1 0.011345173980080642 1 1 1 1 1 1 1 1 1 1 1 1 1 1 1 1 1 0.012134039268941464 1 1 1 1 1 1 1 1 1 1 1 1 1 1 1 1 1 1 0.013099560846743944 1 1 1 0.011041348525871297 0.011079984486028214 1 1 1 0.014153615629657215 1 1 0.010313784832043708 1 1 1 1 1 1 1 1 1 1 1 1 1 0.011616095290167085 1 1 1 1 1 1 1 1 1 1 1 1 1 1 1 1 1 0.012908817959355112 1 1 1 0.010001181684953925 1 1 1 1 0.01240402057133811 1 1 1 1 1 1 1 0.0099693761699120309 1 1 0.011613379370442968 1 1 1 1 1 1 1 1 1 0.0097857512141160796 0.010032061880961972 1 1 0.010167419423780445 1 1 1 0.010334667716312607 1 0.010303211812885654 1 1 1 1 0.010000069020796601 1 1 0.01162302595014178 1 1 1 1 1 1 0.010018332269632557 1 1 1 1 0.01000366420509332 1 0.0099030870908931243 1 0.0099430661585721454 1 0.011588894178083196 1 1 1 0.0098506549248176065 1 1 1 0.011590820623209257 1 1 1 0.0096282042425385097 1 0.010062041684216753 1 1 1 0.010036314430999886 1 1 1 1 1 1 1 1 1 1 1 0.0099762472896472287 1 1 1 1 1 1 1 1 1 1 1 1 1 1 0.010325415588214315 0.010825330924677017 1 1 1 1 0.010961296802523092 1 1 1 1 1 1 0.0099027983891040831 1 1 0.013779898670811835 1 1 1 1 1 1 1 1 1 1 1 1 1 1 1 1 1 1 1 1 1 1 1 1 0.014865655814081898 1 1 1 0.0099998271397415354 1 1 0.013791902645422467 1 0.010095976077964808 1 1 0.013974169700149849 1 1 1 1 1 1 1 1 1 0.0099952344894945026 1 1 0.014452400472652518 1 1 1 1 1 1 1 1 1 1 1 1 1 1 1 1 1 1 1 1 1 1 1 1 1 1 1 1 1 0.0092397083772686392 1 1 1 1 1 1 0.0099809922661318815 1 1 1 1 1 1 1 0.013709306339310834 1 1 1 0.010018018026229591 0.011050441278370201 1 1 0.011605944726503808 1 1 0.010915396410886256 1 1 1 1 1 1 1 1 1 1 1 1 0.01128152141642973 1 1 1 1 1 0.010882087783703661 1 1 1 1 1 1 0.010079988428634414 0.012639652047184043 1 0.011146998915210178 1 1 1 0.013622835451564889 1 0.010007796353167623 1 0.010875707814880748 1 1 1 1 1 0.010027471724742727 0.016865628310411197 1 1 1 0.0067702243850299507 1 0.011559862651887728 0.008466060935787327 1 1 1 1 1 1 1 1 1 0.011070727464829032 1 1 1 1 0.0098764137622446863 1 1 1 1 1 1 0.011714003937493889 1 1 1 0.01031615327000291 1 1 1 1 1 1 1 1 0.011787407422316012 1 1 1 1 1 0.010345047663364922 1 1 1 1 1 1 1 1 1 0.011095817545811473 1 1 1 1 1 1 1 1 1 1 1 1 1 1 1 1 1 1 1 1 1 1 1 1 1 1 1 1 1 1 1 1 1 1 1 1 1 0.015140061834511796 1 0.010003147949170052 1 1 0.010279135698559571 1 1 1 0.010309698690265283 1 1 1 1 1 1 1 1 1 1 1 1 0.0098525005316390194 1 1 0.010658954571711784 1 1 1 1 1 0.012773265528102016 0.012612569902404371 0.013060182458002265 1 0.010045049306929999 1 1 1 1 1 1 1 0.013737143922936651 1 0.0099990430857941209 1 0.0096208630692481319 1 1 0.009917704889840678 1 1 0.014470048034792037 1 1 1 1 1 0.0099735290622004827 1 1 1 1 1 0.0095624306180487426 1 1 1 0.012505582573764815 1 1 0.010910855027334042 1 1 1 1 1 1 1 1 1 1 1 1 0.010697180743255558 1 0.010328322122566314 1 1 1 1 1 1 1 1 1 1 1 1 1 0.01066326128257843 1 1 0.018371217288527225 1 1 1 0.01108117102728793 0.017113432832613643 1 1 1 1 1 0.01075519694359239 1 1 0.017996931553957429 1 0.010425376148116755 1 1 1 1 1 0.0097757213560976247 1 1 1 1 1 1 1 1 1 1 1 1 1 1 0.012241341481500089 1 0.010036816723839026 1 1 1 1 1 0.010230073049409351 1 1 1 1 1 0.0090553569830526693 0.0083707621692326491 1 1 0.012322612090504536 1 0.010006738586394911 1 1 0.01390380886306266 1 0.014144058369004398 1 0.013826744366631213 0.012876920130024953 0.007684915920820482 1 1 0.010498708396297164 1 1 1 1 1 1 1 1 1 1 1 0.010130125626284818 1 1 0.011113625363914671 1 1 1 1 1 1 1 1 1 0.014163407636171112 1 0.0097619813434015566 1 0.0099379683837955354 1 1 0.0099353690859624432 1 0.013010765183741592 1 1 1 0.012433652625150053 1 0.0126929183273038 0.012941407232512674 1 1 0.014202632448531649 0.021782839117158528 1 1 1 1 1 0.0088829615629196224 1 1 1 1 1 1 1 1 1 1 1 1 1 1 1 1 1 1 1 1 1 1 1 1 1 1 1 1 1 1 1 1 1 0.010091721216312329 1 1 1 1 1 1 0.0099252485009839533 1 1 0.011476257431600335 1 1 1 1 1 1 1 1 1 1 1 1 1 0.010381024685628883 1 0.010175516424031993 1 1 0.0098257961622398669 1 1 1 1 1 1 1 1 1 1 1 1 0.010143660221814916 1 1 0.010137452977410658 1 1 1 1 1 1 1 1 1 1 1 1 1 0.010294312879613601 0.01061292349738218 1 1 1 1 1 0.0099723482851816724 1 0.0098798287055501983 0.010659423903483366 1 1 1 1 1 1 1 1 0.010210571966843059 1 1 1 0.010461381466060383 1 1 1 1 1 1 1 1 1 0.010305462519084761 1 0.010836111634340125 1 1 1 1 1 1 1 1 0.010388924034643185 1 1 1 0.011158579251369287 1 1 1 0.0097922480440409149 1 1 0.011909035472994524 1 1 1 1 0.010020773462906165 1 1 1 1 1 0.01014642322321817 1 1 1 0.011120334030659176 1 1 1 1 1 1 1 1 1 1 1 1 0.009650836661047461 1 1 1 1 1 1 1 1 1 0.018615166858048798 1 1 1 1 0.010599897972775075 1 1 1 1 1 1 0.011759267016773529 1 1 1 1 1 1 1 1 1 1 1 0.0078172987966907432 1 1 0.010142096607717135 1 1 0.0088357796039946167 1 0.0097683332122979263 0.010714782923573543 1 1 1 1 1 0.0069658750085083744 1 1 1 1 1 1 1 0.013381307079923526 1 1 1 1 1 1 1 1 1 1 1 1 1 1 1 1 0.010762015729136782 1 1 0.013647606597228084 1 1 1 1 1 1 1 1 1 0.012821238206415097 1 1 1 1 1 1 1 1 1 1 1 1 1 1 1 1 1 1 1 1 1 1 1 1 0.011069646428804788 1 1 1 1 1 1 1 1 1 1 1 1 1 0.011049976032875603 1 1 1 1 1 1 1 1 1 1 0.013323540891773653 1 1 1 1 0.010507270623378105 1 0.0084801532003675219 1 1 1 1 1 1 1 1 0.017867138119802225 1 1 1 1 1 0.018218284959111656 1 1 1 1 1 0.0099859377470703416 1 0.0084697752209653906 1 1 1 1 1 1 1 1 1 1 1 0.021135902936813847 1 1 1 1 1 1 1 1 1 1 1 1 1 1 1 1 1 1 1 1 1 1 1 1 1 1 1 0.010869771974218827 1 1 1 1 1 1 1 1 0.011100386502563672 1 0.012430800666964311 1 1 1 1 1 1 1 1 1 1 1 1 1 1 1 1 1 0.011330414164400664 1 1 1 1 1 1 1 0.010878778475690951 1 1 1 1 1 0.012222111098101708 1 1 1 1 1 1 1 1 1 1 0.009780058538758761 1 1 1 1 1 1 1 1 1 1 1 1 1 1 1 1 1 1 1 1 1 1 1 1 0.0096872168676189821 1 1 0.013836340365497201 1 1 1 1 1 0.0151379453562916 1 1 1 1 0.01634896665412898 1 1 1 1 1 1 1 1 1 1 1 1 1 0.01240854629810954 0.010775241673103916 1 1 1 1 0.015150691170116476 1 1 1 1 1 1 1 0.0093448134754560291 1 1 1 0.012857343860236882 1 1 1 1 1 0.010128592662372832 1 0.018667119560865555 1 0.010052503139084474 1 1 1 1 1 1 1 1 1 1 1 0.010671328780698389 1 1 1 0.0092608062599628012 1 1 1 1 1 1 1 1 1 1 1 0.010281507675214241 0.010467166252393193 1 1 0.010453799109588033 1 1 0.0099247709157190764 1 1 1 1 1 1 1 1 1 1 1 1 1 1 1 1 1 1 1 1 1 1 1 0.011570988884365981 1 1 1 1 1 0.01124916939964286 1 1 1 1 0.010286283021959886 1 1 1 1 1 1 0.010123930949805746 1 1 1 1 1 1 0.01908530123527806 1 1 0.019359387837741528 1 0.011537985180088755 1 0.0098124199194954513 1 1 1 1 1 1 1 1 1 1 1 1 1 1 1 1 0.018245091626082753 0.0097219880568697251 1 1 1 0.010544570994204999 1 1 1 0.010552776653409214 1 0.017861659331512694 1 1 0.020757785489730625 0.0099203031878655479 1 1 1 1 1 1 1 1 0.0091783886487445173 1 1 1 0.01843270795921334 1 1 0.018568657761301448 1 0.0097718074400666467 1 0.010432314606436743 1 1 1 1 1 1 1 1 1 1 1 1 1 1 1 1 1 1 1 1 1 1 0.01011281209753691 1 1 1 0.0090997244974808308 0.0091359367911688881 1 1 1 1 1 1 0.010343378817451721 0.0089441655400059692 1 1 0.010363447963035795 1 1 1 1 0.0096592307146474397 1 1 1 1 1 1 1 1 1 1 1 1 1 1 1 0.01020940254167458 1 1 1 0.010110874139656428 1 1 1 1 1 1 1 1 1 1 0.010467608442690835 1 1 1 1 0.010448662527731602 1 1 1 1 0.010414560035952272 1 1 1 1 1 1 1 1 1 1 0.010016805557915487 1 0.0062737611664634187 0.015574167249067574 1 1 1 1 1 1 1 1 1 1 1 1 1 1 1 1 1 1 1 1 1 0.011896014819617778 1 1 1 1 1 1 1 1 1 0.01065251137960827 1 1 1 0.0099622078031602924 1 1 1 1 1 1 1 0.010620732125210915 0.013264167484609964 1 1 0.013591629825038858 0.011061614380072178 1 0.013834427172795977 1 1 1 0.013660648549643445 1 1 0.010223648001085196 0.0089119082029520229 1 1 1 1 1 1 1 1 1 0.011176462994815398 1 1 1 0.013647738221669084 0.013356828515439794 1 1 1 1 1 1 1 1 0.01102328980290784 1 1 1 1 1 1 1 1 0.010340533033748456 1 1 1 1 1 1 1 1 0.016239152823711786 1 1 0.016150074894837562 1 1 1 0.01275159210323475 0.015155340166254702 1 1 1 1 1 1 1 1 1 1 1 1 0.011119039472906767 1 1 1 0.011259612267636925 1 0.018407411776181541 1 1 1 1 1 1 1 0.022921496398051411 1 0.010042301115158329 1 1 1 1 1 1 1 1 1 1 1 1 0.017496254693376179 1 1 1 1 0.015531866910362353 1 1 1 0.010620953337092573 1 1 1 1 1 1 1 0.01941167567269042 1 1 1 0.01982247492592859 1 1 1 1 1 1 1 1 0.010083679020425737 1 1 1 1 1 1 1 1 1 1 1 1 1 1 1 1 1 1 0.011044026016416282 0.019795565076346371 1 1 1 1 0.021266673223810827 1 0.01003527980358556 1 1 1 1 1 1 1 0.0097324471552404975 1 1 0.010384352120297709 0.018748653699794796 1 0.012466493362719338 0.015139208394207977 1 0.025160152958539538 1 0.011468172414012642 1 1 1 0.02717067650658565 1 1 1 1 1 1 1 1 1 1 1 1 0.011241710854779853 1 1 0.013511444432107935 1 1 1 1 1 1 1 0.0102067634524989 1 0.024909221437197607 1 0.015072581616064545 1 1 0.024500747872181351 1 1 0.016900334369272286 1 1 0.018484627306813484 1 1 1 1 1 1 1 1 1 1 1 0.014306780307732808 1 1 1 1 1 1 1 1 1 1 1 1 1 1 1 1 1 1 1 1 1 1 1 1 0.010065284302532408 1 1 1 1 0.010213818674532155 1 1 1 1 1 1 0.010609355131877348 1 1 0.010116728944924215 1 1 1 1 1 1 1 1 1 1 0.012492076690895595 1 1 1 1 1 1 0.013543830381421691 1 1 1 1 1 1 1 1 1 1 1 1 0.010799076364736211 1 1 1 1 1 1 1 1 1 1 1 0.011878508497130567 1 1 1 0.012074530934551296 0.010583013283189001 1 1 1 1 1 0.011581825843544655 1 1 1 1 1 1 1 1 1 0.01274500901367917 1 1 0.011651928146939061 1 1 1 0.012055124870845167 1 1 1 1 1 1 1 0.01092267746325651 1 1 1 1 1 1 1 1 1 1 1 1 1 1 1 1 1 1 1 1 1 1 0.010779121049577923 1 1 1 0.025308039340990591 1 1 1 0.01247096862369609 0.0099993424450626287 1 1 1 1 1 1 1 0.020625471492512537 1 1 1 1 0.010570458047986321 1 1 0.012365833038626078 1 1 1 1 1 0.010313427276939223 1 1 0.0090493021198710492 1 1 1 1 0.0099957825630210915 1 1 1 1 1 1 1 1 1 0.011996393930837014 1 1 0.0095420005786749952 0.014483714901709473 1 0.0093878789813404678 1 1 1 0.015484760744478302 0.0075799901263581323 0.0094029211603477332 1 1 0.0077483863044632926 1 1 0.014950388518044623 1 1 1 1 0.010030413343317876 1 1 0.014053093618734606 1 1 1 0.013026380564591572 1 1 1 1 0.010264835728510491 1 1 1 0.0091422334956777832 1 1 1 0.0082996162652200309 1 1 1 1 0.011280452997339881 0.011432782863356588 1 1 1 0.013262750438879398 1 0.0098469655358491871 1 1 1 1 1 1 1 1 0.0098461571648408644 1 1 1 1 1 1 0.0094796657614024168 1 1 1 1 0.013320552699511077 1 1 1 0.010273569202491751 1 1 1 1 1 1 0.01030233631112022 0.013888284778543942 0.014212719010608364 1 0.0097898467609967895 1 1 1 1 1 1 1 1 1 1 1 1 1 1 1 1 1 1 1 1 1 1 1 1 0.028483951821969784 1 1 1 0.0281281393156858 1 1 1 0.011319647202087143 1 1 1 0.010583874714417192 1 1 1 0.010471707834437733 1 1 1 1 1 1 1 1 1 0.010161402322512295 1 1 1 1 1 1 1 1 1 1 1 1 1 1 1 1 1 1 1 1 1 1 1 1 1 1 1 0.011586349179788194 1 1 1 0.011589980732727578 1 1 1 1 0.013381731186244705 1 1 1 1 1 1 0.01920008369354784 1 1 1 0.010491032988870021 1 1 1 1 1 1 1 1 1 1 1 1 1 1 1 1 1 1 1 0.012726493271761067 1 1 1 1 1 1 1 1 1 1 1 1 1 1 1 1 1 1 1 1 1 1 1 1 1 1 1 1 1 1 1 1 1 1 1 1 1 1 1 1 1 1 1 1 1 1 1 1 0.0087942121324238957 1 1 1 1 1 0.019727460670340841 1 1 1 1 1 1 1 1 1 1 0.0080193200085356686 1 1 0.023546634570342145 1 0.012107036792461008 1 1 0.0099967322334249421 1 1 1 1 1 1 1 1 1 1 1 1 1 1 1 1 0.0096863039538091708 1 1 1 1 1 0.009705127432962736 1 1 1 1 1 0.0093910407911337486 1 1 1 1 1 1 1 1 1 0.011174280501551771 0.010097318980666693 1 1 1 0.011343986348062928 1 1 1 1 1 1 0.010252907687939494 0.012615232524617052 1 1 1 1 1 1 0.0097197770110757208 1 1 0.01037448241363436 1 1 1 1 1 1 1 1 0.01040966552269001 1 1 0.01103562017892197 1 1 1 0.011377524226589742 1 1 1 1 1 1 0.012512907685975776 1 1 1 1 1 1 1 1 1 1 1 1 0.010763973150883243 1 1 1 0.01002524005297252 0.01589426256130104 1 1 0.015873164225945442 1 1 1 0.011872452731077301 1 1 1 1 1 1 1 1 1 1 0.010141462700562126 1 1 1 1 0.010411340245938414 0.019643100217889231 1 1 1 1 0.011619235298835703 1 1 1 0.011940971962762035 1 1 1 1 0.011430576143326874 1 1 0.014235995724489036 1 1 1 1 1 0.01926177855611989 1 0.012978205333242577 0.012665658496495783 1 1 0.010176142395078391 1 1 1 1 0.018067653019501591 1 1 1 1 1 0.015828313012288386 0.01117771907392306 1 1 0.010352915568034674 1 0.011407991040203364 0.0099976753450706467 1 1 1 1 1 1 1 0.0243379104299132 1 1 1 1 0.022059561306719037 1 1 1 1 1 1 1 1 1 1 1 1 1 1 1 1 0.0099635364827227266 1 1 1 1 1 1 0.019662458603127441 1 1 1 0.011013704371640827 0.013504098163778112 1 1 0.0098620611961286932 1 0.01872914471491768 1 1 0.026116438342072723 1 1 1 1 1 1 1 0.0099441364863118061 1 1 1 1 1 0.016893885212818857 1 0.020789400737785325 1 1 1 0.018203757372181672 0.019040012027907734 1 1 1 0.010958328010526083 1 1 1 0.012858804374946475 1 1 1 0.012213734449590419 1 1 1 1 1 1 0.013501216901245167 0.009997921714785106 0.010686931022508752 1 1 1 1 1 0.015552438100545211 0.01920279580640917 1 1 1 1 1 1 0.010096552841510996 1 0.020826052082254996 1 1 1 1 1 0.018454175907533728 1 1 1 0.02106836718912319 1 0.010051896859011172 1 1 1 1 1 1 1 1 1 1 1 0.021706820106309282 1 1 1 1 1 0.024410205110594323 1 1 1 1 1 1 0.022484547244669049 1 1 1 0.015635520463149755 1 0.010071031224764306 1 0.0258379673271306 1 0.015961283018575124 1 1 1 0.010132838706174072 0.017806539953621102 1 1 1 1 1 1 1 1 1 1 1 1 1 0.010348071793222032 1 1 1 1 1 1 1 1 0.010540717063102195 1 1 1 1 1 0.010880978864730767 1 1 0.012209688491357999 1 0.010885722799770851 0.010996648312826728 1 1 1 1 1 0.013104123021028752 1 1 1 1 1 1 1 1 1 1 1 1 1 1 1 1 1 1 1 1 1 1 1 1 1 1 1 1 1 1 1 1 1 1 1 1 1 1 1 1 1 0.01179967687382243 1 1 1 1 1 1 1 1 1 1 1 0.010499605946462978 1 1 1 1 0.011191531130288807 1 0.010691925183825831 1 1 0.010638588564749873 1 1 1 1 1 1 1 1 1 1 1 1 1 1 1 1 1 1 1 1 1 1 1 1 1 1 1 1 1 1 1 1 1 1 1 0.0110441910193795 1 1 1 1 1 1 1 1 1 1 1 1 1 0.0098896697859665178 1 0.010121032658733979 1 1 1 1 1 1 0.010021879318216773 1 1 0.010003434559274632 1 1 0.0096339491612863794 1 0.011159399199154978 1 1 1 1 1 1 1 0.010511648098236154 1 0.011602158622738626 1 1 1 0.010370082999723827 1 1 0.010072858471386614 1 1 0.010769229608675568 0.010002229400255323 1 0.010856877776491837 1 0.010944744984762077 1 1 1 1 0.010019322337793356 1 1 1 0.0099778618346854295 0.010022686156170295 1 1 1 0.0099128047144863111 1 1 1 1 1 0.0094465197057651863 1 1 1 1 1 0.0099264003692657015 1 1 1 1 1 1 1 1 1 1 0.010465266331071962 1 1 0.010228315938261706 0.011298983039237102 1 1 0.010767793046189968 0.010912858535768379 1 0.01214659158754116 1 1 1 0.010453032924932611 1 1 1 1 0.0096359758217057605 1 0.010091653478014474 1 1 0.01149962636637087 0.012038501284165622 0.0094904344529339775 1 0.011424757195873804 1 1 0.01126807081912224 1 0.0095416500645940407 1 1 0.010113205768972192 1 1 0.01001007375243616 1 0.011188455903191251 1 1 0.0097826773787276153 1 0.010765772924267211 1 1 1 1 1 0.0098754112551927165 0.011882521453446641 0.011552929836111954 1 1 1 0.0095644158460889417 1 0.011212866237005979 0.0093322111284570922 1 1 0.011222048137708746 1 1 1 0.010581711584168305 1 1 0.0096980420051729996 0.01230402481837474 1 0.010008998804662984 1 0.012761370063588733 1 1 1 0.0098359531199396916 1 1 1 1 1 1 1 0.01026083254067639 1 1 1 1 0.011231766600847744 1 1 1 0.011543918889843727 1 1 1 1 1 0.0099435153597629503 0.0097997031734299508 1 1 1 1 0.0090455844160156063 0.0099615679877073475 1 1 1 1 1 1 1 0.011115342017910229 1 0.010035640655652262 1 1 1 1 0.011345348959964252 1 0.010236721341024983 0.0091201872640506547 1 1 1 1 1 1 0.011647260819643714 1 0.011134048238335678 1 1 1 1 0.010041140457334665 1 0.0096874351266445537 0.011932091775288714 1 1 0.0092894877305431858 1 1 1 1 1 1 1 1 1 1 0.0099993585661830656 1 1 0.011962116642693893 1 1 1 1 0.01023928760668965 1 1 1 1 1 0.011475857842535082 0.010219350460349323 1 1 0.010719812948408985 1 1 1 1 1 1 1 1 1 1 0.010251811998312481 1 1 1 1 1 1 1 1 1 1 1 1 1 1 1 1 1 1 0.01282561806863259 1 1 0.0097067101586874246 1 1 1 1 1 1 0.0099724961675697679 0.0095560045909818328 1 1 1 0.010434943056256696 0.010160788945483995 1 1 1 0.011276580233620333 1 1 1 0.011792041140520983 1 0.01244001718731251 1 1 1 1 0.012532440730662391 0.010007200169582576 1 1 1 1 0.010375362229928471 1 0.0096658468628911982 1 0.01280896609268227 0.011670454902167303 1 1 0.013924999561092024 0.010207877045002832 1 1 1 1 1 1 1 1 1 1 1 1 0.011617950819441111 1 1 0.010757650655286465 1 1 1 1 1 1 1 0.010752550346335273 1 1 1 1 0.011463295817941553 1 1 1 1 1 1 1 1 0.015202829393961524 1 1 0.016137971999018542 0.013532397164061766 1 1 1 1 0.013949726273534968 1 0.01339702346899465 1 1 1 1 1 1 1 1 1 0.011619763046638067 1 1 0.011469686728503218 0.01293279090715402 1 1 1 0.0097655792201966785 1 1 0.01339918559848359 1 1 1 0.0099775534123253615 1 1 1 1 0.013094637470592618 0.010115593412211433 1 1 1 1 0.016591286558204139 1 1 1 1 1 1 1 1 1 1 1 0.010540736084466432 1 1 1 0.014278519176617542 1 0.014241721717663377 1 1 1 0.013208233362612658 1 1 0.011839031112658988 0.01311333819716818 1 1 0.01226520052771702 0.0087741849497712139 0.014595861792344636 1 0.011249279654289032 1 1 0.010735580461192251 1 0.0099996526923516425 1 0.014289768195933431 0.012158165371476314 1 1 1 0.013884536647310021 1 0.010837416780021668 1 0.012119923999289345 1 1 1 1 1 0.012992771889569495 1 1 1 1 1 0.015829931068457335 0.0098128129724739006 1 1 1 1 1 0.012161974412897965 1 1 1 1 1 0.0099890616127660623 1 1 1 1 1 1 1 1 1 0.016950669162865244 1 1 1 0.014294302335201365 0.010289375276233215 0.014825235495467505 1 1 1 0.010180294569069727 1 0.013657097609032007 1 1 1 1 0.01013238062709601 1 1 1 1 1 1 1 1 1 1 1 1 1 1 1 1 0.010728898981334216 1 1 1 1 1 1 1 1 1 1 1 0.016197407718507729 0.012069888728321404 1 1 0.011735699394175785 1 1 1 0.010544120375133116 1 1 1 1 1 1 1 1 1 1 1 1 1 1 0.013064256894902183 0.010194514692451112 1 1 1 1 1 0.012406196207272317 1 1 1 1 1 1 1 1 1 0.018164145483915664 1 1 1 0.016296272167260976 1 1 1 1 1 1 1 0.014247574053922803 0.013185778790805056 1 1 1 1 1 1 1 1 1 1 1 1 1 1 1 1 1 1 1 1 1 1 1 1 1 1 1 1 1 1 1 1 0.0092540647293052683 1 1 1 1 1 1 1 1 0.0099106705760621597 1 0.0077280618168956636 1 0.019740272193423322 1 1 0.014016980883996652 1 1 0.014349863133011863 1 0.011406918553495453 0.016003221323381049 1 1 1 0.0099919179695015584 0.010720037168958113 1 1 1 1 1 1 1 1 1 1 1 1 1 1 1 1 1 1 1 0.010221267648465697 1 1 1 1 1 1 1 0.0098556241197317804 1 1 1 1 1 1 1 1 0.009076327542617578 1 1 1 0.013686665418983522 0.0080282794818870504 1 0.0099412647109181351 1 1 1 1 1 1 1 1 1 1 1 0.011304506366195729 1 1 1 1 1 1 1 1 1 1 1 1 1 1 0.010548987204542941 1 1 1 1 1 1 0.010287417541488889 1 1 1 1 1 1 1 1 1 1 0.009986191678778393 1 1 1 1 1 1 1 1 1 1 0.0099941974052181262 1 0.010008100314264266 1 1 1 1 1 1 1 1 1 1 1 1 1 1 0.0098642863816314139 1 1 1 1 1 1 1 1 1 1 1 1 1 1 1 0.011159247258575922 1 1 1 0.011277630220624035 1 1 1 1 1 1 1 1 1 0.011139837632005899 1 1 0.010001258919180377 1 0.011369798825672173 1 1 1 0.0099972444608729463 1 1 1 1 1 0.010546084007384139 1 1 1 1 1 1 1 0.010000285411094118 1 1 0.010851308187152159 1 1 1 1 1 1 0.01064866561736446 1 1 0.011146233917396504 1 1 1 0.01000147019277349 1 1 1 1 1 1 0.01028966598701677 1 1 1 1 1 1 1 1 1 1 1 1 1 1 1 1 1 1 0.010889434492995453 1 0.0099520919778316383 1 1 0.010210242101522401 1 1 1 1 1 1 1 1 1 1 1 1 1 1 0.00987953568207851 1 1 0.010261569663054061 1 1 1 1 0.0098469914980710647 1 1 1 1 1 1 0.01067277304983583 1 1 1 0.012319020836321921 1 1 0.012429467245808734 1 1 1 0.011178876700627933 1 0.010025866313746259 0.010722690346525536 1 1 1 0.011775301724964243 1 1 1 0.010768587401769329 0.010433234934851396 1 1 0.011181631819221691 0.010978160701029589 1 1 1 1 0.010614960449547966 0.0099813172527692604 1 1 1 1 1 0.01002591458161823 0.011441890247724084 1 0.010846642258494653 1 1 0.011487419700384208 1 1 1 1 1 1 1 0.012448954460703994 0.012968756804280841 1 1 1 1 1 1 1 1 1 1 1 1 1 1 1 1 1 1 1 0.010081794141895729 1 1 1 1 1 0.0099294845792963285 1 1 1 1 0.010537418523711768 1 1 1 1 1 1 0.010375510369033211 1 1 1 1 1 1 1 0.0099960757924444643 1 1 1 1 1 0.011213806707665828 1 0.01146498229843422 0.0097837908982983911 1 1 0.011061749905838275 1 0.013224377181701795 1 0.012584964009296006 1 0.0095429037686294363 1 1 1 1 1 1 1 1 0.010031578191097576 1 1 1 0.0095144966777119117 1 1 1 1 1 1 1 1 1 1 1 1 1 1 1 1 1 1 1 1 1 1 1 1 1 0.013214461624173536 1 1 1 1 1 1 1 1 1 0.011154577759923304 1 0.0099674558159925323 1 1 1 1 1 1 1 1 1 1 1 1 0.012768630712636356 1 1 0.013452687226975395 1 1 1 0.012747972492792824 1 1 1 0.011066031019007751 1 1 1 1 0.013061884021106402 1 1 0.011316937916117381 1 1 1 1 1 1 1 1 1 1 1 1 1 1 1 1 0.02200459451781963 1 1 1 1 1 1 1 1 0.0096828368165223361 1 1 1 0.0098016496640873918 1 1 1 1 1 1 1 1 1 1 1 1 1 1 1 1 1 1 1 1 1 1 1 1 1 0.013910358777044681 1 0.01078300316103745 1 1 1 1 0.016776343958003908 1 1 0.009403078460055175 1 1 1 1 1 1 1 1 1 1 1 1 0.013081049836269017 1 1 1 0.01327846358762874 1 0.010220882190973758 1 1 1 1 1 1 1 0.017382356134497533 1 0.0094696383465909823 1 1 0.020583976044152352 1 1 1 1 1 1 1 1 1 1 1 0.009706026205985905 1 1 1 1 0.0098272631593933468 1 1 1 1 1 1 1 1 1 1 1 1 1 1 0.014944213248602102 1 1 1 1 1 1 1 1 1 1 1 1 1 1 1 1 1 1 1 1 1 1 1 1 1 1 1 1 0.010346583813781035 1 1 0.017120126360443057 0.011010145822068135 1 1 1 1 1 1 0.0099982271152838711 1 1 1 1 1 1 1 1 1 1 1 1 1 1 1 1 1 1 1 1 1 1 1 1 1 1 1 1 1 1 1 1 1 1 1 1 1 1 1 1 1 1 1 1 1 1 1 1 1 1 1 1 1 1 1 1 1 1 1 1 1 1 1 1 1 0.0099286302966561935 1 1 1 1 1 1 1 1 1 1 1 1 1 1 1 1 1 0.0099558885279044228 1 1 1 1 0.0098387409238329063 1 1 1 1 1 0.0099945745225588078 1 1 0.011227035518137167 1 0.018920896680296104 0.013129785201081257 1 0.0066536148699547666 0.013695950132040204 1 0.011311939775670467 1 1 1 1 1 0.010001371825808493 1 0.011170143731018286 1 1 1 1 1 1 1 0.010887984657452854 0.0096544225997834132 1 0.0098923325053109981 1 1 1 1 1 1 1 1 1 1 1 1 1 1 1 1 1 1 1 1 1 1 1 1 1 0.013001451929018262 1 1 1 0.012665264475541463 1 1 1 1 1 1 1 1 1 1 0.012048724507343671 1 1 1 0.010433788085565651 1 1 0.010947260634287345 1 1 1 1 1 1 1 0.010333076400751338 1 1 1 1 0.0094382266885577638 1 1 0.0099635655251772287 1 1 1 1 1 1 1 1 1 1 1 0.010690575701459979 1 1 1 1 1 1 1 1 1 1 1 1 0.010344527673338207 1 1 1 1 1 1 1 1 1 1 1 1 1 1 1 1 0.0085563419712510243 1 1 1 0.016386965296797278 1 1 1 1 1 1 1 1 1 1 1 1 1 1 1 0.012366962224603338 0.010190258138259526 1 1 1 1 1 1 1 1 1 0.010702145593811725 1 0.011465627801615856 1 1 1 1 1 1 0.010577570739256409 1 1 1 1 1 1 1 1 0.010888738917829356 0.010803158598947413 1 1 1 1 1 1 1 1 1 1 1 1 1 0.012127453073458645 1 1 1 1 1 1 0.011384023692233375 1 1 1 1 0.011758475695055653 1 1 1 1 1 1 1 1 1 1 1 1 1 1 1 1 1 1 1 0.012469394187810772 1 1 0.009867520188243023 1 1 0.0099917073081768892 1 1 1 1 0.013611943494180927 1 1 1 1 1 1 1 1 0.013418100547451427 1 1 0.01019490797173541 1 1 1 1 1 1 1 0.016896307384305968 1 1 1 1 0.017641271748896691 1 1 0.01034727210842357 1 1 1 0.020809864664091793 1 1 1 1 0.02343898311301755 1 1 1 1 1 1 0.011628008253799362 1 0.014752276886351692 1 1 1 1 1 0.014887637369100462 0.021635544143687888 1 1 1 1 0.017677549118789986 1 1 0.021535521941054941 1 1 1 1 1 1 1 1 1 1 1 0.017619218008009845 1 1 1 1 1 1 1 1 1 1 0.017190564917800345 1 1 1 1 1 1 1 1 1 1 1 1 1 1 1 1 1 1 1 1 1 1 1 1 1 1 1 1 1 1 0.012292977692115932 1 0.011099885962264024 0.031430429446188124 1 0.009108332516092818 1 1 1 1 1 0.015529587826207112 1 1 1 0.024922846134122253 1 1 1 1 1 0.014846500328471891 1 1 1 1 0.010222046865033422 1 0.010496204976202244 1 0.022631362254269802 1 1 1 1 1 1 1 1 1 1 0.010085055926933602 1 0.010337999960417539 1 1 1 0.024651199702692229 1 0.018141392035819472 1 1 1 1 0.010068823117055158 0.015878893174099053 0.016162121577998428 1 1 1 1 1 1 1 1 1 1 1 0.013871450274827736 1 1 0.014757560698700753 0.010690053494227832 1 1 1 1 0.0099710587725553509 1 1 1 1 1 1 1 1 1 1 1 1 1 1 0.016095432797652787 1 1 1 1 1 1 1 1 1 1 1 1 1 1 0.010735778554817995 1 1 1 1 1 1 0.013146530598494147 1 1 1 0.01003110505424267 0.012822553052057142 1 0.011996745328943589 1 1 0.018910926714259646 1 1 0.014734993867004676 0.0086947518884161034 1 1 1 0.015053224715644777 1 1 0.010033003654621897 1 1 1 1 1 1 1 1 0.017883136005921875 1 0.01370584813982214 1 1 1 0.016746079325418051 1 0.011899460441569941 0.014194794872516842 1 1 0.011456398630534497 1 1 1 1 1 1 1 1 1 1 1 0.013038129066730887 1 1 1 1 1 1 1 1 1 1 1 1 0.013225608961957921 1 0.013911199580937861 1 0.012716254590815122 1 1 1 1 1 1 1 1 1 1 1 1 1 1 1 1 1 0.011290120241674351 1 1 1 1 1 1 1 1 0.0092276740203666892 1 1 1 1 1 1 1 1 1 1 1 1 1 1 1 1 0.014898943641919144 1 1 1 1 0.011915997083277431 1 1 1 1 1 1 1 1 1 1 0.010597564274066256 1 1 1 1 1 1 0.0099657277085391828 1 1 1 1 1 1 1 1 1 1 1 1 1 1 1 0.01902286027813754 1 1 1 1 1 1 1 1 0.011801142604666123 1 1 0.015677075534421367 1 1 0.010045580302136347 1 0.022314838618533391 0.0116617361838844 1 0.021639715002044209 0.016647446414465972 1 1 0.018680400519316343 1 1 1 1 1 1 1 1 1 1 1 0.017320571204903035 1 1 0.023217349114401892 1 1 1 1 1 1 1 1 1 1 1 1 1 1 0.030515122651040165 1 1 1 1 1 1 1 1 1 0.028621727789974731 1 1 1 1 0.027290150284988601 1 1 1 1 1 0.010221956708881704 1 1 1 0.01240534856735822 1 0.012847237122763418 1 0.017297600623421502 1 0.016378359575839566 1 1 1 0.011843788545098505 1 1 1 1 0.021264438861490712 1 0.016058454537498393 1 0.019308387240406184 1 0.0091901400965994189 1 0.011565390833410988 1 1 1 0.016064481788997092 0.024583849884242497 1 1 0.010005830781911388 0.034035303120805001 1 1 1 1 1 0.031093080284939126 1 1 1 0.0085566214859015208 1 1 0.018617685106514688 1 1 1 0.013337569473945803 1 1 1 1 0.02471809799722792 0.011818596870893545 1 1 0.0096704238338630698 1 1 1 0.012205587297897478 1 1 1 1 1 1 0.010827095389437696 1 1 0.0098388701681877549 1 0.010470410200491295 1 0.0098535952060034189 1 1 1 1 1 1 1 1 1 1 1 0.010629934170029068 1 1 1 0.018877911172780787 1 1 1 0.016730456008141568 1 1 1 1 1 1 1 1 1 1 1 1 1 1 1 1 1 1 0.02059239204880927 1 0.0098584551949643055 1 0.0098422937746233362 1 0.011670375185678051 1 1 1 1 1 0.0094147155925859427 1 1 1 1 1 1 0.011614140580837443 1 0.0080956613709257177 1 1 0.0090325267481946164 1 1 1 0.016362380597561739 1 1 1 1 1 1 1 1 1 1 1 1 1 1 1 1 1 1 1 0.025193591242157455 1 0.012158201013508544 1 1 1 1 0.0089074243158724521 1 1 1 0.006678335824155902 1 1 1 1 1 1 1 1 1 0.025603092694078105 1 0.0093707373416983802 1 1 0.0048961624301988686 1 1 1 1 1 0.0080841481123073416 1 0.017889683155040269 0.011645628563645059 1 1 1 0.0099927368183398337 0.0095537387328380081 1 0.0097942022977478647 1 1 0.012095257729458802 1 1 1 1 0.010084317957642173 1 1 1 1 1 1 1 1 1 1 0.011211847020259406 1 1 1 1 1 1 1 1 1 1 1 1 0.015057604623974791 1 1 1 1 1 0.010018053549139844 1 1 1 1 0.010251344748562029 1 0.013401981667333997 1 1 0.0067021157196650184 1 1 1 1 0.015716511020743989 1 1 1 1 1 1 1 1 1 1 1 1 0.014144317466098174 1 0.017074777677676112 1 1 1 1 0.016376289501387246 1 1 1 0.015641037345877708 1 0.024020417268374221 1 0.009933696046566836 1 1 1 1 1 0.032968562943792343 1 1 1 1 1 1 1 0.023945100286938994 1 1 1 0.024650600304993026 1 1 1 1 0.020228223225185034 1 1 1 0.018141321767513308 1 1 1 1 1 1 1 0.020833526303600726 1 0.020583146535454767 1 1 1 1 1 1 1 1 1 1 1 0.02058391957899175 1 0.010047505985069627 1 1 0.016291531601843455 1 1 1 0.0123316429161921 1 1 1 1 1 1 1 1 1 1 1 1 1 1 1 1 1 1 1 1 1 1 1 1 1 1 1 1 1 1 1 1 1 1 1 1 1 1 1 1 1 1 1 1 1 1 1 0.010046623213144415 1 1 1 1 1 1 1 1 1 1 1 1 1 1 0.015269834705193035 1 1 1 1 1 1 1 1 1 1 1 1 1 1 1 1 1 1 1 1 1 1 1 1 1 1 1 1 0.011927616155382124 1 1 0.01070923892001242 1 1 1 1 1 1 1 1 1 1 0.010705994075697025 0.026544034278324441 1 0.015736796181376005 1 1 1 1 0.010014254619933922 0.022757532945421415 1 0.015565452564553228 1 1 1 0.010092980373735697 1 1 0.019264685893481268 1 1 1 1 1 1 1 1 1 1 0.018692043421364282 1 1 1 1 1 0.015017645243210684 1 0.016598828496312331 1 1 1 0.013208465236384173 1 0.01243710991529258 1 1 1 1 1 1 0.0092853375327951702 1 0.0079381557851569418 1 1 1 1 1 1 1 1 1 0.010831415622394669 1 1 1 1 1 1 1 1 1 1 1 1 1 1 0.020380182450314543 1 1 1 0.019204256566445234 1 1 1 1 1 0.021054413613351537 1 1 1 1 1 1 1 1 1 0.010673384004832854 1 1 1 1 0.011491612916708395 1 1 1 1 1 1 1 1 1 1 1 1 1 1 1 1 1 1 1 1 1 1 1 1 1 1 1 0.010435723044089606 1 1 1 1 1 1 1 1 1 1 1 1 1 1 1 1 1 1 1 1 1 1 1 1 1 1 1 1 1 1 1 1 1 1 1 1 1 1 1 1 1 1 1 0.011109272862447141 1 1 1 1 1 1 1 1 1 1 1 1 1 1 1 1 1 1 1 1 1 1 1 1 1 1 1 1 1 1 1 1 1 1 1 1 1 1 1 1 1 0.020907771039091545 1 1 1 1 1 1 1 1 1 1 1 1 1 1 0.01363862877278342 1 1 1 1 0.017382976174759646 1 1 1 1 1 0.012509042152954602 1 1 1 1 1 1 1 0.026862942154330001 1 1 1 1 1 1 0.020900420461368658 1 1 1 1 1 1 1 1 1 1 1 1 1 1 1 0.0076995335626988005 1 1 1 1 0.0092101675248214276 1 1 1 1 1 1 1 1 1 1 1 1 1 1 0.020498121523251311 1 0.01634522039347152 1 1 1 0.021250384934258536 0.012088046892799039 1 1 1 1 1 1 0.0097993795429205909 1 0.011010873584276267 1 1 1 1 1 1 1 1 1 1 1 1 1 1 1 1 0.010445033312467635 1 1 1 1 1 0.010846639081167271 1 1 0.0099821646511446729 1 1 1 1 1 0.011373533213332693 1 1 0.0085830434473221709 0.01854919564243418 1 1 1 1 1 1 1 1 0.010104264866558845 1 1 1 0.0099918853560577378 0.015941531685869294 0.011712175501371729 1 0.012410806193337821 1 1 1 1 1 1 0.011716984074062825 1 0.011007650060168454 1 1 0.010304906530656993 1 1 1 1 1 1 1 1 0.010003190327207279 1 0.010010456694459649 1 1 1 0.011088649003743435 1 1 1 0.010430336852726693 1 1 1 1 0.010328293956156932 1 1 1 0.01080163420892457 1 1 1 1 1 1 1 1 1 1 1 1 1 1 0.0097227695263348152 1 0.01118072881950706 1 1 1 1 1 1 0.010054110892190909 1 0.0093657911718328223 1 0.0080200723388852424 1 1 1 1 1 1 1 1 1 1 1 1 1 1 1 1 1 1 1 1 1 1 1 1 1 0.012611564509249308 1 1 1 1 1 0.016535213514904688 1 1 1 1 0.018837961543069291 1 1 0.0080513651101284042 1 1 1 1 0.012340305896120301 1 1 0.011250447577182535 1 0.011019705089014592 1 1 1 1 0.010097897516673705 1 0.017527051381227218 1 1 1 1 1 1 1 0.01627588533574207 1 0.011479482130309485 1 1 0.012605687450804266 0.010153629467818844 1 1 0.015554393340236103 0.0091353418553750398 1 1 1 0.0094207608848467066 1 1 0.010355428081168714 1 0.013622848250114554 1 1 1 1 1 1 1 1 1 1 1 1 1 0.011338905423068979 0.0099902073184869218 1 1 1 1 1 1 1 1 1 1 1 1 1 1 1 1 1 1 1 1 1 1 1 1 1 1 1 1 1 1 1 1 0.011121946713014585 1 1 1 0.011629202533054656 1 1 0.014746115292415355 1 0.011003670067135669 0.013371006495633537 1 1 0.0092111757302904898 0.010005301809956103 1 1 1 1 1 1 0.014280934184323801 0.0099972037251229769 1 0.0093494953717562675 1 1 1 0.012241150110432565 1 1 0.010292953123910875 1 1 1 1 1 1 1 1 1 1 1 1 1 1 1 1 1 1 1 1 1 1 1 1 1 1 1 1 1 1 1 1 1 1 1 0.010107152322118874 1 0.013876047636761321 1 0.016078442526435754 1 1 0.017982967528314527 1 1 1 1 1 1 1 1 1 1 1 1 1 1 1 1 1 0.019639361477248152 1 1 1 1 1 1 1 1 1 0.015117023680134917 1 1 1 1 1 1 1 0.010063179905599746 1 1 0.010416594426262336 1 1 1 1 1 1 1 1 1 1 0.01021350309753254 1 1 1 1 1 1 1 1 1 1 1 1 1 0.013213524405055946 1 1 0.010037368939281997 1 1 1 1 1 1 1 1 1 1 0.014161420186081217 1 1 1 1 1 1 1 1 1 1 1 1 1 1 1 1 1 0.01210795523709054 1 1 1 1 1 1 1 1 1 1 1 1 0.010319998904555575 1 1 1 1 1 1 1 0.021240024763054175 1 0.02112636070746203 1 1 1 1 1 1 1 0.020774881566139873 1 1 0.010652433794135769 1 1 1 1 1 0.010332434889580192 1 1 1 1 1 0.020086373472278936 1 1 1 1 1 1 1 1 1 1 1 1 1 1 1 1 1 1 1 1 1 1 1 1 1 1 1 1 1 1 0.010090712308542887 0.010757249766881626 1 1 1 1 1 1 1 0.010121138649872682 1 1 1 1 1 1 1 1 1 0.009954530424181901 1 1 0.010846875373412862 1 1 1 1 1 1 0.010297876053047793 1 0.018553259519081211 1 1 1 1 1 1 1 1 0.009076269398341363 1 0.018092775381775519 1 1 1 1 1 1 0.009806449676885709 1 1 1 1 1 1 1 0.012568020259878805 1 1 1 1 1 1 1 1 0.01147588566404148 1 1 1 1 1 1 1 1 0.010749113780468184 1 1 1 0.012050298973222535 1 1 1 1 0.011092134595837348 1 1 1 0.016645818093743561 0.016165677673174318 1 1 1 1 1 0.01009371646674447 0.020803532075756963 1 1 1 0.010002578409506101 0.010081780079117968 1 1 1 1 0.011351052736629667 1 0.017235648705258934 1 0.0070244840451266517 1 1 1 1 1 1 1 1 1 1 1 1 1 1 0.010005429346366787 1 1 1 1 1 1 1 1 1 1 0.0098426949298047895 1 1 0.016159454812823743 0.0090808304245198947 0.017473788053396631 1 1 1 1 0.017652529956992659 1 1 1 1 1 0.01001658217989199 1 1 1 1 1 1 1 1 1 1 1 0.010024854911281175 1 1 1 0.011397787024693032 0.011133901357843305 1 1 1 1 1 1 1 0.012926949719042888 1 1 0.011581044530417015 1 0.011531569991807371 1 1 1 1 0.0099343861018601851 1 1 1 0.011482495095165048 1 1 0.010283506698586131 1 0.016577559342568257 1 1 1 1 1 1 1 1 1 1 1 1 1 1 1 1 0.0098716736429297607 1 1 1 1 1 1 1 1 1 1 1 1 0.010498907092688116 1 0.016812487013951355 1 1 1 1 1 0.013222132544726838 1 1 1 1 1 1 1 1 1 1 1 0.010033739607177655 1 0.012282074714269661 1 1 0.017503757133468294 1 1 1 1 1 0.010261209635046091 1 1 1 1 1 1 1 1 1 1 0.010126391234452027 1 1 1 1 1 1 1 1 1 1 1 1 1 0.0099736155881903227 1 1 1 0.009909374790729418 1 1 1 1 1 0.0098813671458033228 1 1 1 1 1 1 0.011780810552599726 1 0.013809517680949318 0.012251934130372986 0.0082327576472517941 1 1 1 1 1 0.01071356173429739 1 1 1 1 1 1 0.011351144667816181 1 0.010715948703929896 0.011048354343525163 1 1 0.011628058836111874 0.012437695376201707 1 0.0099483120274622763 1 1 0.0097302742852606663 1 1 1 1 1 1 1 1 1 1 1 1 1 1 1 1 1 1 1 1 0.011550654343173955 1 1 1 1 1 1 1 1 1 1 1 1 1 1 1 1 1 1 1 1 0.010159532577241913 1 1 1 1 1 0.034949335753455921 1 1 1 1 1 1 1 0.012138242494140901 1 1 0.010414687786684702 1 1 1 1 1 1 1 1 1 1 1 1 1 1 1 1 1 0.01037947179557324 1 1 1 1 0.02593548945042734 1 1 0.013397600771555329 1 0.015454437122889806 1 1 1 1 1 1 1 1 1 1 1 1 1 0.035571224539176036 1 1 1 1 1 1 1 1 0.035485641689665198 1 1 1 1 0.017686346079164805 1 1 1 1 1 1 1 0.019112858667399372 1 1 1 1 1 1 1 1 1 1 1 1 1 1 1 1 1 0.011045022902662254 1 1 1 1 1 0.012538932060220345 1 1 1 1 1 1 0.010232222441065487 1 1 1 0.013339790070493528 1 1 1 1 1 0.014020719161406032 0.0099936758618642194 1 1 1 1 0.011222777859500975 1 0.012131037918966569 1 0.010013837727564102 1 1 1 1 1 1 1 1 1 1 1 1 0.010701524407852662 0.017604812388532155 1 0.018341471333993015 1 1 1 1 1 1 1 1 1 1 1 1 1 1 1 1 1 1 1 1 1 1 0.010161316479364852 1 1 1 1 1 1 1 0.01100045143417875 1 0.010372042992392111 1 1 0.016511506714801293 0.012771507889836282 1 1 1 1 0.011364521133120982 1 1 1 1 1 1 0.011145463840312144 1 1 1 1 1 1 0.011979766565246399 1 1 1 1 1 0.010162481971240186 1 1 1 1 1 1 1 0.0099389318896846001 0.010250835850831173 1 1 1 1 1 1 1 1 0.0099109962591459183 1 0.0099424441298709976 1 1 0.01142853576173198 0.012548801581194313 0.011984325933499561 1 1 1 1 1 1 1 0.010641891800380741 1 0.011587775222493754 1 0.011584565659639872 0.010956259443868873 1 0.0098779480413682449 0.011255062196145233 1 1 1 0.011134565655813326 0.011999375835809966 1 1 1 1 1 0.011482829624874631 1 0.011175144585869747 0.010920991045486458 0.011066064085321464 1 1 1 1 0.014139678379946344 1 0.014257817725999551 1 1 1 1 1 0.01691724528688128 0.0098702360298048211 1 1 1 1 1 0.011087397070633914 1 1 1 1 1 0.012605063505459271 1 1 1 1 1 1 1 1 0.0090603932354347688 0.012516724113290174 1 0.014047315933530598 1 1 0.01002571351915901 1 1 1 0.011143218098333288 0.012623151264447748 0.010319887707329476 1 0.010942344056706582 1 0.01261636962381029 0.013940283044142805 1 1 0.0088903416446445508 1 1 1 1 1 1 1 1 1 1 1 1 1 0.016366061178385412 0.014007458549182082 1 0.011008204732666936 1 0.0099957832895529695 1 1 1 1 0.0099713694686640389 0.020883129816247313 1 1 1 1 0.023625558945394913 1 1 1 1 1 1 1 1 1 1 1 1 1 0.01412012910073647 1 1 0.01086853186072461 1 1 1 1 1 1 1 1 1 1 1 1 1 1 1 1 1 1 1 0.013793760901446211 1 1 1 0.012216223719611279 1 1 1 0.011351854196014276 1 1 0.012000938501052057 1 0.013650613810346164 1 0.0099226647068589927 1 1 1 1 1 1 1 1 1 1 1 0.012720164684736975 1 1 1 1 0.011314871013069988 1 1 0.010823200149531975 1 1 1 1 1 1 0.016311459267239356 1 1 0.01524817540740888 1 1 1 1 1 1 0.0093621034598217814 1 1 0.0073161960956017805 1 1 0.010015600814052263 1 1 0.011991868150980363 1 1 1 1 1 1 0.010000511380049315 1 1 1 1 0.0099844193751083624 1 1 1 0.010657961731611008 1 1 1 1 1 1 1 1 1 1 1 1 1 0.010690654106650425 1 1 1 0.010654928971810949 0.010066821016824622 1 1 0.010780547093074258 1 1 0.0100110267559438 0.0099960009786928816 1 1 1 1 1 1 0.021510219274026889 1 1 0.010221916523166509 1 1 1 1 1 1 1 1 0.0099194456314089744 1 1 0.0097748079044727917 0.020241293003235936 1 1 1 1 0.017568170324956365 1 1 1 1 0.01049690980846698 1 1 1 1 1 1 1 1 1 1 1 1 1 1 1 1 1 1 1 1 1 1 1 1 1 1 1 0.013320497636873487 1 1 1 0.011391496605067025 1 1 1 1 1 0.011368672404624807 1 1 1 1 1 1 1 1 1 1 1 1 1 1 1 0.01118109582172735 0.010590686201277868 1 1 1 1 1 1 1 1 1 1 1 1 0.011439873587691144 0.0078783062096039295 1 1 0.0095494550164054153 1 1 1 0.0099506919092538643 1 1 1 1 1 1 1 1 1 1 1 1 1 1 1 1 1 1 1 1 1 1 1 1 1 0.011482791626842688 1 1 1 1 1 1 1 1 1 1 1 1 1 0.011167844047564919 1 1 1 1 1 1 1 1 1 1 1 1 1 0.010559096930811258 1 1 1 1 1 1 1 1 1 1 1 1 1 1 1 1 1 1 1 0.01059602871321373 1 1 1 1 1 1 1 1 0.010184683968814601 1 1 1 0.0096911748056028833 1 1 1 1 1 1 1 1 1 1 1 1 1 1 1 1 1 1 1 1 1 1 1 1 1 0.0083048539346868427 1 1 1 0.0090672661735909706 1 1 1 1 1 1 1 1 1 1 1 1 0.010081089473669369 1 1 1 1 1 0.013237547889039936 1 1 0.010489497343088895 1 1 0.011290098855319012 1 0.010760138610622645 1 1 1 0.013054144968728084 1 1 1 0.015104111914637558 1 1 1 1 0.011145183536872865 1 1 1 1 1 1 1 0.010095366233997224 0.011799807122594062 1 1 1 0.0099951098184556386 1 1 1 0.017562008988141399 1 1 1 1 1 1 1 1 1 0.010234752016007671 1 1 1 1 1 1 1 1 0.011048704779108142 1 1 1 1 1 1 1 1 1 1 0.01060320979639391 1 0.011465162265967218 1 1 1 1 1 0.010074123895338433 0.01020116101620599 1 1 1 1 1 1 1 0.01179884439360337 1 1 1 1 1 1 1 1 1 0.010818228911875543 1 1 1 1 1 1 1 1 1 0.010626107630062259 1 1 1 0.010249227306786044 1 1 1 0.010842733942230124 1 0.0099873166682925129 1 1 1 1 1 1 1 1 1 1 1 1 1 1 1 1 1 1 1 1 1 1 1 1 1 1 1 1 1 1 1 1 1 1 1 1 1 1 1 1 1 1 0.018812080818807753 1 1 1 1 1 1 1 1 1 1 1 0.010343386437549692 1 1 1 1 1 1 1 1 1 1 1 1 1 1 1 1 1 1 1 1 1 1 1 1 1 1 1 1 1 1 1 1 1 1 1 1 1 1 1 1 1 1 1 1 1 1 1 1 1 1 1 1 1 1 1 1 1 1 1 1 1 1 1 1 1 1 0.010400969541652913 0.0075620800771569359 1 1 1 1 1 0.011130911465670744 1 0.019161983966740473 1 1 0.0099724429817548976 1 1 1 1 1 1 1 1 1 1 0.0073079990181718762 1 1 1 1 1 1 1 1 1 1 1 1 1 1 1 1 1 1 1 1 1 1 1 1 1 1 1 1 1 0.010615868267718291 1 1 0.011982540259225754 1 1 1 1 1 1 1 1 1 1 1 1 1 0.0095015586579713564 1 1 1 1 1 0.018490069099548527 1 1 1 1 0.016139877639804713 1 1 1 0.011841203403348733 1 1 1 0.013916398399116651 1 1 1 1 1 1 1 0.014056075912679711 1 1 0.011737834909424904 1 1 1 1 1 1 1 1 1 1 1 0.012450384419227238 1 1 1 1 1 1 1 0.01232295225546861 1 1 1 1 1 1 1 1 1 1 1 1 1 1 1 1 1 1 1 1 1 1 0.0060922844729852091 1 1 1 0.010036749764777813 1 1 1 1 0.010013037791828085 1 1 1 1 1 1 1 1 0.0096617959118462712 0.009606931626018304 1 1 1 1 1 1 1 1 1 1 1 1 1 1 1 1 1 1 1 1 1 1 1 1 1 1 1 1 1 1 0.0090943763317403968 0.015189624771284412 1 1 1 1 1 1 0.009892985892355927 0.0069877383212300611 1 1 1 1 1 1 1 1 1 1 1 1 1 1 1 1 0.0099707036762092405 1 0.012249926073019807 1 0.010550524961867921 1 0.0047084167060540312 0.010397072920227717 1 1 0.0090771393653231048 1 1 1 1 1 1 1 1 1 1 1 1 1 1 1 0.011031162484386108 0.014559563292478648 0.010842853733112355 1 1 1 0.017346627439240668 1 1 1 1 1 1 1 1 0.010329707420871057 0.016541857538068843 1 1 1 1 1 1 1 1 1 0.010010464157909372 1 0.011794298345916615 0.0035873618896839214 1 1 1 1 1 0.010691312885404147 1 1 1 1 1 1 1 1 1 1 1 0.012943801596381223 1 1 1 1 1 1 1 1 0.009661123783007276 1 1 1 1 1 1 1 1 1 1 1 1 1 1 1 1 1 1 0.0076541193054493559 1 1 1 1 1 1 1 1 1 1 0.0087973431764314988 1 0.016680362728571874 1 1 1 1 1 1 1 1 1 1 1 0.011640182867455542 1 1 0.0094964437307953238 1 1 1 1 1 1 1 0.0061017240030943731 1 1 1 0.0098741409934124183 1 1 1 1 1 1 1 1 1 0.024246336759557372 1 1 1 1 1 0.010774247509669847 0.023501885335992435 1 6.9388939039072284e-18 0.019057770280343819 1 1 1 1 1 1 1 1 1 0.003752150735893839 1 1 0.0099947918049253168 1 1 1 1 1 1 1 1 1 1 1 1 1 1 1 1 1 1 1 1 0.015908799675455793 1 1 0.025072402124747976 1 1 1 1 1 0.012089822437350727 1 1 1 1 1 1 1 1 1 1 1 1 1 1 1 1 0.010635966373083819 1 1 1 1 1 1 1 1 1 1 1 1 1 1 1 0.025909345622262606 1 1 1 1 1 1 1 1 0.026316449686739223 1 1 1 1 0.010008636720397146 0.014191385615782131 1 0.0069563205080419221 1 1 1 1 1 0.0077461335064248505 1 1 1 1 1 1 1 1 1 0.0056430751836118349 1 1 1 1 1 1 1 1 1 1 1 1 1 1 1 1 1 1 1 1 1 1 1 1 1 1 1 1 1 1 1 1 1 1 1 1 1 1 1 1 1 1 1 1 1 1 1 1 1 1 1 1 1 0.015911903138789981 1 1 1 1 1 1 1 1 1 1 1 1 1 1 1 1 1 1 1 1 1 1 1 1 1 0.0100758723273648 0.021084801961991747 1 1 1 1 0.022167249315731836 1 1 1 0.0099484502429488895 1 1 1 1 0.010126311910242977 1 1 1 1 1 1 1 1 0.0035864735240298921 1 1 1 1 1 0.023011198611876667 1 1 1 1 1 1 1 0.011656344885458182 1 0.010019372221553267 1 1 0.017703529751685577 1 1 1 1 1 1 1 1 1 0.011038560565561248 1 1 0.021324668506299764 1 1 0.016507064444334214 0.013183311424660289 1 1 1 1 1 1 1 1 1 1 1 1 1 1 1 1 1 0.023865259197716746 1 1 1 1 1 1 1 1 1 1 0.0032225929608573779 1 1 1 1 0.025306706100928944 1 1 1 1 1 1 1 1 0.0070278763351836939 1 1 1 1 1 0.010780982140310164 1 1 1 1 0.016841110781941636 1 1 1 1 1 1 0.010124083947963341 1 1 0.017052010440532402 1 1 1 0.010417646267178872 1 1 1 1 1 1 1 1 1 1 0.010166730381902078 0.015189753225173481 1 1 1 1 1 1 1 1 1 1 1 1 1 1 1 0.0095302924701146114 1 1 0.0095651613738530761 1 1 1 1 1 1 1 0.010047687775528499 1 1 1 1 0.010199414475438382 1 1 1 0.01034842989084914 1 1 1 1 1 1 1 0.022030725511841737 1 1 1 0.014462121354242156 1 1 0.0124759659726724 1 1 1 1 1 0.010130349560549586 0.0094135314919391623 1 1 1 1 1 1 0.011089177721270573 1 1 1 1 1 1 1 0.0098074148980532884 1 1 1 1 1 0.01076837842115037 1 1 1 1 1 0.0099339524128659856 1 1 1 0.010546042587133632 1 1 1 1 1 1 1 1 1 1 1 1 1 1 1 1 1 0.010265215520330925 1 1 1 1 1 1 1 1 1 1 1 1 0.011748958818280334 1 1 1 0.0098353748795332405 1 1 1 1 1 0.011476472801165529 1 0.011035406473220814 1 1 1 1 1 1 1 1 1 1 1 0.010131801114647152 1 1 1 1 1 1 0.0094896900719512386 1 1 1 1 1 1 1 1 1 1 1 0.010397016634978072 1 1 1 1 1 1 1 1 1 0.010066017205993085 1 1 1 0.009935814402994278 1 1 1 1 1 0.0068516644288163916 1 1 1 1 1 1 1 1 0.0093988316836996766 0.0084075381491230256 1 1 0.0097102852897678754 1 1 1 1 1 1 1 1 0.010014322468987048 1 0.0083711347009819363 1 1 1 1 1 1 1 1 1 1 1 1 1 1 1 1 1 1 1 1 1 1 0.013079394080702238 1 1 1 1 1 1 1 1 1 1 1 1 1 1 1 1 1 1 1 1 1 1 1 0.012434504062204484 1 1 1 1 0.012429812440539312 1 1 1 1 1 1 1 1 0.012244384257459308 1 1 1 1 1 1 1 1 0.012250390050748211 1 1 1 1 1 1 1 1 1 1 1 1 0.012178204628344201 1 1 1 0.014860702126694157 1 1 1 1 1 1 0.021252171207564244 1 1 1 1 1 1 1 1 1 0.015289155735647625 1 1 0.018698296545825784 1 0.017671357526827025 1 1 0.0097980208804583184 1 1 1 0.014275077575923938 1 1 1 1 1 0.012731298182671115 1 0.011820939143063055 1 0.018562611128030253 1 1 1 1 0.014359644817973959 0.015466580460184398 1 1 1 1 1 1 1 1 0.0093665682469055 1 1 1 1 1 0.0099147812965028129 1 1 1 1 1 1 1 0.010378131341777548 1 1 1 1 1 1 1 1 1 1 1 1 1 1 1 1 1 1 1 1 1 1 1 0.011378130030601175 1 0.012816441379871221 1 1 1 1 1 1 1 1 1 1 1 1 1 1 1 1 1 1 1 1 1 1 1 1 1 1 1 1 1 1 1 1 1 1 1 1 0.0096131845000403497 1 1 0.010464594816367296 1 1 1 1 1 0.0107761627348253 1 1 0.010044044404197167 1 0.010212557777186691 1 1 0.011438311349270003 1 1 1 1 1 1 1 0.0098314866270104891 1 1 1 1 0.010311567918457967 1 1 1 1 1 1 0.010246789196846224 1 1 1 0.0099865010038610626 1 1 1 1 1 1 1 1 1 1 0.010023306329743232 1 1 1 1 1 0.010087502132063973 0.010571395837385955 1 1 1 1 1 1 0.010653999089083753 1 0.010181357227178374 1 1 1 1 1 1 0.0099589631151272163 1 1 1 0.0099498524609221324 1 1 1 0.0099773903496559908 1 1 1 1 1 1 0.010679135256102838 1 1 1 0.010578331706726903 1 1 1 1 1 1 1 0.010201633301599226 1 1 1 1 0.010236965624744536 1 1 1 1 1 1 0.011855916500902163 1 1 1 1 1 1 0.011157696633685469 1 1 1 1 1 0.010471878084761178 1 1 1 1 1 1 1 1 1 1 1 1 1 1 1 1 1 1 1 1 1 1 1 1 1 1 1 1 1 1 1 1 1 1 1 1 1 1 1 1 1 1 1 1 1 1 1 1 1 1 1 1 1 1 1 1 1 1 1 1 1 1 0.010529883428086707 1 1 1 1 1 1 1 0.011309783386352813 1 0.0061777773594161589 1 1 0.0099986957985658265 1 1 1 0.025763217554358654 1 1 1 1 1 0.018715542990129112 1 1 0.017635538500526494 1 0.012893061852403152 0.012285349966819287 1 1 1 0.010744359333344299 1 1 1 1 1 1 1 1 1 1 1 1 1 1 1 1 0.026817108246871751 1 1 1 1 0.013390138210868683 1 1 1 0.021871983171718807 1 0.022973416482595474 1 1 1 1 0.021617457511499221 1 1 1 1 0.012577475294601285 1 1 1 1 1 1 1 0.0099821009310958591 1 1 1 1 1 1 1 1 1 0.0098841948439646124 1 1 1 1 1 1 1 1 1 0.0099537019787218385 1 1 0.021956271749230594 1 1 1 1 1 1 0.0098161424590207588 1 1 1 0.0094220642572494379 1 1 1 1 0.021785739572966804 1 1 0.010386034738216395 1 1 0.021043043770561709 1 1 1 1 1 0.010033613710546849 1 1 1 1 1 1 1 1 1 1 1 1 1 1 1 1 1 1 1 1 0.0098179899766470003 1 1 1 0.0100174012799368 1 1 1 1 1 1 1 1 1 1 1 0.014422444160492062 0.018319701994303744 1 1 1 0.014646045146548605 1 0.017433950750205512 1 1 1 1 1 1 1 1 1 1 1 1 1 1 1 1 1 1 1 1 1 1 0.010703644981362496 1 1 1 1 1 1 0.010056247685242582 1 1 1 1 1 1 0.010189093444742585 1 1 1 1 1 0.013004282810457596 1 1 1 1 1 1 1 0.011998601856651837 1 0.0095642751418312556 1 1 1 0.0098719079259333258 1 1 1 1 1 1 1 1 1 0.013268554528165659 0.0095702855457603722 1 1 1 1 1 1 0.012612092031469957 1 1 1 1 0.01056347002327097 1 1 1 1 1 1 1 0.010276913191239523 1 1 1 1 1 1 1 1 1 1 1 1 1 1 1 1 0.0098381158950326571 1 1 1 1 1 1 1 1 1 1 1 1 1 0.0099984700354925748 1 1 1 0.0099887263115358352 0.0099820576199178591 1 1 0.013764636811732379 1 1 1 1 0.0097807831059722027 1 1 1 0.010026793589243715 1 1 1 1 1 0.01001141712903693 1 1 0.013218598800947647 1 1 1 0.010226994032744782 0.011794392882037652 1 1 0.010227769658095458 1 1 1 1 1 1 1 1 0.011309152023824239 1 1 1 1 1 1 1 1 1 1 1 1 1 1 0.010860711854372672 1 1 1 1 1 1 0.010346597978030956 1 1 1 0.010416863102838049 1 1 1 1 1 1 1 1 1 1 0.010045628046190407 1 1 1 1 1 1 1 1 1 1 0.011007772477051626 1 1 1 1 1 1 1 1 1 1 1 1 1 1 1 1 1 1 1 1 1 1 1 1 1 1 1 1 1 1 1 1 1 1 1 1 0.010750559442940066 1 1 1 1 1 1 1 1 1 1 1 1 1 1 1 0.010101930295848624 1 1 1 1 1 1 1 1 0.010146891146245923 1 1 1 1 1 1 1 1 1 1 1 1 1 1 0.0099829305891976326 0.010102025060095152 1 1 1 1 1 1 1 1 0.009982951316551825 1 1 1 1 1 1 1 1 1 1 1 1 1 1 1 1 1 1 1 1 1 1 0.010364498381994498 1 1 1 1 1 1 1 1 1 1 1 1 1 1 1 1 1 1 1 1 1 1 1 1 1 1 1 1 1 1 1 1 1 1 1 1 1 1 1 1 0.010303743097609366 1 0.010505293030764841 1 1 1 1 1 1 1 1 1 1 0.01035780913210551 1 1 1 1 1 1 1 1 1 1 1 1 1 1 1 1 1 1 1 1 1 1 1 1 1 1 1 1 1 1 1 1 1 1 1 1 1 1 1 1 1 1 1 1 1 1 1 1 0.010668241479603859 1 1 0.010147483898659347 1 1 1 1 1 0.010214253218879504 1 1 1 1 1 1 0.010127128046470261 1 1 1 1 1 1 0.010264320067206331 1 1 1 1 0.010138434280098488 1 1 0.010352565003992613 1 1 1 1 1 1 1 1 1 1 1 1 1 1 1 0.010154694541233768 1 1 1 1 1 1 1 0.013336043138616693 1 1 1 0.01173172358419837 1 1 1 1 1 1 1 1 1 1 1 1 1 1 1 1 1 1 1 1 1 1 1 1 0.012337425698545214 1 1 1 1 1 1 1 1 0.014444604708519049 1 1 1 0.012107179009973837 1 1 1 1 1 1 1 1 1 1 1 1 1 1 1 1 1 1 1 1 1 1 1 1 1 1 1 1 0.011109999026251503 1 1 1 1 1 1 1 1 1 1 1 1 1 1 1 1 1 1 1 1 0.0097148619201021594 1 1 1 1 1 1 1 0.018271701520740882 1 1 1 1 0.01293529878546925 1 1 1 1 1 1 1 1 1 1 1 1 1 1 1 1 1 1 1 1 1 1 1 1 1 1 1 1 1 1 1 1 1 1 1 1 1 1 1 1 1 1 1 1 1 1 1 1 1 1 1 1 1 1 1 1 1 1 1 1 1 1 0.031328524868033843 1 1 1 1 1 1 1 1 1 1 1 1 1 1 1 1 1 1 1 1 1 1 1 1 1 1 1 0.026450493830430796 0.011402231880376069 1 1 0.01407618727741633 1 0.020886767012137548 1 1 1 1 1 1 1 0.021295669362534679 1 1 1 0.0099898348672943019 1 1 1 1 1 1 1 1 1 1 1 1 1 1 1 1 1 1 1 0.014437568034389663 1 1 1 1 1 1 1 1 1 1 1 1 1 1 1 1 1 1 1 1 1 1 1 1 1 1 1 0.010812607006568192 1 1 1 1 1 1 1 1 1 1 1 1 1 1 1 1 1 1 1 1 1 1 1 1 1 1 1 1 1 1 1 1 1 1 0.010773880789524015 1 1 1 1 1 1 1 1 1 1 1 1 1 1 1 1 1 1 1 1 1 1 1 1 1 1 1 1 1 0.010445281270375719 1 1 1 1 1 1 0.011219162059899739 1 1 1 1 1 1 1 1 1 1 1 1 1 1 1 1 1 1 1 1 1 1 1 1 1 1 1 1 1 1 1 1 1 1 1 1 1 1 1 1 1 1 1 1 1 1 1 1 1 1 1 1 1 1 1 1 1 1 1 1 1 1 1 1 1 1 1 1 1 1 1 1 1 1 1 1 1 1 1 1 1 0.010139860527136339 1 1 0.0099716878792503547 1 1 1 1 1 1 1 1 1 1 1 1 1 1 1 1 1 1 1 1 1 1 1 1 1 1 1 1 1 1 1 1 1 1 1 1 1 1 1 1 1 1 1 1 1 1 1 1 1 1 1 1 1 1 1 1 1 1 1 1 1 1 1 1 1 1 1 1 1 1 1 1 1 1 1 1 1 1 1 1 1 0.014515632347066128 1 1 1 1 1 1 0.016535992069116236 1 1 0.01772680079203777 1 1 1 1 1 1 1 1 1 1 1 1 1 1 1 1 1 1 1 1 1 1 1 1 1 1 1 1 1 1 1 1 0.010079089228917974 0.023805873552730328 1 1 0.022440888959737025 1 1 0.020889478755904939 1 1 1 1 1 1 1 1 1 1 1 1 1 1 1 0.010149015415410769 1 1 1 1 1 0.010017703573893859 1 1 1 0.016392840602989414 0.010148070443290684 1 1 0.018759912421558351 1 0.0088677225900670661 1 1 0.0099653153654083275 1 1 1 0.015265262720435178 0.017356718317263035 1 1 1 1 1 0.010054535986483606 1 1 1 1 1 1 1 1 1 1 1 1 1 0.010307841639820767 1 1 1 1 0.020651341152324525 0.011750530801497142 1 1 1 1 1 1 1 1 1 1 1 1 1 1 1 1 1 1 1 1 1 1 1 1 1 1 1 1 1 1 1 1 1 1 1 1 1 1 0.0092794651045353185 1 1 0.021568269783320639 1 1 1 1 1 1 1 1 1 0.0078525916908902225 1 1 0.010296046866616497 1 1 1 1 1 1 1 1 1 6.9388939039072284e-18 1 1 1 0.0096975498316453773 1 1 0.010009611298750812 1 1 1 0.028236017664095364 1 1 1 1 0.032520370338155254 1 1 1 1 1 1 1 1 1 1 1 1 1 1 0.010825473115623268 1 1 1 1 0.018717115889180229 1 1 
</DataArray>
</CellData>
</Piece>
</UnstructuredGrid>
</VTKFile>
