<?xml version="1.0"?>
<VTKFile type="UnstructuredGrid" version="0.1" byte_order="LittleEndian">
<UnstructuredGrid>
<Piece NumberOfPoints="30304" NumberOfCells="10647">
<Points>
<DataArray type="Float64" NumberOfComponents="3" format="ascii">
-0.5 -0.5 0 -0.500000000000002 -0.47693188733330122 0 -0.47379777931805339 -0.47978553591419698 0 -0.5 -0.5 0 -0.47379777931805339 -0.47978553591419698 0 -0.4428711365444834 -0.50000000000000422 0 -0.500000000000002 -0.47693188733330122 0 -0.47379777931805339 -0.47978553591419698 0 -0.48580729017426189 -0.46020494795219152 0 -0.47379777931805339 -0.47978553591419698 0 -0.44772138120391519 -0.47558368972999449 0 -0.4428711365444834 -0.50000000000000422 0 -0.47379777931805339 -0.47978553591419698 0 -0.44772138120391519 -0.47558368972999449 0 -0.46632662755420151 -0.4631721346524047 0 -0.44772138120391519 -0.47558368972999449 0 -0.42772577177529608 -0.47736535992568813 0 -0.43748237930798423 -0.45602404302557698 0 -0.44772138120391519 -0.47558368972999449 0 -0.4428711365444834 -0.50000000000000422 0 -0.42772577177529608 -0.47736535992568813 0 -0.44772138120391519 -0.47558368972999449 0 -0.4428711365444834 -0.50000000000000422 0 -0.45257162586334621 -0.45116737945998481 0 -0.43954227734788298 -0.44019348703368938 0 -0.45742187052277827 -0.42675106918997519 0 -0.45257162586334621 -0.45116737945998481 0 -0.43954227734788298 -0.44019348703368938 0 -0.43748237930798423 -0.45602404302557698 0 -0.44772138120391519 -0.47558368972999449 0 -0.45257162586334621 -0.45116737945998481 0 -0.44772138120391519 -0.47558368972999449 0 -0.45257162586334621 -0.45116737945998481 0 -0.43748237930798423 -0.45602404302557698 0 -0.44772138120391519 -0.47558368972999449 0 -0.45257162586334621 -0.45116737945998481 0 -0.46632662755420151 -0.4631721346524047 0 -0.45257162586334621 -0.45116737945998481 0 -0.46632662755420151 -0.4631721346524047 0 -0.47161458034852077 -0.44347800857108283 0 -0.45257162586334621 -0.45116737945998481 0 -0.45742187052277827 -0.42675106918997519 0 -0.45257162586334621 -0.45116737945998481 0 -0.47161458034852077 -0.44347800857108283 0 -0.45742187052277827 -0.42675106918997519 0 -0.47161458034852077 -0.44347800857108283 0 -0.48580729017426189 -0.46020494795219152 0 -0.48409107064415968 -0.44285639959308182 0 -0.47161458034852077 -0.44347800857108283 0 -0.48580729017426189 -0.46020494795219152 0 -0.47379777931805339 -0.47978553591419698 0 -0.46632662755420151 -0.4631721346524047 0 -0.48580729017426189 -0.46020494795219152 0 -0.46632662755420151 -0.4631721346524047 0 -0.47161458034852077 -0.44347800857108283 0 -0.48580729017426189 -0.46020494795219152 0 -0.500000000000002 -0.47693188733330122 0 -0.48580729017426189 -0.46020494795219152 0 -0.48409107064415968 -0.44285639959308182 0 -0.49999999999999978 -0.46141888363643208 0 -0.48580729017426189 -0.46020494795219152 0 -0.500000000000002 -0.47693188733330122 0 -0.49999999999999978 -0.46141888363643208 0 -0.48580729017426189 -0.46020494795219152 0 -0.48409107064415968 -0.44285639959308182 0 -0.49999999999999978 -0.46141888363643208 0 -0.5 -0.43788683905921838 0 -0.48409107064415968 -0.44285639959308182 0 -0.49999999999999978 -0.46141888363643208 0 -0.5 -0.43788683905921838 0 -0.48475680030913848 -0.42350365186492789 0 -0.5 -0.41435479448200491 0 -0.48409107064415968 -0.44285639959308182 0 -0.5 -0.43788683905921838 0 -0.48475680030913848 -0.42350365186492789 0 -0.48475680030913848 -0.42350365186492789 0 -0.5 -0.41435479448200491 0 -0.48509290797520249 -0.40788013204782231 0 -0.48475680030913848 -0.42350365186492789 0 -0.47273369992790892 -0.41088168841517919 0 -0.46818214128831959 -0.42429391554973123 0 -0.48475680030913848 -0.42350365186492789 0 -0.48509290797520249 -0.40788013204782231 0 -0.47273369992790892 -0.41088168841517919 0 -0.48409107064415968 -0.44285639959308182 0 -0.46818214128831959 -0.42429391554973123 0 -0.48409107064415968 -0.44285639959308182 0 -0.47161458034852077 -0.44347800857108283 0 -0.46818214128831959 -0.42429391554973123 0 -0.48409107064415968 -0.44285639959308182 0 -0.48475680030913848 -0.42350365186492789 0 -0.46818214128831959 -0.42429391554973123 0 -0.5 -0.39082274990479121 0 -0.48075847564804669 -0.38131266874532121 0 -0.49795990391959521 -0.36675897456607509 0 -0.5 -0.39082274990479121 0 -0.47806548682247818 -0.39555381114468208 0 -0.48075847564804669 -0.38131266874532121 0 -0.48509290797520249 -0.40788013204782231 0 -0.5 -0.39082274990479121 0 -0.47806548682247818 -0.39555381114468208 0 -0.5 -0.41435479448200491 0 -0.48509290797520249 -0.40788013204782231 0 -0.5 -0.39082274990479121 0 -0.47806548682247818 -0.39555381114468208 0 -0.48075847564804669 -0.38131266874532121 0 -0.46355704737649922 -0.39586636292456873 0 -0.48509290797520249 -0.40788013204782231 0 -0.47273369992790892 -0.41088168841517919 0 -0.47806548682247818 -0.39555381114468208 0 -0.47273369992790892 -0.41088168841517919 0 -0.47806548682247818 -0.39555381114468208 0 -0.46355704737649922 -0.39586636292456873 0 -0.48075847564804669 -0.38131266874532121 0 -0.46355704737649922 -0.39586636292456873 0 -0.48075847564804669 -0.38131266874532121 0 -0.46904822906231192 -0.37934216015512301 0 -0.46355704737649922 -0.39586636292456873 0 -0.46904822906231192 -0.37934216015512301 0 -0.46306200925706431 -0.38334436101905672 0 -0.46355704737649922 -0.39586636292456873 0 -0.45828285422545501 -0.37775839673374978 0 -0.45724421358252332 -0.38287218582606192 0 -0.44910705772357151 -0.38088656275170529 0 -0.45828285422545501 -0.37775839673374978 0 -0.46306200925706431 -0.38334436101905672 0 -0.45724421358252332 -0.38287218582606192 0 -0.46904822906231192 -0.37934216015512301 0 -0.45828285422545501 -0.37775839673374978 0 -0.46306200925706431 -0.38334436101905672 0 -0.46904822906231192 -0.37934216015512301 0 -0.45828285422545501 -0.37775839673374978 0 -0.46113292643342341 -0.36884016995963692 0 -0.46306200925706431 -0.38334436101905672 0 -0.46027911897273449 -0.38798119703095091 0 -0.46355704737649922 -0.39586636292456873 0 -0.46027911897273449 -0.38798119703095091 0 -0.45684780384429441 -0.38712340626013092 0 -0.45967353963969532 -0.39262049658679771 0 -0.45684780384429441 -0.38712340626013092 0 -0.45475813640992641 -0.3900172085579699 0 -0.45967353963969532 -0.39262049658679771 0 -0.46306200925706431 -0.38334436101905672 0 -0.46027911897273449 -0.38798119703095091 0 -0.45724421358252332 -0.38287218582606192 0 -0.46027911897273449 -0.38798119703095091 0 -0.45724421358252332 -0.38287218582606192 0 -0.45684780384429441 -0.38712340626013092 0 -0.45724421358252332 -0.38287218582606192 0 -0.45684780384429441 -0.38712340626013092 0 -0.45241834368913492 -0.38592551648273432 0 -0.45684780384429441 -0.38712340626013092 0 -0.45475813640992641 -0.3900172085579699 0 -0.45241834368913492 -0.38592551648273432 0 -0.46355704737649922 -0.39586636292456873 0 -0.44473123261787512 -0.41179440949994123 0 -0.45967353963969532 -0.39262049658679771 0 -0.46355704737649922 -0.39586636292456873 0 -0.450639928806992 -0.39955048949785898 0 -0.45475813640992641 -0.3900172085579699 0 -0.45967353963969532 -0.39262049658679771 0 -0.45057174026394181 -0.39329251893994699 0 -0.45967353963969532 -0.39262049658679771 0 -0.450639928806992 -0.39955048949785898 0 -0.45057174026394181 -0.39329251893994699 0 -0.46027911897273449 -0.38798119703095091 0 -0.45967353963969532 -0.39262049658679771 0 -0.46355704737649922 -0.39586636292456873 0 -0.46355704737649922 -0.39586636292456873 0 -0.46048945894963872 -0.41130871605727187 0 -0.47273369992790892 -0.41088168841517919 0 -0.46355704737649922 -0.39586636292456873 0 -0.46048945894963872 -0.41130871605727187 0 -0.46355704737649922 -0.39586636292456873 0 -0.450639928806992 -0.39955048949785898 0 -0.44473123261787512 -0.41179440949994123 0 -0.450639928806992 -0.39955048949785898 0 -0.44365008016245688 -0.40354920297089519 0 -0.44473123261787512 -0.41179440949994123 0 -0.450639928806992 -0.39955048949785898 0 -0.44365008016245688 -0.40354920297089519 0 -0.44289772220370638 -0.3963764991119707 0 -0.44289772220370638 -0.3963764991119707 0 -0.43359954140455842 -0.39623099233135722 0 -0.43746072787427348 -0.40304241200503882 0 -0.44365008016245688 -0.40354920297089519 0 -0.44087922285895392 -0.40725459049962642 0 -0.43746072787427348 -0.40304241200503882 0 -0.44365008016245688 -0.40354920297089519 0 -0.44289772220370638 -0.3963764991119707 0 -0.43746072787427348 -0.40304241200503882 0 -0.44289772220370638 -0.3963764991119707 0 -0.44580112998699378 -0.38888918265967942 0 -0.43790399853946149 -0.38818498234118359 0 -0.44289772220370638 -0.3963764991119707 0 -0.43790399853946149 -0.38818498234118359 0 -0.43359954140455842 -0.39623099233135722 0 -0.44289772220370638 -0.3963764991119707 0 -0.45057174026394181 -0.39329251893994699 0 -0.44580112998699378 -0.38888918265967942 0 -0.450639928806992 -0.39955048949785898 0 -0.44289772220370638 -0.3963764991119707 0 -0.45057174026394181 -0.39329251893994699 0 -0.44580112998699378 -0.38888918265967942 0 -0.44175550520389573 -0.37927447930562908 0 -0.44910705772357151 -0.38088656275170529 0 -0.45241834368913492 -0.38592551648273432 0 -0.44580112998699378 -0.38888918265967942 0 -0.44910705772357151 -0.38088656275170529 0 -0.45724421358252332 -0.38287218582606192 0 -0.45241834368913492 -0.38592551648273432 0 -0.44910705772357151 -0.38088656275170529 0 -0.45057174026394181 -0.39329251893994699 0 -0.45241834368913492 -0.38592551648273432 0 -0.44580112998699378 -0.38888918265967942 0 -0.45475813640992641 -0.3900172085579699 0 -0.45057174026394181 -0.39329251893994699 0 -0.45241834368913492 -0.38592551648273432 0 -0.44580112998699378 -0.38888918265967942 0 -0.43790399853946149 -0.38818498234118359 0 -0.44175550520389573 -0.37927447930562908 0 -0.43790399853946149 -0.38818498234118359 0 -0.44175550520389573 -0.37927447930562908 0 -0.43284790781883542 -0.38096389532144392 0 -0.45828285422545501 -0.37775839673374978 0 -0.44910705772357151 -0.38088656275170529 0 -0.44934004656039028 -0.37193562334807989 0 -0.44175550520389573 -0.37927447930562908 0 -0.44910705772357151 -0.38088656275170529 0 -0.44934004656039028 -0.37193562334807989 0 -0.47161458034852077 -0.44347800857108283 0 -0.45742187052277827 -0.42675106918997519 0 -0.46818214128831959 -0.42429391554973123 0 -0.47161458034852077 -0.44347800857108283 0 -0.45742187052277827 -0.42675106918997519 0 -0.45742187052277827 -0.42675106918997519 0 -0.46048945894963872 -0.41130871605727187 0 -0.44473123261787512 -0.41179440949994123 0 -0.45742187052277827 -0.42675106918997519 0 -0.46818214128831959 -0.42429391554973123 0 -0.46048945894963872 -0.41130871605727187 0 -0.46355704737649922 -0.39586636292456873 0 -0.46048945894963872 -0.41130871605727187 0 -0.44473123261787512 -0.41179440949994123 0 -0.47273369992790892 -0.41088168841517919 0 -0.46818214128831959 -0.42429391554973123 0 -0.46048945894963872 -0.41130871605727187 0 -0.45742187052277827 -0.42675106918997519 0 -0.46048945894963872 -0.41130871605727187 0 -0.45742187052277827 -0.42675106918997519 0 -0.44473123261787512 -0.41179440949994123 0 -0.45742187052277827 -0.42675106918997519 0 -0.44473123261787512 -0.41179440949994123 0 -0.43998766128102179 -0.426894277214665 0 -0.44473123261787512 -0.41179440949994123 0 -0.44087922285895392 -0.40725459049962642 0 -0.43619947238967538 -0.40904174334805549 0 -0.44365008016245688 -0.40354920297089519 0 -0.44473123261787512 -0.41179440949994123 0 -0.44087922285895392 -0.40725459049962642 0 -0.44473123261787512 -0.41179440949994123 0 -0.44087922285895392 -0.40725459049962642 0 -0.44087922285895392 -0.40725459049962642 0 -0.43619947238967538 -0.40904174334805549 0 -0.43746072787427348 -0.40304241200503882 0 -0.43954227734788298 -0.44019348703368938 0 -0.45742187052277827 -0.42675106918997519 0 -0.43998766128102179 -0.426894277214665 0 -0.44473123261787512 -0.41179440949994123 0 -0.43998766128102179 -0.426894277214665 0 -0.42579613581724601 -0.42781491685203138 0 -0.43998766128102179 -0.426894277214665 0 -0.42787614532667378 -0.43564947998720233 0 -0.42579613581724601 -0.42781491685203138 0 -0.43954227734788298 -0.44019348703368938 0 -0.43998766128102179 -0.426894277214665 0 -0.42787614532667378 -0.43564947998720233 0 -0.42787614532667378 -0.43564947998720233 0 -0.42579613581724601 -0.42781491685203138 0 -0.41725123004438047 -0.43055683269029699 0 -0.44473123261787512 -0.41179440949994123 0 -0.42579613581724601 -0.42781491685203138 0 -0.42936575489672041 -0.41462094379530579 0 -0.44473123261787512 -0.41179440949994123 0 -0.42579613581724601 -0.42781491685203138 0 -0.43619947238967538 -0.40904174334805549 0 -0.42936575489672041 -0.41462094379530579 0 -0.43125423337332991 -0.40490762317596218 0 -0.44473123261787512 -0.41179440949994123 0 -0.43619947238967538 -0.40904174334805549 0 -0.42936575489672041 -0.41462094379530579 0 -0.42258057874384969 -0.41036342024345052 0 -0.42936575489672041 -0.41462094379530579 0 -0.43125423337332991 -0.40490762317596218 0 -0.42579613581724601 -0.42781491685203138 0 -0.42936575489672041 -0.41462094379530579 0 -0.42180012647249882 -0.41825796745121302 0 -0.42258057874384969 -0.41036342024345052 0 -0.42936575489672041 -0.41462094379530579 0 -0.42180012647249882 -0.41825796745121302 0 -0.42258057874384969 -0.41036342024345052 0 -0.42180012647249882 -0.41825796745121302 0 -0.41450189804160181 -0.41472207751369511 0 -0.42180012647249882 -0.41825796745121302 0 -0.41450189804160181 -0.41472207751369511 0 -0.41652241506534188 -0.42350203367662598 0 -0.42258057874384969 -0.41036342024345052 0 -0.41450189804160181 -0.41472207751369511 0 -0.41386653336230173 -0.40558968323653788 0 -0.41450189804160181 -0.41472207751369511 0 -0.41386653336230173 -0.40558968323653788 0 -0.40541362797195568 -0.41030880525631852 0 -0.41450189804160181 -0.41472207751369511 0 -0.40698024023061818 -0.41902287968731822 0 -0.40541362797195568 -0.41030880525631852 0 -0.41450189804160181 -0.41472207751369511 0 -0.40698024023061818 -0.41902287968731822 0 -0.41652241506534188 -0.42350203367662598 0 -0.40668750446550123 -0.43109090011699042 0 -0.39793296680436968 -0.43612166953559017 0 -0.42043384425804847 -0.43886179595582142 0 -0.40698024023061818 -0.41902287968731822 0 -0.40881781427425268 -0.42609474421027171 0 -0.41652241506534188 -0.42350203367662598 0 -0.40881781427425268 -0.42609474421027171 0 -0.40668750446550123 -0.43109090011699042 0 -0.41725123004438047 -0.43055683269029699 0 -0.39793296680436968 -0.43612166953559017 0 -0.42043384425804847 -0.43886179595582142 0 -0.42787614532667378 -0.43564947998720233 0 -0.41725123004438047 -0.43055683269029699 0 -0.42043384425804847 -0.43886179595582142 0 -0.40668750446550123 -0.43109090011699042 0 -0.41725123004438047 -0.43055683269029699 0 -0.42043384425804847 -0.43886179595582142 0 -0.40881781427425268 -0.42609474421027171 0 -0.41725123004438047 -0.43055683269029699 0 -0.41652241506534188 -0.42350203367662598 0 -0.42579613581724601 -0.42781491685203138 0 -0.42180012647249882 -0.41825796745121302 0 -0.41652241506534188 -0.42350203367662598 0 -0.42579613581724601 -0.42781491685203138 0 -0.41725123004438047 -0.43055683269029699 0 -0.41652241506534188 -0.42350203367662598 0 -0.43284790781883542 -0.38096389532144392 0 -0.42312110265095071 -0.38428534032841138 0 -0.42685064467313238 -0.37339118288440981 0 -0.42312110265095071 -0.38428534032841138 0 -0.42685064467313238 -0.37339118288440981 0 -0.41693890744090562 -0.37418417318045172 0 -0.43284790781883542 -0.38096389532144392 0 -0.42685064467313238 -0.37339118288440981 0 -0.43637908728079211 -0.37201385667921488 0 -0.44175550520389573 -0.37927447930562908 0 -0.43284790781883542 -0.38096389532144392 0 -0.43637908728079211 -0.37201385667921488 0 -0.43790399853946149 -0.38818498234118359 0 -0.43284790781883542 -0.38096389532144392 0 -0.43066909376577112 -0.38862957227319028 0 -0.43066909376577112 -0.38862957227319028 0 -0.42312110265095071 -0.38428534032841138 0 -0.42551162232891088 -0.39415541158803857 0 -0.43284790781883542 -0.38096389532144392 0 -0.43066909376577112 -0.38862957227319028 0 -0.42312110265095071 -0.38428534032841138 0 -0.42551162232891088 -0.39415541158803857 0 -0.43359954140455842 -0.39623099233135722 0 -0.42822938943356942 -0.39935014073856251 0 -0.43790399853946149 -0.38818498234118359 0 -0.43066909376577112 -0.38862957227319028 0 -0.43359954140455842 -0.39623099233135722 0 -0.43066909376577112 -0.38862957227319028 0 -0.42551162232891088 -0.39415541158803857 0 -0.43359954140455842 -0.39623099233135722 0 -0.43359954140455842 -0.39623099233135722 0 -0.43125423337332991 -0.40490762317596218 0 -0.42822938943356942 -0.39935014073856251 0 -0.43359954140455842 -0.39623099233135722 0 -0.43746072787427348 -0.40304241200503882 0 -0.43125423337332991 -0.40490762317596218 0 -0.43619947238967538 -0.40904174334805549 0 -0.43746072787427348 -0.40304241200503882 0 -0.43125423337332991 -0.40490762317596218 0 -0.43125423337332991 -0.40490762317596218 0 -0.42255216062747852 -0.402106535858892 0 -0.42822938943356942 -0.39935014073856251 0 -0.42258057874384969 -0.41036342024345052 0 -0.43125423337332991 -0.40490762317596218 0 -0.42255216062747852 -0.402106535858892 0 -0.42551162232891088 -0.39415541158803857 0 -0.42255216062747852 -0.402106535858892 0 -0.42822938943356942 -0.39935014073856251 0 -0.42255216062747852 -0.402106535858892 0 -0.41386653336230173 -0.40558968323653788 0 -0.41459392412939849 -0.3945410885056001 0 -0.42258057874384969 -0.41036342024345052 0 -0.42255216062747852 -0.402106535858892 0 -0.41386653336230173 -0.40558968323653788 0 -0.41386653336230173 -0.40558968323653788 0 -0.40655288897539149 -0.40107796197262918 0 -0.40541362797195568 -0.41030880525631852 0 -0.41386653336230173 -0.40558968323653788 0 -0.40655288897539149 -0.40107796197262918 0 -0.41459392412939849 -0.3945410885056001 0 -0.40655288897539149 -0.40107796197262918 0 -0.41459392412939849 -0.3945410885056001 0 -0.4039479002800353 -0.39236699800693559 0 -0.42312110265095071 -0.38428534032841138 0 -0.42551162232891088 -0.39415541158803857 0 -0.41459392412939849 -0.3945410885056001 0 -0.42551162232891088 -0.39415541158803857 0 -0.42255216062747852 -0.402106535858892 0 -0.41459392412939849 -0.3945410885056001 0 -0.42312110265095071 -0.38428534032841138 0 -0.41459392412939849 -0.3945410885056001 0 -0.41128471445313708 -0.38418010395670538 0 -0.41459392412939849 -0.3945410885056001 0 -0.41128471445313708 -0.38418010395670538 0 -0.4039479002800353 -0.39236699800693559 0 -0.41128471445313708 -0.38418010395670538 0 -0.40770232443622872 -0.37567363731982989 0 -0.40115755002376102 -0.38263049123817161 0 -0.41128471445313708 -0.38418010395670538 0 -0.40770232443622872 -0.37567363731982989 0 -0.41693890744090562 -0.37418417318045172 0 -0.42312110265095071 -0.38428534032841138 0 -0.41128471445313708 -0.38418010395670538 0 -0.41693890744090562 -0.37418417318045172 0 -0.40770232443622872 -0.37567363731982989 0 -0.40115755002376102 -0.38263049123817161 0 -0.40262722869260348 -0.37084447353840849 0 -0.39177538908086529 -0.37768327306343119 0 -0.40115755002376102 -0.38263049123817161 0 -0.40262722869260348 -0.37084447353840849 0 -0.41128471445313708 -0.38418010395670538 0 -0.40115755002376102 -0.38263049123817161 0 -0.4039479002800353 -0.39236699800693559 0 -0.40115755002376102 -0.38263049123817161 0 -0.39457850411274681 -0.39168276585399942 0 -0.4039479002800353 -0.39236699800693559 0 -0.39177538908086529 -0.37768327306343119 0 -0.40115755002376102 -0.38263049123817161 0 -0.39457850411274681 -0.39168276585399942 0 -0.39457850411274681 -0.39168276585399942 0 -0.4039479002800353 -0.39236699800693559 0 -0.39494245913326598 -0.4025832348577541 0 -0.40655288897539149 -0.40107796197262918 0 -0.39494245913326598 -0.4025832348577541 0 -0.40541362797195568 -0.41030880525631852 0 -0.40655288897539149 -0.40107796197262918 0 -0.4039479002800353 -0.39236699800693559 0 -0.39494245913326598 -0.4025832348577541 0 -0.38106922204580618 -0.40314983210370492 0 -0.37998992640490942 -0.38771237391561209 0 -0.36473630665378182 -0.38510333599377988 0 -0.39177538908086529 -0.37768327306343119 0 -0.39457850411274681 -0.39168276585399942 0 -0.38106922204580618 -0.40314983210370492 0 -0.39457850411274681 -0.39168276585399942 0 -0.39494245913326598 -0.4025832348577541 0 -0.38106922204580618 -0.40314983210370492 0 -0.39494245913326598 -0.4025832348577541 0 -0.38106922204580618 -0.40314983210370492 0 -0.38878535309076329 -0.41008267111536978 0 -0.38002763838110248 -0.37978975199532322 0 -0.3836089313848538 -0.36866002500846939 0 -0.36473630665378182 -0.38510333599377988 0 -0.39177538908086529 -0.37768327306343119 0 -0.38106922204580618 -0.40314983210370492 0 -0.39177538908086529 -0.37768327306343119 0 -0.38106922204580618 -0.40314983210370492 0 -0.37998992640490942 -0.38771237391561209 0 -0.39177538908086529 -0.37768327306343119 0 -0.38002763838110248 -0.37978975199532322 0 -0.3836089313848538 -0.36866002500846939 0 -0.39177538908086529 -0.37768327306343119 0 -0.37998992640490942 -0.38771237391561209 0 -0.38002763838110248 -0.37978975199532322 0 -0.39843263919103228 -0.43006469610381881 0 -0.39905322488044548 -0.4246616234789885 0 -0.39005686061381289 -0.42838459128370621 0 -0.39905322488044548 -0.4246616234789885 0 -0.3896559874262826 -0.42002381284579737 0 -0.39005686061381289 -0.42838459128370621 0 -0.39793296680436968 -0.43612166953559017 0 -0.39843263919103228 -0.43006469610381881 0 -0.39005686061381289 -0.42838459128370621 0 -0.40668750446550123 -0.43109090011699042 0 -0.39793296680436968 -0.43612166953559017 0 -0.39843263919103228 -0.43006469610381881 0 -0.40698024023061818 -0.41902287968731822 0 -0.40881781427425268 -0.42609474421027171 0 -0.39905322488044548 -0.4246616234789885 0 -0.40668750446550123 -0.43109090011699042 0 -0.39843263919103228 -0.43006469610381881 0 -0.39905322488044548 -0.4246616234789885 0 -0.40881781427425268 -0.42609474421027171 0 -0.40668750446550123 -0.43109090011699042 0 -0.39905322488044548 -0.4246616234789885 0 -0.40698024023061818 -0.41902287968731822 0 -0.40541362797195568 -0.41030880525631852 0 -0.39733861135237758 -0.41458154881305392 0 -0.40698024023061818 -0.41902287968731822 0 -0.39905322488044548 -0.4246616234789885 0 -0.39733861135237758 -0.41458154881305392 0 -0.39494245913326598 -0.4025832348577541 0 -0.40541362797195568 -0.41030880525631852 0 -0.39733861135237758 -0.41458154881305392 0 -0.39494245913326598 -0.4025832348577541 0 -0.39733861135237758 -0.41458154881305392 0 -0.38878535309076329 -0.41008267111536978 0 -0.39905322488044548 -0.4246616234789885 0 -0.39733861135237758 -0.41458154881305392 0 -0.3896559874262826 -0.42002381284579737 0 -0.39733861135237758 -0.41458154881305392 0 -0.3896559874262826 -0.42002381284579737 0 -0.38878535309076329 -0.41008267111536978 0 -0.3896559874262826 -0.42002381284579737 0 -0.38878535309076329 -0.41008267111536978 0 -0.38224514185093339 -0.41367378390299431 0 -0.3896559874262826 -0.42002381284579737 0 -0.38224514185093339 -0.41367378390299431 0 -0.38153373923187339 -0.42234949978478348 0 -0.38153373923187339 -0.42234949978478348 0 -0.37543208935069122 -0.43338154311535748 0 -0.37008419800223658 -0.40924243955456868 0 -0.38106922204580618 -0.40314983210370492 0 -0.38878535309076329 -0.41008267111536978 0 -0.38224514185093339 -0.41367378390299431 0 -0.38106922204580618 -0.40314983210370492 0 -0.38224514185093339 -0.41367378390299431 0 -0.37008419800223658 -0.40924243955456868 0 -0.38224514185093339 -0.41367378390299431 0 -0.38153373923187339 -0.42234949978478348 0 -0.37008419800223658 -0.40924243955456868 0 -0.39793296680436968 -0.43612166953559017 0 -0.37543208935069122 -0.43338154311535748 0 -0.38153373923187339 -0.42234949978478348 0 -0.39005686061381289 -0.42838459128370621 0 -0.37543208935069122 -0.43338154311535748 0 -0.39793296680436968 -0.43612166953559017 0 -0.37543208935069122 -0.43338154311535748 0 -0.39640289594946132 -0.442841876997982 0 -0.39793296680436968 -0.43612166953559017 0 -0.39005686061381289 -0.42838459128370621 0 -0.37543208935069122 -0.43338154311535748 0 -0.3896559874262826 -0.42002381284579737 0 -0.38153373923187339 -0.42234949978478348 0 -0.39005686061381289 -0.42838459128370621 0 -0.37543208935069122 -0.43338154311535748 0 -0.37800666672540711 -0.44500257013780048 0 -0.37800666672540711 -0.44500257013780048 0 -0.39640289594946132 -0.442841876997982 0 -0.37543208935069122 -0.43338154311535748 0 -0.37800666672540711 -0.44500257013780048 0 -0.39640289594946132 -0.442841876997982 0 -0.37800666672540711 -0.44500257013780048 0 -0.38831010404922989 -0.45026705315987919 0 -0.39640289594946132 -0.442841876997982 0 -0.37800666672540711 -0.44500257013780048 0 -0.37961920011530043 -0.45228116051251671 0 -0.37110539610373888 -0.45101090034997271 0 -0.37800666672540711 -0.44500257013780048 0 -0.37961920011530043 -0.45228116051251671 0 -0.38831010404922989 -0.45026705315987919 0 -0.37800666672540711 -0.44500257013780048 0 -0.37961920011530043 -0.45228116051251671 0 -0.39793296680436968 -0.43612166953559017 0 -0.39640289594946132 -0.442841876997982 0 -0.41479912517351558 -0.44068118385816363 0 -0.39640289594946132 -0.442841876997982 0 -0.41479912517351558 -0.44068118385816363 0 -0.39640289594946132 -0.442841876997982 0 -0.40548476211668272 -0.44769818079903512 0 -0.41479912517351558 -0.44068118385816363 0 -0.38831010404922989 -0.45026705315987919 0 -0.39640289594946132 -0.442841876997982 0 -0.39835992616294902 -0.45266487729008481 0 -0.38831010404922989 -0.45026705315987919 0 -0.39835992616294902 -0.45266487729008481 0 -0.39218108714024119 -0.4561538410548831 0 -0.39835992616294902 -0.45266487729008481 0 -0.40548476211668272 -0.44769818079903512 0 -0.40654973019662971 -0.45583372153152463 0 -0.39640289594946132 -0.442841876997982 0 -0.39835992616294902 -0.45266487729008481 0 -0.40548476211668272 -0.44769818079903512 0 -0.39744327411961661 -0.46193476105322628 0 -0.3902976935224175 -0.47305356684745697 0 -0.40894876620721737 -0.47026445808124318 0 -0.39744327411961661 -0.46193476105322628 0 -0.40894876620721737 -0.47026445808124318 0 -0.40654973019662971 -0.45583372153152463 0 -0.39835992616294902 -0.45266487729008481 0 -0.39744327411961661 -0.46193476105322628 0 -0.40654973019662971 -0.45583372153152463 0 -0.39218108714024119 -0.4561538410548831 0 -0.39744327411961661 -0.46193476105322628 0 -0.38832244148824457 -0.4636381015141649 0 -0.39835992616294902 -0.45266487729008481 0 -0.39218108714024119 -0.4561538410548831 0 -0.39744327411961661 -0.46193476105322628 0 -0.39744327411961661 -0.46193476105322628 0 -0.38832244148824457 -0.4636381015141649 0 -0.3902976935224175 -0.47305356684745697 0 -0.38832244148824457 -0.4636381015141649 0 -0.37844812758986951 -0.46462615501511129 0 -0.3902976935224175 -0.47305356684745697 0 -0.38832244148824457 -0.4636381015141649 0 -0.38524341471304951 -0.45747777104514192 0 -0.37844812758986951 -0.46462615501511129 0 -0.37961920011530043 -0.45228116051251671 0 -0.38831010404922989 -0.45026705315987919 0 -0.38524341471304951 -0.45747777104514192 0 -0.38831010404922989 -0.45026705315987919 0 -0.39218108714024119 -0.4561538410548831 0 -0.38524341471304951 -0.45747777104514192 0 -0.39218108714024119 -0.4561538410548831 0 -0.38832244148824457 -0.4636381015141649 0 -0.38524341471304951 -0.45747777104514192 0 -0.37961920011530043 -0.45228116051251671 0 -0.37844812758986951 -0.46462615501511129 0 -0.36710954982911309 -0.45960550221968971 0 -0.37961920011530043 -0.45228116051251671 0 -0.38524341471304951 -0.45747777104514192 0 -0.37844812758986951 -0.46462615501511129 0 -0.37844812758986951 -0.46462615501511129 0 -0.37514347222647398 -0.48424062661869632 0 -0.3902976935224175 -0.47305356684745697 0 -0.37514347222647398 -0.48424062661869632 0 -0.3902976935224175 -0.47305356684745697 0 -0.40022170767641951 -0.48702900846807179 0 -0.37514347222647398 -0.48424062661869632 0 -0.3850651927282121 -0.5 0 -0.40022170767641951 -0.48702900846807179 0 -0.3850651927282121 -0.5 0 -0.40022170767641951 -0.48702900846807179 0 -0.41396816463634778 -0.5 0 -0.3902976935224175 -0.47305356684745697 0 -0.40022170767641951 -0.48702900846807179 0 -0.40894876620721737 -0.47026445808124318 0 -0.40022170767641951 -0.48702900846807179 0 -0.40894876620721737 -0.47026445808124318 0 -0.42772577177529608 -0.47736535992568813 0 -0.40022170767641951 -0.48702900846807179 0 -0.41396816463634778 -0.5 0 -0.42772577177529608 -0.47736535992568813 0 -0.4428711365444834 -0.50000000000000422 0 -0.41396816463634778 -0.5 0 -0.42772577177529608 -0.47736535992568813 0 -0.42772577177529608 -0.47736535992568813 0 -0.42318763467663478 -0.45855542824534568 0 -0.43748237930798423 -0.45602404302557698 0 -0.42318763467663478 -0.45855542824534568 0 -0.43748237930798423 -0.45602404302557698 0 -0.42800664796077159 -0.4460440847421917 0 -0.43954227734788298 -0.44019348703368938 0 -0.43748237930798423 -0.45602404302557698 0 -0.42800664796077159 -0.4460440847421917 0 -0.43954227734788298 -0.44019348703368938 0 -0.42787614532667378 -0.43564947998720233 0 -0.42800664796077159 -0.4460440847421917 0 -0.42787614532667378 -0.43564947998720233 0 -0.42800664796077159 -0.4460440847421917 0 -0.42043384425804847 -0.43886179595582142 0 -0.42800664796077159 -0.4460440847421917 0 -0.41915754344298201 -0.44772898215077073 0 -0.42043384425804847 -0.43886179595582142 0 -0.42318763467663478 -0.45855542824534568 0 -0.42800664796077159 -0.4460440847421917 0 -0.41915754344298201 -0.44772898215077073 0 -0.39793296680436968 -0.43612166953559017 0 -0.41479912517351558 -0.44068118385816363 0 -0.42043384425804847 -0.43886179595582142 0 -0.41915754344298201 -0.44772898215077073 0 -0.41221765127682608 -0.44876070737138329 0 -0.41436647180481079 -0.45621886221792668 0 -0.41915754344298201 -0.44772898215077073 0 -0.41479912517351558 -0.44068118385816363 0 -0.41221765127682608 -0.44876070737138329 0 -0.41915754344298201 -0.44772898215077073 0 -0.41479912517351558 -0.44068118385816363 0 -0.42043384425804847 -0.43886179595582142 0 -0.40548476211668272 -0.44769818079903512 0 -0.41479912517351558 -0.44068118385816363 0 -0.41221765127682608 -0.44876070737138329 0 -0.40548476211668272 -0.44769818079903512 0 -0.41221765127682608 -0.44876070737138329 0 -0.40654973019662971 -0.45583372153152463 0 -0.41221765127682608 -0.44876070737138329 0 -0.40654973019662971 -0.45583372153152463 0 -0.41436647180481079 -0.45621886221792668 0 -0.40894876620721737 -0.47026445808124318 0 -0.40654973019662971 -0.45583372153152463 0 -0.41436647180481079 -0.45621886221792668 0 -0.40894876620721737 -0.47026445808124318 0 -0.42772577177529608 -0.47736535992568813 0 -0.42318763467663478 -0.45855542824534568 0 -0.40894876620721737 -0.47026445808124318 0 -0.42318763467663478 -0.45855542824534568 0 -0.41436647180481079 -0.45621886221792668 0 -0.42318763467663478 -0.45855542824534568 0 -0.41915754344298201 -0.44772898215077073 0 -0.41436647180481079 -0.45621886221792668 0 -0.44418922715877401 -0.26033988933933339 0 -0.4389426504737548 -0.25270740714766132 0 -0.4352974930619084 -0.27123107367539068 0 -0.45701368346824878 -0.2648013528268045 0 -0.44558302563621149 -0.2435712066540775 0 -0.44418922715877401 -0.26033988933933339 0 -0.45701368346824878 -0.2648013528268045 0 -0.44558302563621149 -0.2435712066540775 0 -0.44418922715877401 -0.26033988933933339 0 -0.4389426504737548 -0.25270740714766132 0 -0.44558302563621149 -0.2435712066540775 0 -0.44811531415314798 -0.27658628837599281 0 -0.44054254577066781 -0.28847033700239022 0 -0.4352974930619084 -0.27123107367539068 0 -0.44418922715877401 -0.26033988933933339 0 -0.44811531415314798 -0.27658628837599281 0 -0.4352974930619084 -0.27123107367539068 0 -0.44418922715877401 -0.26033988933933339 0 -0.44811531415314798 -0.27658628837599281 0 -0.45701368346824878 -0.2648013528268045 0 -0.45701368346824878 -0.2648013528268045 0 -0.47950094819102079 -0.26824174979081777 0 -0.46844434130028612 -0.28603149899953151 0 -0.45673115233355238 -0.2798774656495529 0 -0.45701368346824878 -0.2648013528268045 0 -0.46844434130028612 -0.28603149899953151 0 -0.45701368346824878 -0.2648013528268045 0 -0.46844434130028612 -0.28603149899953151 0 -0.44811531415314798 -0.27658628837599281 0 -0.45673115233355238 -0.2798774656495529 0 -0.45701368346824878 -0.2648013528268045 0 -0.45701368346824878 -0.2648013528268045 0 -0.47950094819102079 -0.26824174979081777 0 -0.46434191252842932 -0.24798961681447521 0 -0.45701368346824878 -0.2648013528268045 0 -0.46434191252842932 -0.24798961681447521 0 -0.44558302563621149 -0.2435712066540775 0 -0.47950094819102079 -0.26824174979081777 0 -0.48308849919453711 -0.2466597159792642 0 -0.46434191252842932 -0.24798961681447521 0 -0.5 -0.25638963446811691 0 -0.47950094819102079 -0.26824174979081777 0 -0.48308849919453711 -0.2466597159792642 0 -0.47950094819102079 -0.26824174979081777 0 -0.5 -0.28391031281070428 0 -0.48462813350825601 -0.29101018028039549 0 -0.5 -0.25638963446811691 0 -0.47950094819102079 -0.26824174979081777 0 -0.5 -0.28391031281070428 0 -0.48462813350825601 -0.29101018028039549 0 -0.47987499913232268 -0.30726164517225879 0 -0.46844434130028612 -0.28603149899953151 0 -0.47950094819102079 -0.26824174979081777 0 -0.48462813350825601 -0.29101018028039549 0 -0.46844434130028612 -0.28603149899953151 0 -0.47987499913232268 -0.30726164517225879 0 -0.46844434130028612 -0.28603149899953151 0 -0.5 -0.28391031281070428 0 -0.48462813350825601 -0.29101018028039549 0 -0.50000000000000244 -0.31143099115329181 0 -0.48462813350825601 -0.29101018028039549 0 -0.50000000000000244 -0.31143099115329181 0 -0.47987499913232268 -0.30726164517225879 0 -0.50000000000000244 -0.31143099115329181 0 -0.47987499913232268 -0.30726164517225879 0 -0.47987499913232268 -0.30726164517225879 0 -0.45287018076971469 -0.30166699046148993 0 -0.47010737274709458 -0.32395487894892933 0 -0.47987499913232268 -0.30726164517225879 0 -0.46844434130028612 -0.28603149899953151 0 -0.45287018076971469 -0.30166699046148993 0 -0.47987499913232268 -0.30726164517225879 0 -0.45287018076971469 -0.30166699046148993 0 -0.46844434130028612 -0.28603149899953151 0 -0.45335127041252687 -0.29209072239588291 0 -0.45287018076971469 -0.30166699046148993 0 -0.45673115233355238 -0.2798774656495529 0 -0.46844434130028612 -0.28603149899953151 0 -0.45335127041252687 -0.29209072239588291 0 -0.45335127041252687 -0.29209072239588291 0 -0.44054254577066781 -0.28847033700239022 0 -0.45287018076971469 -0.30166699046148993 0 -0.44054254577066781 -0.28847033700239022 0 -0.45287018076971469 -0.30166699046148993 0 -0.43032019821386219 -0.2969952550533913 0 -0.44811531415314798 -0.27658628837599281 0 -0.45335127041252687 -0.29209072239588291 0 -0.44054254577066781 -0.28847033700239022 0 -0.44811531415314798 -0.27658628837599281 0 -0.45673115233355238 -0.2798774656495529 0 -0.45335127041252687 -0.29209072239588291 0 -0.45287018076971469 -0.30166699046148993 0 -0.43738232001340738 -0.31575376030696278 0 -0.43032019821386219 -0.2969952550533913 0 -0.45287018076971469 -0.30166699046148993 0 -0.43032019821386219 -0.2969952550533913 0 -0.45335127041252687 -0.29209072239588291 0 -0.45287018076971469 -0.30166699046148993 0 -0.45154766352648062 -0.32799218750518039 0 -0.43371386120798522 -0.33536803239235302 0 -0.43738232001340738 -0.31575376030696278 0 -0.45287018076971469 -0.30166699046148993 0 -0.45154766352648062 -0.32799218750518039 0 -0.45287018076971469 -0.30166699046148993 0 -0.45154766352648062 -0.32799218750518039 0 -0.43738232001340738 -0.31575376030696278 0 -0.45154766352648062 -0.32799218750518039 0 -0.45022514628324212 -0.35431738454887102 0 -0.43371386120798522 -0.33536803239235302 0 -0.45154766352648062 -0.32799218750518039 0 -0.45022514628324212 -0.35431738454887102 0 -0.45154766352648062 -0.32799218750518039 0 -0.46530134748858509 -0.34155542590749449 0 -0.45022514628324212 -0.35431738454887102 0 -0.45154766352648062 -0.32799218750518039 0 -0.46530134748858509 -0.34155542590749449 0 -0.47010737274709458 -0.32395487894892933 0 -0.45287018076971469 -0.30166699046148993 0 -0.45154766352648062 -0.32799218750518039 0 -0.47010737274709458 -0.32395487894892933 0 -0.47987499913232268 -0.30726164517225879 0 -0.47010737274709458 -0.32395487894892933 0 -0.48935676949732793 -0.32487212514490582 0 -0.47987499913232268 -0.30726164517225879 0 -0.48935676949732793 -0.32487212514490582 0 -0.50000000000000244 -0.31143099115329181 0 -0.48935676949732793 -0.32487212514490582 0 -0.5 -0.33823194596583178 0 -0.50000000000000244 -0.31143099115329181 0 -0.47987499913232268 -0.30726164517225879 0 -0.48935676949732793 -0.32487212514490582 0 -0.48935676949732793 -0.32487212514490582 0 -0.4988385398623324 -0.34248260511755318 0 -0.5 -0.33823194596583178 0 -0.48935676949732793 -0.32487212514490582 0 -0.4988385398623324 -0.34248260511755318 0 -0.48935676949732793 -0.32487212514490582 0 -0.4988385398623324 -0.34248260511755318 0 -0.48223616640890687 -0.3404857510311603 0 -0.46530134748858509 -0.34155542590749449 0 -0.47010737274709458 -0.32395487894892933 0 -0.48223616640890687 -0.3404857510311603 0 -0.47010737274709458 -0.32395487894892933 0 -0.48935676949732793 -0.32487212514490582 0 -0.48223616640890687 -0.3404857510311603 0 -0.46530134748858509 -0.34155542590749449 0 -0.48223616640890687 -0.3404857510311603 0 -0.47409252510141853 -0.36053817955747341 0 -0.48223616640890687 -0.3404857510311603 0 -0.49082065113638018 -0.35487017704077539 0 -0.47409252510141853 -0.36053817955747341 0 -0.4988385398623324 -0.34248260511755318 0 -0.49082065113638018 -0.35487017704077539 0 -0.50000000000000233 -0.36503290077837192 0 -0.4988385398623324 -0.34248260511755318 0 -0.5 -0.33823194596583178 0 -0.50000000000000233 -0.36503290077837192 0 -0.4988385398623324 -0.34248260511755318 0 -0.48223616640890687 -0.3404857510311603 0 -0.49082065113638018 -0.35487017704077539 0 -0.49082065113638018 -0.35487017704077539 0 -0.49795990391959521 -0.36675897456607509 0 -0.47409252510141853 -0.36053817955747341 0 -0.48075847564804669 -0.38131266874532121 0 -0.49795990391959521 -0.36675897456607509 0 -0.5 -0.39082274990479121 0 -0.49999999999999978 -0.36729070532757763 0 -0.49795990391959521 -0.36675897456607509 0 -0.49795990391959521 -0.36675897456607509 0 -0.47409252510141853 -0.36053817955747341 0 -0.49999999999999978 -0.36729070532757763 0 -0.50000000000000233 -0.36503290077837192 0 -0.49795990391959521 -0.36675897456607509 0 -0.49999999999999978 -0.36729070532757763 0 -0.49795990391959521 -0.36675897456607509 0 -0.50000000000000233 -0.36503290077837192 0 -0.49795990391959521 -0.36675897456607509 0 -0.49082065113638018 -0.35487017704077539 0 -0.50000000000000233 -0.36503290077837192 0 -0.49795990391959521 -0.36675897456607509 0 -0.48075847564804669 -0.38131266874532121 0 -0.49795990391959521 -0.36675897456607509 0 -0.47409252510141853 -0.36053817955747341 0 -0.48075847564804669 -0.38131266874532121 0 -0.46904822906231192 -0.37934216015512301 0 -0.47409252510141853 -0.36053817955747341 0 -0.47409252510141853 -0.36053817955747341 0 -0.46113292643342341 -0.36884016995963692 0 -0.45022514628324212 -0.35431738454887102 0 -0.46904822906231192 -0.37934216015512301 0 -0.47409252510141853 -0.36053817955747341 0 -0.46113292643342341 -0.36884016995963692 0 -0.46113292643342341 -0.36884016995963692 0 -0.45022514628324212 -0.35431738454887102 0 -0.44934004656039028 -0.37193562334807989 0 -0.45828285422545501 -0.37775839673374978 0 -0.46113292643342341 -0.36884016995963692 0 -0.44934004656039028 -0.37193562334807989 0 -0.46113292643342341 -0.36884016995963692 0 -0.45022514628324212 -0.35431738454887102 0 -0.46530134748858509 -0.34155542590749449 0 -0.47409252510141853 -0.36053817955747341 0 -0.45022514628324212 -0.35431738454887102 0 -0.47409252510141853 -0.36053817955747341 0 -0.45022514628324212 -0.35431738454887102 0 -0.45022514628324212 -0.35431738454887102 0 -0.43371386120798522 -0.33536803239235302 0 -0.45022514628324212 -0.35431738454887102 0 -0.44443897771825552 -0.35892368872750002 0 -0.43204430065034999 -0.3495787278816746 0 -0.45022514628324212 -0.35431738454887102 0 -0.43204430065034999 -0.3495787278816746 0 -0.43371386120798522 -0.33536803239235302 0 -0.45022514628324212 -0.35431738454887102 0 -0.43204430065034999 -0.3495787278816746 0 -0.44443897771825552 -0.35892368872750002 0 -0.43829040604760727 -0.36328294076666728 0 -0.43204430065034999 -0.3495787278816746 0 -0.44443897771825552 -0.35892368872750002 0 -0.43829040604760727 -0.36328294076666728 0 -0.44934004656039028 -0.37193562334807989 0 -0.45022514628324212 -0.35431738454887102 0 -0.44934004656039028 -0.37193562334807989 0 -0.45022514628324212 -0.35431738454887102 0 -0.44443897771825552 -0.35892368872750002 0 -0.44934004656039028 -0.37193562334807989 0 -0.43829040604760727 -0.36328294076666728 0 -0.44934004656039028 -0.37193562334807989 0 -0.43637908728079211 -0.37201385667921488 0 -0.44175550520389573 -0.37927447930562908 0 -0.44934004656039028 -0.37193562334807989 0 -0.43637908728079211 -0.37201385667921488 0 -0.42918725767136667 -0.36358642276232389 0 -0.42685064467313238 -0.37339118288440981 0 -0.41956783339007298 -0.36425349829899339 0 -0.42918725767136667 -0.36358642276232389 0 -0.42192233858386841 -0.35561889214499148 0 -0.41956783339007298 -0.36425349829899339 0 -0.42918725767136667 -0.36358642276232389 0 -0.42685064467313238 -0.37339118288440981 0 -0.43637908728079211 -0.37201385667921488 0 -0.43829040604760727 -0.36328294076666728 0 -0.42918725767136667 -0.36358642276232389 0 -0.43637908728079211 -0.37201385667921488 0 -0.43204430065034999 -0.3495787278816746 0 -0.42192233858386841 -0.35561889214499148 0 -0.41512057523372592 -0.34516772710103971 0 -0.43204430065034999 -0.3495787278816746 0 -0.41512057523372592 -0.34516772710103971 0 -0.42580330008234679 -0.34183073115188128 0 -0.43829040604760727 -0.36328294076666728 0 -0.42918725767136667 -0.36358642276232389 0 -0.43204430065034999 -0.3495787278816746 0 -0.43204430065034999 -0.3495787278816746 0 -0.41512057523372592 -0.34516772710103971 0 -0.42918725767136667 -0.36358642276232389 0 -0.43204430065034999 -0.3495787278816746 0 -0.42192233858386841 -0.35561889214499148 0 -0.42192233858386841 -0.35561889214499148 0 -0.41369172597382597 -0.35550808468092621 0 -0.41956783339007298 -0.36425349829899339 0 -0.40248155611592479 -0.35221671402315791 0 -0.41971403653304878 -0.33720242541281281 0 -0.42192233858386841 -0.35561889214499148 0 -0.41512057523372592 -0.34516772710103971 0 -0.41369172597382597 -0.35550808468092621 0 -0.41512057523372592 -0.34516772710103971 0 -0.40248155611592479 -0.35221671402315791 0 -0.41971403653304878 -0.33720242541281281 0 -0.41512057523372592 -0.34516772710103971 0 -0.41369172597382597 -0.35550808468092621 0 -0.40248155611592479 -0.35221671402315791 0 -0.41369172597382597 -0.35550808468092621 0 -0.41001932380623762 -0.36601825204745181 0 -0.40248155611592479 -0.35221671402315791 0 -0.41369172597382597 -0.35550808468092621 0 -0.41001932380623762 -0.36601825204745181 0 -0.41956783339007298 -0.36425349829899339 0 -0.42685064467313238 -0.37339118288440981 0 -0.41956783339007298 -0.36425349829899339 0 -0.41693890744090562 -0.37418417318045172 0 -0.41001932380623762 -0.36601825204745181 0 -0.41956783339007298 -0.36425349829899339 0 -0.41693890744090562 -0.37418417318045172 0 -0.40770232443622872 -0.37567363731982989 0 -0.41001932380623762 -0.36601825204745181 0 -0.40262722869260348 -0.37084447353840849 0 -0.40770232443622872 -0.37567363731982989 0 -0.41001932380623762 -0.36601825204745181 0 -0.41693890744090562 -0.37418417318045172 0 -0.39177538908086529 -0.37768327306343119 0 -0.3836089313848538 -0.36866002500846939 0 -0.40248155611592479 -0.35221671402315791 0 -0.39177538908086529 -0.37768327306343119 0 -0.40248155611592479 -0.35221671402315791 0 -0.41001932380623762 -0.36601825204745181 0 -0.40262722869260348 -0.37084447353840849 0 -0.40248155611592479 -0.35221671402315791 0 -0.39177538908086529 -0.37768327306343119 0 -0.40262722869260348 -0.37084447353840849 0 -0.40248155611592479 -0.35221671402315791 0 -0.3836089313848538 -0.36866002500846939 0 -0.40248155611592479 -0.35221671402315791 0 -0.3836089313848538 -0.36866002500846939 0 -0.38074737987289931 -0.35781140828315688 0 -0.40248155611592479 -0.35221671402315791 0 -0.3836089313848538 -0.36866002500846939 0 -0.38074737987289931 -0.35781140828315688 0 -0.3700050472277695 -0.36843745757463842 0 -0.38437238797631751 -0.34779939979768421 0 -0.36833195586593143 -0.34244442120042512 0 -0.37332708200955528 -0.35171966201398108 0 -0.38074737987289931 -0.35781140828315688 0 -0.38437238797631751 -0.34779939979768421 0 -0.40248155611592479 -0.35221671402315791 0 -0.38074737987289931 -0.35781140828315688 0 -0.38437238797631751 -0.34779939979768421 0 -0.37332708200955528 -0.35171966201398108 0 -0.38437238797631751 -0.34779939979768421 0 -0.40248155611592479 -0.35221671402315791 0 -0.39397949501673529 -0.3348804384112507 0 -0.40248155611592479 -0.35221671402315791 0 -0.39397949501673529 -0.3348804384112507 0 -0.4130817030356036 -0.32700234304598219 0 -0.39397949501673529 -0.3348804384112507 0 -0.38576874367796937 -0.32028453052643419 0 -0.36833195586593143 -0.34244442120042512 0 -0.38437238797631751 -0.34779939979768421 0 -0.39397949501673529 -0.3348804384112507 0 -0.36833195586593143 -0.34244442120042512 0 -0.38576874367796937 -0.32028453052643419 0 -0.36833195586593143 -0.34244442120042512 0 -0.38576874367796937 -0.32028453052643419 0 -0.3860095147070749 -0.30297598287947802 0 -0.36804814133373448 -0.31680641467567577 0 -0.39397949501673529 -0.3348804384112507 0 -0.38576874367796937 -0.32028453052643419 0 -0.403433002338077 -0.31941747022878841 0 -0.38576874367796937 -0.32028453052643419 0 -0.403433002338077 -0.31941747022878841 0 -0.40320553149000682 -0.2981246398524427 0 -0.39397949501673529 -0.3348804384112507 0 -0.403433002338077 -0.31941747022878841 0 -0.4130817030356036 -0.32700234304598219 0 -0.41845969634899438 -0.31674633612239911 0 -0.4130817030356036 -0.32700234304598219 0 -0.41971403653304878 -0.33720242541281281 0 -0.403433002338077 -0.31941747022878841 0 -0.41845969634899438 -0.31674633612239911 0 -0.4130817030356036 -0.32700234304598219 0 -0.40248155611592479 -0.35221671402315791 0 -0.4130817030356036 -0.32700234304598219 0 -0.40248155611592479 -0.35221671402315791 0 -0.4130817030356036 -0.32700234304598219 0 -0.41971403653304878 -0.33720242541281281 0 -0.41512057523372592 -0.34516772710103971 0 -0.41971403653304878 -0.33720242541281281 0 -0.42580330008234679 -0.34183073115188128 0 -0.41845969634899438 -0.31674633612239911 0 -0.41971403653304878 -0.33720242541281281 0 -0.43371386120798522 -0.33536803239235302 0 -0.41971403653304878 -0.33720242541281281 0 -0.42580330008234679 -0.34183073115188128 0 -0.43371386120798522 -0.33536803239235302 0 -0.43204430065034999 -0.3495787278816746 0 -0.42580330008234679 -0.34183073115188128 0 -0.43371386120798522 -0.33536803239235302 0 -0.41845969634899438 -0.31674633612239911 0 -0.43371386120798522 -0.33536803239235302 0 -0.41845969634899438 -0.31674633612239911 0 -0.43371386120798522 -0.33536803239235302 0 -0.43738232001340738 -0.31575376030696278 0 -0.41845969634899438 -0.31674633612239911 0 -0.43738232001340738 -0.31575376030696278 0 -0.43032019821386219 -0.2969952550533913 0 -0.44054254577066781 -0.28847033700239022 0 -0.43032019821386219 -0.2969952550533913 0 -0.4304913903625493 -0.28298675878306662 0 -0.43032019821386219 -0.2969952550533913 0 -0.4304913903625493 -0.28298675878306662 0 -0.42294028170042552 -0.28572166478768418 0 -0.43032019821386219 -0.2969952550533913 0 -0.40777021565800992 -0.29232351964529191 0 -0.40777021565800992 -0.29232351964529191 0 -0.40363759890028139 -0.28402751805770149 0 -0.42335643306588222 -0.27251546339647642 0 -0.42294028170042552 -0.28572166478768418 0 -0.40777021565800992 -0.29232351964529191 0 -0.42335643306588222 -0.27251546339647642 0 -0.40777021565800992 -0.29232351964529191 0 -0.42335643306588222 -0.27251546339647642 0 -0.43032019821386219 -0.2969952550533913 0 -0.42294028170042552 -0.28572166478768418 0 -0.40777021565800992 -0.29232351964529191 0 -0.41845969634899438 -0.31674633612239911 0 -0.40777021565800992 -0.29232351964529191 0 -0.40320553149000682 -0.2981246398524427 0 -0.41845969634899438 -0.31674633612239911 0 -0.43032019821386219 -0.2969952550533913 0 -0.40777021565800992 -0.29232351964529191 0 -0.41845969634899438 -0.31674633612239911 0 -0.40320553149000682 -0.2981246398524427 0 -0.403433002338077 -0.31941747022878841 0 -0.41845969634899438 -0.31674633612239911 0 -0.40320553149000682 -0.2981246398524427 0 -0.38576874367796937 -0.32028453052643419 0 -0.40320553149000682 -0.2981246398524427 0 -0.3860095147070749 -0.30297598287947802 0 -0.40320553149000682 -0.2981246398524427 0 -0.3860095147070749 -0.30297598287947802 0 -0.3965491873424003 -0.28999883158101297 0 -0.38576874367796937 -0.32028453052643419 0 -0.40320553149000682 -0.2981246398524427 0 -0.3860095147070749 -0.30297598287947802 0 -0.37116758007532841 -0.29841529353526941 0 -0.36804814133373448 -0.31680641467567577 0 -0.37978871083872029 -0.28652652239651882 0 -0.3965491873424003 -0.28999883158101297 0 -0.3860095147070749 -0.30297598287947802 0 -0.37978871083872029 -0.28652652239651882 0 -0.3965491873424003 -0.28999883158101297 0 -0.3860095147070749 -0.30297598287947802 0 -0.37978871083872029 -0.28652652239651882 0 -0.37116758007532841 -0.29841529353526941 0 -0.37978871083872029 -0.28652652239651882 0 -0.3965491873424003 -0.28999883158101297 0 -0.39405235771939379 -0.27961982616596798 0 -0.3965491873424003 -0.28999883158101297 0 -0.40363759890028139 -0.28402751805770149 0 -0.39405235771939379 -0.27961982616596798 0 -0.40777021565800992 -0.29232351964529191 0 -0.3965491873424003 -0.28999883158101297 0 -0.40777021565800992 -0.29232351964529191 0 -0.40320553149000682 -0.2981246398524427 0 -0.3965491873424003 -0.28999883158101297 0 -0.40320553149000682 -0.2981246398524427 0 -0.3965491873424003 -0.28999883158101297 0 -0.40777021565800992 -0.29232351964529191 0 -0.40320553149000682 -0.2981246398524427 0 -0.40777021565800992 -0.29232351964529191 0 -0.3965491873424003 -0.28999883158101297 0 -0.40363759890028139 -0.28402751805770149 0 -0.40557632156009937 -0.27422882873220927 0 -0.38788839707949829 -0.26998703561214299 0 -0.40557632156009937 -0.27422882873220927 0 -0.39405235771939379 -0.27961982616596798 0 -0.38788839707949829 -0.26998703561214299 0 -0.40363759890028139 -0.28402751805770149 0 -0.40557632156009937 -0.27422882873220927 0 -0.39405235771939379 -0.27961982616596798 0 -0.40557632156009937 -0.27422882873220927 0 -0.38788839707949829 -0.26998703561214299 0 -0.40129465933597153 -0.26241100911498649 0 -0.37978871083872029 -0.28652652239651882 0 -0.39405235771939379 -0.27961982616596798 0 -0.38788839707949829 -0.26998703561214299 0 -0.38788839707949829 -0.26998703561214299 0 -0.37020047259889771 -0.26574524249207482 0 -0.37978871083872029 -0.28652652239651882 0 -0.38788839707949829 -0.26998703561214299 0 -0.37020047259889771 -0.26574524249207482 0 -0.38788839707949829 -0.26998703561214299 0 -0.38721168238953191 -0.25610190145059353 0 -0.37020047259889771 -0.26574524249207482 0 -0.38721168238953191 -0.25610190145059353 0 -0.37020047259889771 -0.26574524249207482 0 -0.37953408035529068 -0.24322017605904961 0 -0.38721168238953191 -0.25610190145059353 0 -0.40129465933597153 -0.26241100911498649 0 -0.40018729681001958 -0.25118908704005588 0 -0.38721168238953191 -0.25610190145059353 0 -0.40018729681001958 -0.25118908704005588 0 -0.39156228926676601 -0.2468395420795185 0 -0.38788839707949829 -0.26998703561214299 0 -0.38721168238953191 -0.25610190145059353 0 -0.40129465933597153 -0.26241100911498649 0 -0.40129465933597153 -0.26241100911498649 0 -0.40018729681001958 -0.25118908704005588 0 -0.40934903348636681 -0.25585188338772002 0 -0.40018729681001958 -0.25118908704005588 0 -0.40934903348636681 -0.25585188338772002 0 -0.40844827848514048 -0.2485916648633418 0 -0.40934903348636681 -0.25585188338772002 0 -0.41542581743551232 -0.2501483478391463 0 -0.41563823959024321 -0.2578910172033726 0 -0.40934903348636681 -0.25585188338772002 0 -0.41542581743551232 -0.2501483478391463 0 -0.40844827848514048 -0.2485916648633418 0 -0.41542581743551232 -0.2501483478391463 0 -0.42100006853973931 -0.25520242785650532 0 -0.41563823959024321 -0.2578910172033726 0 -0.41542581743551232 -0.2501483478391463 0 -0.42100006853973931 -0.25520242785650532 0 -0.42140838806380199 -0.25016100129551339 0 -0.42100006853973931 -0.25520242785650532 0 -0.41963893566624411 -0.26178204930624771 0 -0.41563823959024321 -0.2578910172033726 0 -0.41963893566624411 -0.26178204930624771 0 -0.41563823959024321 -0.2578910172033726 0 -0.4128684775846348 -0.26408580838513851 0 -0.40129465933597153 -0.26241100911498649 0 -0.40934903348636681 -0.25585188338772002 0 -0.4128684775846348 -0.26408580838513851 0 -0.40934903348636681 -0.25585188338772002 0 -0.41563823959024321 -0.2578910172033726 0 -0.4128684775846348 -0.26408580838513851 0 -0.40557632156009937 -0.27422882873220927 0 -0.40129465933597153 -0.26241100911498649 0 -0.4128684775846348 -0.26408580838513851 0 -0.40363759890028139 -0.28402751805770149 0 -0.40557632156009937 -0.27422882873220927 0 -0.42335643306588222 -0.27251546339647642 0 -0.40557632156009937 -0.27422882873220927 0 -0.4128684775846348 -0.26408580838513851 0 -0.42335643306588222 -0.27251546339647642 0 -0.41963893566624411 -0.26178204930624771 0 -0.4128684775846348 -0.26408580838513851 0 -0.42335643306588222 -0.27251546339647642 0 -0.44054254577066781 -0.28847033700239022 0 -0.4304913903625493 -0.28298675878306662 0 -0.4352974930619084 -0.27123107367539068 0 -0.4304913903625493 -0.28298675878306662 0 -0.42294028170042552 -0.28572166478768418 0 -0.42335643306588222 -0.27251546339647642 0 -0.4304913903625493 -0.28298675878306662 0 -0.42335643306588222 -0.27251546339647642 0 -0.4352974930619084 -0.27123107367539068 0 -0.4389426504737548 -0.25270740714766132 0 -0.42335643306588222 -0.27251546339647642 0 -0.4389426504737548 -0.25270740714766132 0 -0.42335643306588222 -0.27251546339647642 0 -0.43152814158346581 -0.25779882904706541 0 -0.4389426504737548 -0.25270740714766132 0 -0.42335643306588222 -0.27251546339647642 0 -0.4352974930619084 -0.27123107367539068 0 -0.4389426504737548 -0.25270740714766132 0 -0.4352974930619084 -0.27123107367539068 0 -0.4389426504737548 -0.25270740714766132 0 -0.4349696051544294 -0.25347106351897281 0 -0.43152814158346581 -0.25779882904706541 0 -0.4389426504737548 -0.25270740714766132 0 -0.43594643014115519 -0.25096638326140119 0 -0.4349696051544294 -0.25347106351897281 0 -0.4389426504737548 -0.25270740714766132 0 -0.43594643014115519 -0.25096638326140119 0 -0.43586909012950109 -0.2484911696998488 0 -0.43594643014115519 -0.25096638326140119 0 -0.4349696051544294 -0.25347106351897281 0 -0.43258328038296529 -0.25249783338259008 0 -0.43594643014115519 -0.25096638326140119 0 -0.43258328038296529 -0.25249783338259008 0 -0.43418682639696599 -0.24953622661342989 0 -0.43258328038296529 -0.25249783338259008 0 -0.43202674921002587 -0.24950329479089331 0 -0.43418682639696599 -0.24953622661342989 0 -0.43258328038296529 -0.25249783338259008 0 -0.42986929098998011 -0.25208413271153751 0 -0.42906065808449662 -0.25478536941866781 0 -0.42986929098998011 -0.25208413271153751 0 -0.42833614167239192 -0.24905357661582869 0 -0.43202674921002587 -0.24950329479089331 0 -0.43258328038296529 -0.25249783338259008 0 -0.42986929098998011 -0.25208413271153751 0 -0.43202674921002587 -0.24950329479089331 0 -0.4349696051544294 -0.25347106351897281 0 -0.43258328038296529 -0.25249783338259008 0 -0.43152814158346581 -0.25779882904706541 0 -0.43258328038296529 -0.25249783338259008 0 -0.43152814158346581 -0.25779882904706541 0 -0.42906065808449662 -0.25478536941866781 0 -0.43152814158346581 -0.25779882904706541 0 -0.42906065808449662 -0.25478536941866781 0 -0.42533145955072121 -0.25921552968974548 0 -0.42906065808449662 -0.25478536941866781 0 -0.42549114788668763 -0.25254843446980568 0 -0.42533145955072121 -0.25921552968974548 0 -0.42986929098998011 -0.25208413271153751 0 -0.42906065808449662 -0.25478536941866781 0 -0.42549114788668763 -0.25254843446980568 0 -0.42986929098998011 -0.25208413271153751 0 -0.42549114788668763 -0.25254843446980568 0 -0.42833614167239192 -0.24905357661582869 0 -0.42100006853973931 -0.25520242785650532 0 -0.42140838806380199 -0.25016100129551339 0 -0.42549114788668763 -0.25254843446980568 0 -0.42140838806380199 -0.25016100129551339 0 -0.42549114788668763 -0.25254843446980568 0 -0.42475252193411439 -0.24774016481985631 0 -0.42100006853973931 -0.25520242785650532 0 -0.42549114788668763 -0.25254843446980568 0 -0.42533145955072121 -0.25921552968974548 0 -0.41963893566624411 -0.26178204930624771 0 -0.42335643306588222 -0.27251546339647642 0 -0.42533145955072121 -0.25921552968974548 0 -0.42100006853973931 -0.25520242785650532 0 -0.41963893566624411 -0.26178204930624771 0 -0.42533145955072121 -0.25921552968974548 0 -0.42335643306588222 -0.27251546339647642 0 -0.43152814158346581 -0.25779882904706541 0 -0.42533145955072121 -0.25921552968974548 0 -0.32050784626065842 -0.25382830782002069 0 -0.33173734182631742 -0.27657160196734182 0 -0.31225183845298038 -0.26261105251146949 0 -0.32050784626065842 -0.25382830782002069 0 -0.33173734182631742 -0.27657160196734182 0 -0.33173734182631742 -0.27657160196734182 0 -0.30329641340065733 -0.2706794247988536 0 -0.31225183845298038 -0.26261105251146949 0 -0.33173734182631742 -0.27657160196734182 0 -0.30329641340065733 -0.2706794247988536 0 -0.33173734182631742 -0.27657160196734182 0 -0.31099113844259679 -0.2893823335898032 0 -0.30329641340065733 -0.2706794247988536 0 -0.33173734182631742 -0.27657160196734182 0 -0.34535415942977782 -0.25978677515604909 0 -0.34738278808067902 -0.2798129075896828 0 -0.33173734182631742 -0.27657160196734182 0 -0.34738278808067902 -0.2798129075896828 0 -0.32050784626065842 -0.25382830782002069 0 -0.33173734182631742 -0.27657160196734182 0 -0.34535415942977782 -0.25978677515604909 0 -0.32050784626065842 -0.25382830782002069 0 -0.34535415942977782 -0.25978677515604909 0 -0.32050784626065842 -0.25382830782002069 0 -0.34535415942977782 -0.25978677515604909 0 -0.32662014791836891 -0.24423130278041499 0 -0.34535415942977782 -0.25978677515604909 0 -0.37020047259889771 -0.26574524249207482 0 -0.35983065419888077 -0.24611141835864769 0 -0.34535415942977782 -0.25978677515604909 0 -0.37020047259889771 -0.26574524249207482 0 -0.37020047259889771 -0.26574524249207482 0 -0.35983065419888077 -0.24611141835864769 0 -0.37953408035529068 -0.24322017605904961 0 -0.37020047259889771 -0.26574524249207482 0 -0.37953408035529068 -0.24322017605904961 0 -0.37020047259889771 -0.26574524249207482 0 -0.35649141361109871 -0.27209978461245649 0 -0.36302823433504139 -0.28305421321202012 0 -0.37020047259889771 -0.26574524249207482 0 -0.36302823433504139 -0.28305421321202012 0 -0.37978871083872029 -0.28652652239651882 0 -0.37020047259889771 -0.26574524249207482 0 -0.36302823433504139 -0.28305421321202012 0 -0.34738278808067902 -0.2798129075896828 0 -0.35649141361109871 -0.27209978461245649 0 -0.36302823433504139 -0.28305421321202012 0 -0.34535415942977782 -0.25978677515604909 0 -0.37020047259889771 -0.26574524249207482 0 -0.35649141361109871 -0.27209978461245649 0 -0.34535415942977782 -0.25978677515604909 0 -0.34738278808067902 -0.2798129075896828 0 -0.35649141361109871 -0.27209978461245649 0 -0.34738278808067902 -0.2798129075896828 0 -0.36302823433504139 -0.28305421321202012 0 -0.35661959364295781 -0.29852037175459062 0 -0.34738278808067902 -0.2798129075896828 0 -0.36302823433504139 -0.28305421321202012 0 -0.34738278808067902 -0.2798129075896828 0 -0.35661959364295781 -0.29852037175459062 0 -0.34097414738859327 -0.29527906613225241 0 -0.37978871083872029 -0.28652652239651882 0 -0.36302823433504139 -0.28305421321202012 0 -0.37116758007532841 -0.29841529353526941 0 -0.37978871083872029 -0.28652652239651882 0 -0.36302823433504139 -0.28305421321202012 0 -0.36302823433504139 -0.28305421321202012 0 -0.35661959364295781 -0.29852037175459062 0 -0.36302823433504139 -0.28305421321202012 0 -0.37116758007532841 -0.29841529353526941 0 -0.35661959364295781 -0.29852037175459062 0 -0.37116758007532841 -0.29841529353526941 0 -0.35661959364295781 -0.29852037175459062 0 -0.36804814133373448 -0.31680641467567577 0 -0.35661959364295781 -0.29852037175459062 0 -0.34097414738859327 -0.29527906613225241 0 -0.35021095295087368 -0.31398653029716089 0 -0.35661959364295781 -0.29852037175459062 0 -0.35021095295087368 -0.31398653029716089 0 -0.36804814133373448 -0.31680641467567577 0 -0.34097414738859327 -0.29527906613225241 0 -0.35021095295087368 -0.31398653029716089 0 -0.35661959364295781 -0.29852037175459062 0 -0.35021095295087368 -0.31398653029716089 0 -0.33614055977059543 -0.30927356932235123 0 -0.34097414738859327 -0.29527906613225241 0 -0.32494089789458502 -0.30042147957655052 0 -0.33614055977059543 -0.30927356932235123 0 -0.34097414738859327 -0.29527906613225241 0 -0.35021095295087368 -0.31398653029716089 0 -0.33173734182631742 -0.27657160196734182 0 -0.34097414738859327 -0.29527906613225241 0 -0.32494089789458502 -0.30042147957655052 0 -0.33173734182631742 -0.27657160196734182 0 -0.34097414738859327 -0.29527906613225241 0 -0.33173734182631742 -0.27657160196734182 0 -0.34738278808067902 -0.2798129075896828 0 -0.34097414738859327 -0.29527906613225241 0 -0.33173734182631742 -0.27657160196734182 0 -0.32494089789458502 -0.30042147957655052 0 -0.31099113844259679 -0.2893823335898032 0 -0.33614055977059543 -0.30927356932235123 0 -0.32494089789458502 -0.30042147957655052 0 -0.31960530260259512 -0.31819580661564562 0 -0.32494089789458502 -0.30042147957655052 0 -0.30215461730164511 -0.30858889979607018 0 -0.31099113844259679 -0.2893823335898032 0 -0.32494089789458502 -0.30042147957655052 0 -0.31960530260259512 -0.31819580661564562 0 -0.30215461730164511 -0.30858889979607018 0 -0.31960530260259512 -0.31819580661564562 0 -0.31912440579942802 -0.33893327342090451 0 -0.33312998037418051 -0.32385580702660233 0 -0.31912440579942802 -0.33893327342090451 0 -0.3397352405980455 -0.33926787089336569 0 -0.33312998037418051 -0.32385580702660233 0 -0.33614055977059543 -0.30927356932235123 0 -0.31960530260259512 -0.31819580661564562 0 -0.33312998037418051 -0.32385580702660233 0 -0.3397352405980455 -0.33926787089336569 0 -0.33312998037418051 -0.32385580702660233 0 -0.35021095295087368 -0.31398653029716089 0 -0.33614055977059543 -0.30927356932235123 0 -0.33312998037418051 -0.32385580702660233 0 -0.35021095295087368 -0.31398653029716089 0 -0.35021095295087368 -0.31398653029716089 0 -0.36804814133373448 -0.31680641467567577 0 -0.3594421407563233 -0.33268261672072991 0 -0.35021095295087368 -0.31398653029716089 0 -0.3594421407563233 -0.33268261672072991 0 -0.3397352405980455 -0.33926787089336569 0 -0.35021095295087368 -0.31398653029716089 0 -0.38576874367796937 -0.32028453052643419 0 -0.36804814133373448 -0.31680641467567577 0 -0.36833195586593143 -0.34244442120042512 0 -0.36804814133373448 -0.31680641467567577 0 -0.36833195586593143 -0.34244442120042512 0 -0.3594421407563233 -0.33268261672072991 0 -0.36833195586593143 -0.34244442120042512 0 -0.3594421407563233 -0.33268261672072991 0 -0.35625843613041969 -0.3445106927101082 0 -0.3397352405980455 -0.33926787089336569 0 -0.35021095295087368 -0.31398653029716089 0 -0.3594421407563233 -0.33268261672072991 0 -0.3397352405980455 -0.33926787089336569 0 -0.3594421407563233 -0.33268261672072991 0 -0.35625843613041969 -0.3445106927101082 0 -0.3397352405980455 -0.33926787089336569 0 -0.3497381064761263 -0.35551991162687002 0 -0.35625843613041969 -0.3445106927101082 0 -0.3497381064761263 -0.35551991162687002 0 -0.36296459655453228 -0.35278598293046881 0 -0.36057434821774909 -0.36323197280533792 0 -0.3497381064761263 -0.35551991162687002 0 -0.35625843613041969 -0.3445106927101082 0 -0.36296459655453228 -0.35278598293046881 0 -0.36833195586593143 -0.34244442120042512 0 -0.35625843613041969 -0.3445106927101082 0 -0.36296459655453228 -0.35278598293046881 0 -0.36296459655453228 -0.35278598293046881 0 -0.36955765062741192 -0.35928923722609057 0 -0.36057434821774909 -0.36323197280533792 0 -0.36296459655453228 -0.35278598293046881 0 -0.37332708200955528 -0.35171966201398108 0 -0.36955765062741192 -0.35928923722609057 0 -0.38074737987289931 -0.35781140828315688 0 -0.37332708200955528 -0.35171966201398108 0 -0.36955765062741192 -0.35928923722609057 0 -0.36833195586593143 -0.34244442120042512 0 -0.36296459655453228 -0.35278598293046881 0 -0.37332708200955528 -0.35171966201398108 0 -0.3836089313848538 -0.36866002500846939 0 -0.3700050472277695 -0.36843745757463842 0 -0.36473630665378182 -0.38510333599377988 0 -0.38074737987289931 -0.35781140828315688 0 -0.36955765062741192 -0.35928923722609057 0 -0.3700050472277695 -0.36843745757463842 0 -0.36955765062741192 -0.35928923722609057 0 -0.3700050472277695 -0.36843745757463842 0 -0.36057434821774909 -0.36323197280533792 0 -0.3700050472277695 -0.36843745757463842 0 -0.36057434821774909 -0.36323197280533792 0 -0.36240718813642447 -0.37459025159611908 0 -0.36057434821774909 -0.36323197280533792 0 -0.36240718813642447 -0.37459025159611908 0 -0.35001892475851237 -0.36835911112069408 0 -0.3497381064761263 -0.35551991162687002 0 -0.36057434821774909 -0.36323197280533792 0 -0.35001892475851237 -0.36835911112069408 0 -0.35001892475851237 -0.36835911112069408 0 -0.32925952824521582 -0.36454921148956981 0 -0.34890997922744882 -0.38309503136679629 0 -0.3497381064761263 -0.35551991162687002 0 -0.35001892475851237 -0.36835911112069408 0 -0.32925952824521582 -0.36454921148956981 0 -0.3397352405980455 -0.33926787089336569 0 -0.3497381064761263 -0.35551991162687002 0 -0.32925952824521582 -0.36454921148956981 0 -0.3397352405980455 -0.33926787089336569 0 -0.32925952824521582 -0.36454921148956981 0 -0.31912440579942802 -0.33893327342090451 0 -0.3397352405980455 -0.33926787089336569 0 -0.32925952824521582 -0.36454921148956981 0 -0.31912440579942802 -0.33893327342090451 0 -0.32925952824521582 -0.36454921148956981 0 -0.30219941807998441 -0.35819081476154058 0 -0.32925952824521582 -0.36454921148956981 0 -0.30219941807998441 -0.35819081476154058 0 -0.3041718504579739 -0.37758144383424058 0 -0.30219941807998441 -0.35819081476154058 0 -0.28032319848814968 -0.35069343855699198 0 -0.29693787914820069 -0.33176764961188382 0 -0.30219941807998441 -0.35819081476154058 0 -0.27956782230831301 -0.3747367207536359 0 -0.28032319848814968 -0.35069343855699198 0 -0.30219941807998441 -0.35819081476154058 0 -0.27956782230831301 -0.3747367207536359 0 -0.3041718504579739 -0.37758144383424058 0 -0.27956782230831301 -0.3747367207536359 0 -0.26388965265467601 -0.36112301222566312 0 -0.28032319848814968 -0.35069343855699198 0 -0.27956782230831301 -0.3747367207536359 0 -0.26388965265467601 -0.36112301222566312 0 -0.25258677176254979 -0.37999634244648972 0 -0.26388965265467601 -0.36112301222566312 0 -0.25258677176254979 -0.37999634244648972 0 -0.24449186464062819 -0.35650709316111201 0 -0.26247860607373952 -0.343681466210086 0 -0.24449186464062819 -0.35650709316111201 0 -0.24902044678987631 -0.33891656051858371 0 -0.26388965265467601 -0.36112301222566312 0 -0.26247860607373952 -0.343681466210086 0 -0.24449186464062819 -0.35650709316111201 0 -0.26388965265467601 -0.36112301222566312 0 -0.28032319848814968 -0.35069343855699198 0 -0.26247860607373952 -0.343681466210086 0 -0.28032319848814968 -0.35069343855699198 0 -0.27583476256037992 -0.33203751980168877 0 -0.26247860607373952 -0.343681466210086 0 -0.26247860607373952 -0.343681466210086 0 -0.25708554214186102 -0.32663432041338247 0 -0.24902044678987631 -0.33891656051858371 0 -0.27583476256037992 -0.33203751980168877 0 -0.26247860607373952 -0.343681466210086 0 -0.25708554214186102 -0.32663432041338247 0 -0.25708554214186102 -0.32663432041338247 0 -0.27932968639407768 -0.31223220775685551 0 -0.25267412313519821 -0.30642027558401208 0 -0.27583476256037992 -0.33203751980168877 0 -0.25708554214186102 -0.32663432041338247 0 -0.27932968639407768 -0.31223220775685551 0 -0.27583476256037992 -0.33203751980168877 0 -0.29693787914820069 -0.33176764961188382 0 -0.27932968639407768 -0.31223220775685551 0 -0.29693787914820069 -0.33176764961188382 0 -0.30215461730164511 -0.30858889979607018 0 -0.27932968639407768 -0.31223220775685551 0 -0.28032319848814968 -0.35069343855699198 0 -0.27583476256037992 -0.33203751980168877 0 -0.29693787914820069 -0.33176764961188382 0 -0.31960530260259512 -0.31819580661564562 0 -0.31912440579942802 -0.33893327342090451 0 -0.29693787914820069 -0.33176764961188382 0 -0.31912440579942802 -0.33893327342090451 0 -0.30219941807998441 -0.35819081476154058 0 -0.29693787914820069 -0.33176764961188382 0 -0.31960530260259512 -0.31819580661564562 0 -0.29693787914820069 -0.33176764961188382 0 -0.30215461730164511 -0.30858889979607018 0 -0.31099113844259679 -0.2893823335898032 0 -0.29364025251046172 -0.28938221328704261 0 -0.30329641340065733 -0.2706794247988536 0 -0.30215461730164511 -0.30858889979607018 0 -0.31099113844259679 -0.2893823335898032 0 -0.29364025251046172 -0.28938221328704261 0 -0.30215461730164511 -0.30858889979607018 0 -0.29364025251046172 -0.28938221328704261 0 -0.27932968639407768 -0.31223220775685551 0 -0.29364025251046172 -0.28938221328704261 0 -0.27932968639407768 -0.31223220775685551 0 -0.26979220590698388 -0.29191254421968738 0 -0.27932968639407768 -0.31223220775685551 0 -0.25267412313519821 -0.30642027558401208 0 -0.26979220590698388 -0.29191254421968738 0 -0.25267412313519821 -0.30642027558401208 0 -0.26979220590698388 -0.29191254421968738 0 -0.24820717968232489 -0.27773020112488811 0 -0.29364025251046172 -0.28938221328704261 0 -0.26979220590698388 -0.29191254421968738 0 -0.27510978781285689 -0.2737978233456389 0 -0.26979220590698388 -0.29191254421968738 0 -0.27510978781285689 -0.2737978233456389 0 -0.24820717968232489 -0.27773020112488811 0 -0.27510978781285689 -0.2737978233456389 0 -0.25954954969507738 -0.25229535732207709 0 -0.24820717968232489 -0.27773020112488811 0 -0.25954954969507738 -0.25229535732207709 0 -0.28412636591500062 -0.25887605209081599 0 -0.28419860367085609 -0.24341708642044671 0 -0.27510978781285689 -0.2737978233456389 0 -0.25954954969507738 -0.25229535732207709 0 -0.28412636591500062 -0.25887605209081599 0 -0.28412636591500062 -0.25887605209081599 0 -0.28826915326484731 -0.27110739031509712 0 -0.30020020682106952 -0.26237347253689092 0 -0.28412636591500062 -0.25887605209081599 0 -0.30020020682106952 -0.26237347253689092 0 -0.29513270922840301 -0.24899298810147111 0 -0.28412636591500062 -0.25887605209081599 0 -0.29513270922840301 -0.24899298810147111 0 -0.28419860367085609 -0.24341708642044671 0 -0.29364025251046172 -0.28938221328704261 0 -0.28826915326484731 -0.27110739031509712 0 -0.30020020682106952 -0.26237347253689092 0 -0.27510978781285689 -0.2737978233456389 0 -0.28412636591500062 -0.25887605209081599 0 -0.28826915326484731 -0.27110739031509712 0 -0.29364025251046172 -0.28938221328704261 0 -0.27510978781285689 -0.2737978233456389 0 -0.28826915326484731 -0.27110739031509712 0 -0.29364025251046172 -0.28938221328704261 0 -0.30020020682106952 -0.26237347253689092 0 -0.29364025251046172 -0.28938221328704261 0 -0.30329641340065733 -0.2706794247988536 0 -0.30020020682106952 -0.26237347253689092 0 -0.32050784626065842 -0.25382830782002069 0 -0.31225183845298038 -0.26261105251146949 0 -0.30327979995856952 -0.24969412619873371 0 -0.32050784626065842 -0.25382830782002069 0 -0.30327979995856952 -0.24969412619873371 0 -0.31225183845298038 -0.26261105251146949 0 -0.30020020682106952 -0.26237347253689092 0 -0.30327979995856952 -0.24969412619873371 0 -0.30329641340065733 -0.2706794247988536 0 -0.31225183845298038 -0.26261105251146949 0 -0.30020020682106952 -0.26237347253689092 0 -0.30020020682106952 -0.26237347253689092 0 -0.30327979995856952 -0.24969412619873371 0 -0.30020020682106952 -0.26237347253689092 0 -0.30327979995856952 -0.24969412619873371 0 -0.29513270922840301 -0.24899298810147111 0 -0.33023396192133658 -0.45751113189193371 0 -0.33820051324505512 -0.45471195270565162 0 -0.3333212038108897 -0.45025101382661542 0 -0.33023396192133658 -0.45751113189193371 0 -0.33344012459754357 -0.46835349029642381 0 -0.33967555996912302 -0.46046764259057699 0 -0.33344012459754357 -0.46835349029642381 0 -0.33967555996912302 -0.46046764259057699 0 -0.34496135992716148 -0.46907768931091548 0 -0.33967555996912302 -0.46046764259057699 0 -0.34309639354527272 -0.45568613876289182 0 -0.34714888191604931 -0.45988340494162627 0 -0.33023396192133658 -0.45751113189193371 0 -0.33967555996912302 -0.46046764259057699 0 -0.33820051324505512 -0.45471195270565162 0 -0.33967555996912302 -0.46046764259057699 0 -0.33820051324505512 -0.45471195270565162 0 -0.34309639354527272 -0.45568613876289182 0 -0.33820051324505512 -0.45471195270565162 0 -0.34309639354527272 -0.45568613876289182 0 -0.34136566876486368 -0.44930616692196979 0 -0.33820051324505512 -0.45471195270565162 0 -0.34136566876486368 -0.44930616692196979 0 -0.3333212038108897 -0.45025101382661542 0 -0.34136566876486368 -0.44930616692196979 0 -0.3333212038108897 -0.45025101382661542 0 -0.34136566876486368 -0.44930616692196979 0 -0.338317607854979 -0.43799609079981389 0 -0.3483982306941113 -0.43849222923417741 0 -0.34136566876486368 -0.44930616692196979 0 -0.338317607854979 -0.43799609079981389 0 -0.32763512958861912 -0.44226305356713319 0 -0.34136566876486368 -0.44930616692196979 0 -0.3333212038108897 -0.45025101382661542 0 -0.32763512958861912 -0.44226305356713319 0 -0.3333212038108897 -0.45025101382661542 0 -0.32763512958861912 -0.44226305356713319 0 -0.34136566876486368 -0.44930616692196979 0 -0.32763512958861912 -0.44226305356713319 0 -0.3333212038108897 -0.45025101382661542 0 -0.32763512958861912 -0.44226305356713319 0 -0.31760955155113257 -0.4433179087824114 0 -0.3333212038108897 -0.45025101382661542 0 -0.31252217916860392 -0.45269392260494079 0 -0.32763512958861912 -0.44226305356713319 0 -0.31154983312702322 -0.43401206175458162 0 -0.3333212038108897 -0.45025101382661542 0 -0.31760955155113257 -0.4433179087824114 0 -0.31252217916860392 -0.45269392260494079 0 -0.32763512958861912 -0.44226305356713319 0 -0.31760955155113257 -0.4433179087824114 0 -0.31154983312702322 -0.43401206175458162 0 -0.31760955155113257 -0.4433179087824114 0 -0.31154983312702322 -0.43401206175458162 0 -0.31095382937904859 -0.44057965386357739 0 -0.31760955155113257 -0.4433179087824114 0 -0.31252217916860392 -0.45269392260494079 0 -0.31095382937904859 -0.44057965386357739 0 -0.33023396192133658 -0.45751113189193371 0 -0.31252217916860392 -0.45269392260494079 0 -0.31991844502028 -0.46589239151848427 0 -0.33023396192133658 -0.45751113189193371 0 -0.3333212038108897 -0.45025101382661542 0 -0.31252217916860392 -0.45269392260494079 0 -0.33023396192133658 -0.45751113189193371 0 -0.33344012459754357 -0.46835349029642381 0 -0.31991844502028 -0.46589239151848427 0 -0.31991844502028 -0.46589239151848427 0 -0.3250214395742933 -0.47850735020979851 0 -0.30610412273570992 -0.4797244010184738 0 -0.33344012459754357 -0.46835349029642381 0 -0.31991844502028 -0.46589239151848427 0 -0.3250214395742933 -0.47850735020979851 0 -0.3250214395742933 -0.47850735020979851 0 -0.32725924891194069 -0.5 0 -0.30610412273570992 -0.4797244010184738 0 -0.32725924891194069 -0.5 0 -0.33945401474780551 -0.48195585920422312 0 -0.35616222082007643 -0.5 0 -0.3250214395742933 -0.47850735020979851 0 -0.32725924891194069 -0.5 0 -0.33945401474780551 -0.48195585920422312 0 -0.33344012459754357 -0.46835349029642381 0 -0.3250214395742933 -0.47850735020979851 0 -0.33945401474780551 -0.48195585920422312 0 -0.33344012459754357 -0.46835349029642381 0 -0.33945401474780551 -0.48195585920422312 0 -0.34496135992716148 -0.46907768931091548 0 -0.34496135992716148 -0.46907768931091548 0 -0.35428852746645151 -0.47882887855914902 0 -0.35496507357592683 -0.46564203837894552 0 -0.33945401474780551 -0.48195585920422312 0 -0.34496135992716148 -0.46907768931091548 0 -0.35428852746645151 -0.47882887855914902 0 -0.35428852746645151 -0.47882887855914902 0 -0.36474726474857949 -0.47089506232407519 0 -0.35496507357592683 -0.46564203837894552 0 -0.33945401474780551 -0.48195585920422312 0 -0.35428852746645151 -0.47882887855914902 0 -0.35616222082007643 -0.5 0 -0.37514347222647398 -0.48424062661869632 0 -0.35428852746645151 -0.47882887855914902 0 -0.35616222082007643 -0.5 0 -0.37514347222647398 -0.48424062661869632 0 -0.3850651927282121 -0.5 0 -0.35616222082007643 -0.5 0 -0.37844812758986951 -0.46462615501511129 0 -0.37514347222647398 -0.48424062661869632 0 -0.36474726474857949 -0.47089506232407519 0 -0.37514347222647398 -0.48424062661869632 0 -0.35428852746645151 -0.47882887855914902 0 -0.36474726474857949 -0.47089506232407519 0 -0.37844812758986951 -0.46462615501511129 0 -0.36474726474857949 -0.47089506232407519 0 -0.36710954982911309 -0.45960550221968971 0 -0.37961920011530043 -0.45228116051251671 0 -0.36710954982911309 -0.45960550221968971 0 -0.37110539610373888 -0.45101090034997271 0 -0.36710954982911309 -0.45960550221968971 0 -0.35595411641675528 -0.45641426693265152 0 -0.35968616774513529 -0.44715436852988411 0 -0.36474726474857949 -0.47089506232407519 0 -0.36710954982911309 -0.45960550221968971 0 -0.35496507357592683 -0.46564203837894552 0 -0.36710954982911309 -0.45960550221968971 0 -0.35496507357592683 -0.46564203837894552 0 -0.35595411641675528 -0.45641426693265152 0 -0.35496507357592683 -0.46564203837894552 0 -0.35595411641675528 -0.45641426693265152 0 -0.34714888191604931 -0.45988340494162627 0 -0.35595411641675528 -0.45641426693265152 0 -0.34714888191604931 -0.45988340494162627 0 -0.3472922546663757 -0.45234622352686849 0 -0.34309639354527272 -0.45568613876289182 0 -0.34714888191604931 -0.45988340494162627 0 -0.3472922546663757 -0.45234622352686849 0 -0.33967555996912302 -0.46046764259057699 0 -0.34496135992716148 -0.46907768931091548 0 -0.34714888191604931 -0.45988340494162627 0 -0.34496135992716148 -0.46907768931091548 0 -0.35496507357592683 -0.46564203837894552 0 -0.34714888191604931 -0.45988340494162627 0 -0.34136566876486368 -0.44930616692196979 0 -0.35968616774513529 -0.44715436852988411 0 -0.3483982306941113 -0.43849222923417741 0 -0.35968616774513529 -0.44715436852988411 0 -0.35865882938559029 -0.43133891820535752 0 -0.34136566876486368 -0.44930616692196979 0 -0.3472922546663757 -0.45234622352686849 0 -0.35968616774513529 -0.44715436852988411 0 -0.34136566876486368 -0.44930616692196979 0 -0.3483982306941113 -0.43849222923417741 0 -0.35968616774513529 -0.44715436852988411 0 -0.34136566876486368 -0.44930616692196979 0 -0.3472922546663757 -0.45234622352686849 0 -0.34309639354527272 -0.45568613876289182 0 -0.34136566876486368 -0.44930616692196979 0 -0.3472922546663757 -0.45234622352686849 0 -0.35595411641675528 -0.45641426693265152 0 -0.3472922546663757 -0.45234622352686849 0 -0.35968616774513529 -0.44715436852988411 0 -0.37800666672540711 -0.44500257013780048 0 -0.3668762712768307 -0.43894396697236782 0 -0.35968616774513529 -0.44715436852988411 0 -0.37800666672540711 -0.44500257013780048 0 -0.35968616774513529 -0.44715436852988411 0 -0.37110539610373888 -0.45101090034997271 0 -0.3668762712768307 -0.43894396697236782 0 -0.35968616774513529 -0.44715436852988411 0 -0.35865882938559029 -0.43133891820535752 0 -0.37800666672540711 -0.44500257013780048 0 -0.35968616774513529 -0.44715436852988411 0 -0.36710954982911309 -0.45960550221968971 0 -0.35968616774513529 -0.44715436852988411 0 -0.37110539610373888 -0.45101090034997271 0 -0.37543208935069122 -0.43338154311535748 0 -0.37800666672540711 -0.44500257013780048 0 -0.3668762712768307 -0.43894396697236782 0 -0.37543208935069122 -0.43338154311535748 0 -0.3668762712768307 -0.43894396697236782 0 -0.35865882938559029 -0.43133891820535752 0 -0.37543208935069122 -0.43338154311535748 0 -0.35865882938559029 -0.43133891820535752 0 -0.37543208935069122 -0.43338154311535748 0 -0.35809982478251579 -0.41794468643283439 0 -0.35865882938559029 -0.43133891820535752 0 -0.37543208935069122 -0.43338154311535748 0 -0.37008419800223658 -0.40924243955456868 0 -0.35809982478251579 -0.41794468643283439 0 -0.37543208935069122 -0.43338154311535748 0 -0.37008419800223658 -0.40924243955456868 0 -0.37008419800223658 -0.40924243955456868 0 -0.35809982478251579 -0.41794468643283439 0 -0.34873229786184312 -0.39904728376614618 0 -0.35809982478251579 -0.41794468643283439 0 -0.34559363285219569 -0.41543322458423299 0 -0.35329305693391228 -0.42393028551417261 0 -0.35809982478251579 -0.41794468643283439 0 -0.34559363285219569 -0.41543322458423299 0 -0.34873229786184312 -0.39904728376614618 0 -0.34559363285219569 -0.41543322458423299 0 -0.34543833497968718 -0.42618846508044589 0 -0.35329305693391228 -0.42393028551417261 0 -0.34543833497968718 -0.42618846508044589 0 -0.35865882938559029 -0.43133891820535752 0 -0.34188556942048981 -0.42929629329535601 0 -0.35865882938559029 -0.43133891820535752 0 -0.34188556942048981 -0.42929629329535601 0 -0.3483982306941113 -0.43849222923417741 0 -0.35865882938559029 -0.43133891820535752 0 -0.34188556942048981 -0.42929629329535601 0 -0.35809982478251579 -0.41794468643283439 0 -0.35865882938559029 -0.43133891820535752 0 -0.35329305693391228 -0.42393028551417261 0 -0.34543833497968718 -0.42618846508044589 0 -0.35865882938559029 -0.43133891820535752 0 -0.35329305693391228 -0.42393028551417261 0 -0.3836089313848538 -0.36866002500846939 0 -0.36473630665378182 -0.38510333599377988 0 -0.3700050472277695 -0.36843745757463842 0 -0.36240718813642447 -0.37459025159611908 0 -0.36473630665378182 -0.38510333599377988 0 -0.36240718813642447 -0.37459025159611908 0 -0.36473630665378182 -0.38510333599377988 0 -0.37998992640490942 -0.38771237391561209 0 -0.38002763838110248 -0.37978975199532322 0 -0.36473630665378182 -0.38510333599377988 0 -0.37008419800223658 -0.40924243955456868 0 -0.36473630665378182 -0.38510333599377988 0 -0.34873229786184312 -0.39904728376614618 0 -0.37008419800223658 -0.40924243955456868 0 -0.36473630665378182 -0.38510333599377988 0 -0.38106922204580618 -0.40314983210370492 0 -0.37008419800223658 -0.40924243955456868 0 -0.36473630665378182 -0.38510333599377988 0 -0.34873229786184312 -0.39904728376614618 0 -0.34890997922744882 -0.38309503136679629 0 -0.3348424118379954 -0.39091545797067179 0 -0.36473630665378182 -0.38510333599377988 0 -0.34873229786184312 -0.39904728376614618 0 -0.36240718813642447 -0.37459025159611908 0 -0.36473630665378182 -0.38510333599377988 0 -0.34890997922744882 -0.38309503136679629 0 -0.36473630665378182 -0.38510333599377988 0 -0.34873229786184312 -0.39904728376614618 0 -0.34890997922744882 -0.38309503136679629 0 -0.36240718813642447 -0.37459025159611908 0 -0.35001892475851237 -0.36835911112069408 0 -0.34890997922744882 -0.38309503136679629 0 -0.32925952824521582 -0.36454921148956981 0 -0.34890997922744882 -0.38309503136679629 0 -0.3348424118379954 -0.39091545797067179 0 -0.34873229786184312 -0.39904728376614618 0 -0.33272828906990382 -0.41299123153851158 0 -0.34873229786184312 -0.39904728376614618 0 -0.3348424118379954 -0.39091545797067179 0 -0.33272828906990382 -0.41299123153851158 0 -0.3348424118379954 -0.39091545797067179 0 -0.31878381589238608 -0.38983055208577377 0 -0.33272828906990382 -0.41299123153851158 0 -0.31878381589238608 -0.38983055208577377 0 -0.30830810353955829 -0.41511189268197862 0 -0.31878381589238608 -0.38983055208577377 0 -0.33272828906990382 -0.41299123153851158 0 -0.30830810353955829 -0.41511189268197862 0 -0.32925952824521582 -0.36454921148956981 0 -0.31878381589238608 -0.38983055208577377 0 -0.32925952824521582 -0.36454921148956981 0 -0.3348424118379954 -0.39091545797067179 0 -0.31878381589238608 -0.38983055208577377 0 -0.32925952824521582 -0.36454921148956981 0 -0.31878381589238608 -0.38983055208577377 0 -0.3041718504579739 -0.37758144383424058 0 -0.34543833497968718 -0.42618846508044589 0 -0.3312647856570628 -0.43193805677117958 0 -0.32032049295189841 -0.43198724208760059 0 -0.34543833497968718 -0.42618846508044589 0 -0.33080600642868702 -0.42369503271178988 0 -0.32032049295189841 -0.43198724208760059 0 -0.34543833497968718 -0.42618846508044589 0 -0.32032049295189841 -0.43198724208760059 0 -0.338317607854979 -0.43799609079981389 0 -0.32763512958861912 -0.44226305356713319 0 -0.3312647856570628 -0.43193805677117958 0 -0.338317607854979 -0.43799609079981389 0 -0.3312647856570628 -0.43193805677117958 0 -0.34188556942048981 -0.42929629329535601 0 -0.338317607854979 -0.43799609079981389 0 -0.3483982306941113 -0.43849222923417741 0 -0.34188556942048981 -0.42929629329535601 0 -0.34543833497968718 -0.42618846508044589 0 -0.3312647856570628 -0.43193805677117958 0 -0.34188556942048981 -0.42929629329535601 0 -0.34543833497968718 -0.42618846508044589 0 -0.33080600642868702 -0.42369503271178988 0 -0.33864156583261851 -0.41957698847874508 0 -0.34559363285219569 -0.41543322458423299 0 -0.34873229786184312 -0.39904728376614618 0 -0.33272828906990382 -0.41299123153851158 0 -0.34559363285219569 -0.41543322458423299 0 -0.34543833497968718 -0.42618846508044589 0 -0.33864156583261851 -0.41957698847874508 0 -0.34559363285219569 -0.41543322458423299 0 -0.33864156583261851 -0.41957698847874508 0 -0.33272828906990382 -0.41299123153851158 0 -0.33080600642868702 -0.42369503271178988 0 -0.33864156583261851 -0.41957698847874508 0 -0.33272828906990382 -0.41299123153851158 0 -0.33272828906990382 -0.41299123153851158 0 -0.3167242802779644 -0.4269351793108771 0 -0.33080600642868702 -0.42369503271178988 0 -0.33272828906990382 -0.41299123153851158 0 -0.3167242802779644 -0.4269351793108771 0 -0.33272828906990382 -0.41299123153851158 0 -0.3167242802779644 -0.4269351793108771 0 -0.30830810353955829 -0.41511189268197862 0 -0.3167242802779644 -0.4269351793108771 0 -0.30830810353955829 -0.41511189268197862 0 -0.32763512958861912 -0.44226305356713319 0 -0.32032049295189841 -0.43198724208760059 0 -0.31154983312702322 -0.43401206175458162 0 -0.3167242802779644 -0.4269351793108771 0 -0.32032049295189841 -0.43198724208760059 0 -0.33080600642868702 -0.42369503271178988 0 -0.3167242802779644 -0.4269351793108771 0 -0.32032049295189841 -0.43198724208760059 0 -0.32763512958861912 -0.44226305356713319 0 -0.32032049295189841 -0.43198724208760059 0 -0.32763512958861912 -0.44226305356713319 0 -0.3312647856570628 -0.43193805677117958 0 -0.32032049295189841 -0.43198724208760059 0 -0.32032049295189841 -0.43198724208760059 0 -0.31154983312702322 -0.43401206175458162 0 -0.3167242802779644 -0.4269351793108771 0 -0.32032049295189841 -0.43198724208760059 0 -0.31154983312702322 -0.43401206175458162 0 -0.3167242802779644 -0.4269351793108771 0 -0.30969429133335569 -0.43306025709347229 0 -0.3167242802779644 -0.4269351793108771 0 -0.31154983312702322 -0.43401206175458162 0 -0.30969429133335569 -0.43306025709347229 0 -0.31154983312702322 -0.43401206175458162 0 -0.30753915891521871 -0.43493797749913238 0 -0.31154983312702322 -0.43401206175458162 0 -0.30753915891521871 -0.43493797749913238 0 -0.31095382937904859 -0.44057965386357739 0 -0.31154983312702322 -0.43401206175458162 0 -0.30969429133335569 -0.43306025709347229 0 -0.30753915891521871 -0.43493797749913238 0 -0.30969429133335569 -0.43306025709347229 0 -0.30753915891521871 -0.43493797749913238 0 -0.31154983312702322 -0.43401206175458162 0 -0.30969429133335569 -0.43306025709347229 0 -0.30969429133335569 -0.43306025709347229 0 -0.3024175846785066 -0.42932765277530671 0 -0.30969429133335569 -0.43306025709347229 0 -0.30753915891521871 -0.43493797749913238 0 -0.3024175846785066 -0.42932765277530671 0 -0.30753915891521871 -0.43493797749913238 0 -0.30452277999137362 -0.4375660834145052 0 -0.30753915891521871 -0.43493797749913238 0 -0.29930518541864659 -0.43683889622202993 0 -0.3024175846785066 -0.42932765277530671 0 -0.30753915891521871 -0.43493797749913238 0 -0.29930518541864659 -0.43683889622202993 0 -0.30753915891521871 -0.43493797749913238 0 -0.29930518541864659 -0.43683889622202993 0 -0.30452277999137362 -0.4375660834145052 0 -0.29930518541864659 -0.43683889622202993 0 -0.3024175846785066 -0.42932765277530671 0 -0.3024175846785066 -0.42932765277530671 0 -0.30830810353955829 -0.41511189268197862 0 -0.3024175846785066 -0.42932765277530671 0 -0.30928606495734567 -0.42610874546540872 0 -0.30830810353955829 -0.41511189268197862 0 -0.3167242802779644 -0.4269351793108771 0 -0.30928606495734567 -0.42610874546540872 0 -0.30830810353955829 -0.41511189268197862 0 -0.30969429133335569 -0.43306025709347229 0 -0.3024175846785066 -0.42932765277530671 0 -0.30928606495734567 -0.42610874546540872 0 -0.3167242802779644 -0.4269351793108771 0 -0.30969429133335569 -0.43306025709347229 0 -0.30928606495734567 -0.42610874546540872 0 -0.30830810353955829 -0.41511189268197862 0 -0.29290234918088981 -0.41086983382882852 0 -0.29393796292393731 -0.3949243067178061 0 -0.3024175846785066 -0.42932765277530671 0 -0.30830810353955829 -0.41511189268197862 0 -0.29290234918088981 -0.41086983382882852 0 -0.3024175846785066 -0.42932765277530671 0 -0.29290234918088981 -0.41086983382882852 0 -0.27808237917474049 -0.41684485012085459 0 -0.29290234918088981 -0.41086983382882852 0 -0.27513740983690071 -0.39695568355566963 0 -0.27808237917474049 -0.41684485012085459 0 -0.29930518541864659 -0.43683889622202993 0 -0.3024175846785066 -0.42932765277530671 0 -0.28389648831284381 -0.43101043378564868 0 -0.3024175846785066 -0.42932765277530671 0 -0.27808237917474049 -0.41684485012085459 0 -0.29930518541864659 -0.43683889622202993 0 -0.28389648831284381 -0.43101043378564868 0 -0.27077598692125182 -0.44342522876191259 0 -0.3024175846785066 -0.42932765277530671 0 -0.28389648831284381 -0.43101043378564868 0 -0.27808237917474049 -0.41684485012085459 0 -0.31878381589238608 -0.38983055208577377 0 -0.3041718504579739 -0.37758144383424058 0 -0.29393796292393731 -0.3949243067178061 0 -0.30830810353955829 -0.41511189268197862 0 -0.29393796292393731 -0.3949243067178061 0 -0.31878381589238608 -0.38983055208577377 0 -0.30830810353955829 -0.41511189268197862 0 -0.29393796292393731 -0.3949243067178061 0 -0.29290234918088981 -0.41086983382882852 0 -0.29393796292393731 -0.3949243067178061 0 -0.27513740983690071 -0.39695568355566963 0 -0.27956782230831301 -0.3747367207536359 0 -0.29393796292393731 -0.3949243067178061 0 -0.27513740983690071 -0.39695568355566963 0 -0.27956782230831301 -0.3747367207536359 0 -0.29393796292393731 -0.3949243067178061 0 -0.27956782230831301 -0.3747367207536359 0 -0.3041718504579739 -0.37758144383424058 0 -0.29393796292393731 -0.3949243067178061 0 -0.27956782230831301 -0.3747367207536359 0 -0.27513740983690071 -0.39695568355566963 0 -0.25258677176254979 -0.37999634244648972 0 -0.27513740983690071 -0.39695568355566963 0 -0.25374717367097449 -0.40436204746640247 0 -0.27808237917474049 -0.41684485012085459 0 -0.27513740983690071 -0.39695568355566963 0 -0.25374717367097449 -0.40436204746640247 0 -0.25258677176254979 -0.37999634244648972 0 -0.28389648831284381 -0.43101043378564868 0 -0.26636019267332411 -0.42655799057767768 0 -0.27077598692125182 -0.44342522876191259 0 -0.28389648831284381 -0.43101043378564868 0 -0.26636019267332411 -0.42655799057767768 0 -0.27808237917474049 -0.41684485012085459 0 -0.25374717367097449 -0.40436204746640247 0 -0.27808237917474049 -0.41684485012085459 0 -0.25374717367097449 -0.40436204746640247 0 -0.26636019267332411 -0.42655799057767768 0 -0.27808237917474049 -0.41684485012085459 0 -0.25374717367097449 -0.40436204746640247 0 -0.26636019267332411 -0.42655799057767768 0 -0.25094132569520111 -0.42653043810890462 0 -0.26636019267332411 -0.42655799057767768 0 -0.25932663394837258 -0.43413983994257949 0 -0.27077598692125182 -0.44342522876191259 0 -0.26636019267332411 -0.42655799057767768 0 -0.25094132569520111 -0.42653043810890462 0 -0.25932663394837258 -0.43413983994257949 0 -0.25094132569520111 -0.42653043810890462 0 -0.25932663394837258 -0.43413983994257949 0 -0.2492290305037132 -0.44004570232182288 0 -0.26860270028303002 -0.45785239913709752 0 -0.27077598692125182 -0.44342522876191259 0 -0.24224678842385669 -0.45001156130179443 0 -0.25932663394837258 -0.43413983994257949 0 -0.27077598692125182 -0.44342522876191259 0 -0.2492290305037132 -0.44004570232182288 0 -0.27077598692125182 -0.44342522876191259 0 -0.2492290305037132 -0.44004570232182288 0 -0.24224678842385669 -0.45001156130179443 0 -0.27077598692125182 -0.44342522876191259 0 -0.24224678842385669 -0.45001156130179443 0 -0.26860270028303002 -0.45785239913709752 0 -0.25966940784517739 -0.47912124829001113 0 -0.2454822460397422 -0.46056796689093032 0 -0.26860270028303002 -0.45785239913709752 0 -0.24224678842385669 -0.45001156130179443 0 -0.2454822460397422 -0.46056796689093032 0 -0.26860270028303002 -0.45785239913709752 0 -0.2454822460397422 -0.46056796689093032 0 -0.26860270028303002 -0.45785239913709752 0 -0.29172315452631797 -0.45513683138326527 0 -0.26860270028303002 -0.45785239913709752 0 -0.28591583727541031 -0.46915179861657019 0 -0.27340600165385048 -0.47285770727869653 0 -0.26860270028303002 -0.45785239913709752 0 -0.27077598692125182 -0.44342522876191259 0 -0.29172315452631797 -0.45513683138326527 0 -0.29930518541864659 -0.43683889622202993 0 -0.27077598692125182 -0.44342522876191259 0 -0.29172315452631797 -0.45513683138326527 0 -0.29930518541864659 -0.43683889622202993 0 -0.29172315452631797 -0.45513683138326527 0 -0.29930518541864659 -0.43683889622202993 0 -0.27077598692125182 -0.44342522876191259 0 -0.29172315452631797 -0.45513683138326527 0 -0.30323674774526438 -0.46451986902834691 0 -0.28591583727541031 -0.46915179861657019 0 -0.26860270028303002 -0.45785239913709752 0 -0.29172315452631797 -0.45513683138326527 0 -0.28591583727541031 -0.46915179861657019 0 -0.29172315452631797 -0.45513683138326527 0 -0.28591583727541031 -0.46915179861657019 0 -0.31252217916860392 -0.45269392260494079 0 -0.31991844502028 -0.46589239151848427 0 -0.30323674774526438 -0.46451986902834691 0 -0.31252217916860392 -0.45269392260494079 0 -0.29172315452631797 -0.45513683138326527 0 -0.31252217916860392 -0.45269392260494079 0 -0.29172315452631797 -0.45513683138326527 0 -0.30323674774526438 -0.46451986902834691 0 -0.31252217916860392 -0.45269392260494079 0 -0.29172315452631797 -0.45513683138326527 0 -0.30452277999137362 -0.4375660834145052 0 -0.29930518541864659 -0.43683889622202993 0 -0.29172315452631797 -0.45513683138326527 0 -0.30452277999137362 -0.4375660834145052 0 -0.31252217916860392 -0.45269392260494079 0 -0.31095382937904859 -0.44057965386357739 0 -0.30452277999137362 -0.4375660834145052 0 -0.30753915891521871 -0.43493797749913238 0 -0.31095382937904859 -0.44057965386357739 0 -0.30452277999137362 -0.4375660834145052 0 -0.32725924891194069 -0.5 0 -0.29835627700380518 -0.5 0 -0.30610412273570992 -0.4797244010184738 0 -0.30323674774526438 -0.46451986902834691 0 -0.30610412273570992 -0.4797244010184738 0 -0.28591583727541031 -0.46915179861657019 0 -0.31991844502028 -0.46589239151848427 0 -0.30323674774526438 -0.46451986902834691 0 -0.30610412273570992 -0.4797244010184738 0 -0.30610412273570992 -0.4797244010184738 0 -0.28591583727541031 -0.46915179861657019 0 -0.28206127028271433 -0.48564207822521072 0 -0.29835627700380518 -0.5 0 -0.28206127028271433 -0.48564207822521072 0 -0.26945330509566973 -0.5 0 -0.29835627700380518 -0.5 0 -0.30610412273570992 -0.4797244010184738 0 -0.28206127028271433 -0.48564207822521072 0 -0.28206127028271433 -0.48564207822521072 0 -0.26945330509566973 -0.5 0 -0.25966940784517739 -0.47912124829001113 0 -0.28591583727541031 -0.46915179861657019 0 -0.28206127028271433 -0.48564207822521072 0 -0.27340600165385048 -0.47285770727869653 0 -0.26860270028303002 -0.45785239913709752 0 -0.27340600165385048 -0.47285770727869653 0 -0.25966940784517739 -0.47912124829001113 0 -0.28206127028271433 -0.48564207822521072 0 -0.27340600165385048 -0.47285770727869653 0 -0.25966940784517739 -0.47912124829001113 0 -0.26945330509566973 -0.5 0 -0.25966940784517739 -0.47912124829001113 0 -0.2405503331875341 -0.5 0 -0.2405503331875341 -0.5 0 -0.24147188793451299 -0.47639250308795988 0 -0.2236654683443329 -0.47886189420085579 0 -0.25966940784517739 -0.47912124829001113 0 -0.2405503331875341 -0.5 0 -0.24147188793451299 -0.47639250308795988 0 -0.25966940784517739 -0.47912124829001113 0 -0.24147188793451299 -0.47639250308795988 0 -0.2454822460397422 -0.46056796689093032 0 -0.24147188793451299 -0.47639250308795988 0 -0.2236654683443329 -0.47886189420085579 0 -0.23331679613378131 -0.46448636386464331 0 -0.2405503331875341 -0.5 0 -0.2236654683443329 -0.47886189420085579 0 -0.21164736127939851 -0.5 0 -0.24224678842385669 -0.45001156130179443 0 -0.22523827822959769 -0.44188035109342427 0 -0.2381800511064617 -0.43459188905467128 0 -0.2492290305037132 -0.44004570232182288 0 -0.24224678842385669 -0.45001156130179443 0 -0.2381800511064617 -0.43459188905467128 0 -0.24147188793451299 -0.47639250308795988 0 -0.2454822460397422 -0.46056796689093032 0 -0.23331679613378131 -0.46448636386464331 0 -0.24224678842385669 -0.45001156130179443 0 -0.2454822460397422 -0.46056796689093032 0 -0.23331679613378131 -0.46448636386464331 0 -0.24224678842385669 -0.45001156130179443 0 -0.23331679613378131 -0.46448636386464331 0 -0.21371758992646159 -0.45659789384167632 0 -0.24224678842385669 -0.45001156130179443 0 -0.21371758992646159 -0.45659789384167632 0 -0.2236654683443329 -0.47886189420085579 0 -0.23331679613378131 -0.46448636386464331 0 -0.21371758992646159 -0.45659789384167632 0 -0.24224678842385669 -0.45001156130179443 0 -0.22523827822959769 -0.44188035109342427 0 -0.21371758992646159 -0.45659789384167632 0 -0.22523827822959769 -0.44188035109342427 0 -0.21371758992646159 -0.45659789384167632 0 -0.21087222608981809 -0.43731749366957873 0 -0.21371758992646159 -0.45659789384167632 0 -0.19431715512605849 -0.44533098057738119 0 -0.21087222608981809 -0.43731749366957873 0 -0.21371758992646159 -0.45659789384167632 0 -0.19431715512605849 -0.44533098057738119 0 -0.1851883914290666 -0.46318422638155798 0 -0.21371758992646159 -0.45659789384167632 0 -0.20359972347670369 -0.47785294746246948 0 -0.1851883914290666 -0.46318422638155798 0 -0.21371758992646159 -0.45659789384167632 0 -0.1851883914290666 -0.46318422638155798 0 -0.2236654683443329 -0.47886189420085579 0 -0.21164736127939851 -0.5 0 -0.20359972347670369 -0.47785294746246948 0 -0.2236654683443329 -0.47886189420085579 0 -0.21371758992646159 -0.45659789384167632 0 -0.20359972347670369 -0.47785294746246948 0 -0.20359972347670369 -0.47785294746246948 0 -0.18634632577100149 -0.48042423934147072 0 -0.1851883914290666 -0.46318422638155798 0 -0.21164736127939851 -0.5 0 -0.20359972347670369 -0.47785294746246948 0 -0.18274438937126269 -0.5 0 -0.20359972347670369 -0.47785294746246948 0 -0.18274438937126269 -0.5 0 -0.18634632577100149 -0.48042423934147072 0 -0.18274438937126269 -0.5 0 -0.17385279880697299 -0.48065978352185518 0 -0.18634632577100149 -0.48042423934147072 0 -0.17385279880697299 -0.48065978352185518 0 -0.15384141746312699 -0.5 0 -0.14512727131153541 -0.47681146926744261 0 -0.18274438937126269 -0.5 0 -0.17385279880697299 -0.48065978352185518 0 -0.15384141746312699 -0.5 0 -0.16972221321879699 -0.46107122492241182 0 -0.14512727131153541 -0.47681146926744261 0 -0.17385279880697299 -0.48065978352185518 0 -0.16972221321879699 -0.46107122492241182 0 -0.14512727131153541 -0.47681146926744261 0 -0.17385279880697299 -0.48065978352185518 0 -0.18634632577100149 -0.48042423934147072 0 -0.1851883914290666 -0.46318422638155798 0 -0.19431715512605849 -0.44533098057738119 0 -0.16972221321879699 -0.46107122492241182 0 -0.19431715512605849 -0.44533098057738119 0 -0.1851883914290666 -0.46318422638155798 0 -0.16972221321879699 -0.46107122492241182 0 -0.17385279880697299 -0.48065978352185518 0 -0.1851883914290666 -0.46318422638155798 0 -0.16972221321879699 -0.46107122492241182 0 -0.19431715512605849 -0.44533098057738119 0 -0.16806860260148809 -0.44244502757396859 0 -0.16972221321879699 -0.46107122492241182 0 -0.19431715512605849 -0.44533098057738119 0 -0.16806860260148809 -0.44244502757396859 0 -0.1811780206133988 -0.43050860198079982 0 -0.16806860260148809 -0.44244502757396859 0 -0.16972221321879699 -0.46107122492241182 0 -0.15276850631934949 -0.45357253759116861 0 -0.16806860260148809 -0.44244502757396859 0 -0.15276850631934949 -0.45357253759116861 0 -0.1522133126837624 -0.4415172746061915 0 -0.16806860260148809 -0.44244502757396859 0 -0.1522133126837624 -0.4415172746061915 0 -0.15373296530195371 -0.42919946167610651 0 -0.16972221321879699 -0.46107122492241182 0 -0.15276850631934949 -0.45357253759116861 0 -0.14512727131153541 -0.47681146926744261 0 -0.15276850631934949 -0.45357253759116861 0 -0.13655383365729379 -0.45481758154265289 0 -0.14512727131153541 -0.47681146926744261 0 -0.15276850631934949 -0.45357253759116861 0 -0.14271508161640559 -0.44526292719132121 0 -0.13655383365729379 -0.45481758154265289 0 -0.15276850631934949 -0.45357253759116861 0 -0.1522133126837624 -0.4415172746061915 0 -0.14271508161640559 -0.44526292719132121 0 -0.14271508161640559 -0.44526292719132121 0 -0.1399904042157728 -0.43587872664144178 0 -0.1450637698187103 -0.43644768189979272 0 -0.1522133126837624 -0.4415172746061915 0 -0.14271508161640559 -0.44526292719132121 0 -0.1450637698187103 -0.43644768189979272 0 -0.1399904042157728 -0.43587872664144178 0 -0.1129710429447492 -0.449010883885753 0 -0.12970066300354491 -0.44934376086667971 0 -0.1399904042157728 -0.43587872664144178 0 -0.1129710429447492 -0.449010883885753 0 -0.1399904042157728 -0.43587872664144178 0 -0.1129710429447492 -0.449010883885753 0 -0.1232774183690598 -0.43400444003873301 0 -0.14271508161640559 -0.44526292719132121 0 -0.12970066300354491 -0.44934376086667971 0 -0.1399904042157728 -0.43587872664144178 0 -0.14271508161640559 -0.44526292719132121 0 -0.12970066300354491 -0.44934376086667971 0 -0.13655383365729379 -0.45481758154265289 0 -0.13655383365729379 -0.45481758154265289 0 -0.11755531482259821 -0.46108994797363029 0 -0.13655383365729379 -0.45481758154265289 0 -0.1293484221738545 -0.46366986461154219 0 -0.11755531482259821 -0.46108994797363029 0 -0.12970066300354491 -0.44934376086667971 0 -0.13655383365729379 -0.45481758154265289 0 -0.11755531482259821 -0.46108994797363029 0 -0.13655383365729379 -0.45481758154265289 0 -0.1293484221738545 -0.46366986461154219 0 -0.14512727131153541 -0.47681146926744261 0 -0.14512727131153541 -0.47681146926744261 0 -0.1231415635567009 -0.4811885763110848 0 -0.1205323294042738 -0.4925517136124733 0 -0.1289335174196948 -0.47376166080059767 0 -0.14512727131153541 -0.47681146926744261 0 -0.1231415635567009 -0.4811885763110848 0 -0.1293484221738545 -0.46366986461154219 0 -0.1289335174196948 -0.47376166080059767 0 -0.14512727131153541 -0.47681146926744261 0 -0.1293484221738545 -0.46366986461154219 0 -0.1289335174196948 -0.47376166080059767 0 -0.1193056586441843 -0.47176412300197729 0 -0.14512727131153541 -0.47681146926744261 0 -0.1205323294042738 -0.4925517136124733 0 -0.1249384455549911 -0.49999999999999989 0 -0.14512727131153541 -0.47681146926744261 0 -0.1205323294042738 -0.4925517136124733 0 -0.15384141746312699 -0.5 0 -0.14512727131153541 -0.47681146926744261 0 -0.1249384455549911 -0.49999999999999989 0 -0.15213258500557761 -0.37842412287940591 0 -0.13653444934644871 -0.38760753644016799 0 -0.15221219460720559 -0.40757209581428039 0 -0.13653444934644871 -0.38760753644016799 0 -0.15221219460720559 -0.40757209581428039 0 -0.15213258500557761 -0.37842412287940591 0 -0.13653444934644871 -0.38760753644016799 0 -0.13545956894802461 -0.37172073553888069 0 -0.13653444934644871 -0.38760753644016799 0 -0.1208567040856893 -0.36764297706605731 0 -0.1227690920410435 -0.38227919953671008 0 -0.13653444934644871 -0.38760753644016799 0 -0.13545956894802461 -0.37172073553888069 0 -0.1208567040856893 -0.36764297706605731 0 -0.13653444934644871 -0.38760753644016799 0 -0.1208567040856893 -0.36764297706605731 0 -0.13653444934644871 -0.38760753644016799 0 -0.1237576608478264 -0.39524602785007851 0 -0.1227690920410435 -0.38227919953671008 0 -0.13653444934644871 -0.38760753644016799 0 -0.13180959787825361 -0.40903124397135121 0 -0.15221219460720559 -0.40757209581428039 0 -0.13653444934644871 -0.38760753644016799 0 -0.13180959787825361 -0.40903124397135121 0 -0.1237576608478264 -0.39524602785007851 0 -0.13180959787825361 -0.40903124397135121 0 -0.1196910785468695 -0.40670270062759889 0 -0.1237576608478264 -0.39524602785007851 0 -0.13180959787825361 -0.40903124397135121 0 -0.13068609542941531 -0.4243885910825137 0 -0.1170783164590562 -0.42210766762200869 0 -0.13180959787825361 -0.40903124397135121 0 -0.13068609542941531 -0.4243885910825137 0 -0.1412747402249343 -0.42092087713903398 0 -0.13068609542941531 -0.4243885910825137 0 -0.1399904042157728 -0.43587872664144178 0 -0.1232774183690598 -0.43400444003873301 0 -0.1399904042157728 -0.43587872664144178 0 -0.1232774183690598 -0.43400444003873301 0 -0.13068609542941531 -0.4243885910825137 0 -0.1399904042157728 -0.43587872664144178 0 -0.1412747402249343 -0.42092087713903398 0 -0.1399904042157728 -0.43587872664144178 0 -0.1450637698187103 -0.43644768189979272 0 -0.15373296530195371 -0.42919946167610651 0 -0.1399904042157728 -0.43587872664144178 0 -0.15373296530195371 -0.42919946167610651 0 -0.1399904042157728 -0.43587872664144178 0 -0.1450637698187103 -0.43644768189979272 0 -0.1399904042157728 -0.43587872664144178 0 -0.15373296530195371 -0.42919946167610651 0 -0.1412747402249343 -0.42092087713903398 0 -0.1522133126837624 -0.4415172746061915 0 -0.1450637698187103 -0.43644768189979272 0 -0.15373296530195371 -0.42919946167610651 0 -0.15373296530195371 -0.42919946167610651 0 -0.15221219460720559 -0.40757209581428039 0 -0.1412747402249343 -0.42092087713903398 0 -0.13180959787825361 -0.40903124397135121 0 -0.15221219460720559 -0.40757209581428039 0 -0.1412747402249343 -0.42092087713903398 0 -0.15221219460720559 -0.40757209581428039 0 -0.16747552638813459 -0.42252019671077112 0 -0.16664280152193389 -0.39454419338938751 0 -0.16747552638813459 -0.42252019671077112 0 -0.17838212524765679 -0.40427581563762238 0 -0.16664280152193389 -0.39454419338938751 0 -0.15373296530195371 -0.42919946167610651 0 -0.15221219460720559 -0.40757209581428039 0 -0.16747552638813459 -0.42252019671077112 0 -0.16747552638813459 -0.42252019671077112 0 -0.16664280152193389 -0.39454419338938751 0 -0.16806860260148809 -0.44244502757396859 0 -0.16747552638813459 -0.42252019671077112 0 -0.16806860260148809 -0.44244502757396859 0 -0.15373296530195371 -0.42919946167610651 0 -0.16747552638813459 -0.42252019671077112 0 -0.15373296530195371 -0.42919946167610651 0 -0.16747552638813459 -0.42252019671077112 0 -0.1811780206133988 -0.43050860198079982 0 -0.17953216511046391 -0.41666033666628971 0 -0.19649665384084911 -0.42558646837558789 0 -0.16806860260148809 -0.44244502757396859 0 -0.16747552638813459 -0.42252019671077112 0 -0.1811780206133988 -0.43050860198079982 0 -0.16747552638813459 -0.42252019671077112 0 -0.1811780206133988 -0.43050860198079982 0 -0.17953216511046391 -0.41666033666628971 0 -0.16747552638813459 -0.42252019671077112 0 -0.17953216511046391 -0.41666033666628971 0 -0.17838212524765679 -0.40427581563762238 0 -0.16747552638813459 -0.42252019671077112 0 -0.17953216511046391 -0.41666033666628971 0 -0.17953216511046391 -0.41666033666628971 0 -0.17838212524765679 -0.40427581563762238 0 -0.19304145062850081 -0.41177727885004012 0 -0.17838212524765679 -0.40427581563762238 0 -0.18965986940409241 -0.39781626322554492 0 -0.19304145062850081 -0.41177727885004012 0 -0.18011681369209781 -0.39208622435012402 0 -0.1895916926820273 -0.38363351082990171 0 -0.18965986940409241 -0.39781626322554492 0 -0.18011681369209781 -0.39208622435012402 0 -0.17838212524765679 -0.40427581563762238 0 -0.18965986940409241 -0.39781626322554492 0 -0.18011681369209781 -0.39208622435012402 0 -0.17838212524765679 -0.40427581563762238 0 -0.16664280152193389 -0.39454419338938751 0 -0.15213258500557761 -0.37842412287940591 0 -0.15221219460720559 -0.40757209581428039 0 -0.16664280152193389 -0.39454419338938751 0 -0.15213258500557761 -0.37842412287940591 0 -0.16664280152193389 -0.39454419338938751 0 -0.16581007665573361 -0.36656819006800379 0 -0.16664280152193389 -0.39454419338938751 0 -0.16581007665573361 -0.36656819006800379 0 -0.16664280152193389 -0.39454419338938751 0 -0.17666980952567279 -0.38073317609346508 0 -0.16581007665573361 -0.36656819006800379 0 -0.18011681369209781 -0.39208622435012402 0 -0.16664280152193389 -0.39454419338938751 0 -0.17666980952567279 -0.38073317609346508 0 -0.18011681369209781 -0.39208622435012402 0 -0.17666980952567279 -0.38073317609346508 0 -0.1895916926820273 -0.38363351082990171 0 -0.17666980952567279 -0.38073317609346508 0 -0.1895916926820273 -0.38363351082990171 0 -0.18639762704908219 -0.36981493426377121 0 -0.2050767626634426 -0.37939644215749802 0 -0.2036301489038955 -0.38161438713674711 0 -0.18639762704908219 -0.36981493426377121 0 -0.1895916926820273 -0.38363351082990171 0 -0.2036301489038955 -0.38161438713674711 0 -0.18639762704908219 -0.36981493426377121 0 -0.19669699700325741 -0.38976015238392342 0 -0.1895916926820273 -0.38363351082990171 0 -0.2036301489038955 -0.38161438713674711 0 -0.19669699700325741 -0.38976015238392342 0 -0.20390627702301431 -0.39597644834349999 0 -0.2036301489038955 -0.38161438713674711 0 -0.19669699700325741 -0.38976015238392342 0 -0.1895916926820273 -0.38363351082990171 0 -0.18965986940409241 -0.39781626322554492 0 -0.18965986940409241 -0.39781626322554492 0 -0.19903644186752659 -0.40376478447301523 0 -0.19304145062850081 -0.41177727885004012 0 -0.18965986940409241 -0.39781626322554492 0 -0.19903644186752659 -0.40376478447301523 0 -0.20390627702301431 -0.39597644834349999 0 -0.19669699700325741 -0.38976015238392342 0 -0.18965986940409241 -0.39781626322554492 0 -0.20390627702301431 -0.39597644834349999 0 -0.20390627702301431 -0.39597644834349999 0 -0.20953817041449899 -0.40948914747297599 0 -0.22941196816720841 -0.39187924481195052 0 -0.19903644186752659 -0.40376478447301523 0 -0.20390627702301431 -0.39597644834349999 0 -0.20953817041449899 -0.40948914747297599 0 -0.2050767626634426 -0.37939644215749802 0 -0.22941196816720841 -0.39187924481195052 0 -0.20390627702301431 -0.39597644834349999 0 -0.2036301489038955 -0.38161438713674711 0 -0.22941196816720841 -0.39187924481195052 0 -0.2050767626634426 -0.37939644215749802 0 -0.2036301489038955 -0.38161438713674711 0 -0.22941196816720841 -0.39187924481195052 0 -0.2050767626634426 -0.37939644215749802 0 -0.2036301489038955 -0.38161438713674711 0 -0.19431715512605849 -0.44533098057738119 0 -0.1811780206133988 -0.43050860198079982 0 -0.19649665384084911 -0.42558646837558789 0 -0.19431715512605849 -0.44533098057738119 0 -0.19649665384084911 -0.42558646837558789 0 -0.21087222608981809 -0.43731749366957873 0 -0.17953216511046391 -0.41666033666628971 0 -0.19649665384084911 -0.42558646837558789 0 -0.19304145062850081 -0.41177727885004012 0 -0.19903644186752659 -0.40376478447301523 0 -0.19304145062850081 -0.41177727885004012 0 -0.20953817041449899 -0.40948914747297599 0 -0.19649665384084911 -0.42558646837558789 0 -0.19304145062850081 -0.41177727885004012 0 -0.20953817041449899 -0.40948914747297599 0 -0.19649665384084911 -0.42558646837558789 0 -0.20953817041449899 -0.40948914747297599 0 -0.21354733479460661 -0.42395280878734493 0 -0.20953817041449899 -0.40948914747297599 0 -0.21354733479460661 -0.42395280878734493 0 -0.231040338352898 -0.41733743357775821 0 -0.19649665384084911 -0.42558646837558789 0 -0.21354733479460661 -0.42395280878734493 0 -0.21087222608981809 -0.43731749366957873 0 -0.21354733479460661 -0.42395280878734493 0 -0.21087222608981809 -0.43731749366957873 0 -0.22404340396770139 -0.43107941784329229 0 -0.21354733479460661 -0.42395280878734493 0 -0.22404340396770139 -0.43107941784329229 0 -0.231040338352898 -0.41733743357775821 0 -0.22404340396770139 -0.43107941784329229 0 -0.231040338352898 -0.41733743357775821 0 -0.2381800511064617 -0.43459188905467128 0 -0.22523827822959769 -0.44188035109342427 0 -0.22404340396770139 -0.43107941784329229 0 -0.2381800511064617 -0.43459188905467128 0 -0.22523827822959769 -0.44188035109342427 0 -0.21087222608981809 -0.43731749366957873 0 -0.22404340396770139 -0.43107941784329229 0 -0.25374717367097449 -0.40436204746640247 0 -0.25094132569520111 -0.42653043810890462 0 -0.231040338352898 -0.41733743357775821 0 -0.25094132569520111 -0.42653043810890462 0 -0.231040338352898 -0.41733743357775821 0 -0.2381800511064617 -0.43459188905467128 0 -0.25094132569520111 -0.42653043810890462 0 -0.2492290305037132 -0.44004570232182288 0 -0.2381800511064617 -0.43459188905467128 0 -0.2050767626634426 -0.37939644215749802 0 -0.22941196816720841 -0.39187924481195052 0 -0.2305019833442376 -0.37257003517534348 0 -0.20953817041449899 -0.40948914747297599 0 -0.231040338352898 -0.41733743357775821 0 -0.22941196816720841 -0.39187924481195052 0 -0.25374717367097449 -0.40436204746640247 0 -0.231040338352898 -0.41733743357775821 0 -0.22941196816720841 -0.39187924481195052 0 -0.25374717367097449 -0.40436204746640247 0 -0.25258677176254979 -0.37999634244648972 0 -0.22941196816720841 -0.39187924481195052 0 -0.25374717367097449 -0.40436204746640247 0 -0.22941196816720841 -0.39187924481195052 0 -0.25258677176254979 -0.37999634244648972 0 -0.22941196816720841 -0.39187924481195052 0 -0.2305019833442376 -0.37257003517534348 0 -0.25258677176254979 -0.37999634244648972 0 -0.2305019833442376 -0.37257003517534348 0 -0.24449186464062819 -0.35650709316111201 0 -0.2050767626634426 -0.37939644215749802 0 -0.2305019833442376 -0.37257003517534348 0 -0.22094254948735889 -0.35507105329966793 0 -0.2305019833442376 -0.37257003517534348 0 -0.22094254948735889 -0.35507105329966793 0 -0.24449186464062819 -0.35650709316111201 0 -0.22094254948735889 -0.35507105329966793 0 -0.24449186464062819 -0.35650709316111201 0 -0.23781579930728541 -0.3453100928553009 0 -0.24449186464062819 -0.35650709316111201 0 -0.23781579930728541 -0.3453100928553009 0 -0.24902044678987631 -0.33891656051858371 0 -0.25708554214186102 -0.32663432041338247 0 -0.24902044678987631 -0.33891656051858371 0 -0.23680833631127851 -0.33074566444184 0 -0.23781579930728541 -0.3453100928553009 0 -0.24902044678987631 -0.33891656051858371 0 -0.23680833631127851 -0.33074566444184 0 -0.25708554214186102 -0.32663432041338247 0 -0.25267412313519821 -0.30642027558401208 0 -0.23680833631127851 -0.33074566444184 0 -0.25267412313519821 -0.30642027558401208 0 -0.23680833631127851 -0.33074566444184 0 -0.25267412313519821 -0.30642027558401208 0 -0.23680833631127851 -0.33074566444184 0 -0.23619699572550021 -0.31558545585158049 0 -0.23680833631127851 -0.33074566444184 0 -0.23619699572550021 -0.31558545585158049 0 -0.23141507945364009 -0.32904518064734722 0 -0.23619699572550021 -0.31558545585158049 0 -0.23141507945364009 -0.32904518064734722 0 -0.22359802698713191 -0.30895751804149452 0 -0.23141507945364009 -0.32904518064734722 0 -0.20899159527686911 -0.32290218157331391 0 -0.23141507945364009 -0.32904518064734722 0 -0.20899159527686911 -0.32290218157331391 0 -0.22359802698713191 -0.30895751804149452 0 -0.23680833631127851 -0.33074566444184 0 -0.23141507945364009 -0.32904518064734722 0 -0.2168277673274063 -0.33829535663381077 0 -0.22094254948735889 -0.35507105329966793 0 -0.23680833631127851 -0.33074566444184 0 -0.22094254948735889 -0.35507105329966793 0 -0.23781579930728541 -0.3453100928553009 0 -0.23680833631127851 -0.33074566444184 0 -0.22094254948735889 -0.35507105329966793 0 -0.23680833631127851 -0.33074566444184 0 -0.2168277673274063 -0.33829535663381077 0 -0.23141507945364009 -0.32904518064734722 0 -0.2168277673274063 -0.33829535663381077 0 -0.20899159527686911 -0.32290218157331391 0 -0.2168277673274063 -0.33829535663381077 0 -0.20899159527686911 -0.32290218157331391 0 -0.19448114291506349 -0.33187180018206619 0 -0.2168277673274063 -0.33829535663381077 0 -0.19448114291506349 -0.33187180018206619 0 -0.19865313955725919 -0.35424011618678009 0 -0.20899159527686911 -0.32290218157331391 0 -0.204806158124028 -0.30133041690377671 0 -0.18656811110009791 -0.31675918249928059 0 -0.20899159527686911 -0.32290218157331391 0 -0.18656811110009791 -0.31675918249928059 0 -0.20899159527686911 -0.32290218157331391 0 -0.19448114291506349 -0.33187180018206619 0 -0.18656811110009791 -0.31675918249928059 0 -0.19448114291506349 -0.33187180018206619 0 -0.19865313955725919 -0.35424011618678009 0 -0.18636660477199879 -0.34687718443091009 0 -0.19865313955725919 -0.35424011618678009 0 -0.18636660477199879 -0.34687718443091009 0 -0.180479522686462 -0.35835404233973711 0 -0.2050767626634426 -0.37939644215749802 0 -0.19865313955725919 -0.35424011618678009 0 -0.18639762704908219 -0.36981493426377121 0 -0.19865313955725919 -0.35424011618678009 0 -0.18639762704908219 -0.36981493426377121 0 -0.180479522686462 -0.35835404233973711 0 -0.2050767626634426 -0.37939644215749802 0 -0.18639762704908219 -0.36981493426377121 0 -0.2050767626634426 -0.37939644215749802 0 -0.22094254948735889 -0.35507105329966793 0 -0.2050767626634426 -0.37939644215749802 0 -0.22094254948735889 -0.35507105329966793 0 -0.19865313955725919 -0.35424011618678009 0 -0.22094254948735889 -0.35507105329966793 0 -0.2168277673274063 -0.33829535663381077 0 -0.19865313955725919 -0.35424011618678009 0 -0.2224546790531983 -0.26448515861695399 0 -0.2387534011109084 -0.25041964278076922 0 -0.22091526070341291 -0.24281242178952331 0 -0.25954954969507738 -0.25229535732207709 0 -0.2387534011109084 -0.25041964278076922 0 -0.24820717968232489 -0.27773020112488811 0 -0.2224546790531983 -0.26448515861695399 0 -0.2387534011109084 -0.25041964278076922 0 -0.24820717968232489 -0.27773020112488811 0 -0.2224546790531983 -0.26448515861695399 0 -0.24820717968232489 -0.27773020112488811 0 -0.22052150981760979 -0.28733272620708339 0 -0.24820717968232489 -0.27773020112488811 0 -0.22052150981760979 -0.28733272620708339 0 -0.2370361906949072 -0.29613806787527902 0 -0.25267412313519821 -0.30642027558401208 0 -0.24820717968232489 -0.27773020112488811 0 -0.2370361906949072 -0.29613806787527902 0 -0.25267412313519821 -0.30642027558401208 0 -0.23619699572550021 -0.31558545585158049 0 -0.2370361906949072 -0.29613806787527902 0 -0.23619699572550021 -0.31558545585158049 0 -0.2370361906949072 -0.29613806787527902 0 -0.22359802698713191 -0.30895751804149452 0 -0.22052150981760979 -0.28733272620708339 0 -0.2370361906949072 -0.29613806787527902 0 -0.22359802698713191 -0.30895751804149452 0 -0.22052150981760979 -0.28733272620708339 0 -0.22359802698713191 -0.30895751804149452 0 -0.204806158124028 -0.30133041690377671 0 -0.20899159527686911 -0.32290218157331391 0 -0.22359802698713191 -0.30895751804149452 0 -0.204806158124028 -0.30133041690377671 0 -0.204806158124028 -0.30133041690377671 0 -0.17890739747407339 -0.30072554027313309 0 -0.18656811110009791 -0.31675918249928059 0 -0.204806158124028 -0.30133041690377671 0 -0.19182409379764309 -0.28852213204507082 0 -0.2049967750402133 -0.27569026349726261 0 -0.204806158124028 -0.30133041690377671 0 -0.19182409379764309 -0.28852213204507082 0 -0.17890739747407339 -0.30072554027313309 0 -0.22052150981760979 -0.28733272620708339 0 -0.204806158124028 -0.30133041690377671 0 -0.2049967750402133 -0.27569026349726261 0 -0.2224546790531983 -0.26448515861695399 0 -0.22052150981760979 -0.28733272620708339 0 -0.2049967750402133 -0.27569026349726261 0 -0.19182409379764309 -0.28852213204507082 0 -0.2049967750402133 -0.27569026349726261 0 -0.18328204133813389 -0.26783348311199401 0 -0.2049967750402133 -0.27569026349726261 0 -0.2005527461905221 -0.25571985598667241 0 -0.18328204133813389 -0.26783348311199401 0 -0.2005527461905221 -0.25571985598667241 0 -0.18328204133813389 -0.26783348311199401 0 -0.18463928953448769 -0.23837287675027749 0 -0.2224546790531983 -0.26448515861695399 0 -0.2005527461905221 -0.25571985598667241 0 -0.22091526070341291 -0.24281242178952331 0 -0.2224546790531983 -0.26448515861695399 0 -0.2049967750402133 -0.27569026349726261 0 -0.2005527461905221 -0.25571985598667241 0 -0.16259615200002361 -0.25859403138449211 0 -0.18328204133813389 -0.26783348311199401 0 -0.18463928953448769 -0.23837287675027749 0 -0.19182409379764309 -0.28852213204507082 0 -0.18328204133813389 -0.26783348311199401 0 -0.16337038946167831 -0.28460510740486422 0 -0.16259615200002361 -0.25859403138449211 0 -0.18328204133813389 -0.26783348311199401 0 -0.16337038946167831 -0.28460510740486422 0 -0.16259615200002361 -0.25859403138449211 0 -0.16337038946167831 -0.28460510740486422 0 -0.19182409379764309 -0.28852213204507082 0 -0.16337038946167831 -0.28460510740486422 0 -0.17890739747407339 -0.30072554027313309 0 -0.17890739747407339 -0.30072554027313309 0 -0.16414462692332971 -0.31061618342523628 0 -0.18656811110009791 -0.31675918249928059 0 -0.16337038946167831 -0.28460510740486422 0 -0.16414462692332971 -0.31061618342523628 0 -0.14247098252985549 -0.30467860582176559 0 -0.16337038946167831 -0.28460510740486422 0 -0.17890739747407339 -0.30072554027313309 0 -0.16414462692332971 -0.31061618342523628 0 -0.16337038946167831 -0.28460510740486422 0 -0.16414462692332971 -0.31061618342523628 0 -0.16414462692332971 -0.31061618342523628 0 -0.14247098252985549 -0.30467860582176559 0 -0.14247098252985549 -0.30467860582176559 0 -0.13722600972761889 -0.28777158252727769 0 -0.12079733813638439 -0.29874102821828402 0 -0.14247098252985549 -0.30467860582176559 0 -0.12079733813638439 -0.29874102821828402 0 -0.14247098252985549 -0.30467860582176559 0 -0.12835227672945199 -0.30910238189491201 0 -0.12079733813638439 -0.29874102821828402 0 -0.14247098252985549 -0.30467860582176559 0 -0.12835227672945199 -0.30910238189491201 0 -0.13463962112742819 -0.31991807934849098 0 -0.13722600972761889 -0.28777158252727769 0 -0.1202729307025748 -0.28052387857041622 0 -0.12079733813638439 -0.29874102821828402 0 -0.16337038946167831 -0.28460510740486422 0 -0.14247098252985549 -0.30467860582176559 0 -0.13722600972761889 -0.28777158252727769 0 -0.16259615200002361 -0.25859403138449211 0 -0.16337038946167831 -0.28460510740486422 0 -0.13921840780760161 -0.27030929262105868 0 -0.16337038946167831 -0.28460510740486422 0 -0.13722600972761889 -0.28777158252727769 0 -0.13921840780760161 -0.27030929262105868 0 -0.13921840780760161 -0.27030929262105868 0 -0.1178201947834138 -0.25800890672807719 0 -0.1202729307025748 -0.28052387857041622 0 -0.13722600972761889 -0.28777158252727769 0 -0.13921840780760161 -0.27030929262105868 0 -0.1202729307025748 -0.28052387857041622 0 -0.13921840780760161 -0.27030929262105868 0 -0.1178201947834138 -0.25800890672807719 0 -0.13966374412229779 -0.2442580372074955 0 -0.16259615200002361 -0.25859403138449211 0 -0.13921840780760161 -0.27030929262105868 0 -0.13966374412229779 -0.2442580372074955 0 -0.16581007665573361 -0.36656819006800379 0 -0.16497735178953329 -0.33859218674662001 0 -0.16771849143472209 -0.36023342637004407 0 -0.180479522686462 -0.35835404233973711 0 -0.16497735178953329 -0.33859218674662001 0 -0.16581007665573361 -0.36656819006800379 0 -0.16497735178953329 -0.33859218674662001 0 -0.14728995607606399 -0.35621007540918692 0 -0.16581007665573361 -0.36656819006800379 0 -0.16771849143472209 -0.36023342637004407 0 -0.16497735178953329 -0.33859218674662001 0 -0.16581007665573361 -0.36656819006800379 0 -0.16771849143472209 -0.36023342637004407 0 -0.18639762704908219 -0.36981493426377121 0 -0.17666980952567279 -0.38073317609346508 0 -0.16581007665573361 -0.36656819006800379 0 -0.18639762704908219 -0.36981493426377121 0 -0.16771849143472209 -0.36023342637004407 0 -0.18639762704908219 -0.36981493426377121 0 -0.180479522686462 -0.35835404233973711 0 -0.16771849143472209 -0.36023342637004407 0 -0.18639762704908219 -0.36981493426377121 0 -0.18636660477199879 -0.34687718443091009 0 -0.180479522686462 -0.35835404233973711 0 -0.16497735178953329 -0.33859218674662001 0 -0.19448114291506349 -0.33187180018206619 0 -0.18656811110009791 -0.31675918249928059 0 -0.16497735178953329 -0.33859218674662001 0 -0.19448114291506349 -0.33187180018206619 0 -0.18636660477199879 -0.34687718443091009 0 -0.16497735178953329 -0.33859218674662001 0 -0.16414462692332971 -0.31061618342523628 0 -0.18656811110009791 -0.31675918249928059 0 -0.16414462692332971 -0.31061618342523628 0 -0.18656811110009791 -0.31675918249928059 0 -0.16497735178953329 -0.33859218674662001 0 -0.16414462692332971 -0.31061618342523628 0 -0.16497735178953329 -0.33859218674662001 0 -0.16414462692332971 -0.31061618342523628 0 -0.16497735178953329 -0.33859218674662001 0 -0.14919116885844869 -0.32267414591201782 0 -0.16497735178953329 -0.33859218674662001 0 -0.14706507034103081 -0.33804933778180501 0 -0.14919116885844869 -0.32267414591201782 0 -0.14706507034103081 -0.33804933778180501 0 -0.14919116885844869 -0.32267414591201782 0 -0.1368509262439952 -0.33202608381496201 0 -0.14247098252985549 -0.30467860582176559 0 -0.14919116885844869 -0.32267414591201782 0 -0.13463962112742819 -0.31991807934849098 0 -0.16414462692332971 -0.31061618342523628 0 -0.14247098252985549 -0.30467860582176559 0 -0.14919116885844869 -0.32267414591201782 0 -0.14919116885844869 -0.32267414591201782 0 -0.13463962112742819 -0.31991807934849098 0 -0.1368509262439952 -0.33202608381496201 0 -0.13463962112742819 -0.31991807934849098 0 -0.1368509262439952 -0.33202608381496201 0 -0.12531596233217451 -0.32865099524542041 0 -0.13463962112742819 -0.31991807934849098 0 -0.12531596233217451 -0.32865099524542041 0 -0.1204900513843367 -0.31923254279096003 0 -0.12835227672945199 -0.30910238189491201 0 -0.13463962112742819 -0.31991807934849098 0 -0.1204900513843367 -0.31923254279096003 0 -0.1368509262439952 -0.33202608381496201 0 -0.12652148346736081 -0.3393613445882695 0 -0.13629571132730639 -0.34492660415358828 0 -0.14706507034103081 -0.33804933778180501 0 -0.1368509262439952 -0.33202608381496201 0 -0.13629571132730639 -0.34492660415358828 0 -0.1368509262439952 -0.33202608381496201 0 -0.12531596233217451 -0.32865099524542041 0 -0.12652148346736081 -0.3393613445882695 0 -0.12652148346736081 -0.3393613445882695 0 -0.12663706576175129 -0.34831918725811178 0 -0.13629571132730639 -0.34492660415358828 0 -0.12663706576175129 -0.34831918725811178 0 -0.13355471327079771 -0.35796698134485849 0 -0.13629571132730639 -0.34492660415358828 0 -0.12663706576175129 -0.34831918725811178 0 -0.12586549371724121 -0.35617635664315611 0 -0.13355471327079771 -0.35796698134485849 0 -0.13355471327079771 -0.35796698134485849 0 -0.13629571132730639 -0.34492660415358828 0 -0.14728995607606399 -0.35621007540918692 0 -0.16497735178953329 -0.33859218674662001 0 -0.14706507034103081 -0.33804933778180501 0 -0.14728995607606399 -0.35621007540918692 0 -0.14706507034103081 -0.33804933778180501 0 -0.13629571132730639 -0.34492660415358828 0 -0.14728995607606399 -0.35621007540918692 0 -0.15213258500557761 -0.37842412287940591 0 -0.16581007665573361 -0.36656819006800379 0 -0.14728995607606399 -0.35621007540918692 0 -0.15213258500557761 -0.37842412287940591 0 -0.14728995607606399 -0.35621007540918692 0 -0.13545956894802461 -0.37172073553888069 0 -0.13355471327079771 -0.35796698134485849 0 -0.14728995607606399 -0.35621007540918692 0 -0.13545956894802461 -0.37172073553888069 0 -0.12586549371724121 -0.35617635664315611 0 -0.1286702544287279 -0.36405428526159972 0 -0.12308645974243559 -0.36356603893213379 0 -0.13355471327079771 -0.35796698134485849 0 -0.13545956894802461 -0.37172073553888069 0 -0.1286702544287279 -0.36405428526159972 0 -0.12586549371724121 -0.35617635664315611 0 -0.13355471327079771 -0.35796698134485849 0 -0.1286702544287279 -0.36405428526159972 0 -0.13545956894802461 -0.37172073553888069 0 -0.1286702544287279 -0.36405428526159972 0 -0.1208567040856893 -0.36764297706605731 0 -0.10777143875052519 -0.35097976737838033 0 -0.1142646503058814 -0.37732951116344859 0 -0.1208567040856893 -0.36764297706605731 0 -0.10777143875052519 -0.35097976737838033 0 -0.1142646503058814 -0.37732951116344859 0 -0.1208567040856893 -0.36764297706605731 0 -0.12308645974243559 -0.36356603893213379 0 -0.1178618708070799 -0.35431251535390351 0 -0.1286702544287279 -0.36405428526159972 0 -0.1208567040856893 -0.36764297706605731 0 -0.12308645974243559 -0.36356603893213379 0 -0.1208567040856893 -0.36764297706605731 0 -0.12308645974243559 -0.36356603893213379 0 -0.09507196089057976 -0.36642189859305108 0 -0.10777143875052519 -0.35097976737838033 0 -0.1142646503058814 -0.37732951116344859 0 -0.09507196089057976 -0.36642189859305108 0 -0.1142646503058814 -0.37732951116344859 0 -0.1014492311456192 -0.37992878091318522 0 -0.10777143875052519 -0.35097976737838033 0 -0.093606643349675056 -0.33294184839839208 0 -0.088434773575582853 -0.35006491031753401 0 -0.09507196089057976 -0.36642189859305108 0 -0.10777143875052519 -0.35097976737838033 0 -0.088434773575582853 -0.35006491031753401 0 -0.10777143875052519 -0.35097976737838033 0 -0.1178618708070799 -0.35431251535390351 0 -0.1187193380039316 -0.34582263832070192 0 -0.10777143875052519 -0.35097976737838033 0 -0.1187193380039316 -0.34582263832070192 0 -0.1153098971350055 -0.33642255873683269 0 -0.1208567040856893 -0.36764297706605731 0 -0.10777143875052519 -0.35097976737838033 0 -0.1178618708070799 -0.35431251535390351 0 -0.1208567040856893 -0.36764297706605731 0 -0.10777143875052519 -0.35097976737838033 0 -0.12663706576175129 -0.34831918725811178 0 -0.12586549371724121 -0.35617635664315611 0 -0.1178618708070799 -0.35431251535390351 0 -0.12586549371724121 -0.35617635664315611 0 -0.12308645974243559 -0.36356603893213379 0 -0.1178618708070799 -0.35431251535390351 0 -0.12663706576175129 -0.34831918725811178 0 -0.1178618708070799 -0.35431251535390351 0 -0.1187193380039316 -0.34582263832070192 0 -0.12652148346736081 -0.3393613445882695 0 -0.12663706576175129 -0.34831918725811178 0 -0.1187193380039316 -0.34582263832070192 0 -0.12652148346736081 -0.3393613445882695 0 -0.1187193380039316 -0.34582263832070192 0 -0.1153098971350055 -0.33642255873683269 0 -0.12531596233217451 -0.32865099524542041 0 -0.12652148346736081 -0.3393613445882695 0 -0.1153098971350055 -0.33642255873683269 0 -0.12531596233217451 -0.32865099524542041 0 -0.1153098971350055 -0.33642255873683269 0 -0.11312725884324019 -0.32604785454927487 0 -0.1153098971350055 -0.33642255873683269 0 -0.11312725884324019 -0.32604785454927487 0 -0.102251098868697 -0.32857798048870451 0 -0.12531596233217451 -0.32865099524542041 0 -0.1204900513843367 -0.31923254279096003 0 -0.11312725884324019 -0.32604785454927487 0 -0.1204900513843367 -0.31923254279096003 0 -0.11312725884324019 -0.32604785454927487 0 -0.1070687919031032 -0.31550971907863662 0 -0.1204900513843367 -0.31923254279096003 0 -0.1070687919031032 -0.31550971907863662 0 -0.11086892033601831 -0.3050953250143893 0 -0.1070687919031032 -0.31550971907863662 0 -0.102251098868697 -0.32857798048870451 0 -0.096730758986868809 -0.30617619359902859 0 -0.102251098868697 -0.32857798048870451 0 -0.096730758986868809 -0.30617619359902859 0 -0.102251098868697 -0.32857798048870451 0 -0.092219643233795917 -0.31945041391828999 0 -0.096730758986868809 -0.30617619359902859 0 -0.11312725884324019 -0.32604785454927487 0 -0.1070687919031032 -0.31550971907863662 0 -0.102251098868697 -0.32857798048870451 0 -0.102251098868697 -0.32857798048870451 0 -0.093606643349675056 -0.33294184839839208 0 -0.092219643233795917 -0.31945041391828999 0 -0.10777143875052519 -0.35097976737838033 0 -0.093606643349675056 -0.33294184839839208 0 -0.10777143875052519 -0.35097976737838033 0 -0.102251098868697 -0.32857798048870451 0 -0.10777143875052519 -0.35097976737838033 0 -0.1153098971350055 -0.33642255873683269 0 -0.102251098868697 -0.32857798048870451 0 -0.10777143875052519 -0.35097976737838033 0 -0.102251098868697 -0.32857798048870451 0 -0.093606643349675056 -0.33294184839839208 0 -0.093606643349675056 -0.33294184839839208 0 -0.079441847948824848 -0.31490392941840378 0 -0.076908688518951593 -0.33846587099852798 0 -0.093606643349675056 -0.33294184839839208 0 -0.076908688518951593 -0.33846587099852798 0 -0.088434773575582853 -0.35006491031753401 0 -0.093606643349675056 -0.33294184839839208 0 -0.079441847948824848 -0.31490392941840378 0 -0.079441847948824848 -0.31490392941840378 0 -0.092219643233795917 -0.31945041391828999 0 -0.096730758986868809 -0.30617619359902859 0 -0.093606643349675056 -0.33294184839839208 0 -0.079441847948824848 -0.31490392941840378 0 -0.092219643233795917 -0.31945041391828999 0 -0.079441847948824848 -0.31490392941840378 0 -0.065979121704918084 -0.32150201906515619 0 -0.076908688518951593 -0.33846587099852798 0 -0.079441847948824848 -0.31490392941840378 0 -0.065979121704918084 -0.32150201906515619 0 -0.06433452922055094 -0.30284589164999498 0 -0.065979121704918084 -0.32150201906515619 0 -0.076908688518951593 -0.33846587099852798 0 -0.059341893068148542 -0.3376031898260573 0 -0.076908688518951593 -0.33846587099852798 0 -0.068815136368182608 -0.3615151662193179 0 -0.059341893068148542 -0.3376031898260573 0 -0.068815136368182608 -0.3615151662193179 0 -0.059341893068148542 -0.3376031898260573 0 -0.076908688518951593 -0.33846587099852798 0 -0.068815136368182608 -0.3615151662193179 0 -0.088434773575582853 -0.35006491031753401 0 -0.068815136368182608 -0.3615151662193179 0 -0.078288379668216737 -0.3854271426125786 0 -0.09507196089057976 -0.36642189859305108 0 -0.068815136368182608 -0.3615151662193179 0 -0.089091120733917464 -0.37870855125608732 0 -0.09507196089057976 -0.36642189859305108 0 -0.068815136368182608 -0.3615151662193179 0 -0.088434773575582853 -0.35006491031753401 0 -0.094334562776802772 -0.25487024308025941 0 -0.1178201947834138 -0.25800890672807719 0 -0.1049809581221917 -0.27233699883361329 0 -0.094334562776802772 -0.25487024308025941 0 -0.1178201947834138 -0.25800890672807719 0 -0.10769783931597469 -0.23820095607227021 0 -0.094334562776802772 -0.25487024308025941 0 -0.1178201947834138 -0.25800890672807719 0 -0.1178201947834138 -0.25800890672807719 0 -0.1202729307025748 -0.28052387857041622 0 -0.1049809581221917 -0.27233699883361329 0 -0.094334562776802772 -0.25487024308025941 0 -0.1049809581221917 -0.27233699883361329 0 -0.087677005111299833 -0.27177837747607397 0 -0.1049809581221917 -0.27233699883361329 0 -0.1045050794524074 -0.29182517551970732 0 -0.087677005111299833 -0.27177837747607397 0 -0.1045050794524074 -0.29182517551970732 0 -0.091210419105040574 -0.28377440670935272 0 -0.087677005111299833 -0.27177837747607397 0 -0.1045050794524074 -0.29182517551970732 0 -0.096730758986868809 -0.30617619359902859 0 -0.091210419105040574 -0.28377440670935272 0 -0.1045050794524074 -0.29182517551970732 0 -0.087677005111299833 -0.27177837747607397 0 -0.096730758986868809 -0.30617619359902859 0 -0.091210419105040574 -0.28377440670935272 0 -0.1202729307025748 -0.28052387857041622 0 -0.1045050794524074 -0.29182517551970732 0 -0.12079733813638439 -0.29874102821828402 0 -0.1202729307025748 -0.28052387857041622 0 -0.1049809581221917 -0.27233699883361329 0 -0.1045050794524074 -0.29182517551970732 0 -0.1045050794524074 -0.29182517551970732 0 -0.12079733813638439 -0.29874102821828402 0 -0.11086892033601831 -0.3050953250143893 0 -0.12835227672945199 -0.30910238189491201 0 -0.12079733813638439 -0.29874102821828402 0 -0.11086892033601831 -0.3050953250143893 0 -0.12835227672945199 -0.30910238189491201 0 -0.1204900513843367 -0.31923254279096003 0 -0.11086892033601831 -0.3050953250143893 0 -0.1070687919031032 -0.31550971907863662 0 -0.11086892033601831 -0.3050953250143893 0 -0.096730758986868809 -0.30617619359902859 0 -0.1045050794524074 -0.29182517551970732 0 -0.11086892033601831 -0.3050953250143893 0 -0.096730758986868809 -0.30617619359902859 0 -0.079441847948824848 -0.31490392941840378 0 -0.096730758986868809 -0.30617619359902859 0 -0.07993616681519447 -0.29628723747351171 0 -0.079441847948824848 -0.31490392941840378 0 -0.06433452922055094 -0.30284589164999498 0 -0.07993616681519447 -0.29628723747351171 0 -0.06433452922055094 -0.30284589164999498 0 -0.065287523440570372 -0.28487334806010611 0 -0.07993616681519447 -0.29628723747351171 0 -0.065287523440570372 -0.28487334806010611 0 -0.07993616681519447 -0.29628723747351171 0 -0.07844856060254099 -0.28115217297963552 0 -0.096730758986868809 -0.30617619359902859 0 -0.07993616681519447 -0.29628723747351171 0 -0.091210419105040574 -0.28377440670935272 0 -0.07993616681519447 -0.29628723747351171 0 -0.091210419105040574 -0.28377440670935272 0 -0.07844856060254099 -0.28115217297963552 0 -0.087677005111299833 -0.27177837747607397 0 -0.07844856060254099 -0.28115217297963552 0 -0.069771767634010565 -0.26976056991355651 0 -0.091210419105040574 -0.28377440670935272 0 -0.087677005111299833 -0.27177837747607397 0 -0.07844856060254099 -0.28115217297963552 0 -0.065287523440570372 -0.28487334806010611 0 -0.07844856060254099 -0.28115217297963552 0 -0.069771767634010565 -0.26976056991355651 0 -0.070848930770191887 -0.25173157943244101 0 -0.054449515331992077 -0.2495399309783207 0 -0.069771767634010565 -0.26976056991355651 0 -0.070848930770191887 -0.25173157943244101 0 -0.060554410201326458 -0.26024925063794357 0 -0.087677005111299833 -0.27177837747607397 0 -0.069771767634010565 -0.26976056991355651 0 -0.070848930770191887 -0.25173157943244101 0 -0.094334562776802772 -0.25487024308025941 0 -0.070848930770191887 -0.25173157943244101 0 -0.094334562776802772 -0.25487024308025941 0 -0.087677005111299833 -0.27177837747607397 0 -0.070848930770191887 -0.25173157943244101 0 -0.087677005111299833 -0.27177837747607397 0 -0.070848930770191887 -0.25173157943244101 0 -0.043967756171899297 -0.25825818700989239 0 -0.054449515331992077 -0.2495399309783207 0 -0.038050099893792363 -0.2473482825241998 0 -0.043967756171899297 -0.25825818700989239 0 -0.052307953215975589 -0.27133473194035579 0 -0.030922163168046211 -0.26586726064627542 0 -0.043967756171899297 -0.25825818700989239 0 -0.028584920223383391 -0.25506777658872531 0 -0.038050099893792363 -0.2473482825241998 0 -0.043967756171899297 -0.25825818700989239 0 -0.030922163168046211 -0.26586726064627542 0 -0.028584920223383391 -0.25506777658872531 0 -0.043967756171899297 -0.25825818700989239 0 -0.060554410201326458 -0.26024925063794357 0 -0.054449515331992077 -0.2495399309783207 0 -0.070848930770191887 -0.25173157943244101 0 -0.060554410201326458 -0.26024925063794357 0 -0.054449515331992077 -0.2495399309783207 0 -0.043967756171899297 -0.25825818700989239 0 -0.060554410201326458 -0.26024925063794357 0 -0.052307953215975589 -0.27133473194035579 0 -0.065287523440570372 -0.28487334806010611 0 -0.069771767634010565 -0.26976056991355651 0 -0.052307953215975589 -0.27133473194035579 0 -0.069771767634010565 -0.26976056991355651 0 -0.060554410201326458 -0.26024925063794357 0 -0.052307953215975589 -0.27133473194035579 0 -0.040395406468080368 -0.28977923703953612 0 -0.030922163168046211 -0.26586726064627542 0 -0.052307953215975589 -0.27133473194035579 0 -0.040395406468080368 -0.28977923703953612 0 -0.030922163168046211 -0.26586726064627542 0 -0.040395406468080368 -0.28977923703953612 0 -0.030922163168046211 -0.26586726064627542 0 -0.023148259041047791 -0.27982048388981051 0 -0.065287523440570372 -0.28487334806010611 0 -0.052307953215975589 -0.27133473194035579 0 -0.040395406468080368 -0.28977923703953612 0 -0.06433452922055094 -0.30284589164999498 0 -0.065287523440570372 -0.28487334806010611 0 -0.040395406468080368 -0.28977923703953612 0 -0.06433452922055094 -0.30284589164999498 0 -0.040395406468080368 -0.28977923703953612 0 -0.049868649768114469 -0.31369121343279682 0 -0.040395406468080368 -0.28977923703953612 0 -0.049868649768114469 -0.31369121343279682 0 -0.024295284915738121 -0.31362573183311421 0 -0.040395406468080368 -0.28977923703953612 0 -0.049868649768114469 -0.31369121343279682 0 -0.040395406468080368 -0.28977923703953612 0 -0.020100024229696239 -0.29395852434676067 0 -0.024295284915738121 -0.31362573183311421 0 -0.0086493084556041322 -0.30469777843991402 0 -0.020100024229696239 -0.29395852434676067 0 -0.024295284915738121 -0.31362573183311421 0 -0.0086493084556041322 -0.30469777843991402 0 -0.002203952878236643 -0.31761401677738621 0 0.0074146879300698246 -0.30311090148314129 0 -0.0086493084556041322 -0.30469777843991402 0 -0.024295284915738121 -0.31362573183311421 0 -0.002203952878236643 -0.31761401677738621 0 -0.0086493084556041322 -0.30469777843991402 0 -0.0031157133319765899 -0.29145036636146848 0 0.0074146879300698246 -0.30311090148314129 0 -0.0031157133319765899 -0.29145036636146848 0 -0.020100024229696239 -0.29395852434676067 0 -0.010925804372725089 -0.28048570152060542 0 -0.0086493084556041322 -0.30469777843991402 0 -0.0031157133319765899 -0.29145036636146848 0 -0.020100024229696239 -0.29395852434676067 0 -0.0031157133319765899 -0.29145036636146848 0 -0.010925804372725089 -0.28048570152060542 0 0.00035302559643605509 -0.28051265405829823 0 -0.040395406468080368 -0.28977923703953612 0 -0.020100024229696239 -0.29395852434676067 0 -0.023148259041047791 -0.27982048388981051 0 -0.020100024229696239 -0.29395852434676067 0 -0.023148259041047791 -0.27982048388981051 0 -0.010925804372725089 -0.28048570152060542 0 -0.030922163168046211 -0.26586726064627542 0 -0.023148259041047791 -0.27982048388981051 0 -0.014212993064526339 -0.26957137492315669 0 -0.023148259041047791 -0.27982048388981051 0 -0.010925804372725089 -0.28048570152060542 0 -0.014212993064526339 -0.26957137492315669 0 -0.010925804372725089 -0.28048570152060542 0 -0.0034276493682687168 -0.27073779767278261 0 -0.014212993064526339 -0.26957137492315669 0 -0.010925804372725089 -0.28048570152060542 0 -0.0034276493682687168 -0.27073779767278261 0 0.00035302559643605509 -0.28051265405829823 0 -0.0034276493682687168 -0.27073779767278261 0 -0.014212993064526339 -0.26957137492315669 0 -0.0056284826774123499 -0.26462479707190478 0 -0.0034276493682687168 -0.27073779767278261 0 -0.0056284826774123499 -0.26462479707190478 0 0.0041559861457207987 -0.2667883671998123 0 -0.023024326953670699 -0.24427800993903201 0 0.00044770008536651468 -0.25747016465634998 0 -0.0056284826774123499 -0.26462479707190478 0 -0.01592055328318932 -0.25911595993470438 0 0.00044770008536651468 -0.25747016465634998 0 -0.01592055328318932 -0.25911595993470438 0 -0.023024326953670699 -0.24427800993903201 0 0.00044770008536651468 -0.25747016465634998 0 -0.023024326953670699 -0.24427800993903201 0 0.00044770008536651468 -0.25747016465634998 0 0.001965852013247726 -0.25181915572125679 0 -0.014212993064526339 -0.26957137492315669 0 -0.0056284826774123499 -0.26462479707190478 0 -0.01592055328318932 -0.25911595993470438 0 -0.0056284826774123499 -0.26462479707190478 0 0.0041559861457207987 -0.2667883671998123 0 0.00044770008536651468 -0.25747016465634998 0 -0.030922163168046211 -0.26586726064627542 0 -0.014212993064526339 -0.26957137492315669 0 -0.01592055328318932 -0.25911595993470438 0 -0.01592055328318932 -0.25911595993470438 0 -0.028584920223383391 -0.25506777658872531 0 -0.023024326953670699 -0.24427800993903201 0 -0.030922163168046211 -0.26586726064627542 0 -0.01592055328318932 -0.25911595993470438 0 -0.028584920223383391 -0.25506777658872531 0 -0.031950342490085597 -0.3612409986923365 0 -0.049289499601540963 -0.35531977519008118 0 -0.036334250836002321 -0.34265381443098147 0 -0.031950342490085597 -0.3612409986923365 0 -0.050005875245285727 -0.37358570678171249 0 -0.049289499601540963 -0.35531977519008118 0 -0.031950342490085597 -0.3612409986923365 0 -0.050005875245285727 -0.37358570678171249 0 -0.027350346274486188 -0.38203360936386171 0 -0.068815136368182608 -0.3615151662193179 0 -0.050005875245285727 -0.37358570678171249 0 -0.064816800793753307 -0.37843534828146641 0 -0.068815136368182608 -0.3615151662193179 0 -0.050005875245285727 -0.37358570678171249 0 -0.049289499601540963 -0.35531977519008118 0 -0.049289499601540963 -0.35531977519008118 0 -0.059341893068148542 -0.3376031898260573 0 -0.036334250836002321 -0.34265381443098147 0 -0.068815136368182608 -0.3615151662193179 0 -0.049289499601540963 -0.35531977519008118 0 -0.059341893068148542 -0.3376031898260573 0 -0.065979121704918084 -0.32150201906515619 0 -0.06433452922055094 -0.30284589164999498 0 -0.049868649768114469 -0.31369121343279682 0 -0.059341893068148542 -0.3376031898260573 0 -0.049868649768114469 -0.31369121343279682 0 -0.03931087750958337 -0.32697614968087679 0 -0.065979121704918084 -0.32150201906515619 0 -0.059341893068148542 -0.3376031898260573 0 -0.049868649768114469 -0.31369121343279682 0 -0.059341893068148542 -0.3376031898260573 0 -0.049868649768114469 -0.31369121343279682 0 -0.049868649768114469 -0.31369121343279682 0 -0.03931087750958337 -0.32697614968087679 0 -0.024295284915738121 -0.31362573183311421 0 -0.059341893068148542 -0.3376031898260573 0 -0.03931087750958337 -0.32697614968087679 0 -0.036334250836002321 -0.34265381443098147 0 -0.03931087750958337 -0.32697614968087679 0 -0.036334250836002321 -0.34265381443098147 0 -0.02537784839587209 -0.33247228445144988 0 -0.02537784839587209 -0.33247228445144988 0 -0.0096298429115458557 -0.3310974311725961 0 -0.01716572198033926 -0.34860066733807682 0 -0.036334250836002321 -0.34265381443098147 0 -0.02537784839587209 -0.33247228445144988 0 -0.01716572198033926 -0.34860066733807682 0 -0.03931087750958337 -0.32697614968087679 0 -0.02537784839587209 -0.33247228445144988 0 -0.024295284915738121 -0.31362573183311421 0 -0.02537784839587209 -0.33247228445144988 0 -0.024295284915738121 -0.31362573183311421 0 -0.0096298429115458557 -0.3310974311725961 0 -0.024295284915738121 -0.31362573183311421 0 -0.002203952878236643 -0.31761401677738621 0 -0.0096298429115458557 -0.3310974311725961 0 -0.002203952878236643 -0.31761401677738621 0 -0.0096298429115458557 -0.3310974311725961 0 0.0048350536763056302 -0.33042627974929473 0 -0.0096298429115458557 -0.3310974311725961 0 -0.00021004152280150541 -0.34505834623397807 0 -0.01716572198033926 -0.34860066733807682 0 -0.0096298429115458557 -0.3310974311725961 0 -0.00021004152280150541 -0.34505834623397807 0 0.0048350536763056302 -0.33042627974929473 0 -0.01716572198033926 -0.34860066733807682 0 -0.01698595285343921 -0.36617010188299409 0 -0.002778103095315558 -0.36055067034781829 0 -0.00021004152280150541 -0.34505834623397807 0 -0.01716572198033926 -0.34860066733807682 0 -0.002778103095315558 -0.36055067034781829 0 -0.031950342490085597 -0.3612409986923365 0 -0.036334250836002321 -0.34265381443098147 0 -0.01716572198033926 -0.34860066733807682 0 -0.031950342490085597 -0.3612409986923365 0 -0.01716572198033926 -0.34860066733807682 0 -0.01698595285343921 -0.36617010188299409 0 -0.031950342490085597 -0.3612409986923365 0 -0.01698595285343921 -0.36617010188299409 0 -0.027350346274486188 -0.38203360936386171 0 -0.01698595285343921 -0.36617010188299409 0 -0.002778103095315558 -0.36055067034781829 0 -0.00568525042696946 -0.37842456367287702 0 -0.002778103095315558 -0.36055067034781829 0 -0.00568525042696946 -0.37842456367287702 0 0.0073606813550033921 -0.36751964548334382 0 -0.00568525042696946 -0.37842456367287702 0 -0.0006222275249309682 -0.38928598288879779 0 -0.01278757050141543 -0.39574761072057701 0 -0.00568525042696946 -0.37842456367287702 0 -0.01278757050141543 -0.39574761072057701 0 -0.027350346274486188 -0.38203360936386171 0 -0.01278757050141543 -0.39574761072057701 0 -0.0074561972421502698 -0.42101560817717493 0 0.0047818153486084581 -0.40074878757652083 0 -0.0006222275249309682 -0.38928598288879779 0 -0.01278757050141543 -0.39574761072057701 0 0.0047818153486084581 -0.40074878757652083 0 -0.01278757050141543 -0.39574761072057701 0 -0.03070303847031014 -0.40396585959487907 0 -0.027350346274486188 -0.38203360936386171 0 -0.01698595285343921 -0.36617010188299409 0 -0.00568525042696946 -0.37842456367287702 0 -0.027350346274486188 -0.38203360936386171 0 -0.050005875245285727 -0.37358570678171249 0 -0.027350346274486188 -0.38203360936386171 0 -0.045970419259003158 -0.39345389634559708 0 -0.03070303847031014 -0.40396585959487907 0 -0.045970419259003158 -0.39345389634559708 0 -0.04964688448943308 -0.40879836483267429 0 -0.03070303847031014 -0.40396585959487907 0 -0.027350346274486188 -0.38203360936386171 0 -0.045970419259003158 -0.39345389634559708 0 -0.062157811893328203 -0.39321337751225638 0 -0.04964688448943308 -0.40879836483267429 0 -0.068351780339259885 -0.41162679371359001 0 -0.045970419259003158 -0.39345389634559708 0 -0.062157811893328203 -0.39321337751225638 0 -0.04964688448943308 -0.40879836483267429 0 -0.050005875245285727 -0.37358570678171249 0 -0.062157811893328203 -0.39321337751225638 0 -0.064816800793753307 -0.37843534828146641 0 -0.050005875245285727 -0.37358570678171249 0 -0.045970419259003158 -0.39345389634559708 0 -0.062157811893328203 -0.39321337751225638 0 -0.0579801055690813 -0.42668163849409069 0 -0.04964688448943308 -0.40879836483267429 0 -0.068351780339259885 -0.41162679371359001 0 -0.0579801055690813 -0.42668163849409069 0 -0.04964688448943308 -0.40879836483267429 0 -0.032718151405615813 -0.42384862333563278 0 -0.03070303847031014 -0.40396585959487907 0 -0.04964688448943308 -0.40879836483267429 0 -0.032718151405615813 -0.42384862333563278 0 -0.032718151405615813 -0.42384862333563278 0 -0.02218959723964796 -0.44535858922048283 0 -0.041299136865996733 -0.44243821456224702 0 -0.0579801055690813 -0.42668163849409069 0 -0.032718151405615813 -0.42384862333563278 0 -0.041299136865996733 -0.44243821456224702 0 -0.0579801055690813 -0.42668163849409069 0 -0.032718151405615813 -0.42384862333563278 0 -0.032718151405615813 -0.42384862333563278 0 -0.0074561972421502698 -0.42101560817717493 0 -0.032718151405615813 -0.42384862333563278 0 -0.0078431527587624669 -0.43654892348980973 0 -0.02218959723964796 -0.44535858922048283 0 -0.032718151405615813 -0.42384862333563278 0 -0.0074561972421502698 -0.42101560817717493 0 -0.0078431527587624669 -0.43654892348980973 0 -0.01278757050141543 -0.39574761072057701 0 -0.03070303847031014 -0.40396585959487907 0 -0.0074561972421502698 -0.42101560817717493 0 -0.03070303847031014 -0.40396585959487907 0 -0.032718151405615813 -0.42384862333563278 0 -0.0074561972421502698 -0.42101560817717493 0 -0.0074561972421502698 -0.42101560817717493 0 -0.0078431527587624669 -0.43654892348980973 0 0.0095543244527824846 -0.43520686515897189 0 -0.0078431527587624669 -0.43654892348980973 0 -0.02218959723964796 -0.44535858922048283 0 0.0003462931537320732 -0.449753717877452 0 -0.02099986062468371 -0.46650247858496618 0 -0.02218959723964796 -0.44535858922048283 0 0.0003462931537320732 -0.449753717877452 0 -0.02099986062468371 -0.46650247858496618 0 0.0003462931537320732 -0.449753717877452 0 -0.0062813875946388506 -0.46068649546624918 0 -0.02099986062468371 -0.46650247858496618 0 0.0003462931537320732 -0.449753717877452 0 -0.0062813875946388506 -0.46068649546624918 0 -0.02099986062468371 -0.46650247858496618 0 -0.01065330251271627 -0.47389367475583682 0 -0.02099986062468371 -0.46650247858496618 0 -0.032756401206456537 -0.45570942710214513 0 -0.038889799515250963 -0.46547477400433862 0 -0.02099986062468371 -0.46650247858496618 0 -0.02218959723964796 -0.44535858922048283 0 -0.032756401206456537 -0.45570942710214513 0 -0.0043354945670682028 -0.48500613191932068 0 -0.01588058446619867 -0.5 0 0.008025207391458955 -0.5 0 -0.0043354945670682028 -0.48500613191932068 0 -0.02234532983800441 -0.48428938480942452 0 -0.01588058446619867 -0.5 0 -0.0043354945670682028 -0.48500613191932068 0 -0.01065330251271627 -0.47389367475583682 0 -0.02234532983800441 -0.48428938480942452 0 -0.0043354945670682028 -0.48500613191932068 0 -0.01065330251271627 -0.47389367475583682 0 0.00069556006081381754 -0.47298388299922328 0 -0.0062813875946388506 -0.46068649546624918 0 -0.01065330251271627 -0.47389367475583682 0 0.00069556006081381754 -0.47298388299922328 0 -0.02099986062468371 -0.46650247858496618 0 -0.02234532983800441 -0.48428938480942452 0 -0.042346014403099499 -0.48325123929248048 0 -0.02099986062468371 -0.46650247858496618 0 -0.01065330251271627 -0.47389367475583682 0 -0.02234532983800441 -0.48428938480942452 0 -0.02234532983800441 -0.48428938480942452 0 -0.01588058446619867 -0.5 0 -0.039786376323856183 -0.5 0 -0.02234532983800441 -0.48428938480942452 0 -0.039786376323856183 -0.5 0 -0.042346014403099499 -0.48325123929248048 0 -0.02099986062468371 -0.46650247858496618 0 -0.042346014403099499 -0.48325123929248048 0 -0.038889799515250963 -0.46547477400433862 0 -0.02099986062468371 -0.46650247858496618 0 -0.042346014403099499 -0.48325123929248048 0 -0.042346014403099499 -0.48325123929248048 0 -0.038889799515250963 -0.46547477400433862 0 -0.053999032614903103 -0.46638620098317612 0 -0.061251784978114003 -0.47967857446682438 0 -0.053999032614903103 -0.46638620098317612 0 -0.069283920354393277 -0.46193987817736493 0 -0.042346014403099499 -0.48325123929248048 0 -0.061251784978114003 -0.47967857446682438 0 -0.053999032614903103 -0.46638620098317612 0 -0.042346014403099499 -0.48325123929248048 0 -0.063692168181513686 -0.49999999999999672 0 -0.042346014403099499 -0.48325123929248048 0 -0.061251784978114003 -0.47967857446682438 0 -0.063692168181513686 -0.49999999999999672 0 -0.039786376323856183 -0.5 0 -0.042346014403099499 -0.48325123929248048 0 -0.063692168181513686 -0.49999999999999672 0 -0.02218959723964796 -0.44535858922048283 0 -0.041299136865996733 -0.44243821456224702 0 -0.032756401206456537 -0.45570942710214513 0 -0.041299136865996733 -0.44243821456224702 0 -0.032756401206456537 -0.45570942710214513 0 -0.044347688727111978 -0.45552452405892452 0 -0.032756401206456537 -0.45570942710214513 0 -0.038889799515250963 -0.46547477400433862 0 -0.044347688727111978 -0.45552452405892452 0 -0.038889799515250963 -0.46547477400433862 0 -0.044347688727111978 -0.45552452405892452 0 -0.053999032614903103 -0.46638620098317612 0 -0.044347688727111978 -0.45552452405892452 0 -0.053999032614903103 -0.46638620098317612 0 -0.060194991305060758 -0.44785034085445591 0 -0.053999032614903103 -0.46638620098317612 0 -0.060194991305060758 -0.44785034085445591 0 -0.069283920354393277 -0.46193987817736493 0 -0.0579801055690813 -0.42668163849409069 0 -0.041299136865996733 -0.44243821456224702 0 -0.060194991305060758 -0.44785034085445591 0 -0.041299136865996733 -0.44243821456224702 0 -0.044347688727111978 -0.45552452405892452 0 -0.060194991305060758 -0.44785034085445591 0 -0.060194991305060758 -0.44785034085445591 0 -0.077243963855147715 -0.44738554582363399 0 -0.074933734872318358 -0.43666812088050921 0 -0.060194991305060758 -0.44785034085445591 0 -0.077243963855147715 -0.44738554582363399 0 -0.069283920354393277 -0.46193987817736493 0 -0.061251784978114003 -0.47967857446682438 0 -0.069283920354393277 -0.46193987817736493 0 -0.081611341431016754 -0.46425256659180048 0 -0.077243963855147715 -0.44738554582363399 0 -0.069283920354393277 -0.46193987817736493 0 -0.077243963855147715 -0.44738554582363399 0 -0.069283920354393277 -0.46193987817736493 0 -0.083780429027668024 -0.45602988856413651 0 -0.069283920354393277 -0.46193987817736493 0 -0.083780429027668024 -0.45602988856413651 0 -0.081611341431016754 -0.46425256659180048 0 -0.081611341431016754 -0.46425256659180048 0 -0.09363862110599315 -0.45840697585674212 0 -0.089749974845158148 -0.47026988892554922 0 -0.09363862110599315 -0.45840697585674212 0 -0.089749974845158148 -0.47026988892554922 0 -0.081611341431016754 -0.46425256659180048 0 -0.09363862110599315 -0.45840697585674212 0 -0.083780429027668024 -0.45602988856413651 0 -0.081611341431016754 -0.46425256659180048 0 -0.09363862110599315 -0.45840697585674212 0 -0.083780429027668024 -0.45602988856413651 0 -0.09363862110599315 -0.45840697585674212 0 -0.096025734007201435 -0.4511247210737146 0 -0.077243963855147715 -0.44738554582363399 0 -0.096025734007201435 -0.4511247210737146 0 -0.085204007355901903 -0.43283121346990311 0 -0.077243963855147715 -0.44738554582363399 0 -0.083780429027668024 -0.45602988856413651 0 -0.096025734007201435 -0.4511247210737146 0 -0.096025734007201435 -0.4511247210737146 0 -0.085204007355901903 -0.43283121346990311 0 -0.077243963855147715 -0.44738554582363399 0 -0.085204007355901903 -0.43283121346990311 0 -0.077243963855147715 -0.44738554582363399 0 -0.074933734872318358 -0.43666812088050921 0 -0.085204007355901903 -0.43283121346990311 0 -0.063692168181513686 -0.49999999999999672 0 -0.084877230495045933 -0.48513494446277577 0 -0.080004486144931553 -0.50000000000000189 0 -0.061251784978114003 -0.47967857446682438 0 -0.063692168181513686 -0.49999999999999672 0 -0.084877230495045933 -0.48513494446277577 0 -0.061251784978114003 -0.47967857446682438 0 -0.089749974845158148 -0.47026988892554922 0 -0.061251784978114003 -0.47967857446682438 0 -0.081611341431016754 -0.46425256659180048 0 -0.089749974845158148 -0.47026988892554922 0 -0.061251784978114003 -0.47967857446682438 0 -0.089749974845158148 -0.47026988892554922 0 -0.084877230495045933 -0.48513494446277577 0 -0.089749974845158148 -0.47026988892554922 0 -0.084877230495045933 -0.48513494446277577 0 -0.089749974845158148 -0.47026988892554922 0 -0.084877230495045933 -0.48513494446277577 0 -0.099819412604991151 -0.47603764313274921 0 -0.084877230495045933 -0.48513494446277577 0 -0.080004486144931553 -0.50000000000000189 0 -0.09993457826499616 -0.48764140555123259 0 -0.084877230495045933 -0.48513494446277577 0 -0.080004486144931553 -0.50000000000000189 0 -0.080004486144931553 -0.50000000000000189 0 -0.1088939985757191 -0.49999999999999772 0 -0.09993457826499616 -0.48764140555123259 0 -0.1088939985757191 -0.49999999999999772 0 -0.09993457826499616 -0.48764140555123259 0 -0.11037596393220681 -0.48949875848913088 0 -0.09993457826499616 -0.48764140555123259 0 -0.1125038373033026 -0.47898000864997298 0 -0.11037596393220681 -0.48949875848913088 0 -0.09993457826499616 -0.48764140555123259 0 -0.099819412604991151 -0.47603764313274921 0 -0.1125038373033026 -0.47898000864997298 0 -0.084877230495045933 -0.48513494446277577 0 -0.09993457826499616 -0.48764140555123259 0 -0.099819412604991151 -0.47603764313274921 0 -0.089749974845158148 -0.47026988892554922 0 -0.099819412604991151 -0.47603764313274921 0 -0.10447534520233 -0.46540830368747371 0 -0.099819412604991151 -0.47603764313274921 0 -0.1125038373033026 -0.47898000864997298 0 -0.10447534520233 -0.46540830368747371 0 -0.1125038373033026 -0.47898000864997298 0 -0.10447534520233 -0.46540830368747371 0 -0.1193056586441843 -0.47176412300197729 0 -0.1125038373033026 -0.47898000864997298 0 -0.10447534520233 -0.46540830368747371 0 -0.1289335174196948 -0.47376166080059767 0 -0.1193056586441843 -0.47176412300197729 0 -0.1231415635567009 -0.4811885763110848 0 -0.1231415635567009 -0.4811885763110848 0 -0.1125038373033026 -0.47898000864997298 0 -0.1205323294042738 -0.4925517136124733 0 -0.1193056586441843 -0.47176412300197729 0 -0.1231415635567009 -0.4811885763110848 0 -0.1125038373033026 -0.47898000864997298 0 -0.1088939985757191 -0.49999999999999772 0 -0.1205323294042738 -0.4925517136124733 0 -0.1249384455549911 -0.49999999999999989 0 -0.1125038373033026 -0.47898000864997298 0 -0.11037596393220681 -0.48949875848913088 0 -0.1205323294042738 -0.4925517136124733 0 -0.1125038373033026 -0.47898000864997298 0 -0.1205323294042738 -0.4925517136124733 0 -0.1205323294042738 -0.4925517136124733 0 -0.1249384455549911 -0.49999999999999989 0 -0.1088939985757191 -0.49999999999999772 0 -0.11037596393220681 -0.48949875848913088 0 -0.1205323294042738 -0.4925517136124733 0 -0.1088939985757191 -0.49999999999999772 0 -0.1205323294042738 -0.4925517136124733 0 -0.096025734007201435 -0.4511247210737146 0 -0.1024050309985248 -0.43166369516083009 0 -0.10327058014891601 -0.44272349621639462 0 -0.1129710429447492 -0.449010883885753 0 -0.10656443252234669 -0.43213015343602468 0 -0.096025734007201435 -0.4511247210737146 0 -0.1024050309985248 -0.43166369516083009 0 -0.085204007355901903 -0.43283121346990311 0 -0.10327058014891601 -0.44272349621639462 0 -0.096025734007201435 -0.4511247210737146 0 -0.1024050309985248 -0.43166369516083009 0 -0.10327058014891601 -0.44272349621639462 0 -0.098838569069890192 -0.45587965725586249 0 -0.1129710429447492 -0.449010883885753 0 -0.098838569069890192 -0.45587965725586249 0 -0.1129710429447492 -0.449010883885753 0 -0.10327058014891601 -0.44272349621639462 0 -0.096025734007201435 -0.4511247210737146 0 -0.098838569069890192 -0.45587965725586249 0 -0.09363862110599315 -0.45840697585674212 0 -0.098838569069890192 -0.45587965725586249 0 -0.10447534520233 -0.46540830368747371 0 -0.09363862110599315 -0.45840697585674212 0 -0.096025734007201435 -0.4511247210737146 0 -0.096025734007201435 -0.4511247210737146 0 -0.098838569069890192 -0.45587965725586249 0 -0.09363862110599315 -0.45840697585674212 0 -0.096025734007201435 -0.4511247210737146 0 -0.098838569069890192 -0.45587965725586249 0 -0.09363862110599315 -0.45840697585674212 0 -0.098838569069890192 -0.45587965725586249 0 -0.089749974845158148 -0.47026988892554922 0 -0.10447534520233 -0.46540830368747371 0 -0.09363862110599315 -0.45840697585674212 0 -0.089749974845158148 -0.47026988892554922 0 -0.10447534520233 -0.46540830368747371 0 -0.098838569069890192 -0.45587965725586249 0 -0.1084600680098919 -0.45784719820067987 0 -0.1129710429447492 -0.449010883885753 0 -0.098838569069890192 -0.45587965725586249 0 -0.10447534520233 -0.46540830368747371 0 -0.1084600680098919 -0.45784719820067987 0 -0.098838569069890192 -0.45587965725586249 0 -0.10447534520233 -0.46540830368747371 0 -0.12970066300354491 -0.44934376086667971 0 -0.11755531482259821 -0.46108994797363029 0 -0.1129710429447492 -0.449010883885753 0 -0.11755531482259821 -0.46108994797363029 0 -0.1129710429447492 -0.449010883885753 0 -0.1084600680098919 -0.45784719820067987 0 -0.11755531482259821 -0.46108994797363029 0 -0.1129710429447492 -0.449010883885753 0 -0.1193056586441843 -0.47176412300197729 0 -0.10447534520233 -0.46540830368747371 0 -0.11755531482259821 -0.46108994797363029 0 -0.10447534520233 -0.46540830368747371 0 -0.1084600680098919 -0.45784719820067987 0 -0.11755531482259821 -0.46108994797363029 0 -0.10447534520233 -0.46540830368747371 0 -0.11755531482259821 -0.46108994797363029 0 -0.1293484221738545 -0.46366986461154219 0 -0.1193056586441843 -0.47176412300197729 0 -0.11755531482259821 -0.46108994797363029 0 -0.1129710429447492 -0.449010883885753 0 -0.10656443252234669 -0.43213015343602468 0 -0.1129710429447492 -0.449010883885753 0 -0.1232774183690598 -0.43400444003873301 0 -0.10656443252234669 -0.43213015343602468 0 -0.1232774183690598 -0.43400444003873301 0 -0.1170783164590562 -0.42210766762200869 0 -0.10656443252234669 -0.43213015343602468 0 -0.1232774183690598 -0.43400444003873301 0 -0.10656443252234669 -0.43213015343602468 0 -0.13068609542941531 -0.4243885910825137 0 -0.1232774183690598 -0.43400444003873301 0 -0.1170783164590562 -0.42210766762200869 0 -0.10327058014891601 -0.44272349621639462 0 -0.1024050309985248 -0.43166369516083009 0 -0.10656443252234669 -0.43213015343602468 0 -0.1024050309985248 -0.43166369516083009 0 -0.1042506088029506 -0.42603347641962702 0 -0.086799691803459367 -0.42991362617541101 0 -0.1024050309985248 -0.43166369516083009 0 -0.10656443252234669 -0.43213015343602468 0 -0.1024050309985248 -0.43166369516083009 0 -0.10656443252234669 -0.43213015343602468 0 -0.1042506088029506 -0.42603347641962702 0 -0.1170783164590562 -0.42210766762200869 0 -0.10656443252234669 -0.43213015343602468 0 -0.1042506088029506 -0.42603347641962702 0 -0.1024050309985248 -0.43166369516083009 0 -0.1042506088029506 -0.42603347641962702 0 -0.10656443252234669 -0.43213015343602468 0 -0.1042506088029506 -0.42603347641962702 0 -0.1024050309985248 -0.43166369516083009 0 -0.086799691803459367 -0.42991362617541101 0 -0.1042506088029506 -0.42603347641962702 0 -0.09797108058593057 -0.40948759393357193 0 -0.086799691803459367 -0.42991362617541101 0 -0.1042506088029506 -0.42603347641962702 0 -0.09797108058593057 -0.40948759393357193 0 -0.1090638858169541 -0.4113498351308007 0 -0.1042506088029506 -0.42603347641962702 0 -0.09797108058593057 -0.40948759393357193 0 -0.1042506088029506 -0.42603347641962702 0 -0.1090638858169541 -0.4113498351308007 0 -0.1170783164590562 -0.42210766762200869 0 -0.1090638858169541 -0.4113498351308007 0 -0.1196910785468695 -0.40670270062759889 0 -0.1170783164590562 -0.42210766762200869 0 -0.1042506088029506 -0.42603347641962702 0 -0.1090638858169541 -0.4113498351308007 0 -0.13180959787825361 -0.40903124397135121 0 -0.1170783164590562 -0.42210766762200869 0 -0.1196910785468695 -0.40670270062759889 0 -0.1196910785468695 -0.40670270062759889 0 -0.1237576608478264 -0.39524602785007851 0 -0.1138771628309582 -0.3966661938419746 0 -0.1174544520139094 -0.39068917668214442 0 -0.1237576608478264 -0.39524602785007851 0 -0.1138771628309582 -0.3966661938419746 0 -0.1174544520139094 -0.39068917668214442 0 -0.1138771628309582 -0.3966661938419746 0 -0.1094138923358095 -0.38856528549981439 0 -0.1090638858169541 -0.4113498351308007 0 -0.1196910785468695 -0.40670270062759889 0 -0.1138771628309582 -0.3966661938419746 0 -0.1090638858169541 -0.4113498351308007 0 -0.1138771628309582 -0.3966661938419746 0 -0.1208567040856893 -0.36764297706605731 0 -0.1094138923358095 -0.38856528549981439 0 -0.1208567040856893 -0.36764297706605731 0 -0.1227690920410435 -0.38227919953671008 0 -0.1094138923358095 -0.38856528549981439 0 -0.1208567040856893 -0.36764297706605731 0 -0.1094138923358095 -0.38856528549981439 0 -0.1142646503058814 -0.37732951116344859 0 -0.1174544520139094 -0.39068917668214442 0 -0.1237576608478264 -0.39524602785007851 0 -0.1227690920410435 -0.38227919953671008 0 -0.1174544520139094 -0.39068917668214442 0 -0.1227690920410435 -0.38227919953671008 0 -0.1094138923358095 -0.38856528549981439 0 -0.1094138923358095 -0.38856528549981439 0 -0.1142646503058814 -0.37732951116344859 0 -0.1014492311456192 -0.37992878091318522 0 -0.1094138923358095 -0.38856528549981439 0 -0.099373079722085034 -0.38830664328263592 0 -0.1014492311456192 -0.37992878091318522 0 -0.09507196089057976 -0.36642189859305108 0 -0.1014492311456192 -0.37992878091318522 0 -0.089091120733917464 -0.37870855125608732 0 -0.099373079722085034 -0.38830664328263592 0 -0.1014492311456192 -0.37992878091318522 0 -0.089091120733917464 -0.37870855125608732 0 -0.09797108058593057 -0.40948759393357193 0 -0.099373079722085034 -0.38830664328263592 0 -0.09098934112121343 -0.39109146022111752 0 -0.09797108058593057 -0.40948759393357193 0 -0.1090638858169541 -0.4113498351308007 0 -0.1138771628309582 -0.3966661938419746 0 -0.09797108058593057 -0.40948759393357193 0 -0.09098934112121343 -0.39109146022111752 0 -0.09797108058593057 -0.40948759393357193 0 -0.1094138923358095 -0.38856528549981439 0 -0.099373079722085034 -0.38830664328263592 0 -0.09797108058593057 -0.40948759393357193 0 -0.1138771628309582 -0.3966661938419746 0 -0.1094138923358095 -0.38856528549981439 0 -0.09797108058593057 -0.40948759393357193 0 -0.1094138923358095 -0.38856528549981439 0 -0.078288379668216737 -0.3854271426125786 0 -0.087761622968250838 -0.40933911900583919 0 -0.09098934112121343 -0.39109146022111752 0 -0.078288379668216737 -0.3854271426125786 0 -0.087761622968250838 -0.40933911900583919 0 -0.078288379668216737 -0.3854271426125786 0 -0.0752661809039291 -0.40265036521453368 0 -0.087761622968250838 -0.40933911900583919 0 -0.09797108058593057 -0.40948759393357193 0 -0.09098934112121343 -0.39109146022111752 0 -0.087761622968250838 -0.40933911900583919 0 -0.068815136368182608 -0.3615151662193179 0 -0.089091120733917464 -0.37870855125608732 0 -0.078288379668216737 -0.3854271426125786 0 -0.099373079722085034 -0.38830664328263592 0 -0.09098934112121343 -0.39109146022111752 0 -0.089091120733917464 -0.37870855125608732 0 -0.09098934112121343 -0.39109146022111752 0 -0.089091120733917464 -0.37870855125608732 0 -0.078288379668216737 -0.3854271426125786 0 -0.062157811893328203 -0.39321337751225638 0 -0.078288379668216737 -0.3854271426125786 0 -0.064816800793753307 -0.37843534828146641 0 -0.068815136368182608 -0.3615151662193179 0 -0.078288379668216737 -0.3854271426125786 0 -0.064816800793753307 -0.37843534828146641 0 -0.062157811893328203 -0.39321337751225638 0 -0.078288379668216737 -0.3854271426125786 0 -0.0752661809039291 -0.40265036521453368 0 -0.062157811893328203 -0.39321337751225638 0 -0.0752661809039291 -0.40265036521453368 0 -0.068351780339259885 -0.41162679371359001 0 -0.0579801055690813 -0.42668163849409069 0 -0.068351780339259885 -0.41162679371359001 0 -0.081106429873022107 -0.42590449398644142 0 -0.0752661809039291 -0.40265036521453368 0 -0.068351780339259885 -0.41162679371359001 0 -0.078747568427083414 -0.41463298009018701 0 -0.068351780339259885 -0.41162679371359001 0 -0.081106429873022107 -0.42590449398644142 0 -0.078747568427083414 -0.41463298009018701 0 -0.0579801055690813 -0.42668163849409069 0 -0.074933734872318358 -0.43666812088050921 0 -0.083242059732546822 -0.42951465365254832 0 -0.0579801055690813 -0.42668163849409069 0 -0.081106429873022107 -0.42590449398644142 0 -0.083242059732546822 -0.42951465365254832 0 -0.0579801055690813 -0.42668163849409069 0 -0.060194991305060758 -0.44785034085445591 0 -0.074933734872318358 -0.43666812088050921 0 -0.0579801055690813 -0.42668163849409069 0 -0.083242059732546822 -0.42951465365254832 0 -0.1024050309985248 -0.43166369516083009 0 -0.085204007355901903 -0.43283121346990311 0 -0.086799691803459367 -0.42991362617541101 0 -0.081106429873022107 -0.42590449398644142 0 -0.083242059732546822 -0.42951465365254832 0 -0.086799691803459367 -0.42991362617541101 0 -0.081106429873022107 -0.42590449398644142 0 -0.083242059732546822 -0.42951465365254832 0 -0.074933734872318358 -0.43666812088050921 0 -0.083242059732546822 -0.42951465365254832 0 -0.085204007355901903 -0.43283121346990311 0 -0.083242059732546822 -0.42951465365254832 0 -0.086799691803459367 -0.42991362617541101 0 -0.083242059732546822 -0.42951465365254832 0 -0.085204007355901903 -0.43283121346990311 0 -0.086799691803459367 -0.42991362617541101 0 -0.083242059732546822 -0.42951465365254832 0 -0.085204007355901903 -0.43283121346990311 0 -0.085204007355901903 -0.43283121346990311 0 -0.086799691803459367 -0.42991362617541101 0 -0.09797108058593057 -0.40948759393357193 0 -0.086799691803459367 -0.42991362617541101 0 -0.09797108058593057 -0.40948759393357193 0 -0.086799691803459367 -0.42991362617541101 0 -0.087761622968250838 -0.40933911900583919 0 -0.081106429873022107 -0.42590449398644142 0 -0.087761622968250838 -0.40933911900583919 0 -0.078747568427083414 -0.41463298009018701 0 -0.081106429873022107 -0.42590449398644142 0 -0.086799691803459367 -0.42991362617541101 0 -0.087761622968250838 -0.40933911900583919 0 -0.0752661809039291 -0.40265036521453368 0 -0.087761622968250838 -0.40933911900583919 0 -0.078747568427083414 -0.41463298009018701 0 -0.080392650278849412 -0.08806545241544747 0 -0.092782354317006835 -0.093354432082357025 0 -0.094906568884623177 -0.076675179517915859 0 -0.080392650278849412 -0.08806545241544747 0 -0.079398228487536707 -0.097595075490033045 0 -0.080392650278849412 -0.08806545241544747 0 -0.079398228487536707 -0.097595075490033045 0 -0.090828559064719441 -0.094508369284478533 0 -0.076893397946374356 -0.086571673841010846 0 -0.079398228487536707 -0.097595075490033045 0 -0.080392650278849412 -0.08806545241544747 0 -0.076893397946374356 -0.086571673841010846 0 -0.079398228487536707 -0.097595075490033045 0 -0.080392650278849412 -0.08806545241544747 0 -0.076893397946374356 -0.086571673841010846 0 -0.080392650278849412 -0.08806545241544747 0 -0.092782354317006835 -0.093354432082357025 0 -0.090828559064719441 -0.094508369284478533 0 -0.080392650278849412 -0.08806545241544747 0 -0.092782354317006835 -0.093354432082357025 0 -0.074512012847049711 -0.07609153795976957 0 -0.082447086903557398 -0.06009482441080409 0 -0.080392650278849412 -0.08806545241544747 0 -0.074512012847049711 -0.07609153795976957 0 -0.082447086903557398 -0.06009482441080409 0 -0.080392650278849412 -0.08806545241544747 0 -0.094906568884623177 -0.076675179517915859 0 -0.082447086903557398 -0.06009482441080409 0 -0.080392650278849412 -0.08806545241544747 0 -0.082447086903557398 -0.06009482441080409 0 -0.074512012847049711 -0.07609153795976957 0 -0.082447086903557398 -0.06009482441080409 0 -0.07076723575640527 -0.059611308547892108 0 -0.074512012847049711 -0.07609153795976957 0 -0.07076723575640527 -0.059611308547892108 0 -0.074512012847049711 -0.07609153795976957 0 -0.065507557556549509 -0.071370449510198886 0 -0.07076723575640527 -0.059611308547892108 0 -0.065507557556549509 -0.071370449510198886 0 -0.07076723575640527 -0.059611308547892108 0 -0.062775573247212238 -0.061177816485079362 0 -0.065507557556549509 -0.071370449510198886 0 -0.068574479735619143 -0.078057017366056899 0 -0.063313175673783875 -0.08077447971512472 0 -0.074512012847049711 -0.07609153795976957 0 -0.065507557556549509 -0.071370449510198886 0 -0.068574479735619143 -0.078057017366056899 0 -0.065507557556549509 -0.071370449510198886 0 -0.063313175673783875 -0.08077447971512472 0 -0.059021687221161169 -0.076338953889858979 0 -0.063313175673783875 -0.08077447971512472 0 -0.070638006874842285 -0.083901340789970399 0 -0.062681920969106658 -0.087953530405493752 0 -0.063313175673783875 -0.08077447971512472 0 -0.070638006874842285 -0.083901340789970399 0 -0.068574479735619143 -0.078057017366056899 0 -0.063313175673783875 -0.08077447971512472 0 -0.070638006874842285 -0.083901340789970399 0 -0.074512012847049711 -0.07609153795976957 0 -0.070638006874842285 -0.083901340789970399 0 -0.080392650278849412 -0.08806545241544747 0 -0.074512012847049711 -0.07609153795976957 0 -0.076893397946374356 -0.086571673841010846 0 -0.074512012847049711 -0.07609153795976957 0 -0.070638006874842285 -0.083901340789970399 0 -0.076893397946374356 -0.086571673841010846 0 -0.074512012847049711 -0.07609153795976957 0 -0.076893397946374356 -0.086571673841010846 0 -0.074512012847049711 -0.07609153795976957 0 -0.068574479735619143 -0.078057017366056899 0 -0.070638006874842285 -0.083901340789970399 0 -0.070638006874842285 -0.083901340789970399 0 -0.076893397946374356 -0.086571673841010846 0 -0.076893397946374356 -0.086571673841010846 0 -0.072719015498905859 -0.09136482970158083 0 -0.079398228487536707 -0.097595075490033045 0 -0.070638006874842285 -0.083901340789970399 0 -0.076893397946374356 -0.086571673841010846 0 -0.072719015498905859 -0.09136482970158083 0 -0.070638006874842285 -0.083901340789970399 0 -0.062681920969106658 -0.087953530405493752 0 -0.063946428686868617 -0.097391228685309417 0 -0.070638006874842285 -0.083901340789970399 0 -0.063946428686868617 -0.097391228685309417 0 -0.070638006874842285 -0.083901340789970399 0 -0.072719015498905859 -0.09136482970158083 0 -0.063946428686868617 -0.097391228685309417 0 -0.063946428686868617 -0.097391228685309417 0 -0.079398228487536707 -0.097595075490033045 0 -0.057614266251556467 -0.1034777304982393 0 -0.079398228487536707 -0.097595075490033045 0 -0.057614266251556467 -0.1034777304982393 0 -0.068544442640315936 -0.10766966186515969 0 -0.076542126178587855 -0.1004348120245523 0 -0.057614266251556467 -0.1034777304982393 0 -0.076542126178587855 -0.1004348120245523 0 -0.079398228487536707 -0.097595075490033045 0 -0.057614266251556467 -0.1034777304982393 0 -0.068544442640315936 -0.10766966186515969 0 -0.057614266251556467 -0.1034777304982393 0 -0.0770185047908509 -0.1026647691789892 0 -0.078939337277517466 -0.11165630245871901 0 -0.068544442640315936 -0.10766966186515969 0 -0.0770185047908509 -0.1026647691789892 0 -0.078939337277517466 -0.11165630245871901 0 -0.068544442640315936 -0.10766966186515969 0 -0.0770185047908509 -0.1026647691789892 0 -0.076542126178587855 -0.1004348120245523 0 -0.068544442640315936 -0.10766966186515969 0 -0.0770185047908509 -0.1026647691789892 0 -0.0770185047908509 -0.1026647691789892 0 -0.076542126178587855 -0.1004348120245523 0 -0.072719015498905859 -0.09136482970158083 0 -0.063946428686868617 -0.097391228685309417 0 -0.079398228487536707 -0.097595075490033045 0 -0.0770185047908509 -0.1026647691789892 0 -0.076542126178587855 -0.1004348120245523 0 -0.079424716026310835 -0.10124362914016211 0 -0.067400001477023949 -0.1183815358394312 0 -0.075684681868735837 -0.1232805352789057 0 -0.061306298145639537 -0.129353243582499 0 -0.068544442640315936 -0.10766966186515969 0 -0.067400001477023949 -0.1183815358394312 0 -0.073739084986135864 -0.1133852058430638 0 -0.068544442640315936 -0.10766966186515969 0 -0.078939337277517466 -0.11165630245871901 0 -0.068544442640315936 -0.10766966186515969 0 -0.073739084986135864 -0.1133852058430638 0 -0.078939337277517466 -0.11165630245871901 0 -0.067400001477023949 -0.1183815358394312 0 -0.073739084986135864 -0.1133852058430638 0 -0.075253242569949502 -0.1181394626349152 0 -0.073739084986135864 -0.1133852058430638 0 -0.07850761321313382 -0.1137297488488286 0 -0.078939337277517466 -0.11165630245871901 0 -0.073739084986135864 -0.1133852058430638 0 -0.075253242569949502 -0.1181394626349152 0 -0.07850761321313382 -0.1137297488488286 0 -0.067400001477023949 -0.1183815358394312 0 -0.075253242569949502 -0.1181394626349152 0 -0.075684681868735837 -0.1232805352789057 0 -0.075253242569949502 -0.1181394626349152 0 -0.075684681868735837 -0.1232805352789057 0 -0.081501265065721418 -0.1236488416978552 0 -0.085374108504262414 -0.12389407039135381 0 -0.082942172253770902 -0.11319146610996091 0 -0.1061324523747815 -0.122085381376283 0 -0.085374108504262414 -0.12389407039135381 0 -0.081501265065721418 -0.1236488416978552 0 -0.082942172253770902 -0.11319146610996091 0 -0.075253242569949502 -0.1181394626349152 0 -0.081501265065721418 -0.1236488416978552 0 -0.07850761321313382 -0.1137297488488286 0 -0.081501265065721418 -0.1236488416978552 0 -0.078939337277517466 -0.11165630245871901 0 -0.085374108504262414 -0.12389407039135381 0 -0.082942172253770902 -0.11319146610996091 0 -0.085374108504262414 -0.12389407039135381 0 -0.081501265065721418 -0.1236488416978552 0 -0.075684681868735837 -0.1232805352789057 0 -0.081501265065721418 -0.1236488416978552 0 -0.081501265065721418 -0.1236488416978552 0 -0.078939337277517466 -0.11165630245871901 0 -0.082942172253770902 -0.11319146610996091 0 -0.081501265065721418 -0.1236488416978552 0 -0.07850761321313382 -0.1137297488488286 0 -0.078939337277517466 -0.11165630245871901 0 -0.078939337277517466 -0.11165630245871901 0 -0.082942172253770902 -0.11319146610996091 0 -0.07850761321313382 -0.1137297488488286 0 -0.078939337277517466 -0.11165630245871901 0 -0.082942172253770902 -0.11319146610996091 0 -0.089495140006558171 -0.1037697664297831 0 -0.094310883276275889 -0.1118715308932839 0 -0.079398228487536707 -0.097595075490033045 0 -0.090828559064719441 -0.094508369284478533 0 -0.079424716026310835 -0.10124362914016211 0 -0.090828559064719441 -0.094508369284478533 0 -0.079398228487536707 -0.097595075490033045 0 -0.079424716026310835 -0.10124362914016211 0 -0.090828559064719441 -0.094508369284478533 0 -0.079398228487536707 -0.097595075490033045 0 -0.079424716026310835 -0.10124362914016211 0 -0.076542126178587855 -0.1004348120245523 0 -0.079398228487536707 -0.097595075490033045 0 -0.079424716026310835 -0.10124362914016211 0 -0.0770185047908509 -0.1026647691789892 0 -0.078939337277517466 -0.11165630245871901 0 -0.079424716026310835 -0.10124362914016211 0 -0.078939337277517466 -0.11165630245871901 0 -0.082942172253770902 -0.11319146610996091 0 -0.079424716026310835 -0.10124362914016211 0 -0.082942172253770902 -0.11319146610996091 0 -0.079424716026310835 -0.10124362914016211 0 -0.078939337277517466 -0.11165630245871901 0 -0.079424716026310835 -0.10124362914016211 0 -0.0770185047908509 -0.1026647691789892 0 -0.079424716026310835 -0.10124362914016211 0 -0.082942172253770902 -0.11319146610996091 0 -0.079424716026310835 -0.10124362914016211 0 -0.089495140006558171 -0.1037697664297831 0 -0.092782354317006835 -0.093354432082357025 0 -0.089495140006558171 -0.1037697664297831 0 -0.098673768469996009 -0.1084395096571078 0 -0.092782354317006835 -0.093354432082357025 0 -0.089495140006558171 -0.1037697664297831 0 -0.090828559064719441 -0.094508369284478533 0 -0.079424716026310835 -0.10124362914016211 0 -0.089495140006558171 -0.1037697664297831 0 -0.090828559064719441 -0.094508369284478533 0 -0.092782354317006835 -0.093354432082357025 0 -0.090828559064719441 -0.094508369284478533 0 -0.092782354317006835 -0.093354432082357025 0 -0.1137575730885475 -0.10230843980111751 0 -0.1148469301427766 -0.088022322835235672 0 -0.092782354317006835 -0.093354432082357025 0 -0.098673768469996009 -0.1084395096571078 0 -0.1137575730885475 -0.10230843980111751 0 -0.092782354317006835 -0.093354432082357025 0 -0.1137575730885475 -0.10230843980111751 0 -0.089495140006558171 -0.1037697664297831 0 -0.098673768469996009 -0.1084395096571078 0 -0.094310883276275889 -0.1118715308932839 0 -0.098673768469996009 -0.1084395096571078 0 -0.1078013175756464 -0.1120892858696589 0 -0.1137575730885475 -0.10230843980111751 0 -0.085374108504262414 -0.12389407039135381 0 -0.1061324523747815 -0.122085381376283 0 -0.11105610125402041 -0.12552025580997389 0 -0.085374108504262414 -0.12389407039135381 0 -0.11105610125402041 -0.12552025580997389 0 -0.082942172253770902 -0.11319146610996091 0 -0.094310883276275889 -0.1118715308932839 0 -0.1061324523747815 -0.122085381376283 0 -0.082942172253770902 -0.11319146610996091 0 -0.1061324523747815 -0.122085381376283 0 -0.098673768469996009 -0.1084395096571078 0 -0.094310883276275889 -0.1118715308932839 0 -0.1061324523747815 -0.122085381376283 0 -0.098673768469996009 -0.1084395096571078 0 -0.1078013175756464 -0.1120892858696589 0 -0.1061324523747815 -0.122085381376283 0 -0.1152610119709349 -0.1142465265902273 0 -0.11105610125402041 -0.12552025580997389 0 -0.13673809400377809 -0.12714644122859631 0 -0.1061324523747815 -0.122085381376283 0 -0.1152610119709349 -0.1142465265902273 0 -0.11105610125402041 -0.12552025580997389 0 -0.1078013175756464 -0.1120892858696589 0 -0.1061324523747815 -0.122085381376283 0 -0.1152610119709349 -0.1142465265902273 0 -0.1078013175756464 -0.1120892858696589 0 -0.1152610119709349 -0.1142465265902273 0 -0.1137575730885475 -0.10230843980111751 0 -0.1137575730885475 -0.10230843980111751 0 -0.1338341020979604 -0.1108788102785202 0 -0.1152610119709349 -0.1142465265902273 0 -0.1137575730885475 -0.10230843980111751 0 -0.1338341020979604 -0.1108788102785202 0 -0.1137575730885475 -0.10230843980111751 0 -0.12441086491995421 -0.095936191835674381 0 -0.1328000195512776 -0.1050860691873091 0 -0.1137575730885475 -0.10230843980111751 0 -0.12441086491995421 -0.095936191835674381 0 -0.1148469301427766 -0.088022322835235672 0 -0.1140404135467733 -0.080799142391208806 0 -0.1148469301427766 -0.088022322835235672 0 -0.13601281620641731 -0.082306576346762958 0 -0.092782354317006835 -0.093354432082357025 0 -0.1140404135467733 -0.080799142391208806 0 -0.092782354317006835 -0.093354432082357025 0 -0.1140404135467733 -0.080799142391208806 0 -0.094906568884623177 -0.076675179517915859 0 -0.092782354317006835 -0.093354432082357025 0 -0.1148469301427766 -0.088022322835235672 0 -0.092782354317006835 -0.093354432082357025 0 -0.1140404135467733 -0.080799142391208806 0 -0.1148469301427766 -0.088022322835235672 0 -0.094906568884623177 -0.076675179517915859 0 -0.1048703393769231 -0.061062046289749851 0 -0.082447086903557398 -0.06009482441080409 0 -0.1140404135467733 -0.080799142391208806 0 -0.094906568884623177 -0.076675179517915859 0 -0.1048703393769231 -0.061062046289749851 0 -0.1140404135467733 -0.080799142391208806 0 -0.1186368576129485 -0.065916483248094432 0 -0.1048703393769231 -0.061062046289749851 0 -0.1140404135467733 -0.080799142391208806 0 -0.1186368576129485 -0.065916483248094432 0 -0.13529847277653259 -0.068243852700048457 0 -0.1140404135467733 -0.080799142391208806 0 -0.13529847277653259 -0.068243852700048457 0 -0.1186368576129485 -0.065916483248094432 0 -0.1200136041636382 -0.052435428425421197 0 -0.13529847277653259 -0.068243852700048457 0 -0.1186368576129485 -0.065916483248094432 0 -0.1200136041636382 -0.052435428425421197 0 -0.1048703393769231 -0.061062046289749851 0 -0.1200136041636382 -0.052435428425421197 0 -0.1048703393769231 -0.061062046289749851 0 -0.1073182318127331 -0.04748791201048793 0 -0.1200136041636382 -0.052435428425421197 0 -0.12078603600836341 -0.037522388518962863 0 -0.13398311562101661 -0.050076731811762407 0 -0.12078603600836341 -0.037522388518962863 0 -0.1100050242089229 -0.02621924733347224 0 -0.10964158030158649 -0.030214254471095301 0 -0.1200136041636382 -0.052435428425421197 0 -0.12078603600836341 -0.037522388518962863 0 -0.1073182318127331 -0.04748791201048793 0 -0.12078603600836341 -0.037522388518962863 0 -0.09390702704541995 -0.036992156630748993 0 -0.12078603600836341 -0.037522388518962863 0 -0.09390702704541995 -0.036992156630748993 0 -0.10964158030158649 -0.030214254471095301 0 -0.09390702704541995 -0.036992156630748993 0 -0.10964158030158649 -0.030214254471095301 0 -0.096942000692744792 -0.03087380112213493 0 -0.12078603600836341 -0.037522388518962863 0 -0.09390702704541995 -0.036992156630748993 0 -0.1073182318127331 -0.04748791201048793 0 -0.09390702704541995 -0.036992156630748993 0 -0.096942000692744792 -0.03087380112213493 0 -0.09390702704541995 -0.036992156630748993 0 -0.097135671284658359 -0.051409234835447813 0 -0.1073182318127331 -0.04748791201048793 0 -0.097135671284658359 -0.051409234835447813 0 -0.1048703393769231 -0.061062046289749851 0 -0.082447086903557398 -0.06009482441080409 0 -0.097135671284658359 -0.051409234835447813 0 -0.1048703393769231 -0.061062046289749851 0 -0.1073182318127331 -0.04748791201048793 0 -0.1123811332199436 -0.0001008497836227223 0 -0.1100050242089229 -0.02621924733347224 0 -0.1332410864610557 -0.017939885250470029 0 -0.1123811332199436 -0.0001008497836227223 0 -0.1100050242089229 -0.02621924733347224 0 -0.1100050242089229 -0.02621924733347224 0 -0.1332410864610557 -0.017939885250470029 0 -0.12078603600836341 -0.037522388518962863 0 -0.1100050242089229 -0.02621924733347224 0 -0.1332410864610557 -0.017939885250470029 0 -0.1100050242089229 -0.02621924733347224 0 -0.10964158030158649 -0.030214254471095301 0 -0.1100050242089229 -0.02621924733347224 0 -0.098557986538036046 -0.027616054252703252 0 -0.10155273717980851 -0.021200500040530441 0 -0.1100050242089229 -0.02621924733347224 0 -0.098557986538036046 -0.027616054252703252 0 -0.096942000692744792 -0.03087380112213493 0 -0.1100050242089229 -0.02621924733347224 0 -0.10964158030158649 -0.030214254471095301 0 -0.096942000692744792 -0.03087380112213493 0 -0.1100050242089229 -0.02621924733347224 0 -0.096942000692744792 -0.03087380112213493 0 -0.098557986538036046 -0.027616054252703252 0 -0.096942000692744792 -0.03087380112213493 0 -0.095141614445959408 -0.018596923510999529 0 -0.098557986538036046 -0.027616054252703252 0 -0.096942000692744792 -0.03087380112213493 0 -0.098557986538036046 -0.027616054252703252 0 -0.10155273717980851 -0.021200500040530441 0 -0.095141614445959408 -0.018596923510999529 0 -0.10155273717980851 -0.021200500040530441 0 -0.095141614445959408 -0.018596923510999529 0 -0.1025063235263152 -0.01236977506494567 0 -0.1100050242089229 -0.02621924733347224 0 -0.10155273717980851 -0.021200500040530441 0 -0.1025063235263152 -0.01236977506494567 0 -0.1123811332199436 -0.0001008497836227223 0 -0.1100050242089229 -0.02621924733347224 0 -0.1025063235263152 -0.01236977506494567 0 -0.095141614445959408 -0.018596923510999529 0 -0.1025063235263152 -0.01236977506494567 0 -0.086931628257415489 0.00096105654054996249 0 -0.1025063235263152 -0.01236977506494567 0 -0.1006658800619662 0.0004949334613425756 0 -0.086931628257415489 0.00096105654054996249 0 -0.1123811332199436 -0.0001008497836227223 0 -0.1025063235263152 -0.01236977506494567 0 -0.1006658800619662 0.0004949334613425756 0 -0.080554433586790014 -0.0047814985908740948 0 -0.085596564090966609 -0.017215499851104571 0 -0.071148975607659842 -0.020569589011109311 0 -0.085596564090966609 -0.017215499851104571 0 -0.086931628257415489 0.00096105654054996249 0 -0.095141614445959408 -0.018596923510999529 0 -0.085596564090966609 -0.017215499851104571 0 -0.086931628257415489 0.00096105654054996249 0 -0.080554433586790014 -0.0047814985908740948 0 -0.085596564090966609 -0.017215499851104571 0 -0.086931628257415489 0.00096105654054996249 0 -0.080554433586790014 -0.0047814985908740948 0 -0.086931628257415489 0.00096105654054996249 0 -0.085596564090966609 -0.017215499851104571 0 -0.084158098270462625 -0.036799843256412439 0 -0.096942000692744792 -0.03087380112213493 0 -0.085596564090966609 -0.017215499851104571 0 -0.084158098270462625 -0.036799843256412439 0 -0.085596564090966609 -0.017215499851104571 0 -0.07734501896322446 -0.028542708894223171 0 -0.084158098270462625 -0.036799843256412439 0 -0.096942000692744792 -0.03087380112213493 0 -0.095141614445959408 -0.018596923510999529 0 -0.085596564090966609 -0.017215499851104571 0 -0.071148975607659842 -0.020569589011109311 0 -0.06174351762852865 -0.036357679431343722 0 -0.07734501896322446 -0.028542708894223171 0 -0.071148975607659842 -0.020569589011109311 0 -0.06174351762852865 -0.036357679431343722 0 -0.067410841197281593 -0.01661707956654539 0 -0.071148975607659842 -0.020569589011109311 0 -0.054267248807770507 -0.02845266054221373 0 -0.085596564090966609 -0.017215499851104571 0 -0.07734501896322446 -0.028542708894223171 0 -0.071148975607659842 -0.020569589011109311 0 -0.071363944254352912 -0.00157000638721369 0 -0.055015198782809083 -0.014735020988591901 0 -0.080554433586790014 -0.0047814985908740948 0 -0.071148975607659842 -0.020569589011109311 0 -0.080554433586790014 -0.0047814985908740948 0 -0.067410841197281593 -0.01661707956654539 0 -0.071148975607659842 -0.020569589011109311 0 -0.067410841197281593 -0.01661707956654539 0 -0.071363944254352912 -0.00157000638721369 0 -0.055015198782809083 -0.014735020988591901 0 -0.080554433586790014 -0.0047814985908740948 0 -0.067410841197281593 -0.01661707956654539 0 -0.080554433586790014 -0.0047814985908740948 0 -0.067410841197281593 -0.01661707956654539 0 -0.071363944254352912 -0.00157000638721369 0 -0.082447086903557398 -0.06009482441080409 0 -0.084158098270462625 -0.036799843256412439 0 -0.09390702704541995 -0.036992156630748993 0 -0.082447086903557398 -0.06009482441080409 0 -0.082447086903557398 -0.06009482441080409 0 -0.084158098270462625 -0.036799843256412439 0 -0.076981451426010455 -0.047272996174905567 0 -0.09390702704541995 -0.036992156630748993 0 -0.097135671284658359 -0.051409234835447813 0 -0.082447086903557398 -0.06009482441080409 0 -0.09390702704541995 -0.036992156630748993 0 -0.082447086903557398 -0.06009482441080409 0 -0.084158098270462625 -0.036799843256412439 0 -0.09390702704541995 -0.036992156630748993 0 -0.084158098270462625 -0.036799843256412439 0 -0.09390702704541995 -0.036992156630748993 0 -0.096942000692744792 -0.03087380112213493 0 -0.084158098270462625 -0.036799843256412439 0 -0.096942000692744792 -0.03087380112213493 0 -0.084158098270462625 -0.036799843256412439 0 -0.07734501896322446 -0.028542708894223171 0 -0.084158098270462625 -0.036799843256412439 0 -0.080512377533867627 -0.036727925523405203 0 -0.084158098270462625 -0.036799843256412439 0 -0.080512377533867627 -0.036727925523405203 0 -0.084158098270462625 -0.036799843256412439 0 -0.080512377533867627 -0.036727925523405203 0 -0.076981451426010455 -0.047272996174905567 0 -0.07734501896322446 -0.028542708894223171 0 -0.080512377533867627 -0.036727925523405203 0 -0.06174351762852865 -0.036357679431343722 0 -0.080512377533867627 -0.036727925523405203 0 -0.055797441811089032 -0.045534232697429268 0 -0.06174351762852865 -0.036357679431343722 0 -0.080512377533867627 -0.036727925523405203 0 -0.067022458665760509 -0.043131079136014702 0 -0.055797441811089032 -0.045534232697429268 0 -0.080512377533867627 -0.036727925523405203 0 -0.055797441811089032 -0.045534232697429268 0 -0.080512377533867627 -0.036727925523405203 0 -0.06174351762852865 -0.036357679431343722 0 -0.080512377533867627 -0.036727925523405203 0 -0.067022458665760509 -0.043131079136014702 0 -0.076981451426010455 -0.047272996174905567 0 -0.067022458665760509 -0.043131079136014702 0 -0.07076723575640527 -0.059611308547892108 0 -0.067022458665760509 -0.043131079136014702 0 -0.076981451426010455 -0.047272996174905567 0 -0.07076723575640527 -0.059611308547892108 0 -0.067022458665760509 -0.043131079136014702 0 -0.07076723575640527 -0.059611308547892108 0 -0.058734206204416148 -0.053069725559228641 0 -0.082447086903557398 -0.06009482441080409 0 -0.076981451426010455 -0.047272996174905567 0 -0.07076723575640527 -0.059611308547892108 0 -0.07076723575640527 -0.059611308547892108 0 -0.062775573247212238 -0.061177816485079362 0 -0.058734206204416148 -0.053069725559228641 0 -0.055797441811089032 -0.045534232697429268 0 -0.042206816669986061 -0.069152169814606562 0 -0.058734206204416148 -0.053069725559228641 0 -0.055797441811089032 -0.045534232697429268 0 -0.042206816669986061 -0.069152169814606562 0 -0.062775573247212238 -0.061177816485079362 0 -0.058734206204416148 -0.053069725559228641 0 -0.056808138316385842 -0.067744505594043436 0 -0.055797441811089032 -0.045534232697429268 0 -0.038409466101823643 -0.051729832675829548 0 -0.067022458665760509 -0.043131079136014702 0 -0.058734206204416148 -0.053069725559228641 0 -0.055797441811089032 -0.045534232697429268 0 -0.058734206204416148 -0.053069725559228641 0 -0.055797441811089032 -0.045534232697429268 0 -0.055797441811089032 -0.045534232697429268 0 -0.06174351762852865 -0.036357679431343722 0 -0.053637999915195467 -0.039993284629236459 0 -0.055797441811089032 -0.045534232697429268 0 -0.06174351762852865 -0.036357679431343722 0 -0.055797441811089032 -0.045534232697429268 0 -0.053637999915195467 -0.039993284629236459 0 -0.06174351762852865 -0.036357679431343722 0 -0.053844725984979261 -0.036201863001735092 0 -0.06174351762852865 -0.036357679431343722 0 -0.053844725984979261 -0.036201863001735092 0 -0.054267248807770507 -0.02845266054221373 0 -0.06174351762852865 -0.036357679431343722 0 -0.053844725984979261 -0.036201863001735092 0 -0.053637999915195467 -0.039993284629236459 0 -0.052147341528698141 -0.036168379350365529 0 -0.050472180277092042 -0.031870055084889312 0 -0.052147341528698141 -0.036168379350365529 0 -0.053844725984979261 -0.036201863001735092 0 -0.050472180277092042 -0.031870055084889312 0 -0.053844725984979261 -0.036201863001735092 0 -0.054267248807770507 -0.02845266054221373 0 -0.053844725984979261 -0.036201863001735092 0 -0.050472180277092042 -0.031870055084889312 0 -0.054267248807770507 -0.02845266054221373 0 -0.052147341528698141 -0.036168379350365529 0 -0.053844725984979261 -0.036201863001735092 0 -0.053844725984979261 -0.036201863001735092 0 -0.053637999915195467 -0.039993284629236459 0 -0.052147341528698141 -0.036168379350365529 0 -0.053637999915195467 -0.039993284629236459 0 -0.052147341528698141 -0.036168379350365529 0 -0.053844725984979261 -0.036201863001735092 0 -0.053637999915195467 -0.039993284629236459 0 -0.052147341528698141 -0.036168379350365529 0 -0.050456316385464883 -0.038972751410654663 0 -0.053637999915195467 -0.039993284629236459 0 -0.052147341528698141 -0.036168379350365529 0 -0.045837063326022803 -0.036043898915423617 0 -0.052147341528698141 -0.036168379350365529 0 -0.050456316385464883 -0.038972751410654663 0 -0.045837063326022803 -0.036043898915423617 0 -0.050456316385464883 -0.038972751410654663 0 -0.048406692591447559 -0.041260645507229243 0 -0.045837063326022803 -0.036043898915423617 0 -0.052147341528698141 -0.036168379350365529 0 -0.050472180277092042 -0.031870055084889312 0 -0.045837063326022803 -0.036043898915423617 0 -0.050472180277092042 -0.031870055084889312 0 -0.045837063326022803 -0.036043898915423617 0 -0.055797441811089032 -0.045534232697429268 0 -0.053469192126755237 -0.043089272961245609 0 -0.046214849213667093 -0.043854646468417087 0 -0.053469192126755237 -0.043089272961245609 0 -0.053637999915195467 -0.039993284629236459 0 -0.051492550254715948 -0.040828988627091431 0 -0.053469192126755237 -0.043089272961245609 0 -0.053637999915195467 -0.039993284629236459 0 -0.053469192126755237 -0.043089272961245609 0 -0.051492550254715948 -0.040828988627091431 0 -0.048406692591447559 -0.041260645507229243 0 -0.055797441811089032 -0.045534232697429268 0 -0.053469192126755237 -0.043089272961245609 0 -0.053637999915195467 -0.039993284629236459 0 -0.050456316385464883 -0.038972751410654663 0 -0.053637999915195467 -0.039993284629236459 0 -0.051492550254715948 -0.040828988627091431 0 -0.053469192126755237 -0.043089272961245609 0 -0.048406692591447559 -0.041260645507229243 0 -0.046214849213667093 -0.043854646468417087 0 -0.050456316385464883 -0.038972751410654663 0 -0.051492550254715948 -0.040828988627091431 0 -0.048406692591447559 -0.041260645507229243 0 -0.046214849213667093 -0.043854646468417087 0 -0.045837063326022803 -0.036043898915423617 0 -0.035369239324864202 -0.045469996053347859 0 -0.045837063326022803 -0.036043898915423617 0 -0.035369239324864202 -0.045469996053347859 0 -0.048406692591447559 -0.041260645507229243 0 -0.046214849213667093 -0.043854646468417087 0 -0.045837063326022803 -0.036043898915423617 0 -0.050472180277092042 -0.031870055084889312 0 -0.045837063326022803 -0.036043898915423617 0 -0.044019187275293713 -0.029952855435193972 0 -0.045837063326022803 -0.036043898915423617 0 -0.044019187275293713 -0.029952855435193972 0 -0.038358944065319943 -0.02993461816413371 0 -0.045837063326022803 -0.036043898915423617 0 -0.038358944065319943 -0.02993461816413371 0 -0.030645705489359659 -0.035744224832890553 0 -0.045837063326022803 -0.036043898915423617 0 -0.030645705489359659 -0.035744224832890553 0 -0.035369239324864202 -0.045469996053347859 0 -0.030645705489359659 -0.035744224832890553 0 -0.045837063326022803 -0.036043898915423617 0 -0.035369239324864202 -0.045469996053347859 0 -0.030645705489359659 -0.035744224832890553 0 -0.035369239324864202 -0.045469996053347859 0 -0.038409466101823643 -0.051729832675829548 0 -0.021875026477615359 -0.057621304776524079 0 -0.055797441811089032 -0.045534232697429268 0 -0.046214849213667093 -0.043854646468417087 0 -0.038409466101823643 -0.051729832675829548 0 -0.038409466101823643 -0.051729832675829548 0 -0.033780185637911783 -0.062017073043592247 0 -0.021875026477615359 -0.057621304776524079 0 -0.055797441811089032 -0.045534232697429268 0 -0.04117934853204995 -0.057433029426841413 0 -0.042206816669986061 -0.069152169814606562 0 -0.055797441811089032 -0.045534232697429268 0 -0.038409466101823643 -0.051729832675829548 0 -0.04117934853204995 -0.057433029426841413 0 -0.035369239324864202 -0.045469996053347859 0 -0.038409466101823643 -0.051729832675829548 0 -0.038409466101823643 -0.051729832675829548 0 -0.033780185637911783 -0.062017073043592247 0 -0.04117934853204995 -0.057433029426841413 0 -0.046214849213667093 -0.043854646468417087 0 -0.035369239324864202 -0.045469996053347859 0 -0.038409466101823643 -0.051729832675829548 0 -0.038409466101823643 -0.051729832675829548 0 -0.04117934853204995 -0.057433029426841413 0 -0.071363944254352912 -0.00157000638721369 0 -0.055015198782809083 -0.014735020988591901 0 -0.056597987508844767 0.014293825802988481 0 -0.055015198782809083 -0.014735020988591901 0 -0.056597987508844767 0.014293825802988481 0 -0.055015198782809083 -0.014735020988591901 0 -0.038627031628180902 -0.001476390106666611 0 -0.056597987508844767 0.014293825802988481 0 -0.071148975607659842 -0.020569589011109311 0 -0.06174351762852865 -0.036357679431343722 0 -0.054267248807770507 -0.02845266054221373 0 -0.055015198782809083 -0.014735020988591901 0 -0.054267248807770507 -0.02845266054221373 0 -0.055015198782809083 -0.014735020988591901 0 -0.046474552242300383 -0.021612474467004379 0 -0.055015198782809083 -0.014735020988591901 0 -0.054267248807770507 -0.02845266054221373 0 -0.046474552242300383 -0.021612474467004379 0 -0.067410841197281593 -0.01661707956654539 0 -0.055015198782809083 -0.014735020988591901 0 -0.054267248807770507 -0.02845266054221373 0 -0.067410841197281593 -0.01661707956654539 0 -0.054267248807770507 -0.02845266054221373 0 -0.050472180277092042 -0.031870055084889312 0 -0.046474552242300383 -0.021612474467004379 0 -0.050472180277092042 -0.031870055084889312 0 -0.04503238618981191 -0.026127724867681751 0 -0.046474552242300383 -0.021612474467004379 0 -0.050472180277092042 -0.031870055084889312 0 -0.054267248807770507 -0.02845266054221373 0 -0.046474552242300383 -0.021612474467004379 0 -0.050472180277092042 -0.031870055084889312 0 -0.054267248807770507 -0.02845266054221373 0 -0.050472180277092042 -0.031870055084889312 0 -0.044019187275293713 -0.029952855435193972 0 -0.04503238618981191 -0.026127724867681751 0 -0.044019187275293713 -0.029952855435193972 0 -0.04503238618981191 -0.026127724867681751 0 -0.041514227454413417 -0.026387623451146421 0 -0.04503238618981191 -0.026127724867681751 0 -0.044928508769085503 -0.022857443687099511 0 -0.046474552242300383 -0.021612474467004379 0 -0.04503238618981191 -0.026127724867681751 0 -0.042594484391305143 -0.02457522922802776 0 -0.044928508769085503 -0.022857443687099511 0 -0.04503238618981191 -0.026127724867681751 0 -0.041514227454413417 -0.026387623451146421 0 -0.042594484391305143 -0.02457522922802776 0 -0.041514227454413417 -0.026387623451146421 0 -0.038358944065319943 -0.02993461816413371 0 -0.038902815151909742 -0.022928124906183369 0 -0.042594484391305143 -0.02457522922802776 0 -0.038902815151909742 -0.022928124906183369 0 -0.044928508769085503 -0.022857443687099511 0 -0.041514227454413417 -0.026387623451146421 0 -0.042594484391305143 -0.02457522922802776 0 -0.038902815151909742 -0.022928124906183369 0 -0.044019187275293713 -0.029952855435193972 0 -0.041514227454413417 -0.026387623451146421 0 -0.038358944065319943 -0.02993461816413371 0 -0.038358944065319943 -0.02993461816413371 0 -0.034398398940283077 -0.027232312288249051 0 -0.030645705489359659 -0.035744224832890553 0 -0.034398398940283077 -0.027232312288249051 0 -0.029686131054543 -0.02032228124978858 0 -0.030645705489359659 -0.035744224832890553 0 -0.034398398940283077 -0.027232312288249051 0 -0.038902815151909742 -0.022928124906183369 0 -0.029686131054543 -0.02032228124978858 0 -0.038358944065319943 -0.02993461816413371 0 -0.034398398940283077 -0.027232312288249051 0 -0.038902815151909742 -0.022928124906183369 0 -0.038902815151909742 -0.022928124906183369 0 -0.03472968456753181 -0.01182508807056009 0 -0.029686131054543 -0.02032228124978858 0 -0.038902815151909742 -0.022928124906183369 0 -0.046474552242300383 -0.021612474467004379 0 -0.03472968456753181 -0.01182508807056009 0 -0.038902815151909742 -0.022928124906183369 0 -0.044928508769085503 -0.022857443687099511 0 -0.046474552242300383 -0.021612474467004379 0 -0.044928508769085503 -0.022857443687099511 0 -0.046474552242300383 -0.021612474467004379 0 -0.046474552242300383 -0.021612474467004379 0 -0.038627031628180902 -0.001476390106666611 0 -0.046474552242300383 -0.021612474467004379 0 -0.038627031628180902 -0.001476390106666611 0 -0.03472968456753181 -0.01182508807056009 0 -0.055015198782809083 -0.014735020988591901 0 -0.046474552242300383 -0.021612474467004379 0 -0.038627031628180902 -0.001476390106666611 0 -0.038627031628180902 -0.001476390106666611 0 -0.03472968456753181 -0.01182508807056009 0 -0.024119736900757981 0.0044669919336378736 0 -0.03472968456753181 -0.01182508807056009 0 -0.018158467351820511 -0.01003296171284794 0 -0.029686131054543 -0.02032228124978858 0 -0.03472968456753181 -0.01182508807056009 0 -0.018158467351820511 -0.01003296171284794 0 -0.024119736900757981 0.0044669919336378736 0 -0.018158467351820511 -0.01003296171284794 0 -0.030645705489359659 -0.035744224832890553 0 -0.018158467351820511 -0.01003296171284794 0 -0.029686131054543 -0.02032228124978858 0 -0.030645705489359659 -0.035744224832890553 0 -0.018158467351820511 -0.01003296171284794 0 -0.01057511009659136 -0.02278805647934792 0 -0.030645705489359659 -0.035744224832890553 0 -0.01057511009659136 -0.02278805647934792 0 -0.0084041315123636537 -0.035305473843857363 0 0.0039126334423128786 -0.024574328854650069 0 -0.01057511009659136 -0.02278805647934792 0 -0.00066596878166239742 -0.01102915960288571 0 0.0039126334423128786 -0.024574328854650069 0 -0.018158467351820511 -0.01003296171284794 0 -0.00066596878166239742 -0.01102915960288571 0 -0.0056712292142813321 0.01567830140719477 0 -0.018158467351820511 -0.01003296171284794 0 -0.01057511009659136 -0.02278805647934792 0 -0.00066596878166239742 -0.01102915960288571 0 -0.035369239324864202 -0.045469996053347859 0 -0.021875026477615359 -0.057621304776524079 0 -0.019359387270686718 -0.043916112705212923 0 -0.038409466101823643 -0.051729832675829548 0 -0.021875026477615359 -0.057621304776524079 0 -0.035369239324864202 -0.045469996053347859 0 -0.021875026477615359 -0.057621304776524079 0 -0.01057511009659136 -0.02278805647934792 0 -0.030645705489359659 -0.035744224832890553 0 -0.0084041315123636537 -0.035305473843857363 0 -0.030645705489359659 -0.035744224832890553 0 -0.0084041315123636537 -0.035305473843857363 0 -0.035369239324864202 -0.045469996053347859 0 -0.019359387270686718 -0.043916112705212923 0 -0.030645705489359659 -0.035744224832890553 0 -0.019359387270686718 -0.043916112705212923 0 -0.030645705489359659 -0.035744224832890553 0 -0.0084041315123636537 -0.035305473843857363 0 -0.019359387270686718 -0.043916112705212923 0 -0.0084041315123636537 -0.035305473843857363 0 -0.001945559466484343 -0.048334864683548938 0 -0.021875026477615359 -0.057621304776524079 0 -0.001945559466484343 -0.048334864683548938 0 -0.00014736047762457791 -0.065363202352821281 0 -0.021875026477615359 -0.057621304776524079 0 -0.019359387270686718 -0.043916112705212923 0 -0.001945559466484343 -0.048334864683548938 0 -0.021875026477615359 -0.057621304776524079 0 -0.00014736047762457791 -0.065363202352821281 0 -0.021875026477615359 -0.057621304776524079 0 -0.00014736047762457791 -0.065363202352821281 0 -0.0093556754944233989 -0.068894767003079879 0 -0.00014736047762457791 -0.065363202352821281 0 -0.0093556754944233989 -0.068894767003079879 0 0.003163675488767316 -0.080168229229637081 0 -0.0093556754944233989 -0.068894767003079879 0 0.003163675488767316 -0.080168229229637081 0 -0.021875026477615359 -0.057621304776524079 0 -0.0093556754944233989 -0.068894767003079879 0 -0.012631478812507729 -0.086225972527304323 0 0.00045462985912098899 -0.096725844495365004 0 0.003163675488767316 -0.080168229229637081 0 -0.012631478812507729 -0.086225972527304323 0 0.003163675488767316 -0.080168229229637081 0 -0.0093556754944233989 -0.068894767003079879 0 -0.012631478812507729 -0.086225972527304323 0 0.003163675488767316 -0.080168229229637081 0 -0.012631478812507729 -0.086225972527304323 0 -0.028426633113782861 -0.092283715824971121 0 -0.025230270408083288 -0.074149028524157876 0 -0.012631478812507729 -0.086225972527304323 0 -0.028426633113782861 -0.092283715824971121 0 -0.012631478812507729 -0.086225972527304323 0 -0.028426633113782861 -0.092283715824971121 0 -0.013903011378439 -0.098822903717651567 0 -0.0093556754944233989 -0.068894767003079879 0 -0.012631478812507729 -0.086225972527304323 0 -0.025230270408083288 -0.074149028524157876 0 -0.033780185637911783 -0.062017073043592247 0 -0.021875026477615359 -0.057621304776524079 0 -0.025230270408083288 -0.074149028524157876 0 -0.021875026477615359 -0.057621304776524079 0 -0.0093556754944233989 -0.068894767003079879 0 -0.025230270408083288 -0.074149028524157876 0 -0.033780185637911783 -0.062017073043592247 0 -0.04117934853204995 -0.057433029426841413 0 -0.042206816669986061 -0.069152169814606562 0 -0.033780185637911783 -0.062017073043592247 0 -0.025230270408083288 -0.074149028524157876 0 -0.042206816669986061 -0.069152169814606562 0 -0.028426633113782861 -0.092283715824971121 0 -0.025230270408083288 -0.074149028524157876 0 -0.042206816669986061 -0.069152169814606562 0 -0.028426633113782861 -0.092283715824971121 0 -0.042206816669986061 -0.069152169814606562 0 -0.028426633113782861 -0.092283715824971121 0 -0.050195903326115322 -0.079890416507206088 0 -0.043020449682668979 -0.097880723161606856 0 -0.028426633113782861 -0.092283715824971121 0 -0.042206816669986061 -0.069152169814606562 0 -0.050195903326115322 -0.079890416507206088 0 -0.050195903326115322 -0.079890416507206088 0 -0.054116641807720321 -0.090066503157261724 0 -0.043020449682668979 -0.097880723161606856 0 -0.050195903326115322 -0.079890416507206088 0 -0.054116641807720321 -0.090066503157261724 0 -0.057865865799577469 -0.083004776734989058 0 -0.062681920969106658 -0.087953530405493752 0 -0.063946428686868617 -0.097391228685309417 0 -0.054116641807720321 -0.090066503157261724 0 -0.062681920969106658 -0.087953530405493752 0 -0.054116641807720321 -0.090066503157261724 0 -0.057865865799577469 -0.083004776734989058 0 -0.050195903326115322 -0.079890416507206088 0 -0.057865865799577469 -0.083004776734989058 0 -0.059021687221161169 -0.076338953889858979 0 -0.063313175673783875 -0.08077447971512472 0 -0.062681920969106658 -0.087953530405493752 0 -0.057865865799577469 -0.083004776734989058 0 -0.063313175673783875 -0.08077447971512472 0 -0.057865865799577469 -0.083004776734989058 0 -0.059021687221161169 -0.076338953889858979 0 -0.058734206204416148 -0.053069725559228641 0 -0.042206816669986061 -0.069152169814606562 0 -0.056808138316385842 -0.067744505594043436 0 -0.050195903326115322 -0.079890416507206088 0 -0.059021687221161169 -0.076338953889858979 0 -0.056808138316385842 -0.067744505594043436 0 -0.065507557556549509 -0.071370449510198886 0 -0.059021687221161169 -0.076338953889858979 0 -0.056808138316385842 -0.067744505594043436 0 -0.065507557556549509 -0.071370449510198886 0 -0.062775573247212238 -0.061177816485079362 0 -0.056808138316385842 -0.067744505594043436 0 -0.042206816669986061 -0.069152169814606562 0 -0.050195903326115322 -0.079890416507206088 0 -0.056808138316385842 -0.067744505594043436 0 -0.068544442640315936 -0.10766966186515969 0 -0.067400001477023949 -0.1183815358394312 0 -0.049937216651491922 -0.1186593345400319 0 -0.068544442640315936 -0.10766966186515969 0 -0.049937216651491922 -0.1186593345400319 0 -0.067400001477023949 -0.1183815358394312 0 -0.049937216651491922 -0.1186593345400319 0 -0.061306298145639537 -0.129353243582499 0 -0.068544442640315936 -0.10766966186515969 0 -0.049937216651491922 -0.1186593345400319 0 -0.057614266251556467 -0.1034777304982393 0 -0.049937216651491922 -0.1186593345400319 0 -0.057614266251556467 -0.1034777304982393 0 -0.036249016877068788 -0.10924731409706979 0 -0.057614266251556467 -0.1034777304982393 0 -0.036249016877068788 -0.10924731409706979 0 -0.063946428686868617 -0.097391228685309417 0 -0.054116641807720321 -0.090066503157261724 0 -0.057614266251556467 -0.1034777304982393 0 -0.054116641807720321 -0.090066503157261724 0 -0.057614266251556467 -0.1034777304982393 0 -0.043020449682668979 -0.097880723161606856 0 -0.057614266251556467 -0.1034777304982393 0 -0.043020449682668979 -0.097880723161606856 0 -0.028426633113782861 -0.092283715824971121 0 -0.036249016877068788 -0.10924731409706979 0 -0.043020449682668979 -0.097880723161606856 0 -0.057614266251556467 -0.1034777304982393 0 -0.036249016877068788 -0.10924731409706979 0 -0.043020449682668979 -0.097880723161606856 0 -0.028426633113782861 -0.092283715824971121 0 -0.043020449682668979 -0.097880723161606856 0 -0.049937216651491922 -0.1186593345400319 0 -0.031329990662677693 -0.12964900721492051 0 -0.049937216651491922 -0.1186593345400319 0 -0.036249016877068788 -0.10924731409706979 0 -0.031329990662677693 -0.12964900721492051 0 -0.036249016877068788 -0.10924731409706979 0 -0.01488376750258137 -0.115016897695901 0 -0.031329990662677693 -0.12964900721492051 0 -0.036249016877068788 -0.10924731409706979 0 -0.01488376750258137 -0.115016897695901 0 -0.028426633113782861 -0.092283715824971121 0 -0.01488376750258137 -0.115016897695901 0 -0.028426633113782861 -0.092283715824971121 0 -0.013903011378439 -0.098822903717651567 0 -0.01488376750258137 -0.115016897695901 0 -0.028426633113782861 -0.092283715824971121 0 -0.036249016877068788 -0.10924731409706979 0 -0.01488376750258137 -0.115016897695901 0 -0.013903011378439 -0.098822903717651567 0 -0.0074056356437708229 -0.10571114747116819 0 -0.01488376750258137 -0.115016897695901 0 -0.012631478812507729 -0.086225972527304323 0 -0.013903011378439 -0.098822903717651567 0 0.00045462985912098899 -0.096725844495365004 0 -0.0074056356437708229 -0.10571114747116819 0 0.001385915358157298 -0.1055326127915648 0 0.00045462985912098899 -0.096725844495365004 0 -0.0074056356437708229 -0.10571114747116819 0 0.001676738841527552 -0.1134590450603037 0 0.001385915358157298 -0.1055326127915648 0 -0.013903011378439 -0.098822903717651567 0 -0.0074056356437708229 -0.10571114747116819 0 0.00045462985912098899 -0.096725844495365004 0 -0.01488376750258137 -0.115016897695901 0 -0.00065167169345917457 -0.13890702787376791 0 0.001138321781315315 -0.1193435864197827 0 -0.0074056356437708229 -0.10571114747116819 0 -0.01488376750258137 -0.115016897695901 0 0.001676738841527552 -0.1134590450603037 0 -0.01488376750258137 -0.115016897695901 0 0.001138321781315315 -0.1193435864197827 0 0.001676738841527552 -0.1134590450603037 0 -0.01488376750258137 -0.115016897695901 0 0.001138321781315315 -0.1193435864197827 0 -0.01488376750258137 -0.115016897695901 0 -0.00065167169345917457 -0.13890702787376791 0 -0.01488376750258137 -0.115016897695901 0 -0.00065167169345917457 -0.13890702787376791 0 -0.01272276467385933 -0.140638679889802 0 -0.00065167169345917457 -0.13890702787376791 0 -0.01272276467385933 -0.140638679889802 0 -0.01272276467385933 -0.140638679889802 0 -0.031329990662677693 -0.12964900721492051 0 -0.038202834078190091 -0.1469303733722265 0 -0.01488376750258137 -0.115016897695901 0 -0.01272276467385933 -0.140638679889802 0 -0.031329990662677693 -0.12964900721492051 0 -0.01272276467385933 -0.140638679889802 0 -0.031329990662677693 -0.12964900721492051 0 -0.01272276467385933 -0.140638679889802 0 -0.038202834078190091 -0.1469303733722265 0 -0.01272276467385933 -0.140638679889802 0 -0.016294874109467301 -0.15862619716966439 0 -0.038202834078190091 -0.1469303733722265 0 -0.01272276467385933 -0.140638679889802 0 -0.001420858933149791 -0.14731373423524299 0 -0.016294874109467301 -0.15862619716966439 0 -0.00065167169345917457 -0.13890702787376791 0 -0.001420858933149791 -0.14731373423524299 0 -0.00065167169345917457 -0.13890702787376791 0 -0.01272276467385933 -0.140638679889802 0 -0.001420858933149791 -0.14731373423524299 0 -0.01272276467385933 -0.140638679889802 0 -0.001420858933149791 -0.14731373423524299 0 -0.001420858933149791 -0.14731373423524299 0 -0.003377803538905752 -0.16870184081923839 0 -0.001420858933149791 -0.14731373423524299 0 -0.003377803538905752 -0.16870184081923839 0 -0.016294874109467301 -0.15862619716966439 0 -0.003377803538905752 -0.16870184081923839 0 -0.01547909935736411 -0.1783781906790109 0 -0.016294874109467301 -0.15862619716966439 0 -0.003377803538905752 -0.16870184081923839 0 -0.0053347481446384386 -0.19008994740323579 0 -0.003377803538905752 -0.16870184081923839 0 -0.01547909935736411 -0.1783781906790109 0 -0.0053347481446384386 -0.19008994740323579 0 -0.01547909935736411 -0.1783781906790109 0 -0.030406494410757979 -0.173978499892844 0 -0.022855539706266671 -0.19704628259396181 0 -0.030406494410757979 -0.173978499892844 0 -0.016294874109467301 -0.15862619716966439 0 -0.038202834078190091 -0.1469303733722265 0 -0.01547909935736411 -0.1783781906790109 0 -0.030406494410757979 -0.173978499892844 0 -0.016294874109467301 -0.15862619716966439 0 -0.030406494410757979 -0.173978499892844 0 -0.052640357765999471 -0.17625912348143441 0 -0.038202834078190091 -0.1469303733722265 0 -0.030406494410757979 -0.173978499892844 0 -0.052640357765999471 -0.17625912348143441 0 -0.041088556452865549 -0.19397087016726061 0 -0.052640357765999471 -0.17625912348143441 0 -0.038202834078190091 -0.1469303733722265 0 -0.063682903482518191 -0.1532220668546623 0 -0.038202834078190091 -0.1469303733722265 0 -0.063682903482518191 -0.1532220668546623 0 -0.047687362852139467 -0.1346873995565139 0 -0.038202834078190091 -0.1469303733722265 0 -0.063682903482518191 -0.1532220668546623 0 -0.049937216651491922 -0.1186593345400319 0 -0.047687362852139467 -0.1346873995565139 0 -0.061306298145639537 -0.129353243582499 0 -0.047687362852139467 -0.1346873995565139 0 -0.061306298145639537 -0.129353243582499 0 -0.063682903482518191 -0.1532220668546623 0 -0.047687362852139467 -0.1346873995565139 0 -0.031329990662677693 -0.12964900721492051 0 -0.038202834078190091 -0.1469303733722265 0 -0.049937216651491922 -0.1186593345400319 0 -0.047687362852139467 -0.1346873995565139 0 -0.031329990662677693 -0.12964900721492051 0 -0.023024326953670699 -0.24427800993903201 0 -0.0065717207650596949 -0.23493399075324439 0 -0.018599983519198501 -0.2296315738915384 0 -0.028584920223383391 -0.25506777658872531 0 -0.023024326953670699 -0.24427800993903201 0 -0.038050099893792363 -0.2473482825241998 0 -0.023024326953670699 -0.24427800993903201 0 -0.018599983519198501 -0.2296315738915384 0 -0.030160089908253449 -0.23000825540797001 0 -0.023024326953670699 -0.24427800993903201 0 -0.0065717207650596949 -0.23493399075324439 0 0.001965852013247726 -0.25181915572125679 0 -0.0065717207650596949 -0.23493399075324439 0 -0.011161499034460211 -0.22267820635657951 0 -0.018599983519198501 -0.2296315738915384 0 -0.0065717207650596949 -0.23493399075324439 0 -0.011161499034460211 -0.22267820635657951 0 -0.00070609683817438268 -0.21323582989178941 0 -0.011161499034460211 -0.22267820635657951 0 -0.018599983519198501 -0.2296315738915384 0 -0.02263684685140591 -0.2168196439672514 0 -0.030160089908253449 -0.23000825540797001 0 -0.02263684685140591 -0.2168196439672514 0 -0.037724743492739271 -0.2234081419441781 0 -0.018599983519198501 -0.2296315738915384 0 -0.030160089908253449 -0.23000825540797001 0 -0.02263684685140591 -0.2168196439672514 0 -0.02263684685140591 -0.2168196439672514 0 -0.022855539706266671 -0.19704628259396181 0 -0.040052898986259883 -0.21310805754343101 0 -0.02263684685140591 -0.2168196439672514 0 -0.00070609683817438268 -0.21323582989178941 0 -0.022855539706266671 -0.19704628259396181 0 -0.011161499034460211 -0.22267820635657951 0 -0.02263684685140591 -0.2168196439672514 0 -0.00070609683817438268 -0.21323582989178941 0 -0.01547909935736411 -0.1783781906790109 0 -0.0053347481446384386 -0.19008994740323579 0 -0.022855539706266671 -0.19704628259396181 0 -0.00070609683817438268 -0.21323582989178941 0 -0.0053347481446384386 -0.19008994740323579 0 -0.022855539706266671 -0.19704628259396181 0 -0.041088556452865549 -0.19397087016726061 0 -0.055071763841241538 -0.2017097811913397 0 -0.040052898986259883 -0.21310805754343101 0 -0.030406494410757979 -0.173978499892844 0 -0.022855539706266671 -0.19704628259396181 0 -0.041088556452865549 -0.19397087016726061 0 -0.022855539706266671 -0.19704628259396181 0 -0.041088556452865549 -0.19397087016726061 0 -0.040052898986259883 -0.21310805754343101 0 -0.052640357765999471 -0.17625912348143441 0 -0.055071763841241538 -0.2017097811913397 0 -0.067655696394936904 -0.19135173456381779 0 -0.052640357765999471 -0.17625912348143441 0 -0.041088556452865549 -0.19397087016726061 0 -0.055071763841241538 -0.2017097811913397 0 -0.055071763841241538 -0.2017097811913397 0 -0.054637189140571148 -0.21809308787890261 0 -0.040052898986259883 -0.21310805754343101 0 -0.055071763841241538 -0.2017097811913397 0 -0.054637189140571148 -0.21809308787890261 0 -0.069968381031745214 -0.21789370050439591 0 -0.02263684685140591 -0.2168196439672514 0 -0.040052898986259883 -0.21310805754343101 0 -0.037724743492739271 -0.2234081419441781 0 -0.054637189140571148 -0.21809308787890261 0 -0.040052898986259883 -0.21310805754343101 0 -0.044727796403069557 -0.22142378564705639 0 -0.030160089908253449 -0.23000825540797001 0 -0.037724743492739271 -0.2234081419441781 0 -0.046496353992707941 -0.23108585522171399 0 -0.037724743492739271 -0.2234081419441781 0 -0.046496353992707941 -0.23108585522171399 0 -0.044727796403069557 -0.22142378564705639 0 -0.040052898986259883 -0.21310805754343101 0 -0.037724743492739271 -0.2234081419441781 0 -0.044727796403069557 -0.22142378564705639 0 -0.054637189140571148 -0.21809308787890261 0 -0.046496353992707941 -0.23108585522171399 0 -0.044727796403069557 -0.22142378564705639 0 -0.054637189140571148 -0.21809308787890261 0 -0.046496353992707941 -0.23108585522171399 0 -0.069968381031745214 -0.21789370050439591 0 -0.046496353992707941 -0.23108585522171399 0 -0.051828371629515618 -0.2290729376864456 0 -0.069968381031745214 -0.21789370050439591 0 -0.046496353992707941 -0.23108585522171399 0 -0.069968381031745214 -0.21789370050439591 0 -0.046496353992707941 -0.23108585522171399 0 -0.051828371629515618 -0.2290729376864456 0 -0.049069652178369713 -0.23535195573790149 0 -0.053808572832466262 -0.2404619503271378 0 -0.049069652178369713 -0.23535195573790149 0 -0.044145310258789053 -0.24078707971630839 0 -0.070848930770191887 -0.25173157943244101 0 -0.051828371629515618 -0.2290729376864456 0 -0.070848930770191887 -0.25173157943244101 0 -0.053808572832466262 -0.2404619503271378 0 -0.054449515331992077 -0.2495399309783207 0 -0.070848930770191887 -0.25173157943244101 0 -0.051828371629515618 -0.2290729376864456 0 -0.053808572832466262 -0.2404619503271378 0 -0.051828371629515618 -0.2290729376864456 0 -0.053808572832466262 -0.2404619503271378 0 -0.049069652178369713 -0.23535195573790149 0 -0.053808572832466262 -0.2404619503271378 0 -0.054449515331992077 -0.2495399309783207 0 -0.044145310258789053 -0.24078707971630839 0 -0.023024326953670699 -0.24427800993903201 0 -0.046496353992707941 -0.23108585522171399 0 -0.054449515331992077 -0.2495399309783207 0 -0.044145310258789053 -0.24078707971630839 0 -0.038050099893792363 -0.2473482825241998 0 -0.023024326953670699 -0.24427800993903201 0 -0.044145310258789053 -0.24078707971630839 0 -0.038050099893792363 -0.2473482825241998 0 -0.023024326953670699 -0.24427800993903201 0 -0.030160089908253449 -0.23000825540797001 0 -0.046496353992707941 -0.23108585522171399 0 -0.023024326953670699 -0.24427800993903201 0 -0.046496353992707941 -0.23108585522171399 0 -0.044145310258789053 -0.24078707971630839 0 -0.054449515331992077 -0.2495399309783207 0 -0.038050099893792363 -0.2473482825241998 0 -0.046496353992707941 -0.23108585522171399 0 -0.049069652178369713 -0.23535195573790149 0 -0.044145310258789053 -0.24078707971630839 0 -0.094334562776802772 -0.25487024308025941 0 -0.070848930770191887 -0.25173157943244101 0 -0.084820860011947621 -0.23627722839589879 0 -0.070848930770191887 -0.25173157943244101 0 -0.051828371629515618 -0.2290729376864456 0 -0.069366635860850082 -0.23374386150479531 0 -0.070848930770191887 -0.25173157943244101 0 -0.084820860011947621 -0.23627722839589879 0 -0.069366635860850082 -0.23374386150479531 0 -0.084820860011947621 -0.23627722839589879 0 -0.069366635860850082 -0.23374386150479531 0 -0.069968381031745214 -0.21789370050439591 0 -0.051828371629515618 -0.2290729376864456 0 -0.069366635860850082 -0.23374386150479531 0 -0.069968381031745214 -0.21789370050439591 0 -0.084820860011947621 -0.23627722839589879 0 -0.069968381031745214 -0.21789370050439591 0 -0.097739509279650597 -0.22193603343041179 0 -0.09344040807078248 -0.20470154578707789 0 -0.069968381031745214 -0.21789370050439591 0 -0.09344040807078248 -0.20470154578707789 0 -0.069968381031745214 -0.21789370050439591 0 -0.097739509279650597 -0.22193603343041179 0 -0.09344040807078248 -0.20470154578707789 0 -0.069968381031745214 -0.21789370050439591 0 -0.084402935479350627 -0.19084238000516671 0 -0.055071763841241538 -0.2017097811913397 0 -0.069968381031745214 -0.21789370050439591 0 -0.067655696394936904 -0.19135173456381779 0 -0.069968381031745214 -0.21789370050439591 0 -0.067655696394936904 -0.19135173456381779 0 -0.084402935479350627 -0.19084238000516671 0 -0.09344040807078248 -0.20470154578707789 0 -0.084402935479350627 -0.19084238000516671 0 -0.1018790418424948 -0.18845860479948109 0 -0.09344040807078248 -0.20470154578707789 0 -0.1018790418424948 -0.18845860479948109 0 -0.11178791420712569 -0.2044750206233637 0 -0.1018790418424948 -0.18845860479948109 0 -0.11178791420712569 -0.2044750206233637 0 -0.1188754016828195 -0.18720453527610831 0 -0.11178791420712569 -0.2044750206233637 0 -0.1188754016828195 -0.18720453527610831 0 -0.13169440602876131 -0.20311657143156081 0 -0.11178791420712569 -0.2044750206233637 0 -0.1261883201054787 -0.22334056871490751 0 -0.13169440602876131 -0.20311657143156081 0 -0.11178791420712569 -0.2044750206233637 0 -0.097739509279650597 -0.22193603343041179 0 -0.1261883201054787 -0.22334056871490751 0 -0.09344040807078248 -0.20470154578707789 0 -0.11178791420712569 -0.2044750206233637 0 -0.097739509279650597 -0.22193603343041179 0 -0.084820860011947621 -0.23627722839589879 0 -0.097739509279650597 -0.22193603343041179 0 -0.10769783931597469 -0.23820095607227021 0 -0.097739509279650597 -0.22193603343041179 0 -0.10769783931597469 -0.23820095607227021 0 -0.1261883201054787 -0.22334056871490751 0 -0.1232549372843133 -0.24045278196762701 0 -0.10769783931597469 -0.23820095607227021 0 -0.1261883201054787 -0.22334056871490751 0 -0.1178201947834138 -0.25800890672807719 0 -0.1232549372843133 -0.24045278196762701 0 -0.10769783931597469 -0.23820095607227021 0 -0.094334562776802772 -0.25487024308025941 0 -0.084820860011947621 -0.23627722839589879 0 -0.10769783931597469 -0.23820095607227021 0 -0.085332118976283594 -0.1415813010174771 0 -0.091454045324671829 -0.1506510044316742 0 -0.089162972886846076 -0.15951376033709891 0 -0.085332118976283594 -0.1415813010174771 0 -0.063682903482518191 -0.1532220668546623 0 -0.089162972886846076 -0.15951376033709891 0 -0.085332118976283594 -0.1415813010174771 0 -0.089162972886846076 -0.15951376033709891 0 -0.091454045324671829 -0.1506510044316742 0 -0.089162972886846076 -0.15951376033709891 0 -0.096027004859215823 -0.1560075587326962 0 -0.081501265065721418 -0.1236488416978552 0 -0.085332118976283594 -0.1415813010174771 0 -0.085374108504262414 -0.12389407039135381 0 -0.091454045324671829 -0.1506510044316742 0 -0.099152000442482222 -0.13576335049364821 0 -0.081501265065721418 -0.1236488416978552 0 -0.085332118976283594 -0.1415813010174771 0 -0.073501453507779729 -0.1342171976862799 0 -0.085374108504262414 -0.12389407039135381 0 -0.091454045324671829 -0.1506510044316742 0 -0.085374108504262414 -0.12389407039135381 0 -0.081501265065721418 -0.1236488416978552 0 -0.085332118976283594 -0.1415813010174771 0 -0.085374108504262414 -0.12389407039135381 0 -0.085332118976283594 -0.1415813010174771 0 -0.091454045324671829 -0.1506510044316742 0 -0.061306298145639537 -0.129353243582499 0 -0.073501453507779729 -0.1342171976862799 0 -0.063682903482518191 -0.1532220668546623 0 -0.075684681868735837 -0.1232805352789057 0 -0.081501265065721418 -0.1236488416978552 0 -0.073501453507779729 -0.1342171976862799 0 -0.075684681868735837 -0.1232805352789057 0 -0.061306298145639537 -0.129353243582499 0 -0.073501453507779729 -0.1342171976862799 0 -0.085332118976283594 -0.1415813010174771 0 -0.073501453507779729 -0.1342171976862799 0 -0.063682903482518191 -0.1532220668546623 0 -0.052640357765999471 -0.17625912348143441 0 -0.063682903482518191 -0.1532220668546623 0 -0.073997588779365034 -0.17215849950449741 0 -0.063682903482518191 -0.1532220668546623 0 -0.073997588779365034 -0.17215849950449741 0 -0.089162972886846076 -0.15951376033709891 0 -0.063682903482518191 -0.1532220668546623 0 -0.089162972886846076 -0.15951376033709891 0 -0.052640357765999471 -0.17625912348143441 0 -0.067655696394936904 -0.19135173456381779 0 -0.073997588779365034 -0.17215849950449741 0 -0.067655696394936904 -0.19135173456381779 0 -0.084402935479350627 -0.19084238000516671 0 -0.073997588779365034 -0.17215849950449741 0 -0.084402935479350627 -0.19084238000516671 0 -0.073997588779365034 -0.17215849950449741 0 -0.092460885723655128 -0.17495149019223319 0 -0.084402935479350627 -0.19084238000516671 0 -0.1018790418424948 -0.18845860479948109 0 -0.092460885723655128 -0.17495149019223319 0 -0.073997588779365034 -0.17215849950449741 0 -0.092460885723655128 -0.17495149019223319 0 -0.089162972886846076 -0.15951376033709891 0 -0.092460885723655128 -0.17495149019223319 0 -0.089162972886846076 -0.15951376033709891 0 -0.092460885723655128 -0.17495149019223319 0 -0.089162972886846076 -0.15951376033709891 0 -0.099521565690044847 -0.16417503307474771 0 -0.089162972886846076 -0.15951376033709891 0 -0.099521565690044847 -0.16417503307474771 0 -0.096027004859215823 -0.1560075587326962 0 -0.099521565690044847 -0.16417503307474771 0 -0.1029873391220243 -0.15708383928829059 0 -0.096027004859215823 -0.1560075587326962 0 -0.092460885723655128 -0.17495149019223319 0 -0.099521565690044847 -0.16417503307474771 0 -0.10690376210601039 -0.17392975302900041 0 -0.099521565690044847 -0.16417503307474771 0 -0.10870066871544309 -0.16334483252497831 0 -0.10690376210601039 -0.17392975302900041 0 -0.099521565690044847 -0.16417503307474771 0 -0.1029873391220243 -0.15708383928829059 0 -0.10870066871544309 -0.16334483252497831 0 -0.1029873391220243 -0.15708383928829059 0 -0.10870066871544309 -0.16334483252497831 0 -0.10992854378589639 -0.15251613268159209 0 -0.1018790418424948 -0.18845860479948109 0 -0.10690376210601039 -0.17392975302900041 0 -0.1188754016828195 -0.18720453527610831 0 -0.1018790418424948 -0.18845860479948109 0 -0.092460885723655128 -0.17495149019223319 0 -0.10690376210601039 -0.17392975302900041 0 -0.1188754016828195 -0.18720453527610831 0 -0.11926736276606489 -0.17057343233256389 0 -0.1255372564412518 -0.1786686188836937 0 -0.10690376210601039 -0.17392975302900041 0 -0.1188754016828195 -0.18720453527610831 0 -0.11926736276606489 -0.17057343233256389 0 -0.10870066871544309 -0.16334483252497831 0 -0.1168405133096956 -0.1588436834163528 0 -0.10992854378589639 -0.15251613268159209 0 -0.10870066871544309 -0.16334483252497831 0 -0.10690376210601039 -0.17392975302900041 0 -0.11926736276606489 -0.17057343233256389 0 -0.10870066871544309 -0.16334483252497831 0 -0.1168405133096956 -0.1588436834163528 0 -0.11926736276606489 -0.17057343233256389 0 -0.1168405133096956 -0.1588436834163528 0 -0.11926736276606489 -0.17057343233256389 0 -0.12817941686413281 -0.1581740749913832 0 -0.1180489169537513 -0.15059592017852219 0 -0.1247029766841327 -0.14236697664362291 0 -0.12817941686413281 -0.1581740749913832 0 -0.1168405133096956 -0.1588436834163528 0 -0.1180489169537513 -0.15059592017852219 0 -0.12817941686413281 -0.1581740749913832 0 -0.1180489169537513 -0.15059592017852219 0 -0.1247029766841327 -0.14236697664362291 0 -0.1105931341248988 -0.14107873315966021 0 -0.1180489169537513 -0.15059592017852219 0 -0.1105931341248988 -0.14107873315966021 0 -0.10992854378589639 -0.15251613268159209 0 -0.1168405133096956 -0.1588436834163528 0 -0.1180489169537513 -0.15059592017852219 0 -0.10992854378589639 -0.15251613268159209 0 -0.1029873391220243 -0.15708383928829059 0 -0.10992854378589639 -0.15251613268159209 0 -0.101376762041992 -0.1474110394161629 0 -0.1105931341248988 -0.14107873315966021 0 -0.10992854378589639 -0.15251613268159209 0 -0.101376762041992 -0.1474110394161629 0 -0.1105931341248988 -0.14107873315966021 0 -0.101376762041992 -0.1474110394161629 0 -0.099152000442482222 -0.13576335049364821 0 -0.091454045324671829 -0.1506510044316742 0 -0.101376762041992 -0.1474110394161629 0 -0.099152000442482222 -0.13576335049364821 0 -0.091454045324671829 -0.1506510044316742 0 -0.101376762041992 -0.1474110394161629 0 -0.096027004859215823 -0.1560075587326962 0 -0.1029873391220243 -0.15708383928829059 0 -0.101376762041992 -0.1474110394161629 0 -0.096027004859215823 -0.1560075587326962 0 -0.085374108504262414 -0.12389407039135381 0 -0.099152000442482222 -0.13576335049364821 0 -0.11105610125402041 -0.12552025580997389 0 -0.1105931341248988 -0.14107873315966021 0 -0.099152000442482222 -0.13576335049364821 0 -0.11105610125402041 -0.12552025580997389 0 -0.11105610125402041 -0.12552025580997389 0 -0.13673809400377809 -0.12714644122859631 0 -0.1247029766841327 -0.14236697664362291 0 -0.11105610125402041 -0.12552025580997389 0 -0.13673809400377809 -0.12714644122859631 0 -0.1247029766841327 -0.14236697664362291 0 -0.1105931341248988 -0.14107873315966021 0 -0.11105610125402041 -0.12552025580997389 0 -0.13673809400377809 -0.12714644122859631 0 -0.15033921253831281 -0.1418053197927456 0 -0.15872496469174979 -0.12853865128263189 0 -0.13673809400377809 -0.12714644122859631 0 -0.15872496469174979 -0.12853865128263189 0 -0.15723190995028929 -0.12086698510493681 0 -0.13673809400377809 -0.12714644122859631 0 -0.15872496469174979 -0.12853865128263189 0 -0.15033921253831281 -0.1418053197927456 0 -0.15872496469174979 -0.12853865128263189 0 -0.15949920215340491 -0.1545497273030039 0 -0.13673809400377809 -0.12714644122859631 0 -0.15033921253831281 -0.1418053197927456 0 -0.14169316436909821 -0.15490383816665881 0 -0.15033921253831281 -0.1418053197927456 0 -0.14169316436909821 -0.15490383816665881 0 -0.15949920215340491 -0.1545497273030039 0 -0.1247029766841327 -0.14236697664362291 0 -0.14169316436909821 -0.15490383816665881 0 -0.12817941686413281 -0.1581740749913832 0 -0.1247029766841327 -0.14236697664362291 0 -0.13673809400377809 -0.12714644122859631 0 -0.14169316436909821 -0.15490383816665881 0 -0.13673809400377809 -0.12714644122859631 0 -0.14169316436909821 -0.15490383816665881 0 -0.14169316436909821 -0.15490383816665881 0 -0.12817941686413281 -0.1581740749913832 0 -0.13117295024603329 -0.17110281049077691 0 -0.14169316436909821 -0.15490383816665881 0 -0.13117295024603329 -0.17110281049077691 0 -0.1466482347344179 -0.18266123510472129 0 -0.11926736276606489 -0.17057343233256389 0 -0.12817941686413281 -0.1581740749913832 0 -0.13117295024603329 -0.17110281049077691 0 -0.1188754016828195 -0.18720453527610831 0 -0.1255372564412518 -0.1786686188836937 0 -0.13283331107008961 -0.18579369743532559 0 -0.13117295024603329 -0.17110281049077691 0 -0.1255372564412518 -0.1786686188836937 0 -0.13283331107008961 -0.18579369743532559 0 -0.11926736276606489 -0.17057343233256389 0 -0.13117295024603329 -0.17110281049077691 0 -0.1255372564412518 -0.1786686188836937 0 -0.13117295024603329 -0.17110281049077691 0 -0.13283331107008961 -0.18579369743532559 0 -0.1466482347344179 -0.18266123510472129 0 -0.1466482347344179 -0.18266123510472129 0 -0.1602734396150596 -0.1805608033233759 0 -0.1471870079292163 -0.1964126308842026 0 -0.1466482347344179 -0.18266123510472129 0 -0.1520285102179951 -0.16816890097444001 0 -0.1602734396150596 -0.1805608033233759 0 -0.14169316436909821 -0.15490383816665881 0 -0.1466482347344179 -0.18266123510472129 0 -0.1520285102179951 -0.16816890097444001 0 -0.14169316436909821 -0.15490383816665881 0 -0.1520285102179951 -0.16816890097444001 0 -0.15949920215340491 -0.1545497273030039 0 -0.14169316436909821 -0.15490383816665881 0 -0.1466482347344179 -0.18266123510472129 0 -0.1602734396150596 -0.1805608033233759 0 -0.15949920215340491 -0.1545497273030039 0 -0.17000556075224779 -0.16707077031727599 0 -0.17682626143419489 -0.1563281652269515 0 -0.15949920215340491 -0.1545497273030039 0 -0.17000556075224779 -0.16707077031727599 0 -0.1602734396150596 -0.1805608033233759 0 -0.15949920215340491 -0.1545497273030039 0 -0.1520285102179951 -0.16816890097444001 0 -0.1602734396150596 -0.1805608033233759 0 -0.15949920215340491 -0.1545497273030039 0 -0.17000556075224779 -0.16707077031727599 0 -0.1602734396150596 -0.1805608033233759 0 -0.183876652106824 -0.17336510584834861 0 -0.1602734396150596 -0.1805608033233759 0 -0.183876652106824 -0.17336510584834861 0 -0.19032203735447201 -0.19064001144528631 0 -0.183876652106824 -0.17336510584834861 0 -0.17682626143419489 -0.1563281652269515 0 -0.2004785797790706 -0.165343799724082 0 -0.17000556075224779 -0.16707077031727599 0 -0.183876652106824 -0.17336510584834861 0 -0.17682626143419489 -0.1563281652269515 0 -0.17682626143419489 -0.1563281652269515 0 -0.18642020696073461 -0.14581155508793009 0 -0.17052425281147479 -0.14011941645211221 0 -0.18642020696073461 -0.14581155508793009 0 -0.18201379643859 -0.1286857969625306 0 -0.18830935464884019 -0.13024193624560079 0 -0.18642020696073461 -0.14581155508793009 0 -0.17236183414240111 -0.12627931045177629 0 -0.18642020696073461 -0.14581155508793009 0 -0.17236183414240111 -0.12627931045177629 0 -0.17052425281147479 -0.14011941645211221 0 -0.18642020696073461 -0.14581155508793009 0 -0.18201379643859 -0.1286857969625306 0 -0.17236183414240111 -0.12627931045177629 0 -0.18201379643859 -0.1286857969625306 0 -0.18830935464884019 -0.13024193624560079 0 -0.18299089937056881 -0.11741130631961789 0 -0.17236183414240111 -0.12627931045177629 0 -0.17052425281147479 -0.14011941645211221 0 -0.16931304748636331 -0.12920908936037981 0 -0.17052425281147479 -0.14011941645211221 0 -0.16931304748636331 -0.12920908936037981 0 -0.15872496469174979 -0.12853865128263189 0 -0.17236183414240111 -0.12627931045177629 0 -0.16931304748636331 -0.12920908936037981 0 -0.15872496469174979 -0.12853865128263189 0 -0.16931304748636331 -0.12920908936037981 0 -0.15872496469174979 -0.12853865128263189 0 -0.17052425281147479 -0.14011941645211221 0 -0.15872496469174979 -0.12853865128263189 0 -0.15949920215340491 -0.1545497273030039 0 -0.17682626143419489 -0.1563281652269515 0 -0.17052425281147479 -0.14011941645211221 0 -0.15949920215340491 -0.1545497273030039 0 -0.15872496469174979 -0.12853865128263189 0 -0.15949920215340491 -0.1545497273030039 0 -0.16259615200002361 -0.25859403138449211 0 -0.13966374412229779 -0.2442580372074955 0 -0.16182191453836889 -0.23258295536411999 0 -0.1232549372843133 -0.24045278196762701 0 -0.13966374412229779 -0.2442580372074955 0 -0.1261883201054787 -0.22334056871490751 0 -0.1178201947834138 -0.25800890672807719 0 -0.1232549372843133 -0.24045278196762701 0 -0.13966374412229779 -0.2442580372074955 0 -0.13966374412229779 -0.2442580372074955 0 -0.1261883201054787 -0.22334056871490751 0 -0.14499171081638079 -0.21784739881408871 0 -0.14499171081638079 -0.21784739881408871 0 -0.16104767707671419 -0.20657187934374791 0 -0.16182191453836889 -0.23258295536411999 0 -0.13966374412229779 -0.2442580372074955 0 -0.14499171081638079 -0.21784739881408871 0 -0.16182191453836889 -0.23258295536411999 0 -0.14499171081638079 -0.21784739881408871 0 -0.13169440602876131 -0.20311657143156081 0 -0.1471870079292163 -0.1964126308842026 0 -0.14499171081638079 -0.21784739881408871 0 -0.1471870079292163 -0.1964126308842026 0 -0.16104767707671419 -0.20657187934374791 0 -0.1261883201054787 -0.22334056871490751 0 -0.14499171081638079 -0.21784739881408871 0 -0.13169440602876131 -0.20311657143156081 0 -0.13283331107008961 -0.18579369743532559 0 -0.13169440602876131 -0.20311657143156081 0 -0.1471870079292163 -0.1964126308842026 0 -0.1188754016828195 -0.18720453527610831 0 -0.13283331107008961 -0.18579369743532559 0 -0.13169440602876131 -0.20311657143156081 0 -0.13283331107008961 -0.18579369743532559 0 -0.1466482347344179 -0.18266123510472129 0 -0.1471870079292163 -0.1964126308842026 0 -0.1602734396150596 -0.1805608033233759 0 -0.1471870079292163 -0.1964126308842026 0 -0.16104767707671419 -0.20657187934374791 0 -0.1602734396150596 -0.1805608033233759 0 -0.16104767707671419 -0.20657187934374791 0 -0.1602734396150596 -0.1805608033233759 0 -0.17997312467685531 -0.2073042823550143 0 -0.16104767707671419 -0.20657187934374791 0 -0.1602734396150596 -0.1805608033233759 0 -0.17997312467685531 -0.2073042823550143 0 -0.19032203735447201 -0.19064001144528631 0 -0.17997312467685531 -0.2073042823550143 0 -0.16104767707671419 -0.20657187934374791 0 -0.16182191453836889 -0.23258295536411999 0 -0.16104767707671419 -0.20657187934374791 0 -0.16182191453836889 -0.23258295536411999 0 -0.17997312467685531 -0.2073042823550143 0 -0.18463928953448769 -0.23837287675027749 0 -0.19733689684368119 -0.21821927502543309 0 -0.17997312467685531 -0.2073042823550143 0 -0.16182191453836889 -0.23258295536411999 0 -0.18463928953448769 -0.23837287675027749 0 -0.16259615200002361 -0.25859403138449211 0 -0.16182191453836889 -0.23258295536411999 0 -0.16259615200002361 -0.25859403138449211 0 -0.16182191453836889 -0.23258295536411999 0 -0.18463928953448769 -0.23837287675027749 0 -0.2005527461905221 -0.25571985598667241 0 -0.22091526070341291 -0.24281242178952331 0 -0.2005527461905221 -0.25571985598667241 0 -0.20642520125834629 -0.23277741405888461 0 -0.22091526070341291 -0.24281242178952331 0 -0.2005527461905221 -0.25571985598667241 0 -0.18463928953448769 -0.23837287675027749 0 -0.20642520125834629 -0.23277741405888461 0 -0.18463928953448769 -0.23837287675027749 0 -0.20642520125834629 -0.23277741405888461 0 -0.19733689684368119 -0.21821927502543309 0 -0.20642520125834629 -0.23277741405888461 0 -0.21703279928383981 -0.20971780634772769 0 -0.19733689684368119 -0.21821927502543309 0 -0.20642520125834629 -0.23277741405888461 0 -0.21703279928383981 -0.20971780634772769 0 -0.22752110680213189 -0.2241029589961874 0 -0.20642520125834629 -0.23277741405888461 0 -0.22752110680213189 -0.2241029589961874 0 -0.22091526070341291 -0.24281242178952331 0 -0.21703279928383981 -0.20971780634772769 0 -0.19733689684368119 -0.21821927502543309 0 -0.2045750039110931 -0.20084396355044651 0 -0.17997312467685531 -0.2073042823550143 0 -0.19733689684368119 -0.21821927502543309 0 -0.2045750039110931 -0.20084396355044651 0 -0.17997312467685531 -0.2073042823550143 0 -0.19032203735447201 -0.19064001144528631 0 -0.2045750039110931 -0.20084396355044651 0 -0.21703279928383981 -0.20971780634772769 0 -0.21753405753431079 -0.18904012419966201 0 -0.2045750039110931 -0.20084396355044651 0 -0.19032203735447201 -0.19064001144528631 0 -0.21753405753431079 -0.18904012419966201 0 -0.2045750039110931 -0.20084396355044651 0 -0.21703279928383981 -0.20971780634772769 0 -0.2310076627551961 -0.1923974228579847 0 -0.23890735495103951 -0.20555364826643241 0 -0.21703279928383981 -0.20971780634772769 0 -0.21753405753431079 -0.18904012419966201 0 -0.2310076627551961 -0.1923974228579847 0 -0.23890735495103951 -0.20555364826643241 0 -0.2423474451878477 -0.18130309732150701 0 -0.25304677817260962 -0.2024099179046987 0 -0.2310076627551961 -0.1923974228579847 0 -0.23890735495103951 -0.20555364826643241 0 -0.2423474451878477 -0.18130309732150701 0 -0.23890735495103951 -0.20555364826643241 0 -0.24630585107649611 -0.21702640999098269 0 -0.22752110680213189 -0.2241029589961874 0 -0.23890735495103951 -0.20555364826643241 0 -0.24630585107649611 -0.21702640999098269 0 -0.25304677817260962 -0.2024099179046987 0 -0.21703279928383981 -0.20971780634772769 0 -0.23890735495103951 -0.20555364826643241 0 -0.22752110680213189 -0.2241029589961874 0 -0.22752110680213189 -0.2241029589961874 0 -0.24127777521630381 -0.22990498759237421 0 -0.22091526070341291 -0.24281242178952331 0 -0.24630585107649611 -0.21702640999098269 0 -0.24127777521630381 -0.22990498759237421 0 -0.26164028972919418 -0.2169975533952245 0 -0.24630585107649611 -0.21702640999098269 0 -0.22752110680213189 -0.2241029589961874 0 -0.24127777521630381 -0.22990498759237421 0 -0.25954954969507738 -0.25229535732207709 0 -0.2387534011109084 -0.25041964278076922 0 -0.24127777521630381 -0.22990498759237421 0 -0.2387534011109084 -0.25041964278076922 0 -0.24127777521630381 -0.22990498759237421 0 -0.22091526070341291 -0.24281242178952331 0 -0.24127777521630381 -0.22990498759237421 0 -0.22091526070341291 -0.24281242178952331 0 -0.20336850630351971 -0.14793438844476889 0 -0.21772189606301701 -0.14252595965263309 0 -0.2158765054474254 -0.1583552097257126 0 -0.20336850630351971 -0.14793438844476889 0 -0.21772189606301701 -0.14252595965263309 0 -0.20477725647215489 -0.1373454027379703 0 -0.21772189606301701 -0.14252595965263309 0 -0.21075808951498559 -0.12802040424372271 0 -0.20477725647215489 -0.1373454027379703 0 -0.21772189606301701 -0.14252595965263309 0 -0.21075808951498559 -0.12802040424372271 0 -0.22293776182668351 -0.1239135385039805 0 -0.21075808951498559 -0.12802040424372271 0 -0.20477725647215489 -0.1373454027379703 0 -0.1984857252861115 -0.1240494251636983 0 -0.20477725647215489 -0.1373454027379703 0 -0.19493659309871569 -0.138224403740285 0 -0.1984857252861115 -0.1240494251636983 0 -0.18830935464884019 -0.13024193624560079 0 -0.19493659309871569 -0.138224403740285 0 -0.1984857252861115 -0.1240494251636983 0 -0.18642020696073461 -0.14581155508793009 0 -0.18830935464884019 -0.13024193624560079 0 -0.19493659309871569 -0.138224403740285 0 -0.18642020696073461 -0.14581155508793009 0 -0.20336850630351971 -0.14793438844476889 0 -0.2004785797790706 -0.165343799724082 0 -0.17682626143419489 -0.1563281652269515 0 -0.18642020696073461 -0.14581155508793009 0 -0.2004785797790706 -0.165343799724082 0 -0.18642020696073461 -0.14581155508793009 0 -0.20336850630351971 -0.14793438844476889 0 -0.19493659309871569 -0.138224403740285 0 -0.18642020696073461 -0.14581155508793009 0 -0.2004785797790706 -0.165343799724082 0 -0.20336850630351971 -0.14793438844476889 0 -0.20477725647215489 -0.1373454027379703 0 -0.19493659309871569 -0.138224403740285 0 -0.17682626143419489 -0.1563281652269515 0 -0.2004785797790706 -0.165343799724082 0 -0.19032203735447201 -0.19064001144528631 0 -0.21753405753431079 -0.18904012419966201 0 -0.2004785797790706 -0.165343799724082 0 -0.183876652106824 -0.17336510584834861 0 -0.19032203735447201 -0.19064001144528631 0 -0.2004785797790706 -0.165343799724082 0 -0.21753405753431079 -0.18904012419966201 0 -0.2004785797790706 -0.165343799724082 0 -0.2214130124834596 -0.17332344852279341 0 -0.21753405753431079 -0.18904012419966201 0 -0.2004785797790706 -0.165343799724082 0 -0.20336850630351971 -0.14793438844476889 0 -0.2004785797790706 -0.165343799724082 0 -0.2158765054474254 -0.1583552097257126 0 -0.2004785797790706 -0.165343799724082 0 -0.2214130124834596 -0.17332344852279341 0 -0.2004785797790706 -0.165343799724082 0 -0.2158765054474254 -0.1583552097257126 0 -0.2214130124834596 -0.17332344852279341 0 -0.23314902329911949 -0.15799462971451961 0 -0.2214130124834596 -0.17332344852279341 0 -0.2423474451878477 -0.18130309732150701 0 -0.2158765054474254 -0.1583552097257126 0 -0.23314902329911949 -0.15799462971451961 0 -0.2214130124834596 -0.17332344852279341 0 -0.2214130124834596 -0.17332344852279341 0 -0.2423474451878477 -0.18130309732150701 0 -0.21753405753431079 -0.18904012419966201 0 -0.2310076627551961 -0.1923974228579847 0 -0.2214130124834596 -0.17332344852279341 0 -0.2310076627551961 -0.1923974228579847 0 -0.2214130124834596 -0.17332344852279341 0 -0.2423474451878477 -0.18130309732150701 0 -0.23314902329911949 -0.15799462971451961 0 -0.2423474451878477 -0.18130309732150701 0 -0.24954419050008969 -0.16390133748759661 0 -0.23314902329911949 -0.15799462971451961 0 -0.24954419050008969 -0.16390133748759661 0 -0.24871350109299209 -0.14832739431963271 0 -0.23314902329911949 -0.15799462971451961 0 -0.24871350109299209 -0.14832739431963271 0 -0.2367558816917876 -0.13700989112697209 0 -0.21772189606301701 -0.14252595965263309 0 -0.23314902329911949 -0.15799462971451961 0 -0.2367558816917876 -0.13700989112697209 0 -0.21772189606301701 -0.14252595965263309 0 -0.2158765054474254 -0.1583552097257126 0 -0.23314902329911949 -0.15799462971451961 0 -0.2367558816917876 -0.13700989112697209 0 -0.24196207241321521 -0.1208798528768921 0 -0.22293776182668351 -0.1239135385039805 0 -0.21772189606301701 -0.14252595965263309 0 -0.2367558816917876 -0.13700989112697209 0 -0.22293776182668351 -0.1239135385039805 0 -0.2367558816917876 -0.13700989112697209 0 -0.24196207241321521 -0.1208798528768921 0 -0.26061109678426231 -0.13233151933442661 0 -0.24871350109299209 -0.14832739431963271 0 -0.2367558816917876 -0.13700989112697209 0 -0.26061109678426231 -0.13233151933442661 0 -0.24196207241321521 -0.1208798528768921 0 -0.24665643778924501 -0.10312549875974709 0 -0.2252282244149057 -0.1042333056202417 0 -0.24196207241321521 -0.1208798528768921 0 -0.24665643778924501 -0.10312549875974709 0 -0.26016329430872398 -0.11383445772225199 0 -0.23711072512302361 -0.094390776325231046 0 -0.24665643778924501 -0.10312549875974709 0 -0.2252282244149057 -0.1042333056202417 0 -0.23711072512302361 -0.094390776325231046 0 -0.24665643778924501 -0.10312549875974709 0 -0.25194184339413922 -0.085977319966145313 0 -0.2252282244149057 -0.1042333056202417 0 -0.22293776182668351 -0.1239135385039805 0 -0.20986780792696089 -0.1122676951603315 0 -0.24196207241321521 -0.1208798528768921 0 -0.2252282244149057 -0.1042333056202417 0 -0.22293776182668351 -0.1239135385039805 0 -0.24196207241321521 -0.1208798528768921 0 -0.2252282244149057 -0.1042333056202417 0 -0.22944902735769721 -0.080743193701077742 0 -0.23249961014023049 -0.057164704289298263 0 -0.25092324978841618 -0.065030740949350935 0 -0.22944902735769721 -0.080743193701077742 0 -0.25092324978841618 -0.065030740949350935 0 -0.25194184339413922 -0.085977319966145313 0 -0.23711072512302361 -0.094390776325231046 0 -0.22944902735769721 -0.080743193701077742 0 -0.25194184339413922 -0.085977319966145313 0 -0.23711072512302361 -0.094390776325231046 0 -0.2252282244149057 -0.1042333056202417 0 -0.22944902735769721 -0.080743193701077742 0 -0.2252282244149057 -0.1042333056202417 0 -0.22944902735769721 -0.080743193701077742 0 -0.20849437641659629 -0.087586758363591408 0 -0.22944902735769721 -0.080743193701077742 0 -0.2165558337458664 -0.066810356055008999 0 -0.23249961014023049 -0.057164704289298263 0 -0.2165558337458664 -0.066810356055008999 0 -0.20354700328304781 -0.064584606094977931 0 -0.20849437641659629 -0.087586758363591408 0 -0.22944902735769721 -0.080743193701077742 0 -0.2165558337458664 -0.066810356055008999 0 -0.20849437641659629 -0.087586758363591408 0 -0.20849437641659629 -0.087586758363591408 0 -0.19176052841828689 -0.070940211106941098 0 -0.18489018063701501 -0.086701088077948282 0 -0.20849437641659629 -0.087586758363591408 0 -0.19176052841828689 -0.070940211106941098 0 -0.20849437641659629 -0.087586758363591408 0 -0.19436454246387519 -0.104785740363756 0 -0.18489018063701501 -0.086701088077948282 0 -0.20354700328304781 -0.064584606094977931 0 -0.20849437641659629 -0.087586758363591408 0 -0.19176052841828689 -0.070940211106941098 0 -0.20354700328304781 -0.064584606094977931 0 -0.19176052841828689 -0.070940211106941098 0 -0.19245519407680281 -0.053507825443750219 0 -0.21075808951498559 -0.12802040424372271 0 -0.20986780792696089 -0.1122676951603315 0 -0.1984857252861115 -0.1240494251636983 0 -0.21075808951498559 -0.12802040424372271 0 -0.22293776182668351 -0.1239135385039805 0 -0.20986780792696089 -0.1122676951603315 0 -0.20849437641659629 -0.087586758363591408 0 -0.20986780792696089 -0.1122676951603315 0 -0.19436454246387519 -0.104785740363756 0 -0.2252282244149057 -0.1042333056202417 0 -0.20849437641659629 -0.087586758363591408 0 -0.2252282244149057 -0.1042333056202417 0 -0.20849437641659629 -0.087586758363591408 0 -0.20986780792696089 -0.1122676951603315 0 -0.20986780792696089 -0.1122676951603315 0 -0.19436454246387519 -0.104785740363756 0 -0.1984857252861115 -0.1240494251636983 0 -0.19436454246387519 -0.104785740363756 0 -0.1984857252861115 -0.1240494251636983 0 -0.18299089937056881 -0.11741130631961789 0 -0.18830935464884019 -0.13024193624560079 0 -0.1984857252861115 -0.1240494251636983 0 -0.18299089937056881 -0.11741130631961789 0 -0.18299089937056881 -0.11741130631961789 0 -0.16986633426495659 -0.11438092045486541 0 -0.1789821142048075 -0.1017309514207351 0 -0.17236183414240111 -0.12627931045177629 0 -0.18299089937056881 -0.11741130631961789 0 -0.16986633426495659 -0.11438092045486541 0 -0.18201379643859 -0.1286857969625306 0 -0.17236183414240111 -0.12627931045177629 0 -0.18299089937056881 -0.11741130631961789 0 -0.15872496469174979 -0.12853865128263189 0 -0.16986633426495659 -0.11438092045486541 0 -0.1579518334809043 -0.102564740570461 0 -0.15872496469174979 -0.12853865128263189 0 -0.15723190995028929 -0.12086698510493681 0 -0.1579518334809043 -0.102564740570461 0 -0.17236183414240111 -0.12627931045177629 0 -0.15872496469174979 -0.12853865128263189 0 -0.16986633426495659 -0.11438092045486541 0 -0.15872496469174979 -0.12853865128263189 0 -0.1579518334809043 -0.102564740570461 0 -0.16986633426495659 -0.11438092045486541 0 -0.1579518334809043 -0.102564740570461 0 -0.1789821142048075 -0.1017309514207351 0 -0.1579518334809043 -0.102564740570461 0 -0.1789821142048075 -0.1017309514207351 0 -0.17137811408882589 -0.087717212609796105 0 -0.19436454246387519 -0.104785740363756 0 -0.18299089937056881 -0.11741130631961789 0 -0.1789821142048075 -0.1017309514207351 0 -0.19436454246387519 -0.104785740363756 0 -0.1789821142048075 -0.1017309514207351 0 -0.18489018063701501 -0.086701088077948282 0 -0.18489018063701501 -0.086701088077948282 0 -0.17788773985134451 -0.070998453121545832 0 -0.17137811408882589 -0.087717212609796105 0 -0.1789821142048075 -0.1017309514207351 0 -0.18489018063701501 -0.086701088077948282 0 -0.17137811408882589 -0.087717212609796105 0 -0.19176052841828689 -0.070940211106941098 0 -0.18489018063701501 -0.086701088077948282 0 -0.17788773985134451 -0.070998453121545832 0 -0.19176052841828689 -0.070940211106941098 0 -0.1750266804199774 -0.054293663850290767 0 -0.19176052841828689 -0.070940211106941098 0 -0.17788773985134451 -0.070998453121545832 0 -0.1750266804199774 -0.054293663850290767 0 -0.17788773985134451 -0.070998453121545832 0 -0.16649853462562941 -0.06435169882829167 0 -0.1750266804199774 -0.054293663850290767 0 -0.17788773985134451 -0.070998453121545832 0 -0.15717870227005809 -0.076590829858290299 0 -0.15717870227005809 -0.076590829858290299 0 -0.16649853462562941 -0.06435169882829167 0 -0.1565565320062931 -0.055688563008889642 0 -0.15717870227005809 -0.076590829858290299 0 -0.1565565320062931 -0.055688563008889642 0 -0.17788773985134451 -0.070998453121545832 0 -0.15717870227005809 -0.076590829858290299 0 -0.16649853462562941 -0.06435169882829167 0 -0.17788773985134451 -0.070998453121545832 0 -0.15717870227005809 -0.076590829858290299 0 -0.17137811408882589 -0.087717212609796105 0 -0.1579518334809043 -0.102564740570461 0 -0.15717870227005809 -0.076590829858290299 0 -0.17137811408882589 -0.087717212609796105 0 -0.1579518334809043 -0.102564740570461 0 -0.15717870227005809 -0.076590829858290299 0 -0.15717870227005809 -0.076590829858290299 0 -0.13601281620641731 -0.082306576346762958 0 -0.15717870227005809 -0.076590829858290299 0 -0.13601281620641731 -0.082306576346762958 0 -0.1449666206728373 -0.096874120027373903 0 -0.1579518334809043 -0.102564740570461 0 -0.15717870227005809 -0.076590829858290299 0 -0.1449666206728373 -0.096874120027373903 0 -0.15717870227005809 -0.076590829858290299 0 -0.13529847277653259 -0.068243852700048457 0 -0.13601281620641731 -0.082306576346762958 0 -0.15717870227005809 -0.076590829858290299 0 -0.13529847277653259 -0.068243852700048457 0 -0.1565565320062931 -0.055688563008889642 0 -0.1140404135467733 -0.080799142391208806 0 -0.13529847277653259 -0.068243852700048457 0 -0.13601281620641731 -0.082306576346762958 0 -0.12441086491995421 -0.095936191835674381 0 -0.1148469301427766 -0.088022322835235672 0 -0.13601281620641731 -0.082306576346762958 0 -0.1148469301427766 -0.088022322835235672 0 -0.13601281620641731 -0.082306576346762958 0 -0.13601281620641731 -0.082306576346762958 0 -0.13498172742211301 -0.095563886985906857 0 -0.1449666206728373 -0.096874120027373903 0 -0.12441086491995421 -0.095936191835674381 0 -0.13601281620641731 -0.082306576346762958 0 -0.13498172742211301 -0.095563886985906857 0 -0.12441086491995421 -0.095936191835674381 0 -0.13498172742211301 -0.095563886985906857 0 -0.1328000195512776 -0.1050860691873091 0 -0.1137575730885475 -0.10230843980111751 0 -0.1328000195512776 -0.1050860691873091 0 -0.1338341020979604 -0.1108788102785202 0 -0.13498172742211301 -0.095563886985906857 0 -0.1393383229637174 -0.10445039012449241 0 -0.1449666206728373 -0.096874120027373903 0 -0.13498172742211301 -0.095563886985906857 0 -0.1393383229637174 -0.10445039012449241 0 -0.1328000195512776 -0.1050860691873091 0 -0.1393383229637174 -0.10445039012449241 0 -0.1338341020979604 -0.1108788102785202 0 -0.14718766127147581 -0.109456242537827 0 -0.1393383229637174 -0.10445039012449241 0 -0.1328000195512776 -0.1050860691873091 0 -0.1338341020979604 -0.1108788102785202 0 -0.1328000195512776 -0.1050860691873091 0 -0.1338341020979604 -0.1108788102785202 0 -0.1152610119709349 -0.1142465265902273 0 -0.13673809400377809 -0.12714644122859631 0 -0.1338341020979604 -0.1108788102785202 0 -0.13673809400377809 -0.12714644122859631 0 -0.1338341020979604 -0.1108788102785202 0 -0.15723190995028929 -0.12086698510493681 0 -0.1338341020979604 -0.1108788102785202 0 -0.15723190995028929 -0.12086698510493681 0 -0.1338341020979604 -0.1108788102785202 0 -0.14718766127147581 -0.109456242537827 0 -0.15723190995028929 -0.12086698510493681 0 -0.1579518334809043 -0.102564740570461 0 -0.14718766127147581 -0.109456242537827 0 -0.13673809400377809 -0.12714644122859631 0 -0.15723190995028929 -0.12086698510493681 0 -0.1338341020979604 -0.1108788102785202 0 -0.1579518334809043 -0.102564740570461 0 -0.14718766127147581 -0.109456242537827 0 -0.1449666206728373 -0.096874120027373903 0 -0.1393383229637174 -0.10445039012449241 0 -0.14718766127147581 -0.109456242537827 0 -0.1449666206728373 -0.096874120027373903 0 -0.14645074788780429 -0.02496110422364884 0 -0.1332410864610557 -0.017939885250470029 0 -0.15647714871318821 -0.0096605231674667252 0 -0.14645074788780429 -0.02496110422364884 0 -0.16007414564151551 -0.027099468645146799 0 -0.15647714871318821 -0.0096605231674667252 0 -0.14645074788780429 -0.02496110422364884 0 -0.13703572883213261 -0.029618999600065182 0 -0.14766504497130681 -0.038052620407179008 0 -0.14645074788780429 -0.02496110422364884 0 -0.14766504497130681 -0.038052620407179008 0 -0.16007414564151551 -0.027099468645146799 0 -0.1332410864610557 -0.017939885250470029 0 -0.15647714871318821 -0.0096605231674667252 0 -0.1332410864610557 -0.017939885250470029 0 -0.15647714871318821 -0.0096605231674667252 0 -0.13456797813674581 0.0069355328586848406 0 -0.1123811332199436 -0.0001008497836227223 0 -0.1332410864610557 -0.017939885250470029 0 -0.13456797813674581 0.0069355328586848406 0 -0.12078603600836341 -0.037522388518962863 0 -0.1332410864610557 -0.017939885250470029 0 -0.13703572883213261 -0.029618999600065182 0 -0.14645074788780429 -0.02496110422364884 0 -0.1332410864610557 -0.017939885250470029 0 -0.13703572883213261 -0.029618999600065182 0 -0.12078603600836341 -0.037522388518962863 0 -0.14766504497130681 -0.038052620407179008 0 -0.12078603600836341 -0.037522388518962863 0 -0.13703572883213261 -0.029618999600065182 0 -0.14766504497130681 -0.038052620407179008 0 -0.12078603600836341 -0.037522388518962863 0 -0.13398311562101661 -0.050076731811762407 0 -0.14766504497130681 -0.038052620407179008 0 -0.1200136041636382 -0.052435428425421197 0 -0.13529847277653259 -0.068243852700048457 0 -0.13398311562101661 -0.050076731811762407 0 -0.13529847277653259 -0.068243852700048457 0 -0.13398311562101661 -0.050076731811762407 0 -0.14645695083419011 -0.049721078656148103 0 -0.13529847277653259 -0.068243852700048457 0 -0.14645695083419011 -0.049721078656148103 0 -0.1565565320062931 -0.055688563008889642 0 -0.13529847277653259 -0.068243852700048457 0 -0.1565565320062931 -0.055688563008889642 0 -0.14645695083419011 -0.049721078656148103 0 -0.15618371344295229 -0.043163449625404048 0 -0.1565565320062931 -0.055688563008889642 0 -0.14766504497130681 -0.038052620407179008 0 -0.15618371344295229 -0.043163449625404048 0 -0.16007414564151551 -0.027099468645146799 0 -0.13398311562101661 -0.050076731811762407 0 -0.14645695083419011 -0.049721078656148103 0 -0.14766504497130681 -0.038052620407179008 0 -0.14645695083419011 -0.049721078656148103 0 -0.14766504497130681 -0.038052620407179008 0 -0.15618371344295229 -0.043163449625404048 0 -0.15618371344295229 -0.043163449625404048 0 -0.16648908257638809 -0.037742876328722162 0 -0.1565565320062931 -0.055688563008889642 0 -0.15618371344295229 -0.043163449625404048 0 -0.16648908257638809 -0.037742876328722162 0 -0.16007414564151551 -0.027099468645146799 0 -0.16648908257638809 -0.037742876328722162 0 -0.1565565320062931 -0.055688563008889642 0 -0.1789510559378594 -0.042462062300731247 0 -0.16649853462562941 -0.06435169882829167 0 -0.1565565320062931 -0.055688563008889642 0 -0.1750266804199774 -0.054293663850290767 0 -0.1565565320062931 -0.055688563008889642 0 -0.1789510559378594 -0.042462062300731247 0 -0.1565565320062931 -0.055688563008889642 0 -0.1750266804199774 -0.054293663850290767 0 -0.1789510559378594 -0.042462062300731247 0 -0.15618371344295229 -0.043163449625404048 0 -0.1565565320062931 -0.055688563008889642 0 -0.19176052841828689 -0.070940211106941098 0 -0.1750266804199774 -0.054293663850290767 0 -0.19245519407680281 -0.053507825443750219 0 -0.1750266804199774 -0.054293663850290767 0 -0.1789510559378594 -0.042462062300731247 0 -0.19245519407680281 -0.053507825443750219 0 -0.16648908257638809 -0.037742876328722162 0 -0.1789510559378594 -0.042462062300731247 0 -0.17887477492892309 -0.021568109916834801 0 -0.1789510559378594 -0.042462062300731247 0 -0.17887477492892309 -0.021568109916834801 0 -0.20134557986942669 -0.029235561592574431 0 -0.17887477492892309 -0.021568109916834801 0 -0.16007414564151551 -0.027099468645146799 0 -0.15647714871318821 -0.0096605231674667252 0 -0.16648908257638809 -0.037742876328722162 0 -0.17887477492892309 -0.021568109916834801 0 -0.16007414564151551 -0.027099468645146799 0 -0.15647714871318821 -0.0096605231674667252 0 -0.17971321096532061 -0.001381161084463442 0 -0.17887477492892309 -0.021568109916834801 0 -0.15647714871318821 -0.0096605231674667252 0 -0.17971321096532061 -0.001381161084463442 0 -0.17887477492892309 -0.021568109916834801 0 -0.17971321096532061 -0.001381161084463442 0 -0.2036260325626193 -0.002978392342358185 0 -0.17887477492892309 -0.021568109916834801 0 -0.20134557986942669 -0.029235561592574431 0 -0.2036260325626193 -0.002978392342358185 0 -0.20134557986942669 -0.029235561592574431 0 -0.2036260325626193 -0.002978392342358185 0 -0.22374010380099399 -0.016009060884417638 0 -0.20134557986942669 -0.029235561592574431 0 -0.22895827097830521 -0.039732274048757441 0 -0.22374010380099399 -0.016009060884417638 0 -0.20134557986942669 -0.029235561592574431 0 -0.22374010380099399 -0.016009060884417638 0 -0.2036260325626193 -0.002978392342358185 0 -0.22374010380099399 -0.016009060884417638 0 -0.22786629277407161 0.00053210229903320294 0 -0.20354700328304781 -0.064584606094977931 0 -0.19245519407680281 -0.053507825443750219 0 -0.2104924320916004 -0.047968003793256407 0 -0.1789510559378594 -0.042462062300731247 0 -0.20134557986942669 -0.029235561592574431 0 -0.19245519407680281 -0.053507825443750219 0 -0.20134557986942669 -0.029235561592574431 0 -0.19245519407680281 -0.053507825443750219 0 -0.2104924320916004 -0.047968003793256407 0 -0.1789510559378594 -0.042462062300731247 0 -0.20134557986942669 -0.029235561592574431 0 -0.20134557986942669 -0.029235561592574431 0 -0.2104924320916004 -0.047968003793256407 0 -0.22895827097830521 -0.039732274048757441 0 -0.2165558337458664 -0.066810356055008999 0 -0.20354700328304781 -0.064584606094977931 0 -0.2104924320916004 -0.047968003793256407 0 -0.2104924320916004 -0.047968003793256407 0 -0.23249961014023049 -0.057164704289298263 0 -0.22895827097830521 -0.039732274048757441 0 -0.2165558337458664 -0.066810356055008999 0 -0.2104924320916004 -0.047968003793256407 0 -0.23249961014023049 -0.057164704289298263 0 -0.22895827097830521 -0.039732274048757441 0 -0.25112765891506411 -0.043016027093612713 0 -0.23249961014023049 -0.057164704289298263 0 -0.22895827097830521 -0.039732274048757441 0 -0.25112765891506411 -0.043016027093612713 0 -0.22895827097830521 -0.039732274048757441 0 -0.24148943335998979 -0.026089840070019559 0 -0.25112765891506411 -0.043016027093612713 0 -0.23249961014023049 -0.057164704289298263 0 -0.25112765891506411 -0.043016027093612713 0 -0.25092324978841618 -0.065030740949350935 0 -0.22374010380099399 -0.016009060884417638 0 -0.24613462773256131 -0.0027825601762608149 0 -0.22786629277407161 0.00053210229903320294 0 -0.22895827097830521 -0.039732274048757441 0 -0.22374010380099399 -0.016009060884417638 0 -0.24148943335998979 -0.026089840070019559 0 -0.24148943335998979 -0.026089840070019559 0 -0.24613462773256131 -0.0027825601762608149 0 -0.25748650537302442 -0.028909278147049161 0 -0.22374010380099399 -0.016009060884417638 0 -0.24148943335998979 -0.026089840070019559 0 -0.24613462773256131 -0.0027825601762608149 0 -0.22374010380099399 -0.016009060884417638 0 -0.24613462773256131 -0.0027825601762608149 0 -0.24613462773256131 -0.0027825601762608149 0 -0.26928588210573129 -0.01225818593133739 0 -0.26852915166412872 0.01044394053189596 0 -0.24613462773256131 -0.0027825601762608149 0 -0.25748650537302442 -0.028909278147049161 0 -0.26928588210573129 -0.01225818593133739 0 -0.26928588210573129 -0.01225818593133739 0 -0.28245631104131141 -0.020762018823757909 0 -0.27258848928286927 -0.032280535494697733 0 -0.25748650537302442 -0.028909278147049161 0 -0.26928588210573129 -0.01225818593133739 0 -0.27258848928286927 -0.032280535494697733 0 -0.28245631104131141 -0.020762018823757909 0 -0.28504199549792308 -0.033263256806623308 0 -0.27258848928286927 -0.032280535494697733 0 -0.26928588210573129 -0.01225818593133739 0 -0.28865051165842548 -0.003118290016904595 0 -0.28245631104131141 -0.020762018823757909 0 -0.26928588210573129 -0.01225818593133739 0 -0.28865051165842548 -0.003118290016904595 0 -0.26852915166412872 0.01044394053189596 0 -0.28865051165842548 -0.003118290016904595 0 -0.28245631104131141 -0.020762018823757909 0 -0.29671467666160761 -0.02288982586922653 0 -0.28245631104131141 -0.020762018823757909 0 -0.29671467666160761 -0.02288982586922653 0 -0.28504199549792308 -0.033263256806623308 0 -0.29671467666160761 -0.02288982586922653 0 -0.3109828308377805 -0.020876876804726469 0 -0.30558464289699278 -0.0081443053338373112 0 -0.29671467666160761 -0.02288982586922653 0 -0.3109828308377805 -0.020876876804726469 0 -0.30550247720356277 -0.035037885057075217 0 -0.3109828308377805 -0.020876876804726469 0 -0.30550247720356277 -0.035037885057075217 0 -0.31824598739179399 -0.031930159316645772 0 -0.28865051165842548 -0.003118290016904595 0 -0.30558464289699278 -0.0081443053338373112 0 -0.30717627480107801 0.0098828481306134294 0 -0.3109828308377805 -0.020876876804726469 0 -0.30558464289699278 -0.0081443053338373112 0 -0.31549042765732849 -0.01249860426924553 0 -0.28865051165842548 -0.003118290016904595 0 -0.29671467666160761 -0.02288982586922653 0 -0.30558464289699278 -0.0081443053338373112 0 -0.3113326979054582 -0.051348303537248889 0 -0.30676930997553459 -0.047116009161940427 0 -0.29546643478858209 -0.049583533183321801 0 -0.3113326979054582 -0.051348303537248889 0 -0.29546643478858209 -0.049583533183321801 0 -0.3113326979054582 -0.051348303537248889 0 -0.29546643478858209 -0.049583533183321801 0 -0.2940964991848351 -0.078879666277268029 0 -0.3113326979054582 -0.051348303537248889 0 -0.30676930997553459 -0.047116009161940427 0 -0.31213320156819879 -0.049099837650966371 0 -0.30676930997553459 -0.047116009161940427 0 -0.31213320156819879 -0.049099837650966371 0 -0.3113326979054582 -0.051348303537248889 0 -0.31213320156819879 -0.049099837650966371 0 -0.29671467666160761 -0.02288982586922653 0 -0.30550247720356277 -0.035037885057075217 0 -0.29546643478858209 -0.049583533183321801 0 -0.30676930997553459 -0.047116009161940427 0 -0.31213320156819879 -0.049099837650966371 0 -0.31824598739179399 -0.031930159316645772 0 -0.30676930997553459 -0.047116009161940427 0 -0.30550247720356277 -0.035037885057075217 0 -0.31824598739179399 -0.031930159316645772 0 -0.30676930997553459 -0.047116009161940427 0 -0.30550247720356277 -0.035037885057075217 0 -0.29546643478858209 -0.049583533183321801 0 -0.29671467666160761 -0.02288982586922653 0 -0.28504199549792308 -0.033263256806623308 0 -0.29546643478858209 -0.049583533183321801 0 -0.29546643478858209 -0.049583533183321801 0 -0.28059923653887447 -0.039977539318234778 0 -0.27329704685182299 -0.046299780138467979 0 -0.29671467666160761 -0.02288982586922653 0 -0.29546643478858209 -0.049583533183321801 0 -0.28504199549792308 -0.033263256806623308 0 -0.29546643478858209 -0.049583533183321801 0 -0.28059923653887447 -0.039977539318234778 0 -0.28556934010204182 -0.060662746301041723 0 -0.29546643478858209 -0.049583533183321801 0 -0.27789373037289278 -0.047943215577465052 0 -0.29546643478858209 -0.049583533183321801 0 -0.27789373037289278 -0.047943215577465052 0 -0.27329704685182299 -0.046299780138467979 0 -0.29546643478858209 -0.049583533183321801 0 -0.27329704685182299 -0.046299780138467979 0 -0.27789373037289278 -0.047943215577465052 0 -0.27141268228931992 -0.056976777469622243 0 -0.27831068557989608 -0.073624743873574178 0 -0.28556934010204182 -0.060662746301041723 0 -0.27789373037289278 -0.047943215577465052 0 -0.27831068557989608 -0.073624743873574178 0 -0.27789373037289278 -0.047943215577465052 0 -0.27831068557989608 -0.073624743873574178 0 -0.27789373037289278 -0.047943215577465052 0 -0.27141268228931992 -0.056976777469622243 0 -0.27329704685182299 -0.046299780138467979 0 -0.27141268228931992 -0.056976777469622243 0 -0.27329704685182299 -0.046299780138467979 0 -0.26230765993026151 -0.053562166071754562 0 -0.27141268228931992 -0.056976777469622243 0 -0.26230765993026151 -0.053562166071754562 0 -0.26525428871172568 -0.063453981686849445 0 -0.25748650537302442 -0.028909278147049161 0 -0.27329704685182299 -0.046299780138467979 0 -0.27258848928286927 -0.032280535494697733 0 -0.28504199549792308 -0.033263256806623308 0 -0.28059923653887447 -0.039977539318234778 0 -0.27258848928286927 -0.032280535494697733 0 -0.28059923653887447 -0.039977539318234778 0 -0.27329704685182299 -0.046299780138467979 0 -0.27258848928286927 -0.032280535494697733 0 -0.24148943335998979 -0.026089840070019559 0 -0.25748650537302442 -0.028909278147049161 0 -0.25112765891506411 -0.043016027093612713 0 -0.27329704685182299 -0.046299780138467979 0 -0.25112765891506411 -0.043016027093612713 0 -0.25748650537302442 -0.028909278147049161 0 -0.27329704685182299 -0.046299780138467979 0 -0.25112765891506411 -0.043016027093612713 0 -0.25112765891506411 -0.043016027093612713 0 -0.26230765993026151 -0.053562166071754562 0 -0.25092324978841618 -0.065030740949350935 0 -0.27329704685182299 -0.046299780138467979 0 -0.25112765891506411 -0.043016027093612713 0 -0.26230765993026151 -0.053562166071754562 0 -0.26230765993026151 -0.053562166071754562 0 -0.25092324978841618 -0.065030740949350935 0 -0.26525428871172568 -0.063453981686849445 0 -0.25092324978841618 -0.065030740949350935 0 -0.26278974811704242 -0.074946178826784837 0 -0.25194184339413922 -0.085977319966145313 0 -0.25092324978841618 -0.065030740949350935 0 -0.26525428871172568 -0.063453981686849445 0 -0.26278974811704242 -0.074946178826784837 0 -0.25194184339413922 -0.085977319966145313 0 -0.267518673111035 -0.086644107658004288 0 -0.26353246708146222 -0.099437280047720636 0 -0.26278974811704242 -0.074946178826784837 0 -0.25194184339413922 -0.085977319966145313 0 -0.267518673111035 -0.086644107658004288 0 -0.26278974811704242 -0.074946178826784837 0 -0.267518673111035 -0.086644107658004288 0 -0.27831068557989608 -0.073624743873574178 0 -0.27831068557989608 -0.073624743873574178 0 -0.27872764078689938 -0.09930627216968331 0 -0.267518673111035 -0.086644107658004288 0 -0.27831068557989608 -0.073624743873574178 0 -0.27872764078689938 -0.09930627216968331 0 -0.27141268228931992 -0.056976777469622243 0 -0.26525428871172568 -0.063453981686849445 0 -0.27831068557989608 -0.073624743873574178 0 -0.26525428871172568 -0.063453981686849445 0 -0.26278974811704242 -0.074946178826784837 0 -0.27831068557989608 -0.073624743873574178 0 -0.26016329430872398 -0.11383445772225199 0 -0.26838520342077749 -0.1200841519677437 0 -0.26061109678426231 -0.13233151933442661 0 -0.24196207241321521 -0.1208798528768921 0 -0.26016329430872398 -0.11383445772225199 0 -0.26061109678426231 -0.13233151933442661 0 -0.24665643778924501 -0.10312549875974709 0 -0.26016329430872398 -0.11383445772225199 0 -0.26353246708146222 -0.099437280047720636 0 -0.24665643778924501 -0.10312549875974709 0 -0.25194184339413922 -0.085977319966145313 0 -0.26353246708146222 -0.099437280047720636 0 -0.26016329430872398 -0.11383445772225199 0 -0.26353246708146222 -0.099437280047720636 0 -0.27092134244235772 -0.11059467323610089 0 -0.267518673111035 -0.086644107658004288 0 -0.26353246708146222 -0.099437280047720636 0 -0.27872764078689938 -0.09930627216968331 0 -0.26353246708146222 -0.099437280047720636 0 -0.27872764078689938 -0.09930627216968331 0 -0.27092134244235772 -0.11059467323610089 0 -0.27872764078689938 -0.09930627216968331 0 -0.27914459599390262 -0.1249878004657925 0 -0.28178931039071581 -0.1070648093212412 0 -0.27872764078689938 -0.09930627216968331 0 -0.27092134244235772 -0.11059467323610089 0 -0.27914459599390262 -0.1249878004657925 0 -0.27872764078689938 -0.09930627216968331 0 -0.27914459599390262 -0.1249878004657925 0 -0.26016329430872398 -0.11383445772225199 0 -0.27092134244235772 -0.11059467323610089 0 -0.26838520342077749 -0.1200841519677437 0 -0.27092134244235772 -0.11059467323610089 0 -0.27914459599390262 -0.1249878004657925 0 -0.26838520342077749 -0.1200841519677437 0 -0.29197845036064218 -0.12417423346955429 0 -0.2864097300815871 -0.1161006606569506 0 -0.29272656358108778 -0.1081757993712143 0 -0.29197845036064218 -0.12417423346955429 0 -0.29272656358108778 -0.1081757993712143 0 -0.27914459599390262 -0.1249878004657925 0 -0.2864097300815871 -0.1161006606569506 0 -0.28178931039071581 -0.1070648093212412 0 -0.27914459599390262 -0.1249878004657925 0 -0.29197845036064218 -0.12417423346955429 0 -0.2864097300815871 -0.1161006606569506 0 -0.2864097300815871 -0.1161006606569506 0 -0.29272656358108778 -0.1081757993712143 0 -0.28178931039071581 -0.1070648093212412 0 -0.27872764078689938 -0.09930627216968331 0 -0.29272656358108778 -0.1081757993712143 0 -0.2940964991848351 -0.078879666277268029 0 -0.27872764078689938 -0.09930627216968331 0 -0.29272656358108778 -0.1081757993712143 0 -0.28178931039071581 -0.1070648093212412 0 -0.29272656358108778 -0.1081757993712143 0 -0.28178931039071581 -0.1070648093212412 0 -0.29272656358108778 -0.1081757993712143 0 -0.30983100937226632 -0.090066438283610592 0 -0.31380376844543489 -0.1103167907589057 0 -0.29272656358108778 -0.1081757993712143 0 -0.31380376844543489 -0.1103167907589057 0 -0.29272656358108778 -0.1081757993712143 0 -0.3059966483650699 -0.1235259570955929 0 -0.31380376844543489 -0.1103167907589057 0 -0.29197845036064218 -0.12417423346955429 0 -0.29272656358108778 -0.1081757993712143 0 -0.3059966483650699 -0.1235259570955929 0 -0.28556934010204182 -0.060662746301041723 0 -0.27831068557989608 -0.073624743873574178 0 -0.2940964991848351 -0.078879666277268029 0 -0.29546643478858209 -0.049583533183321801 0 -0.2940964991848351 -0.078879666277268029 0 -0.28556934010204182 -0.060662746301041723 0 -0.29546643478858209 -0.049583533183321801 0 -0.2940964991848351 -0.078879666277268029 0 -0.27831068557989608 -0.073624743873574178 0 -0.27872764078689938 -0.09930627216968331 0 -0.2940964991848351 -0.078879666277268029 0 -0.29272656358108778 -0.1081757993712143 0 -0.2940964991848351 -0.078879666277268029 0 -0.29272656358108778 -0.1081757993712143 0 -0.2940964991848351 -0.078879666277268029 0 -0.30983100937226632 -0.090066438283610592 0 -0.2940964991848351 -0.078879666277268029 0 -0.30983100937226632 -0.090066438283610592 0 -0.31672882140991071 -0.069114225979503119 0 -0.3113326979054582 -0.051348303537248889 0 -0.2940964991848351 -0.078879666277268029 0 -0.31672882140991071 -0.069114225979503119 0 -0.31672882140991071 -0.069114225979503119 0 -0.33179939424006322 -0.08384570903116173 0 -0.32871781517034621 -0.055233635915724992 0 -0.30983100937226632 -0.090066438283610592 0 -0.31672882140991071 -0.069114225979503119 0 -0.33179939424006322 -0.08384570903116173 0 -0.33179939424006322 -0.08384570903116173 0 -0.32871781517034621 -0.055233635915724992 0 -0.33179939424006322 -0.08384570903116173 0 -0.35318669871744068 -0.064283421400158788 0 -0.32871781517034621 -0.055233635915724992 0 -0.3059966483650699 -0.1235259570955929 0 -0.31380376844543489 -0.1103167907589057 0 -0.32323424521079669 -0.1207893235356125 0 -0.31380376844543489 -0.1103167907589057 0 -0.32323424521079669 -0.1207893235356125 0 -0.33488097330978173 -0.1124577821465981 0 -0.31380376844543489 -0.1103167907589057 0 -0.33488097330978173 -0.1124577821465981 0 -0.30983100937226632 -0.090066438283610592 0 -0.33179939424006322 -0.08384570903116173 0 -0.31380376844543489 -0.1103167907589057 0 -0.33179939424006322 -0.08384570903116173 0 -0.31380376844543489 -0.1103167907589057 0 -0.33488097330978173 -0.1124577821465981 0 -0.33179939424006322 -0.08384570903116173 0 -0.33488097330978173 -0.1124577821465981 0 -0.33179939424006322 -0.08384570903116173 0 -0.33488097330978173 -0.1124577821465981 0 -0.35603812520107359 -0.090514568416816599 0 -0.33488097330978173 -0.1124577821465981 0 -0.33591377102671688 -0.1220471787260352 0 -0.34643388523738688 -0.12280261816495219 0 -0.32323424521079669 -0.1207893235356125 0 -0.33591377102671688 -0.1220471787260352 0 -0.33064442794662441 -0.1316478925944585 0 -0.32323424521079669 -0.1207893235356125 0 -0.33488097330978173 -0.1124577821465981 0 -0.33591377102671688 -0.1220471787260352 0 -0.33488097330978173 -0.1124577821465981 0 -0.33591377102671688 -0.1220471787260352 0 -0.34643388523738688 -0.12280261816495219 0 -0.35979283452206712 -0.11498829227116369 0 -0.35997926934173952 -0.13139667533559499 0 -0.33488097330978173 -0.1124577821465981 0 -0.34643388523738688 -0.12280261816495219 0 -0.35979283452206712 -0.11498829227116369 0 -0.33488097330978173 -0.1124577821465981 0 -0.35979283452206712 -0.11498829227116369 0 -0.33488097330978173 -0.1124577821465981 0 -0.35979283452206712 -0.11498829227116369 0 -0.35603812520107359 -0.090514568416816599 0 -0.35979283452206712 -0.11498829227116369 0 -0.38518131056955618 -0.1059072004396386 0 -0.37891326815255449 -0.094178998767222633 0 -0.35979283452206712 -0.11498829227116369 0 -0.35603812520107359 -0.090514568416816599 0 -0.37891326815255449 -0.094178998767222633 0 -0.35979283452206712 -0.11498829227116369 0 -0.38470469573435212 -0.1175188023957318 0 -0.35997926934173952 -0.13139667533559499 0 -0.38470469573435212 -0.1175188023957318 0 -0.35979283452206712 -0.11498829227116369 0 -0.35997926934173952 -0.13139667533559499 0 -0.38470469573435212 -0.1175188023957318 0 -0.33179939424006322 -0.08384570903116173 0 -0.35318669871744068 -0.064283421400158788 0 -0.35603812520107359 -0.090514568416816599 0 -0.35603812520107359 -0.090514568416816599 0 -0.3776555822645345 -0.073333206884594659 0 -0.37891326815255449 -0.094178998767222633 0 -0.35318669871744068 -0.064283421400158788 0 -0.35505569894565298 -0.058409957628357982 0 -0.3776555822645345 -0.073333206884594659 0 -0.35505569894565298 -0.058409957628357982 0 -0.38147291870920041 -0.062322903988565048 0 -0.3776555822645345 -0.073333206884594659 0 -0.35318669871744068 -0.064283421400158788 0 -0.35603812520107359 -0.090514568416816599 0 -0.3776555822645345 -0.073333206884594659 0 -0.35318669871744068 -0.064283421400158788 0 -0.3776555822645345 -0.073333206884594659 0 -0.35505569894565298 -0.058409957628357982 0 -0.38147291870920041 -0.062322903988565048 0 -0.3657043723981569 -0.052970867441757823 0 -0.37541983032940568 -0.05169700066371595 0 -0.38147291870920041 -0.062322903988565048 0 -0.3657043723981569 -0.052970867441757823 0 -0.35505569894565298 -0.058409957628357982 0 -0.38147291870920041 -0.062322903988565048 0 -0.3657043723981569 -0.052970867441757823 0 -0.37079513763444422 -0.043198082993936807 0 -0.37541983032940568 -0.05169700066371595 0 -0.3657043723981569 -0.052970867441757823 0 -0.35731691202273619 -0.044976575142767268 0 -0.37079513763444422 -0.043198082993936807 0 -0.3657043723981569 -0.052970867441757823 0 -0.35505569894565298 -0.058409957628357982 0 -0.35789363144480668 -0.05184568270901091 0 -0.3657043723981569 -0.052970867441757823 0 -0.35789363144480668 -0.05184568270901091 0 -0.35731691202273619 -0.044976575142767268 0 -0.35318669871744068 -0.064283421400158788 0 -0.35505569894565298 -0.058409957628357982 0 -0.32871781517034621 -0.055233635915724992 0 -0.35505569894565298 -0.058409957628357982 0 -0.35789363144480668 -0.05184568270901091 0 -0.35082451896554201 -0.049633805676786519 0 -0.35789363144480668 -0.05184568270901091 0 -0.35082451896554201 -0.049633805676786519 0 -0.35731691202273619 -0.044976575142767268 0 -0.35505569894565298 -0.058409957628357982 0 -0.35082451896554201 -0.049633805676786519 0 -0.34050241625973998 -0.048881690965368318 0 -0.34444676583754957 -0.0404723633763103 0 -0.35352515743409713 -0.034422305000569607 0 -0.34540865130699128 -0.024890750745561432 0 -0.35082451896554201 -0.049633805676786519 0 -0.34444676583754957 -0.0404723633763103 0 -0.34050241625973998 -0.048881690965368318 0 -0.35082451896554201 -0.049633805676786519 0 -0.34444676583754957 -0.0404723633763103 0 -0.35731691202273619 -0.044976575142767268 0 -0.34444676583754957 -0.0404723633763103 0 -0.35731691202273619 -0.044976575142767268 0 -0.35352515743409713 -0.034422305000569607 0 -0.35352515743409713 -0.034422305000569607 0 -0.36223377551117691 -0.035569944907543193 0 -0.35861666152119431 -0.025579373250189791 0 -0.35731691202273619 -0.044976575142767268 0 -0.35352515743409713 -0.034422305000569607 0 -0.36223377551117691 -0.035569944907543193 0 -0.35731691202273619 -0.044976575142767268 0 -0.36223377551117691 -0.035569944907543193 0 -0.37079513763444422 -0.043198082993936807 0 -0.37079513763444422 -0.043198082993936807 0 -0.37091500894341228 -0.029673388150252462 0 -0.38085633370848521 -0.036584273836494888 0 -0.36223377551117691 -0.035569944907543193 0 -0.37079513763444422 -0.043198082993936807 0 -0.37091500894341228 -0.029673388150252462 0 -0.37091500894341228 -0.029673388150252462 0 -0.36883698362745487 -0.015208798031183751 0 -0.38454814068688181 -0.021277338301690259 0 -0.36883698362745487 -0.015208798031183751 0 -0.35585842030712189 -0.01321943886633528 0 -0.35861666152119431 -0.025579373250189791 0 -0.36223377551117691 -0.035569944907543193 0 -0.37091500894341228 -0.029673388150252462 0 -0.35861666152119431 -0.025579373250189791 0 -0.37091500894341228 -0.029673388150252462 0 -0.36883698362745487 -0.015208798031183751 0 -0.35861666152119431 -0.025579373250189791 0 -0.36883698362745487 -0.015208798031183751 0 -0.3622564786717607 -0.0032207155525003838 0 -0.38026169374925373 0.001780029687210153 0 -0.36883698362745487 -0.015208798031183751 0 -0.3622564786717607 -0.0032207155525003838 0 -0.35585842030712189 -0.01321943886633528 0 -0.35585842030712189 -0.01321943886633528 0 -0.34462003240937938 -0.0093973640104739985 0 -0.35040531424325788 0.0035402899006972961 0 -0.3622564786717607 -0.0032207155525003838 0 -0.35585842030712189 -0.01321943886633528 0 -0.35040531424325788 0.0035402899006972961 0 -0.35352515743409713 -0.034422305000569607 0 -0.35861666152119431 -0.025579373250189791 0 -0.34540865130699128 -0.024890750745561432 0 -0.35585842030712189 -0.01321943886633528 0 -0.35861666152119431 -0.025579373250189791 0 -0.34540865130699128 -0.024890750745561432 0 -0.35585842030712189 -0.01321943886633528 0 -0.34462003240937938 -0.0093973640104739985 0 -0.34540865130699128 -0.024890750745561432 0 -0.33568627958126301 -0.01660058975905512 0 -0.32435877321539791 -0.0147604809823284 0 -0.32649862619875158 -0.034628746125239938 0 -0.34540865130699128 -0.024890750745561432 0 -0.33568627958126301 -0.01660058975905512 0 -0.32649862619875158 -0.034628746125239938 0 -0.34462003240937938 -0.0093973640104739985 0 -0.34540865130699128 -0.024890750745561432 0 -0.33568627958126301 -0.01660058975905512 0 -0.32435877321539791 -0.0147604809823284 0 -0.33230646687498078 0.0075631121505766903 0 -0.33568627958126301 -0.01660058975905512 0 -0.32435877321539791 -0.0147604809823284 0 -0.33230646687498078 0.0075631121505766903 0 -0.34462003240937938 -0.0093973640104739985 0 -0.33568627958126301 -0.01660058975905512 0 -0.33230646687498078 0.0075631121505766903 0 -0.32381880970523758 -0.0097469878728421791 0 -0.31747058042755821 0.00020985852733852489 0 -0.33230646687498078 0.0075631121505766903 0 -0.32381880970523758 -0.0097469878728421791 0 -0.32435877321539791 -0.0147604809823284 0 -0.33230646687498078 0.0075631121505766903 0 -0.32381880970523758 -0.0097469878728421791 0 -0.32435877321539791 -0.0147604809823284 0 -0.31549042765732849 -0.01249860426924553 0 -0.32381880970523758 -0.0097469878728421791 0 -0.32435877321539791 -0.0147604809823284 0 -0.30558464289699278 -0.0081443053338373112 0 -0.31549042765732849 -0.01249860426924553 0 -0.31747058042755821 0.00020985852733852489 0 -0.32381880970523758 -0.0097469878728421791 0 -0.31549042765732849 -0.01249860426924553 0 -0.31747058042755821 0.00020985852733852489 0 -0.32435877321539791 -0.0147604809823284 0 -0.31824598739179399 -0.031930159316645772 0 -0.32649862619875158 -0.034628746125239938 0 -0.3109828308377805 -0.020876876804726469 0 -0.32435877321539791 -0.0147604809823284 0 -0.31824598739179399 -0.031930159316645772 0 -0.32435877321539791 -0.0147604809823284 0 -0.31824598739179399 -0.031930159316645772 0 -0.32435877321539791 -0.0147604809823284 0 -0.32649862619875158 -0.034628746125239938 0 -0.3109828308377805 -0.020876876804726469 0 -0.32435877321539791 -0.0147604809823284 0 -0.31549042765732849 -0.01249860426924553 0 -0.32649862619875158 -0.034628746125239938 0 -0.32219298082649162 -0.044836055764391897 0 -0.32871781517034621 -0.055233635915724992 0 -0.32649862619875158 -0.034628746125239938 0 -0.32871781517034621 -0.055233635915724992 0 -0.31213320156819879 -0.049099837650966371 0 -0.31824598739179399 -0.031930159316645772 0 -0.31213320156819879 -0.049099837650966371 0 -0.31824598739179399 -0.031930159316645772 0 -0.32219298082649162 -0.044836055764391897 0 -0.31824598739179399 -0.031930159316645772 0 -0.32649862619875158 -0.034628746125239938 0 -0.32219298082649162 -0.044836055764391897 0 -0.3113326979054582 -0.051348303537248889 0 -0.31672882140991071 -0.069114225979503119 0 -0.32544860979160839 -0.054024524460955313 0 -0.3113326979054582 -0.051348303537248889 0 -0.31213320156819879 -0.049099837650966371 0 -0.32544860979160839 -0.054024524460955313 0 -0.3113326979054582 -0.051348303537248889 0 -0.32544860979160839 -0.054024524460955313 0 -0.31213320156819879 -0.049099837650966371 0 -0.32219298082649162 -0.044836055764391897 0 -0.32544860979160839 -0.054024524460955313 0 -0.31213320156819879 -0.049099837650966371 0 -0.32544860979160839 -0.054024524460955313 0 -0.31672882140991071 -0.069114225979503119 0 -0.32544860979160839 -0.054024524460955313 0 -0.32871781517034621 -0.055233635915724992 0 -0.32219298082649162 -0.044836055764391897 0 -0.32544860979160839 -0.054024524460955313 0 -0.32871781517034621 -0.055233635915724992 0 -0.32544860979160839 -0.054024524460955313 0 -0.32871781517034621 -0.055233635915724992 0 -0.35505569894565298 -0.058409957628357982 0 -0.32871781517034621 -0.055233635915724992 0 -0.35505569894565298 -0.058409957628357982 0 -0.32871781517034621 -0.055233635915724992 0 -0.34050241625973998 -0.048881690965368318 0 -0.35318669871744068 -0.064283421400158788 0 -0.32871781517034621 -0.055233635915724992 0 -0.32649862619875158 -0.034628746125239938 0 -0.32871781517034621 -0.055233635915724992 0 -0.34050241625973998 -0.048881690965368318 0 -0.34444676583754957 -0.0404723633763103 0 -0.32649862619875158 -0.034628746125239938 0 -0.34050241625973998 -0.048881690965368318 0 -0.34444676583754957 -0.0404723633763103 0 -0.34540865130699128 -0.024890750745561432 0 -0.32649862619875158 -0.034628746125239938 0 -0.30676016113167731 -0.2353647317867392 0 -0.29442426104335762 -0.2395410410145494 0 -0.29513270922840301 -0.24899298810147111 0 -0.30676016113167731 -0.2353647317867392 0 -0.291605570142494 -0.23038935774954039 0 -0.29442426104335762 -0.2395410410145494 0 -0.30327979995856952 -0.24969412619873371 0 -0.30676016113167731 -0.2353647317867392 0 -0.29513270922840301 -0.24899298810147111 0 -0.30327979995856952 -0.24969412619873371 0 -0.30676016113167731 -0.2353647317867392 0 -0.30327979995856952 -0.24969412619873371 0 -0.30676016113167731 -0.2353647317867392 0 -0.3152844385466218 -0.24324924864526201 0 -0.30676016113167731 -0.2353647317867392 0 -0.3011541575086239 -0.2192960542080824 0 -0.313320115442285 -0.2083559910365875 0 -0.30676016113167731 -0.2353647317867392 0 -0.313320115442285 -0.2083559910365875 0 -0.30676016113167731 -0.2353647317867392 0 -0.3011541575086239 -0.2192960542080824 0 -0.291605570142494 -0.23038935774954039 0 -0.3011541575086239 -0.2192960542080824 0 -0.291605570142494 -0.23038935774954039 0 -0.28316538429264643 -0.21491631122312951 0 -0.291605570142494 -0.23038935774954039 0 -0.27591302257269729 -0.23003710150419951 0 -0.28316538429264643 -0.21491631122312951 0 -0.291605570142494 -0.23038935774954039 0 -0.28419860367085609 -0.24341708642044671 0 -0.27591302257269729 -0.23003710150419951 0 -0.291605570142494 -0.23038935774954039 0 -0.29442426104335762 -0.2395410410145494 0 -0.28419860367085609 -0.24341708642044671 0 -0.29442426104335762 -0.2395410410145494 0 -0.29513270922840301 -0.24899298810147111 0 -0.28419860367085609 -0.24341708642044671 0 -0.25954954969507738 -0.25229535732207709 0 -0.28419860367085609 -0.24341708642044671 0 -0.27591302257269729 -0.23003710150419951 0 -0.25954954969507738 -0.25229535732207709 0 -0.24127777521630381 -0.22990498759237421 0 -0.25874226243810539 -0.22567266126785759 0 -0.25954954969507738 -0.25229535732207709 0 -0.26119031160585843 -0.22459449960073269 0 -0.27591302257269729 -0.23003710150419951 0 -0.25954954969507738 -0.25229535732207709 0 -0.26119031160585843 -0.22459449960073269 0 -0.25954954969507738 -0.25229535732207709 0 -0.26119031160585843 -0.22459449960073269 0 -0.25874226243810539 -0.22567266126785759 0 -0.24127777521630381 -0.22990498759237421 0 -0.25874226243810539 -0.22567266126785759 0 -0.26164028972919418 -0.2169975533952245 0 -0.24127777521630381 -0.22990498759237421 0 -0.26164028972919418 -0.2169975533952245 0 -0.26119031160585843 -0.22459449960073269 0 -0.25874226243810539 -0.22567266126785759 0 -0.26164028972919418 -0.2169975533952245 0 -0.26119031160585843 -0.22459449960073269 0 -0.25874226243810539 -0.22567266126785759 0 -0.26119031160585843 -0.22459449960073269 0 -0.26164028972919418 -0.2169975533952245 0 -0.26119031160585843 -0.22459449960073269 0 -0.28316538429264643 -0.21491631122312951 0 -0.26119031160585843 -0.22459449960073269 0 -0.27591302257269729 -0.23003710150419951 0 -0.28316538429264643 -0.21491631122312951 0 -0.27183429788972607 -0.2105357537263304 0 -0.28421116743583491 -0.19726043448287239 0 -0.28316538429264643 -0.21491631122312951 0 -0.26119031160585843 -0.22459449960073269 0 -0.27183429788972607 -0.2105357537263304 0 -0.28316538429264643 -0.21491631122312951 0 -0.27183429788972607 -0.2105357537263304 0 -0.26164028972919418 -0.2169975533952245 0 -0.27183429788972607 -0.2105357537263304 0 -0.26164028972919418 -0.2169975533952245 0 -0.26328187789223528 -0.189282746120222 0 -0.26164028972919418 -0.2169975533952245 0 -0.26328187789223528 -0.189282746120222 0 -0.26119031160585843 -0.22459449960073269 0 -0.27183429788972607 -0.2105357537263304 0 -0.26164028972919418 -0.2169975533952245 0 -0.24630585107649611 -0.21702640999098269 0 -0.26164028972919418 -0.2169975533952245 0 -0.25304677817260962 -0.2024099179046987 0 -0.26164028972919418 -0.2169975533952245 0 -0.26328187789223528 -0.189282746120222 0 -0.25304677817260962 -0.2024099179046987 0 -0.2423474451878477 -0.18130309732150701 0 -0.26328187789223528 -0.189282746120222 0 -0.25304677817260962 -0.2024099179046987 0 -0.26328187789223528 -0.189282746120222 0 -0.28421116743583491 -0.19726043448287239 0 -0.26328187789223528 -0.189282746120222 0 -0.28421116743583491 -0.19726043448287239 0 -0.28759338003035723 -0.1850490263876062 0 -0.27183429788972607 -0.2105357537263304 0 -0.26328187789223528 -0.189282746120222 0 -0.28421116743583491 -0.19726043448287239 0 -0.29675495430027649 -0.1926803307468434 0 -0.28421116743583491 -0.19726043448287239 0 -0.30514045697943371 -0.2052381228455247 0 -0.28421116743583491 -0.19726043448287239 0 -0.30514045697943371 -0.2052381228455247 0 -0.29675495430027649 -0.1926803307468434 0 -0.28421116743583491 -0.19726043448287239 0 -0.28759338003035723 -0.1850490263876062 0 -0.28316538429264643 -0.21491631122312951 0 -0.30514045697943371 -0.2052381228455247 0 -0.3011541575086239 -0.2192960542080824 0 -0.28316538429264643 -0.21491631122312951 0 -0.30514045697943371 -0.2052381228455247 0 -0.28421116743583491 -0.19726043448287239 0 -0.28316538429264643 -0.21491631122312951 0 -0.30514045697943371 -0.2052381228455247 0 -0.3011541575086239 -0.2192960542080824 0 -0.30514045697943371 -0.2052381228455247 0 -0.313320115442285 -0.2083559910365875 0 -0.30514045697943371 -0.2052381228455247 0 -0.313320115442285 -0.2083559910365875 0 -0.30514045697943371 -0.2052381228455247 0 -0.3151478813345413 -0.20083068631669679 0 -0.313320115442285 -0.2083559910365875 0 -0.30514045697943371 -0.2052381228455247 0 -0.30706627728314573 -0.19316966169190941 0 -0.3151478813345413 -0.20083068631669679 0 -0.30514045697943371 -0.2052381228455247 0 -0.3151478813345413 -0.20083068631669679 0 -0.30706627728314573 -0.19316966169190941 0 -0.313100833721697 -0.1828729888504515 0 -0.31716703665536322 -0.1925173902155001 0 -0.29675495430027649 -0.1926803307468434 0 -0.30706627728314573 -0.19316966169190941 0 -0.29976348977261108 -0.182684408326304 0 -0.29675495430027649 -0.1926803307468434 0 -0.30514045697943371 -0.2052381228455247 0 -0.30706627728314573 -0.19316966169190941 0 -0.29976348977261108 -0.182684408326304 0 -0.30504251846994562 -0.172657213684169 0 -0.29421243178154999 -0.16675108582596701 0 -0.30706627728314573 -0.19316966169190941 0 -0.29976348977261108 -0.182684408326304 0 -0.313100833721697 -0.1828729888504515 0 -0.29976348977261108 -0.182684408326304 0 -0.30504251846994562 -0.172657213684169 0 -0.313100833721697 -0.1828729888504515 0 -0.30504251846994562 -0.172657213684169 0 -0.31052841655651459 -0.15915242121532119 0 -0.29421243178154999 -0.16675108582596701 0 -0.29421243178154999 -0.16675108582596701 0 -0.27997850640790922 -0.17635085705801101 0 -0.27956155120090592 -0.15066932876190181 0 -0.29421243178154999 -0.16675108582596701 0 -0.28759338003035723 -0.1850490263876062 0 -0.27997850640790922 -0.17635085705801101 0 -0.29976348977261108 -0.182684408326304 0 -0.29421243178154999 -0.16675108582596701 0 -0.28759338003035723 -0.1850490263876062 0 -0.29675495430027649 -0.1926803307468434 0 -0.29976348977261108 -0.182684408326304 0 -0.28759338003035723 -0.1850490263876062 0 -0.26328187789223528 -0.189282746120222 0 -0.27997850640790922 -0.17635085705801101 0 -0.26431150333073289 -0.17189965867120729 0 -0.26328187789223528 -0.189282746120222 0 -0.28759338003035723 -0.1850490263876062 0 -0.27997850640790922 -0.17635085705801101 0 -0.2423474451878477 -0.18130309732150701 0 -0.26328187789223528 -0.189282746120222 0 -0.2423474451878477 -0.18130309732150701 0 -0.24954419050008969 -0.16390133748759661 0 -0.26431150333073289 -0.17189965867120729 0 -0.26328187789223528 -0.189282746120222 0 -0.26431150333073289 -0.17189965867120729 0 -0.2423474451878477 -0.18130309732150701 0 -0.26328187789223528 -0.189282746120222 0 -0.26431150333073289 -0.17189965867120729 0 -0.24954419050008969 -0.16390133748759661 0 -0.26431150333073289 -0.17189965867120729 0 -0.26104870815656761 -0.15606618821962781 0 -0.26431150333073289 -0.17189965867120729 0 -0.27956155120090592 -0.15066932876190181 0 -0.26104870815656761 -0.15606618821962781 0 -0.27997850640790922 -0.17635085705801101 0 -0.26431150333073289 -0.17189965867120729 0 -0.27956155120090592 -0.15066932876190181 0 -0.27997850640790922 -0.17635085705801101 0 -0.27956155120090592 -0.15066932876190181 0 -0.27956155120090592 -0.15066932876190181 0 -0.26104870815656761 -0.15606618821962781 0 -0.26061109678426231 -0.13233151933442661 0 -0.24871350109299209 -0.14832739431963271 0 -0.26104870815656761 -0.15606618821962781 0 -0.26061109678426231 -0.13233151933442661 0 -0.24954419050008969 -0.16390133748759661 0 -0.24871350109299209 -0.14832739431963271 0 -0.26104870815656761 -0.15606618821962781 0 -0.27914459599390262 -0.1249878004657925 0 -0.26838520342077749 -0.1200841519677437 0 -0.26061109678426231 -0.13233151933442661 0 -0.27914459599390262 -0.1249878004657925 0 -0.27956155120090592 -0.15066932876190181 0 -0.27914459599390262 -0.1249878004657925 0 -0.27956155120090592 -0.15066932876190181 0 -0.26061109678426231 -0.13233151933442661 0 -0.27914459599390262 -0.1249878004657925 0 -0.27956155120090592 -0.15066932876190181 0 -0.29701916003260642 -0.14069434534845579 0 -0.27914459599390262 -0.1249878004657925 0 -0.29197845036064218 -0.12417423346955429 0 -0.29701916003260642 -0.14069434534845579 0 -0.29421243178154999 -0.16675108582596701 0 -0.27956155120090592 -0.15066932876190181 0 -0.29701916003260642 -0.14069434534845579 0 -0.31052841655651459 -0.15915242121532119 0 -0.29421243178154999 -0.16675108582596701 0 -0.29701916003260642 -0.14069434534845579 0 -0.31052841655651459 -0.15915242121532119 0 -0.29701916003260642 -0.14069434534845579 0 -0.3172177025598516 -0.13700525008981501 0 -0.29197845036064218 -0.12417423346955429 0 -0.3059966483650699 -0.1235259570955929 0 -0.29701916003260642 -0.14069434534845579 0 -0.3059966483650699 -0.1235259570955929 0 -0.29701916003260642 -0.14069434534845579 0 -0.3172177025598516 -0.13700525008981501 0 -0.3059966483650699 -0.1235259570955929 0 -0.32323424521079669 -0.1207893235356125 0 -0.3172177025598516 -0.13700525008981501 0 -0.32323424521079669 -0.1207893235356125 0 -0.3172177025598516 -0.13700525008981501 0 -0.33064442794662441 -0.1316478925944585 0 -0.3172177025598516 -0.13700525008981501 0 -0.33525384294912708 -0.1452745482754581 0 -0.33064442794662441 -0.1316478925944585 0 -0.31052841655651459 -0.15915242121532119 0 -0.33525384294912708 -0.1452745482754581 0 -0.31052841655651459 -0.15915242121532119 0 -0.3172177025598516 -0.13700525008981501 0 -0.33525384294912708 -0.1452745482754581 0 -0.33525384294912708 -0.1452745482754581 0 -0.33064442794662441 -0.1316478925944585 0 -0.34164503930031898 -0.13063378261929981 0 -0.33591377102671688 -0.1220471787260352 0 -0.34643388523738688 -0.12280261816495219 0 -0.34164503930031898 -0.13063378261929981 0 -0.33591377102671688 -0.1220471787260352 0 -0.33064442794662441 -0.1316478925944585 0 -0.34164503930031898 -0.13063378261929981 0 -0.33525384294912708 -0.1452745482754581 0 -0.34164503930031898 -0.13063378261929981 0 -0.35997926934173952 -0.13139667533559499 0 -0.34643388523738688 -0.12280261816495219 0 -0.34164503930031898 -0.13063378261929981 0 -0.35997926934173952 -0.13139667533559499 0 -0.33525384294912708 -0.1452745482754581 0 -0.35997926934173952 -0.13139667533559499 0 -0.35997926934173952 -0.13139667533559499 0 -0.36882581394048197 -0.14518459346814491 0 -0.37862264888683123 -0.13519268253901739 0 -0.35997926934173952 -0.13139667533559499 0 -0.37862264888683123 -0.13519268253901739 0 -0.38470469573435212 -0.1175188023957318 0 -0.35997926934173952 -0.13139667533559499 0 -0.36882581394048197 -0.14518459346814491 0 -0.35463627460749642 -0.15347292873103149 0 -0.36882581394048197 -0.14518459346814491 0 -0.35463627460749642 -0.15347292873103149 0 -0.37354964482581449 -0.16008406380194229 0 -0.33525384294912708 -0.1452745482754581 0 -0.35463627460749642 -0.15347292873103149 0 -0.34458794118958691 -0.16889270044034399 0 -0.33525384294912708 -0.1452745482754581 0 -0.35997926934173952 -0.13139667533559499 0 -0.35463627460749642 -0.15347292873103149 0 -0.35463627460749642 -0.15347292873103149 0 -0.34458794118958691 -0.16889270044034399 0 -0.36604674577555651 -0.17588032236269621 0 -0.35463627460749642 -0.15347292873103149 0 -0.37354964482581449 -0.16008406380194229 0 -0.36604674577555651 -0.17588032236269621 0 -0.35463627460749642 -0.15347292873103149 0 -0.36604674577555651 -0.17588032236269621 0 -0.36604674577555651 -0.17588032236269621 0 -0.37745721694361672 -0.19828771599436079 0 -0.34458794118958691 -0.16889270044034399 0 -0.36604674577555651 -0.17588032236269621 0 -0.34964452221166231 -0.18563779054966581 0 -0.36604674577555651 -0.17588032236269621 0 -0.34964452221166231 -0.18563779054966581 0 -0.36168828230910738 -0.19217154420287019 0 -0.34458794118958691 -0.16889270044034399 0 -0.33518971994526292 -0.18072914902284681 0 -0.32439786780319441 -0.1715379696465725 0 -0.34458794118958691 -0.16889270044034399 0 -0.34964452221166231 -0.18563779054966581 0 -0.33518971994526292 -0.18072914902284681 0 -0.34964452221166231 -0.18563779054966581 0 -0.33518971994526292 -0.18072914902284681 0 -0.3323962017731022 -0.1932342384331823 0 -0.33518971994526292 -0.18072914902284681 0 -0.32492206674876839 -0.18434304604446919 0 -0.3323962017731022 -0.1932342384331823 0 -0.33518971994526292 -0.18072914902284681 0 -0.32439786780319441 -0.1715379696465725 0 -0.32492206674876839 -0.18434304604446919 0 -0.33525384294912708 -0.1452745482754581 0 -0.34458794118958691 -0.16889270044034399 0 -0.32439786780319441 -0.1715379696465725 0 -0.31052841655651459 -0.15915242121532119 0 -0.33525384294912708 -0.1452745482754581 0 -0.32439786780319441 -0.1715379696465725 0 -0.30504251846994562 -0.172657213684169 0 -0.31052841655651459 -0.15915242121532119 0 -0.32439786780319441 -0.1715379696465725 0 -0.30504251846994562 -0.172657213684169 0 -0.32439786780319441 -0.1715379696465725 0 -0.313100833721697 -0.1828729888504515 0 -0.313100833721697 -0.1828729888504515 0 -0.32492206674876839 -0.18434304604446919 0 -0.31716703665536322 -0.1925173902155001 0 -0.32439786780319441 -0.1715379696465725 0 -0.313100833721697 -0.1828729888504515 0 -0.32492206674876839 -0.18434304604446919 0 -0.3151478813345413 -0.20083068631669679 0 -0.3323962017731022 -0.1932342384331823 0 -0.31716703665536322 -0.1925173902155001 0 -0.3151478813345413 -0.20083068631669679 0 -0.3323962017731022 -0.1932342384331823 0 -0.32492206674876839 -0.18434304604446919 0 -0.31716703665536322 -0.1925173902155001 0 -0.3323962017731022 -0.1932342384331823 0 -0.31716703665536322 -0.1925173902155001 0 -0.3151478813345413 -0.20083068631669679 0 -0.30706627728314573 -0.19316966169190941 0 -0.31716703665536322 -0.1925173902155001 0 -0.3151478813345413 -0.20083068631669679 0 -0.313320115442285 -0.2083559910365875 0 -0.33672583701725578 -0.2172776294055892 0 -0.3151478813345413 -0.20083068631669679 0 -0.313320115442285 -0.2083559910365875 0 -0.33672583701725578 -0.2172776294055892 0 -0.3151478813345413 -0.20083068631669679 0 -0.33672583701725578 -0.2172776294055892 0 -0.3323962017731022 -0.1932342384331823 0 -0.3151478813345413 -0.20083068631669679 0 -0.313320115442285 -0.2083559910365875 0 -0.313320115442285 -0.2083559910365875 0 -0.33672583701725578 -0.2172776294055892 0 -0.32059833319206049 -0.22442476368500611 0 -0.33672583701725578 -0.2172776294055892 0 -0.3323962017731022 -0.1932342384331823 0 -0.3465708347989882 -0.19900825187724219 0 -0.34964452221166231 -0.18563779054966581 0 -0.3323962017731022 -0.1932342384331823 0 -0.34964452221166231 -0.18563779054966581 0 -0.3323962017731022 -0.1932342384331823 0 -0.3465708347989882 -0.19900825187724219 0 -0.3465708347989882 -0.19900825187724219 0 -0.36168828230910738 -0.19217154420287019 0 -0.35920319301873749 -0.20762216373794889 0 -0.34964452221166231 -0.18563779054966581 0 -0.3465708347989882 -0.19900825187724219 0 -0.36168828230910738 -0.19217154420287019 0 -0.36604674577555651 -0.17588032236269621 0 -0.36168828230910738 -0.19217154420287019 0 -0.37745721694361672 -0.19828771599436079 0 -0.36168828230910738 -0.19217154420287019 0 -0.35920319301873749 -0.20762216373794889 0 -0.37745721694361672 -0.19828771599436079 0 -0.37178448933001601 -0.21409955056973631 0 -0.35920319301873749 -0.20762216373794889 0 -0.36013155859222679 -0.22619926777459051 0 -0.37178448933001601 -0.21409955056973631 0 -0.35920319301873749 -0.20762216373794889 0 -0.37745721694361672 -0.19828771599436079 0 -0.33672583701725578 -0.2172776294055892 0 -0.35920319301873749 -0.20762216373794889 0 -0.36013155859222679 -0.22619926777459051 0 -0.33672583701725578 -0.2172776294055892 0 -0.3465708347989882 -0.19900825187724219 0 -0.35920319301873749 -0.20762216373794889 0 -0.33672583701725578 -0.2172776294055892 0 -0.36013155859222679 -0.22619926777459051 0 -0.33672583701725578 -0.2172776294055892 0 -0.36013155859222679 -0.22619926777459051 0 -0.33763575341052221 -0.23685661676365999 0 -0.37178448933001601 -0.21409955056973631 0 -0.36013155859222679 -0.22619926777459051 0 -0.37953408035529068 -0.24322017605904961 0 -0.36013155859222679 -0.22619926777459051 0 -0.35983065419888077 -0.24611141835864769 0 -0.37953408035529068 -0.24322017605904961 0 -0.36013155859222679 -0.22619926777459051 0 -0.35983065419888077 -0.24611141835864769 0 -0.33763575341052221 -0.23685661676365999 0 -0.34535415942977782 -0.25978677515604909 0 -0.35983065419888077 -0.24611141835864769 0 -0.33763575341052221 -0.23685661676365999 0 -0.33763575341052221 -0.23685661676365999 0 -0.32662014791836891 -0.24423130278041499 0 -0.32137976683985009 -0.23682533273221651 0 -0.34535415942977782 -0.25978677515604909 0 -0.33763575341052221 -0.23685661676365999 0 -0.32662014791836891 -0.24423130278041499 0 -0.33672583701725578 -0.2172776294055892 0 -0.33763575341052221 -0.23685661676365999 0 -0.32059833319206049 -0.22442476368500611 0 -0.30676016113167731 -0.2353647317867392 0 -0.313320115442285 -0.2083559910365875 0 -0.32059833319206049 -0.22442476368500611 0 -0.33763575341052221 -0.23685661676365999 0 -0.32059833319206049 -0.22442476368500611 0 -0.32137976683985009 -0.23682533273221651 0 -0.30676016113167731 -0.2353647317867392 0 -0.32059833319206049 -0.22442476368500611 0 -0.32137976683985009 -0.23682533273221651 0 -0.30676016113167731 -0.2353647317867392 0 -0.3152844385466218 -0.24324924864526201 0 -0.32137976683985009 -0.23682533273221651 0 -0.32050784626065842 -0.25382830782002069 0 -0.30327979995856952 -0.24969412619873371 0 -0.3152844385466218 -0.24324924864526201 0 -0.32050784626065842 -0.25382830782002069 0 -0.3152844385466218 -0.24324924864526201 0 -0.32050784626065842 -0.25382830782002069 0 -0.3152844385466218 -0.24324924864526201 0 -0.32662014791836891 -0.24423130278041499 0 -0.3152844385466218 -0.24324924864526201 0 -0.32662014791836891 -0.24423130278041499 0 -0.32137976683985009 -0.23682533273221651 0 -0.42696963953784223 -0.23894127932124329 0 -0.42415005712168469 -0.24326444467488509 0 -0.42880989800311797 -0.2427740648149164 0 -0.42696963953784223 -0.23894127932124329 0 -0.42880989800311797 -0.2427740648149164 0 -0.4315371820098034 -0.23989955419507911 0 -0.42696963953784223 -0.23894127932124329 0 -0.4315371820098034 -0.23989955419507911 0 -0.43018133339800568 -0.2344248980243992 0 -0.42696963953784223 -0.23894127932124329 0 -0.43018133339800568 -0.2344248980243992 0 -0.42464092263404069 -0.23424299544899671 0 -0.42696963953784223 -0.23894127932124329 0 -0.42258513878864512 -0.2391790054548345 0 -0.42464092263404069 -0.23424299544899671 0 -0.42258513878864512 -0.2391790054548345 0 -0.42464092263404069 -0.23424299544899671 0 -0.42003313785294721 -0.23597143125418329 0 -0.42696963953784223 -0.23894127932124329 0 -0.42258513878864512 -0.2391790054548345 0 -0.42415005712168469 -0.24326444467488509 0 -0.42258513878864512 -0.2391790054548345 0 -0.42415005712168469 -0.24326444467488509 0 -0.41911310693366188 -0.2411511308959558 0 -0.42415005712168469 -0.24326444467488509 0 -0.42475252193411439 -0.24774016481985631 0 -0.42031130189539218 -0.2459826797472425 0 -0.42415005712168469 -0.24326444467488509 0 -0.42475252193411439 -0.24774016481985631 0 -0.42743486037363959 -0.2457802045996233 0 -0.42140838806380199 -0.25016100129551339 0 -0.42475252193411439 -0.24774016481985631 0 -0.42031130189539218 -0.2459826797472425 0 -0.42549114788668763 -0.25254843446980568 0 -0.42475252193411439 -0.24774016481985631 0 -0.42833614167239192 -0.24905357661582869 0 -0.42475252193411439 -0.24774016481985631 0 -0.42833614167239192 -0.24905357661582869 0 -0.42743486037363959 -0.2457802045996233 0 -0.42833614167239192 -0.24905357661582869 0 -0.42743486037363959 -0.2457802045996233 0 -0.43044227963990411 -0.24666522830325599 0 -0.42415005712168469 -0.24326444467488509 0 -0.42743486037363959 -0.2457802045996233 0 -0.42880989800311797 -0.2427740648149164 0 -0.42743486037363959 -0.2457802045996233 0 -0.42880989800311797 -0.2427740648149164 0 -0.43044227963990411 -0.24666522830325599 0 -0.4389426504737548 -0.25270740714766132 0 -0.43586909012950109 -0.2484911696998488 0 -0.4364568817105387 -0.24248109904980339 0 -0.42880989800311797 -0.2427740648149164 0 -0.43232953150349318 -0.24365874082489339 0 -0.43044227963990411 -0.24666522830325599 0 -0.43232953150349318 -0.24365874082489339 0 -0.43044227963990411 -0.24666522830325599 0 -0.43381266192509088 -0.24676473242694821 0 -0.42833614167239192 -0.24905357661582869 0 -0.43044227963990411 -0.24666522830325599 0 -0.43202674921002587 -0.24950329479089331 0 -0.43044227963990411 -0.24666522830325599 0 -0.43202674921002587 -0.24950329479089331 0 -0.43381266192509088 -0.24676473242694821 0 -0.43202674921002587 -0.24950329479089331 0 -0.43418682639696599 -0.24953622661342989 0 -0.43381266192509088 -0.24676473242694821 0 -0.43418682639696599 -0.24953622661342989 0 -0.43381266192509088 -0.24676473242694821 0 -0.43586909012950109 -0.2484911696998488 0 -0.43594643014115519 -0.25096638326140119 0 -0.43418682639696599 -0.24953622661342989 0 -0.43586909012950109 -0.2484911696998488 0 -0.43232953150349318 -0.24365874082489339 0 -0.43381266192509088 -0.24676473242694821 0 -0.4364568817105387 -0.24248109904980339 0 -0.43381266192509088 -0.24676473242694821 0 -0.43586909012950109 -0.2484911696998488 0 -0.4364568817105387 -0.24248109904980339 0 -0.4364568817105387 -0.24248109904980339 0 -0.4315371820098034 -0.23989955419507911 0 -0.43526225478567171 -0.23585947005559779 0 -0.43232953150349318 -0.24365874082489339 0 -0.4364568817105387 -0.24248109904980339 0 -0.4315371820098034 -0.23989955419507911 0 -0.42880989800311797 -0.2427740648149164 0 -0.43232953150349318 -0.24365874082489339 0 -0.4315371820098034 -0.23989955419507911 0 -0.4315371820098034 -0.23989955419507911 0 -0.43018133339800568 -0.2344248980243992 0 -0.43526225478567171 -0.23585947005559779 0 -0.43526225478567171 -0.23585947005559779 0 -0.434124009583228 -0.22939724764684799 0 -0.44304756258053329 -0.2318473963441553 0 -0.43018133339800568 -0.2344248980243992 0 -0.434124009583228 -0.22939724764684799 0 -0.42767213490163741 -0.22677943347587781 0 -0.43018133339800568 -0.2344248980243992 0 -0.43526225478567171 -0.23585947005559779 0 -0.434124009583228 -0.22939724764684799 0 -0.434124009583228 -0.22939724764684799 0 -0.42767213490163741 -0.22677943347587781 0 -0.43445676225029162 -0.21807504033420991 0 -0.434124009583228 -0.22939724764684799 0 -0.43445676225029162 -0.21807504033420991 0 -0.44304756258053329 -0.2318473963441553 0 -0.4262457633181696 -0.21992749495617461 0 -0.42767213490163741 -0.22677943347587781 0 -0.43445676225029162 -0.21807504033420991 0 -0.4262457633181696 -0.21992749495617461 0 -0.42767213490163741 -0.22677943347587781 0 -0.42024014788792069 -0.22244531679802881 0 -0.42767213490163741 -0.22677943347587781 0 -0.42061221867295451 -0.23049141320900479 0 -0.42024014788792069 -0.22244531679802881 0 -0.43018133339800568 -0.2344248980243992 0 -0.42767213490163741 -0.22677943347587781 0 -0.42464092263404069 -0.23424299544899671 0 -0.42767213490163741 -0.22677943347587781 0 -0.42464092263404069 -0.23424299544899671 0 -0.42061221867295451 -0.23049141320900479 0 -0.42061221867295451 -0.23049141320900479 0 -0.42024014788792069 -0.22244531679802881 0 -0.41363472462594292 -0.22744138595498289 0 -0.42061221867295451 -0.23049141320900479 0 -0.41690310586533857 -0.23306176499754841 0 -0.42003313785294721 -0.23597143125418329 0 -0.42464092263404069 -0.23424299544899671 0 -0.42061221867295451 -0.23049141320900479 0 -0.42003313785294721 -0.23597143125418329 0 -0.42061221867295451 -0.23049141320900479 0 -0.41690310586533857 -0.23306176499754841 0 -0.41363472462594292 -0.22744138595498289 0 -0.41690310586533857 -0.23306176499754841 0 -0.41309080280256011 -0.2330286273323581 0 -0.41363472462594292 -0.22744138595498289 0 -0.42024014788792069 -0.22244531679802881 0 -0.41363472462594292 -0.22744138595498289 0 -0.40977148328254681 -0.21827442545536091 0 -0.41363472462594292 -0.22744138595498289 0 -0.4056462734229398 -0.2250464840292539 0 -0.40977148328254681 -0.21827442545536091 0 -0.41363472462594292 -0.22744138595498289 0 -0.40839194211177998 -0.230684839827932 0 -0.4056462734229398 -0.2250464840292539 0 -0.41309080280256011 -0.2330286273323581 0 -0.41363472462594292 -0.22744138595498289 0 -0.40839194211177998 -0.230684839827932 0 -0.40839194211177998 -0.230684839827932 0 -0.40870272392412921 -0.23557499301913051 0 -0.40594253909551509 -0.23333827095741291 0 -0.41309080280256011 -0.2330286273323581 0 -0.40839194211177998 -0.230684839827932 0 -0.40870272392412921 -0.23557499301913051 0 -0.41142488077998129 -0.2394264878092752 0 -0.41182027763703077 -0.2441150099236063 0 -0.40545896705677281 -0.24165399612618041 0 -0.40870272392412921 -0.23557499301913051 0 -0.41142488077998129 -0.2394264878092752 0 -0.40545896705677281 -0.24165399612618041 0 -0.41142488077998129 -0.2394264878092752 0 -0.41571741253028582 -0.23730316117160771 0 -0.41486184952821942 -0.24098624863151849 0 -0.41142488077998129 -0.2394264878092752 0 -0.41486184952821942 -0.24098624863151849 0 -0.41182027763703077 -0.2441150099236063 0 -0.41309080280256011 -0.2330286273323581 0 -0.41223395500923898 -0.2363333173330929 0 -0.41571741253028582 -0.23730316117160771 0 -0.41309080280256011 -0.2330286273323581 0 -0.40870272392412921 -0.23557499301913051 0 -0.41223395500923898 -0.2363333173330929 0 -0.41142488077998129 -0.2394264878092752 0 -0.41223395500923898 -0.2363333173330929 0 -0.41571741253028582 -0.23730316117160771 0 -0.40870272392412921 -0.23557499301913051 0 -0.41142488077998129 -0.2394264878092752 0 -0.41223395500923898 -0.2363333173330929 0 -0.41690310586533857 -0.23306176499754841 0 -0.41309080280256011 -0.2330286273323581 0 -0.41571741253028582 -0.23730316117160771 0 -0.41690310586533857 -0.23306176499754841 0 -0.41571741253028582 -0.23730316117160771 0 -0.42003313785294721 -0.23597143125418329 0 -0.41571741253028582 -0.23730316117160771 0 -0.41486184952821942 -0.24098624863151849 0 -0.41911310693366188 -0.2411511308959558 0 -0.42258513878864512 -0.2391790054548345 0 -0.41911310693366188 -0.2411511308959558 0 -0.42003313785294721 -0.23597143125418329 0 -0.41571741253028582 -0.23730316117160771 0 -0.41911310693366188 -0.2411511308959558 0 -0.42003313785294721 -0.23597143125418329 0 -0.41542581743551232 -0.2501483478391463 0 -0.42140838806380199 -0.25016100129551339 0 -0.42031130189539218 -0.2459826797472425 0 -0.41911310693366188 -0.2411511308959558 0 -0.42031130189539218 -0.2459826797472425 0 -0.41630647068596338 -0.24447668340749379 0 -0.42415005712168469 -0.24326444467488509 0 -0.41911310693366188 -0.2411511308959558 0 -0.42031130189539218 -0.2459826797472425 0 -0.41486184952821942 -0.24098624863151849 0 -0.41911310693366188 -0.2411511308959558 0 -0.41630647068596338 -0.24447668340749379 0 -0.41486184952821942 -0.24098624863151849 0 -0.41630647068596338 -0.24447668340749379 0 -0.41182027763703077 -0.2441150099236063 0 -0.41542581743551232 -0.2501483478391463 0 -0.42031130189539218 -0.2459826797472425 0 -0.41630647068596338 -0.24447668340749379 0 -0.41542581743551232 -0.2501483478391463 0 -0.41630647068596338 -0.24447668340749379 0 -0.41182027763703077 -0.2441150099236063 0 -0.41542581743551232 -0.2501483478391463 0 -0.41182027763703077 -0.2441150099236063 0 -0.40844827848514048 -0.2485916648633418 0 -0.41182027763703077 -0.2441150099236063 0 -0.40844827848514048 -0.2485916648633418 0 -0.40545896705677281 -0.24165399612618041 0 -0.40018729681001958 -0.25118908704005588 0 -0.40545896705677281 -0.24165399612618041 0 -0.39835618329154288 -0.24156617672582739 0 -0.40018729681001958 -0.25118908704005588 0 -0.40844827848514048 -0.2485916648633418 0 -0.40545896705677281 -0.24165399612618041 0 -0.40323010819643401 -0.23639876872140461 0 -0.39835618329154288 -0.24156617672582739 0 -0.39852022080746868 -0.23352677045359899 0 -0.40870272392412921 -0.23557499301913051 0 -0.40323010819643401 -0.23639876872140461 0 -0.40545896705677281 -0.24165399612618041 0 -0.40870272392412921 -0.23557499301913051 0 -0.40323010819643401 -0.23639876872140461 0 -0.40594253909551509 -0.23333827095741291 0 -0.40323010819643401 -0.23639876872140461 0 -0.40545896705677281 -0.24165399612618041 0 -0.39835618329154288 -0.24156617672582739 0 -0.3924820962998069 -0.23688619650184159 0 -0.39835618329154288 -0.24156617672582739 0 -0.39156228926676601 -0.2468395420795185 0 -0.3924820962998069 -0.23688619650184159 0 -0.39835618329154288 -0.24156617672582739 0 -0.39852022080746868 -0.23352677045359899 0 -0.40018729681001958 -0.25118908704005588 0 -0.39835618329154288 -0.24156617672582739 0 -0.39156228926676601 -0.2468395420795185 0 -0.38721168238953191 -0.25610190145059353 0 -0.39156228926676601 -0.2468395420795185 0 -0.37953408035529068 -0.24322017605904961 0 -0.3924820962998069 -0.23688619650184159 0 -0.37953408035529068 -0.24322017605904961 0 -0.3908838045148802 -0.22465427250268999 0 -0.3924820962998069 -0.23688619650184159 0 -0.39156228926676601 -0.2468395420795185 0 -0.37953408035529068 -0.24322017605904961 0 -0.37953408035529068 -0.24322017605904961 0 -0.38886768811168121 -0.22069510962602329 0 -0.37178448933001601 -0.21409955056973631 0 -0.37953408035529068 -0.24322017605904961 0 -0.38886768811168121 -0.22069510962602329 0 -0.37953408035529068 -0.24322017605904961 0 -0.38886768811168121 -0.22069510962602329 0 -0.3908838045148802 -0.22465427250268999 0 -0.38886768811168121 -0.22069510962602329 0 -0.3908838045148802 -0.22465427250268999 0 -0.38886768811168121 -0.22069510962602329 0 -0.3908838045148802 -0.22465427250268999 0 -0.39939523579040609 -0.2217864831192409 0 -0.3908838045148802 -0.22465427250268999 0 -0.39723372692168152 -0.22753060307857281 0 -0.39939523579040609 -0.2217864831192409 0 -0.3924820962998069 -0.23688619650184159 0 -0.3908838045148802 -0.22465427250268999 0 -0.39723372692168152 -0.22753060307857281 0 -0.3924820962998069 -0.23688619650184159 0 -0.39723372692168152 -0.22753060307857281 0 -0.39852022080746868 -0.23352677045359899 0 -0.39852022080746868 -0.23352677045359899 0 -0.40013569863147208 -0.2296512269296298 0 -0.40344538214971748 -0.2306944822611845 0 -0.40323010819643401 -0.23639876872140461 0 -0.39852022080746868 -0.23352677045359899 0 -0.40344538214971748 -0.2306944822611845 0 -0.39723372692168152 -0.22753060307857281 0 -0.40013569863147208 -0.2296512269296298 0 -0.40134346464702092 -0.226853051925163 0 -0.39723372692168152 -0.22753060307857281 0 -0.39852022080746868 -0.23352677045359899 0 -0.40013569863147208 -0.2296512269296298 0 -0.40013569863147208 -0.2296512269296298 0 -0.40134346464702092 -0.226853051925163 0 -0.40344538214971748 -0.2306944822611845 0 -0.40839194211177998 -0.230684839827932 0 -0.40344538214971748 -0.2306944822611845 0 -0.4056462734229398 -0.2250464840292539 0 -0.40134346464702092 -0.226853051925163 0 -0.40344538214971748 -0.2306944822611845 0 -0.4056462734229398 -0.2250464840292539 0 -0.40839194211177998 -0.230684839827932 0 -0.40594253909551509 -0.23333827095741291 0 -0.40344538214971748 -0.2306944822611845 0 -0.40323010819643401 -0.23639876872140461 0 -0.40594253909551509 -0.23333827095741291 0 -0.40344538214971748 -0.2306944822611845 0 -0.39939523579040609 -0.2217864831192409 0 -0.4056462734229398 -0.2250464840292539 0 -0.40977148328254681 -0.21827442545536091 0 -0.39723372692168152 -0.22753060307857281 0 -0.40134346464702092 -0.226853051925163 0 -0.39939523579040609 -0.2217864831192409 0 -0.40134346464702092 -0.226853051925163 0 -0.39939523579040609 -0.2217864831192409 0 -0.4056462734229398 -0.2250464840292539 0 -0.39939523579040609 -0.2217864831192409 0 -0.40179282488747892 -0.2117116606773482 0 -0.40977148328254681 -0.21827442545536091 0 -0.38886768811168121 -0.22069510962602329 0 -0.40179282488747892 -0.2117116606773482 0 -0.39908212292388529 -0.19604431770014361 0 -0.38886768811168121 -0.22069510962602329 0 -0.39908212292388529 -0.19604431770014361 0 -0.40179282488747892 -0.2117116606773482 0 -0.39908212292388529 -0.19604431770014361 0 -0.41156368307803193 -0.20536146375304831 0 -0.38886768811168121 -0.22069510962602329 0 -0.39939523579040609 -0.2217864831192409 0 -0.40179282488747892 -0.2117116606773482 0 -0.37178448933001601 -0.21409955056973631 0 -0.38886768811168121 -0.22069510962602329 0 -0.37745721694361672 -0.19828771599436079 0 -0.38886768811168121 -0.22069510962602329 0 -0.37745721694361672 -0.19828771599436079 0 -0.39908212292388529 -0.19604431770014361 0 -0.38886768811168121 -0.22069510962602329 0 -0.37745721694361672 -0.19828771599436079 0 -0.37745721694361672 -0.19828771599436079 0 -0.39908212292388529 -0.19604431770014361 0 -0.38644741831219592 -0.17960069191583289 0 -0.39908212292388529 -0.19604431770014361 0 -0.41328545011770818 -0.19529735410885629 0 -0.41442329991420568 -0.1756225506552361 0 -0.41328545011770818 -0.19529735410885629 0 -0.42399025028214921 -0.19221069194235901 0 -0.41935883760189402 -0.1866885549668823 0 -0.41328545011770818 -0.19529735410885629 0 -0.42399025028214921 -0.19221069194235901 0 -0.42269425339832373 -0.20023258349353781 0 -0.41328545011770818 -0.19529735410885629 0 -0.41156368307803193 -0.20536146375304831 0 -0.42269425339832373 -0.20023258349353781 0 -0.39908212292388529 -0.19604431770014361 0 -0.41328545011770818 -0.19529735410885629 0 -0.41156368307803193 -0.20536146375304831 0 -0.40179282488747892 -0.2117116606773482 0 -0.41156368307803193 -0.20536146375304831 0 -0.40977148328254681 -0.21827442545536091 0 -0.42024014788792069 -0.22244531679802881 0 -0.40977148328254681 -0.21827442545536091 0 -0.42261400823282869 -0.212410189216582 0 -0.41156368307803193 -0.20536146375304831 0 -0.40977148328254681 -0.21827442545536091 0 -0.42261400823282869 -0.212410189216582 0 -0.41156368307803193 -0.20536146375304831 0 -0.42261400823282869 -0.212410189216582 0 -0.42269425339832373 -0.20023258349353781 0 -0.42261400823282869 -0.212410189216582 0 -0.43055219669891459 -0.20540465837005201 0 -0.42269425339832373 -0.20023258349353781 0 -0.43445676225029162 -0.21807504033420991 0 -0.43055219669891459 -0.20540465837005201 0 -0.44715247468731162 -0.2109873855406493 0 -0.4262457633181696 -0.21992749495617461 0 -0.42024014788792069 -0.22244531679802881 0 -0.42261400823282869 -0.212410189216582 0 -0.4262457633181696 -0.21992749495617461 0 -0.42261400823282869 -0.212410189216582 0 -0.43445676225029162 -0.21807504033420991 0 -0.42261400823282869 -0.212410189216582 0 -0.43445676225029162 -0.21807504033420991 0 -0.43055219669891459 -0.20540465837005201 0 -0.43055219669891459 -0.20540465837005201 0 -0.42995532756191668 -0.19673316351045961 0 -0.4387677420972308 -0.19665444716539501 0 -0.42995532756191668 -0.19673316351045961 0 -0.43248886340639953 -0.19052020349347221 0 -0.4387677420972308 -0.19665444716539501 0 -0.42995532756191668 -0.19673316351045961 0 -0.43248886340639953 -0.19052020349347221 0 -0.42399025028214921 -0.19221069194235901 0 -0.43248886340639953 -0.19052020349347221 0 -0.42399025028214921 -0.19221069194235901 0 -0.42664202356282349 -0.1858479588178176 0 -0.42399025028214921 -0.19221069194235901 0 -0.42664202356282349 -0.1858479588178176 0 -0.41935883760189402 -0.1866885549668823 0 -0.43055219669891459 -0.20540465837005201 0 -0.42995532756191668 -0.19673316351045961 0 -0.42269425339832373 -0.20023258349353781 0 -0.42995532756191668 -0.19673316351045961 0 -0.42399025028214921 -0.19221069194235901 0 -0.42269425339832373 -0.20023258349353781 0 -0.42617796645287842 -0.16962959103889719 0 -0.41442329991420568 -0.1756225506552361 0 -0.44294886660946953 -0.1841977930311384 0 -0.43248886340639953 -0.19052020349347221 0 -0.42664202356282349 -0.1858479588178176 0 -0.44294886660946953 -0.1841977930311384 0 -0.42617796645287842 -0.16962959103889719 0 -0.4377062614559627 -0.17157296818941381 0 -0.44294886660946953 -0.1841977930311384 0 -0.41442329991420568 -0.1756225506552361 0 -0.44294886660946953 -0.1841977930311384 0 -0.42664202356282349 -0.1858479588178176 0 -0.41442329991420568 -0.1756225506552361 0 -0.44294886660946953 -0.1841977930311384 0 -0.43498399906630791 -0.161799585445497 0 -0.42617796645287842 -0.16962959103889719 0 -0.41951099254828811 -0.1467427338483818 0 -0.43498399906630791 -0.161799585445497 0 -0.42617796645287842 -0.16962959103889719 0 -0.4377062614559627 -0.17157296818941381 0 -0.42617796645287842 -0.16962959103889719 0 -0.4092965577360867 -0.1713935257742627 0 -0.41951099254828811 -0.1467427338483818 0 -0.4092965577360867 -0.1713935257742627 0 -0.40168337121040132 -0.15088788648199719 0 -0.41951099254828811 -0.1467427338483818 0 -0.4092965577360867 -0.1713935257742627 0 -0.41951099254828811 -0.1467427338483818 0 -0.39908212292388529 -0.19604431770014361 0 -0.4092965577360867 -0.1713935257742627 0 -0.41442329991420568 -0.1756225506552361 0 -0.41328545011770818 -0.19529735410885629 0 -0.41442329991420568 -0.1756225506552361 0 -0.41935883760189402 -0.1866885549668823 0 -0.42617796645287842 -0.16962959103889719 0 -0.4092965577360867 -0.1713935257742627 0 -0.41442329991420568 -0.1756225506552361 0 -0.42664202356282349 -0.1858479588178176 0 -0.41442329991420568 -0.1756225506552361 0 -0.41935883760189402 -0.1866885549668823 0 -0.39908212292388529 -0.19604431770014361 0 -0.4092965577360867 -0.1713935257742627 0 -0.39908212292388529 -0.19604431770014361 0 -0.4092965577360867 -0.1713935257742627 0 -0.38644741831219592 -0.17960069191583289 0 -0.36604674577555651 -0.17588032236269621 0 -0.37745721694361672 -0.19828771599436079 0 -0.38644741831219592 -0.17960069191583289 0 -0.37354964482581449 -0.16008406380194229 0 -0.38644741831219592 -0.17960069191583289 0 -0.39222302778053941 -0.16250652814863839 0 -0.37354964482581449 -0.16008406380194229 0 -0.39222302778053941 -0.16250652814863839 0 -0.38549998073783281 -0.14845127519091411 0 -0.37354964482581449 -0.16008406380194229 0 -0.36604674577555651 -0.17588032236269621 0 -0.38644741831219592 -0.17960069191583289 0 -0.4092965577360867 -0.1713935257742627 0 -0.39222302778053941 -0.16250652814863839 0 -0.40168337121040132 -0.15088788648199719 0 -0.4092965577360867 -0.1713935257742627 0 -0.38644741831219592 -0.17960069191583289 0 -0.39222302778053941 -0.16250652814863839 0 -0.40168337121040132 -0.15088788648199719 0 -0.38549998073783281 -0.14845127519091411 0 -0.39580322399168788 -0.13396928677507139 0 -0.40168337121040132 -0.15088788648199719 0 -0.39580322399168788 -0.13396928677507139 0 -0.41951099254828811 -0.1467427338483818 0 -0.39222302778053941 -0.16250652814863839 0 -0.40168337121040132 -0.15088788648199719 0 -0.38549998073783281 -0.14845127519091411 0 -0.36882581394048197 -0.14518459346814491 0 -0.38549998073783281 -0.14845127519091411 0 -0.37862264888683123 -0.13519268253901739 0 -0.36882581394048197 -0.14518459346814491 0 -0.37354964482581449 -0.16008406380194229 0 -0.38549998073783281 -0.14845127519091411 0 -0.37862264888683123 -0.13519268253901739 0 -0.39580322399168788 -0.13396928677507139 0 -0.38470469573435212 -0.1175188023957318 0 -0.38549998073783281 -0.14845127519091411 0 -0.37862264888683123 -0.13519268253901739 0 -0.39580322399168788 -0.13396928677507139 0 -0.39580322399168788 -0.13396928677507139 0 -0.41951099254828811 -0.1467427338483818 0 -0.40721506154742099 -0.1198053721591187 0 -0.41951099254828811 -0.1467427338483818 0 -0.40721506154742099 -0.1198053721591187 0 -0.42972542736049052 -0.12209194192250129 0 -0.43498399906630791 -0.161799585445497 0 -0.41951099254828811 -0.1467427338483818 0 -0.44724982872258989 -0.14768117516302781 0 -0.41951099254828811 -0.1467427338483818 0 -0.42972542736049052 -0.12209194192250129 0 -0.41951099254828811 -0.1467427338483818 0 -0.44724982872258989 -0.14768117516302781 0 -0.42972542736049052 -0.12209194192250129 0 -0.44724982872258989 -0.14768117516302781 0 -0.4791291379673559 -0.1452901399042697 0 -0.46233656113141119 -0.1627804909480795 0 -0.44724982872258989 -0.14768117516302781 0 -0.4791291379673559 -0.1452901399042697 0 -0.4582582759347123 -0.124990266603451 0 -0.44724982872258989 -0.14768117516302781 0 -0.42972542736049052 -0.12209194192250129 0 -0.4582582759347123 -0.124990266603451 0 -0.47912913796735901 -0.12711029799058871 0 -0.4582582759347123 -0.124990266603451 0 -0.4791291379673559 -0.1452901399042697 0 -0.4582582759347123 -0.124990266603451 0 -0.47912913796735901 -0.12711029799058871 0 -0.4791291379673559 -0.1452901399042697 0 -0.4582582759347123 -0.124990266603451 0 -0.47912913796735901 -0.12711029799058871 0 -0.48956456898368012 -0.13726023464099829 0 -0.4791291379673559 -0.1452901399042697 0 -0.48956456898368012 -0.13726023464099829 0 -0.50000000000000544 -0.12923032937772749 0 -0.5 -0.14741017129140779 0 -0.47912913796735901 -0.12711029799058871 0 -0.48956456898368012 -0.13726023464099829 0 -0.50000000000000544 -0.12923032937772749 0 -0.47912913796735901 -0.12711029799058871 0 -0.50000000000000544 -0.12923032937772749 0 -0.4791291379673559 -0.1452901399042697 0 -0.49999999999999989 -0.16559001320508801 0 -0.5 -0.14741017129140779 0 -0.4791291379673559 -0.1452901399042697 0 -0.49999999999999989 -0.16559001320508801 0 -0.48956456898368012 -0.13726023464099829 0 -0.5 -0.14741017129140779 0 -0.4791291379673559 -0.1452901399042697 0 -0.4791291379673559 -0.1452901399042697 0 -0.47966141136332152 -0.1728056405756801 0 -0.46233656113141119 -0.1627804909480795 0 -0.4791291379673559 -0.1452901399042697 0 -0.49999999999999989 -0.16559001320508801 0 -0.47966141136332152 -0.1728056405756801 0 -0.49999999999999989 -0.16559001320508801 0 -0.5 -0.18346914549401511 0 -0.47966141136332152 -0.1728056405756801 0 -0.5 -0.18346914549401511 0 -0.47966141136332152 -0.1728056405756801 0 -0.48778396116701372 -0.18759902481491941 0 -0.47966141136332152 -0.1728056405756801 0 -0.46064513589170009 -0.1765260054861906 0 -0.4714744333047331 -0.1927730354070406 0 -0.47966141136332152 -0.1728056405756801 0 -0.4714744333047331 -0.1927730354070406 0 -0.48778396116701372 -0.18759902481491941 0 -0.46064513589170009 -0.1765260054861906 0 -0.44294886660946953 -0.1841977930311384 0 -0.4714744333047331 -0.1927730354070406 0 -0.47966141136332152 -0.1728056405756801 0 -0.46064513589170009 -0.1765260054861906 0 -0.46233656113141119 -0.1627804909480795 0 -0.46064513589170009 -0.1765260054861906 0 -0.46233656113141119 -0.1627804909480795 0 -0.44746512145063272 -0.16797807437151699 0 -0.44724982872258989 -0.14768117516302781 0 -0.46233656113141119 -0.1627804909480795 0 -0.44746512145063272 -0.16797807437151699 0 -0.43498399906630791 -0.161799585445497 0 -0.44724982872258989 -0.14768117516302781 0 -0.44746512145063272 -0.16797807437151699 0 -0.43498399906630791 -0.161799585445497 0 -0.44746512145063272 -0.16797807437151699 0 -0.4377062614559627 -0.17157296818941381 0 -0.44746512145063272 -0.16797807437151699 0 -0.4377062614559627 -0.17157296818941381 0 -0.44294886660946953 -0.1841977930311384 0 -0.46064513589170009 -0.1765260054861906 0 -0.44746512145063272 -0.16797807437151699 0 -0.44294886660946953 -0.1841977930311384 0 -0.45125738679408989 -0.19012737473714331 0 -0.44715247468731162 -0.2109873855406493 0 -0.45125738679408989 -0.19012737473714331 0 -0.4387677420972308 -0.19665444716539501 0 -0.44715247468731162 -0.2109873855406493 0 -0.43248886340639953 -0.19052020349347221 0 -0.44294886660946953 -0.1841977930311384 0 -0.4387677420972308 -0.19665444716539501 0 -0.44294886660946953 -0.1841977930311384 0 -0.45125738679408989 -0.19012737473714331 0 -0.4387677420972308 -0.19665444716539501 0 -0.43055219669891459 -0.20540465837005201 0 -0.4387677420972308 -0.19665444716539501 0 -0.44715247468731162 -0.2109873855406493 0 -0.46190968195527887 -0.20515258767629629 0 -0.4784510940914618 -0.2126340037375041 0 -0.46026532501242601 -0.2206548006894975 0 -0.44715247468731162 -0.2109873855406493 0 -0.46190968195527887 -0.20515258767629629 0 -0.46026532501242601 -0.2206548006894975 0 -0.44294886660946953 -0.1841977930311384 0 -0.45125738679408989 -0.19012737473714331 0 -0.4714744333047331 -0.1927730354070406 0 -0.45125738679408989 -0.19012737473714331 0 -0.46190968195527887 -0.20515258767629629 0 -0.4714744333047331 -0.1927730354070406 0 -0.44294886660946953 -0.1841977930311384 0 -0.4714744333047331 -0.1927730354070406 0 -0.45125738679408989 -0.19012737473714331 0 -0.44715247468731162 -0.2109873855406493 0 -0.46190968195527887 -0.20515258767629629 0 -0.4714744333047331 -0.1927730354070406 0 -0.49999999999999689 -0.20134827778294201 0 -0.4784510940914618 -0.2126340037375041 0 -0.5 -0.18346914549401511 0 -0.48778396116701372 -0.18759902481491941 0 -0.49999999999999689 -0.20134827778294201 0 -0.4714744333047331 -0.1927730354070406 0 -0.48778396116701372 -0.18759902481491941 0 -0.49999999999999689 -0.20134827778294201 0 -0.4714744333047331 -0.1927730354070406 0 -0.49999999999999689 -0.20134827778294201 0 -0.49999999999999689 -0.20134827778294201 0 -0.4784510940914618 -0.2126340037375041 0 -0.5 -0.22886895612552949 0 -0.46190968195527887 -0.20515258767629629 0 -0.4714744333047331 -0.1927730354070406 0 -0.4784510940914618 -0.2126340037375041 0 -0.4784510940914618 -0.2126340037375041 0 -0.47159963525323539 -0.23180862269738151 0 -0.5 -0.22886895612552949 0 -0.4784510940914618 -0.2126340037375041 0 -0.47159963525323539 -0.23180862269738151 0 -0.46026532501242601 -0.2206548006894975 0 -0.5 -0.25638963446811691 0 -0.5 -0.22886895612552949 0 -0.48308849919453711 -0.2466597159792642 0 -0.47159963525323539 -0.23180862269738151 0 -0.5 -0.22886895612552949 0 -0.48308849919453711 -0.2466597159792642 0 -0.47159963525323539 -0.23180862269738151 0 -0.48308849919453711 -0.2466597159792642 0 -0.46434191252842932 -0.24798961681447521 0 -0.47159963525323539 -0.23180862269738151 0 -0.46434191252842932 -0.24798961681447521 0 -0.45715703137944158 -0.23489159629384671 0 -0.46434191252842932 -0.24798961681447521 0 -0.45715703137944158 -0.23489159629384671 0 -0.44558302563621149 -0.2435712066540775 0 -0.45715703137944158 -0.23489159629384671 0 -0.46026532501242601 -0.2206548006894975 0 -0.44304756258053329 -0.2318473963441553 0 -0.47159963525323539 -0.23180862269738151 0 -0.45715703137944158 -0.23489159629384671 0 -0.46026532501242601 -0.2206548006894975 0 -0.44715247468731162 -0.2109873855406493 0 -0.44304756258053329 -0.2318473963441553 0 -0.44715247468731162 -0.2109873855406493 0 -0.46026532501242601 -0.2206548006894975 0 -0.44304756258053329 -0.2318473963441553 0 -0.43445676225029162 -0.21807504033420991 0 -0.44715247468731162 -0.2109873855406493 0 -0.44304756258053329 -0.2318473963441553 0 -0.4364568817105387 -0.24248109904980339 0 -0.43526225478567171 -0.23585947005559779 0 -0.44304756258053329 -0.2318473963441553 0 -0.4389426504737548 -0.25270740714766132 0 -0.44304756258053329 -0.2318473963441553 0 -0.4389426504737548 -0.25270740714766132 0 -0.4364568817105387 -0.24248109904980339 0 -0.44304756258053329 -0.2318473963441553 0 -0.4389426504737548 -0.25270740714766132 0 -0.44304756258053329 -0.2318473963441553 0 -0.44558302563621149 -0.2435712066540775 0 -0.45715703137944158 -0.23489159629384671 0 -0.44304756258053329 -0.2318473963441553 0 -0.44558302563621149 -0.2435712066540775 0 -0.4212047593570597 -0.039619749762734621 0 -0.39522988008644838 -0.039518424061997799 0 -0.4212047593570597 -0.039619749762734621 0 -0.40300675363289368 -0.022403518054942121 0 -0.39522988008644838 -0.039518424061997799 0 -0.4212047593570597 -0.039619749762734621 0 -0.40775544420885218 -0.051526687258687177 0 -0.39522988008644838 -0.039518424061997799 0 -0.4212047593570597 -0.039619749762734621 0 -0.40775544420885218 -0.051526687258687177 0 -0.41897078377254993 -0.059309610906631637 0 -0.4212047593570597 -0.039619749762734621 0 -0.41897078377254993 -0.059309610906631637 0 -0.40775544420885218 -0.051526687258687177 0 -0.41897078377254993 -0.059309610906631637 0 -0.4078901384727478 -0.066235850348772121 0 -0.4212047593570597 -0.039619749762734621 0 -0.41897078377254993 -0.059309610906631637 0 -0.43474015841955438 -0.052914650506178211 0 -0.41897078377254993 -0.059309610906631637 0 -0.43474015841955438 -0.052914650506178211 0 -0.43430735823629502 -0.07014879670897918 0 -0.4212047593570597 -0.039619749762734621 0 -0.43236684285329841 -0.026839864835696201 0 -0.44728088154664231 -0.03972147040312058 0 -0.4212047593570597 -0.039619749762734621 0 -0.43474015841955438 -0.052914650506178211 0 -0.44728088154664231 -0.03972147040312058 0 -0.4212047593570597 -0.039619749762734621 0 -0.44728088154664231 -0.03972147040312058 0 -0.4212047593570597 -0.039619749762734621 0 -0.42435158921531019 -0.011884154359624781 0 -0.4212047593570597 -0.039619749762734621 0 -0.43236684285329841 -0.026839864835696201 0 -0.42435158921531019 -0.011884154359624781 0 -0.43236684285329841 -0.026839864835696201 0 -0.43372370674452859 -0.01618370169142911 0 -0.44217614618389989 -0.017779217654669409 0 -0.43236684285329841 -0.026839864835696201 0 -0.43372370674452859 -0.01618370169142911 0 -0.42435158921531019 -0.011884154359624781 0 -0.43600024872560589 -0.0082315699157260707 0 -0.42689392055287168 -0.002251686792083131 0 -0.44548490936833879 0.0079836322890614493 0 -0.43372370674452859 -0.01618370169142911 0 -0.43600024872560589 -0.0082315699157260707 0 -0.42435158921531019 -0.011884154359624781 0 -0.43372370674452859 -0.01618370169142911 0 -0.43600024872560589 -0.0082315699157260707 0 -0.44217614618389989 -0.017779217654669409 0 -0.43600024872560589 -0.0082315699157260707 0 -0.42435158921531019 -0.011884154359624781 0 -0.42689392055287168 -0.002251686792083131 0 -0.42435158921531019 -0.011884154359624781 0 -0.41016613410361302 -0.0090036053936798609 0 -0.41982817475001177 0.002675378439020513 0 -0.42435158921531019 -0.011884154359624781 0 -0.41016613410361302 -0.0090036053936798609 0 -0.41468230907721909 -0.02072775689274535 0 -0.41016613410361302 -0.0090036053936798609 0 -0.41982817475001177 0.002675378439020513 0 -0.40595219377090941 0.0044259991179628659 0 -0.4212047593570597 -0.039619749762734621 0 -0.41468230907721909 -0.02072775689274535 0 -0.40300675363289368 -0.022403518054942121 0 -0.4212047593570597 -0.039619749762734621 0 -0.42435158921531019 -0.011884154359624781 0 -0.41468230907721909 -0.02072775689274535 0 -0.41016613410361302 -0.0090036053936798609 0 -0.41468230907721909 -0.02072775689274535 0 -0.40300675363289368 -0.022403518054942121 0 -0.40300675363289368 -0.022403518054942121 0 -0.39606373500968939 -0.0060366507209298152 0 -0.38454814068688181 -0.021277338301690259 0 -0.40300675363289368 -0.022403518054942121 0 -0.38454814068688181 -0.021277338301690259 0 -0.39522988008644838 -0.039518424061997799 0 -0.41016613410361302 -0.0090036053936798609 0 -0.40300675363289368 -0.022403518054942121 0 -0.39606373500968939 -0.0060366507209298152 0 -0.41016613410361302 -0.0090036053936798609 0 -0.39606373500968939 -0.0060366507209298152 0 -0.40595219377090941 0.0044259991179628659 0 -0.39606373500968939 -0.0060366507209298152 0 -0.38454814068688181 -0.021277338301690259 0 -0.38026169374925373 0.001780029687210153 0 -0.36883698362745487 -0.015208798031183751 0 -0.38454814068688181 -0.021277338301690259 0 -0.38026169374925373 0.001780029687210153 0 -0.37091500894341228 -0.029673388150252462 0 -0.38454814068688181 -0.021277338301690259 0 -0.38085633370848521 -0.036584273836494888 0 -0.38454814068688181 -0.021277338301690259 0 -0.38085633370848521 -0.036584273836494888 0 -0.39522988008644838 -0.039518424061997799 0 -0.37079513763444422 -0.043198082993936807 0 -0.38085633370848521 -0.036584273836494888 0 -0.38370689257582141 -0.04829614823060413 0 -0.38085633370848521 -0.036584273836494888 0 -0.39522988008644838 -0.039518424061997799 0 -0.38370689257582141 -0.04829614823060413 0 -0.39548165935545548 -0.052949801213299667 0 -0.38147291870920041 -0.062322903988565048 0 -0.4078901384727478 -0.066235850348772121 0 -0.40775544420885218 -0.051526687258687177 0 -0.39548165935545548 -0.052949801213299667 0 -0.4078901384727478 -0.066235850348772121 0 -0.40775544420885218 -0.051526687258687177 0 -0.39522988008644838 -0.039518424061997799 0 -0.39548165935545548 -0.052949801213299667 0 -0.39522988008644838 -0.039518424061997799 0 -0.39548165935545548 -0.052949801213299667 0 -0.38370689257582141 -0.04829614823060413 0 -0.39548165935545548 -0.052949801213299667 0 -0.38370689257582141 -0.04829614823060413 0 -0.38147291870920041 -0.062322903988565048 0 -0.38370689257582141 -0.04829614823060413 0 -0.37541983032940568 -0.05169700066371595 0 -0.38147291870920041 -0.062322903988565048 0 -0.37079513763444422 -0.043198082993936807 0 -0.38370689257582141 -0.04829614823060413 0 -0.37541983032940568 -0.05169700066371595 0 -0.3776555822645345 -0.073333206884594659 0 -0.4021244658116282 -0.082382992369030503 0 -0.38147291870920041 -0.062322903988565048 0 -0.3776555822645345 -0.073333206884594659 0 -0.39228577631452782 -0.071068738397740583 0 -0.3776555822645345 -0.073333206884594659 0 -0.4021244658116282 -0.082382992369030503 0 -0.37891326815255449 -0.094178998767222633 0 -0.4021244658116282 -0.082382992369030503 0 -0.37891326815255449 -0.094178998767222633 0 -0.39433389763848231 -0.099289927594458149 0 -0.4021244658116282 -0.082382992369030503 0 -0.39228577631452782 -0.071068738397740583 0 -0.4078901384727478 -0.066235850348772121 0 -0.3776555822645345 -0.073333206884594659 0 -0.4021244658116282 -0.082382992369030503 0 -0.39228577631452782 -0.071068738397740583 0 -0.38147291870920041 -0.062322903988565048 0 -0.4078901384727478 -0.066235850348772121 0 -0.38147291870920041 -0.062322903988565048 0 -0.39228577631452782 -0.071068738397740583 0 -0.4078901384727478 -0.066235850348772121 0 -0.35979283452206712 -0.11498829227116369 0 -0.38470469573435212 -0.1175188023957318 0 -0.38518131056955618 -0.1059072004396386 0 -0.38470469573435212 -0.1175188023957318 0 -0.39534162970335551 -0.1115485102864054 0 -0.38470469573435212 -0.1175188023957318 0 -0.38518131056955618 -0.1059072004396386 0 -0.39534162970335551 -0.1115485102864054 0 -0.38518131056955618 -0.1059072004396386 0 -0.37891326815255449 -0.094178998767222633 0 -0.39433389763848231 -0.099289927594458149 0 -0.4021244658116282 -0.082382992369030503 0 -0.39433389763848231 -0.099289927594458149 0 -0.41010881395531668 -0.1024319361099936 0 -0.39433389763848231 -0.099289927594458149 0 -0.39534162970335551 -0.1115485102864054 0 -0.41010881395531668 -0.1024319361099936 0 -0.38518131056955618 -0.1059072004396386 0 -0.39433389763848231 -0.099289927594458149 0 -0.39534162970335551 -0.1115485102864054 0 -0.39580322399168788 -0.13396928677507139 0 -0.38470469573435212 -0.1175188023957318 0 -0.40721506154742099 -0.1198053721591187 0 -0.38470469573435212 -0.1175188023957318 0 -0.39534162970335551 -0.1115485102864054 0 -0.40721506154742099 -0.1198053721591187 0 -0.39534162970335551 -0.1115485102864054 0 -0.40721506154742099 -0.1198053721591187 0 -0.41010881395531668 -0.1024319361099936 0 -0.38470469573435212 -0.1175188023957318 0 -0.40721506154742099 -0.1198053721591187 0 -0.40721506154742099 -0.1198053721591187 0 -0.41943526073755072 -0.11144845726247039 0 -0.42972542736049052 -0.12209194192250129 0 -0.40721506154742099 -0.1198053721591187 0 -0.41943526073755072 -0.11144845726247039 0 -0.41010881395531668 -0.1024319361099936 0 -0.40721506154742099 -0.1198053721591187 0 -0.42972542736049052 -0.12209194192250129 0 -0.41943526073755072 -0.11144845726247039 0 -0.41010881395531668 -0.1024319361099936 0 -0.43072211009508332 -0.1045076397518496 0 -0.41010881395531668 -0.1024319361099936 0 -0.43072211009508332 -0.1045076397518496 0 -0.42659334935872201 -0.091432777853466346 0 -0.43072211009508332 -0.1045076397518496 0 -0.42659334935872201 -0.091432777853466346 0 -0.45106223290581582 -0.1004825633379022 0 -0.43072211009508332 -0.1045076397518496 0 -0.43423765176410861 -0.1112024598374389 0 -0.44289535184898599 -0.1100476441098264 0 -0.41943526073755072 -0.11144845726247039 0 -0.43072211009508332 -0.1045076397518496 0 -0.43423765176410861 -0.1112024598374389 0 -0.41943526073755072 -0.11144845726247039 0 -0.43423765176410861 -0.1112024598374389 0 -0.42972542736049052 -0.12209194192250129 0 -0.43423765176410861 -0.1112024598374389 0 -0.42972542736049052 -0.12209194192250129 0 -0.43423765176410861 -0.1112024598374389 0 -0.42972542736049052 -0.12209194192250129 0 -0.44289535184898599 -0.1100476441098264 0 -0.4021244658116282 -0.082382992369030503 0 -0.4078901384727478 -0.066235850348772121 0 -0.41747372218007728 -0.07842194593164091 0 -0.4078901384727478 -0.066235850348772121 0 -0.41747372218007728 -0.07842194593164091 0 -0.43430735823629502 -0.07014879670897918 0 -0.41897078377254993 -0.059309610906631637 0 -0.4078901384727478 -0.066235850348772121 0 -0.43430735823629502 -0.07014879670897918 0 -0.4078901384727478 -0.066235850348772121 0 -0.43430735823629502 -0.07014879670897918 0 -0.4021244658116282 -0.082382992369030503 0 -0.41010881395531668 -0.1024319361099936 0 -0.42659334935872201 -0.091432777853466346 0 -0.4021244658116282 -0.082382992369030503 0 -0.42659334935872201 -0.091432777853466346 0 -0.4021244658116282 -0.082382992369030503 0 -0.41747372218007728 -0.07842194593164091 0 -0.42659334935872201 -0.091432777853466346 0 -0.42659334935872201 -0.091432777853466346 0 -0.43430735823629502 -0.07014879670897918 0 -0.4429818878666627 -0.084633637745809412 0 -0.41747372218007728 -0.07842194593164091 0 -0.42659334935872201 -0.091432777853466346 0 -0.43430735823629502 -0.07014879670897918 0 -0.43430735823629502 -0.07014879670897918 0 -0.46072457799984229 -0.074061743069186239 0 -0.45193700918522511 -0.055773624749425037 0 -0.43430735823629502 -0.07014879670897918 0 -0.46072457799984229 -0.074061743069186239 0 -0.43430735823629502 -0.07014879670897918 0 -0.4429818878666627 -0.084633637745809412 0 -0.46072457799984229 -0.074061743069186239 0 -0.4429818878666627 -0.084633637745809412 0 -0.46072457799984229 -0.074061743069186239 0 -0.45106223290581582 -0.1004825633379022 0 -0.42659334935872201 -0.091432777853466346 0 -0.4429818878666627 -0.084633637745809412 0 -0.45106223290581582 -0.1004825633379022 0 -0.46072457799984229 -0.074061743069186239 0 -0.45106223290581582 -0.1004825633379022 0 -0.47830938957485553 -0.088225786106408743 0 -0.46072457799984229 -0.074061743069186239 0 -0.46506920436419169 -0.058496242629552983 0 -0.45193700918522511 -0.055773624749425037 0 -0.42972542736049052 -0.12209194192250129 0 -0.44289535184898599 -0.1100476441098264 0 -0.4582582759347123 -0.124990266603451 0 -0.42972542736049052 -0.12209194192250129 0 -0.4582582759347123 -0.124990266603451 0 -0.44289535184898599 -0.1100476441098264 0 -0.4582582759347123 -0.124990266603451 0 -0.44289535184898599 -0.1100476441098264 0 -0.45545567839026102 -0.11250285962473951 0 -0.4582582759347123 -0.124990266603451 0 -0.42659334935872201 -0.091432777853466346 0 -0.45106223290581582 -0.1004825633379022 0 -0.43072211009508332 -0.1045076397518496 0 -0.44289535184898599 -0.1100476441098264 0 -0.45106223290581582 -0.1004825633379022 0 -0.44289535184898599 -0.1100476441098264 0 -0.45106223290581582 -0.1004825633379022 0 -0.45545567839026102 -0.11250285962473951 0 -0.45106223290581582 -0.1004825633379022 0 -0.47553111645290952 -0.109532348822338 0 -0.47830938957485553 -0.088225786106408743 0 -0.45106223290581582 -0.1004825633379022 0 -0.45545567839026102 -0.11250285962473951 0 -0.47553111645290952 -0.109532348822338 0 -0.45106223290581582 -0.1004825633379022 0 -0.47553111645290952 -0.109532348822338 0 -0.45545567839026102 -0.11250285962473951 0 -0.4582582759347123 -0.124990266603451 0 -0.47553111645290952 -0.109532348822338 0 -0.47912913796735901 -0.12711029799058871 0 -0.4582582759347123 -0.124990266603451 0 -0.47553111645290952 -0.109532348822338 0 -0.47553111645290952 -0.109532348822338 0 -0.5 -0.1005466471595069 0 -0.47830938957485553 -0.088225786106408743 0 -0.47553111645290952 -0.109532348822338 0 -0.5 -0.1005466471595069 0 -0.50000000000000278 -0.11858213430677481 0 -0.47912913796735901 -0.12711029799058871 0 -0.47553111645290952 -0.109532348822338 0 -0.50000000000000278 -0.11858213430677481 0 -0.47912913796735901 -0.12711029799058871 0 -0.50000000000000544 -0.12923032937772749 0 -0.50000000000000278 -0.11858213430677481 0 -0.47553111645290952 -0.109532348822338 0 -0.50000000000000278 -0.11858213430677481 0 -0.46072457799984229 -0.074061743069186239 0 -0.47830938957485553 -0.088225786106408743 0 -0.48253841009056581 -0.062220254237280108 0 -0.46072457799984229 -0.074061743069186239 0 -0.48253841009056581 -0.062220254237280108 0 -0.46506920436419169 -0.058496242629552983 0 -0.5 -0.1005466471595069 0 -0.47830938957485553 -0.088225786106408743 0 -0.49999999999999878 -0.082511160012239002 0 -0.49999999999999878 -0.082511160012239002 0 -0.5 -0.056030325674504063 0 -0.48253841009056581 -0.062220254237280108 0 -0.49999999999999878 -0.082511160012239002 0 -0.48253841009056581 -0.062220254237280108 0 -0.47830938957485553 -0.088225786106408743 0 -0.49999999999999878 -0.082511160012239002 0 -0.48253841009056581 -0.062220254237280108 0 -0.5 -0.056030325674504063 0 -0.4870708298631426 -0.047281808246370141 0 -0.48253841009056581 -0.062220254237280108 0 -0.5 -0.056030325674504063 0 -0.4870708298631426 -0.047281808246370141 0 -0.5 -0.029549491336769099 0 -0.4870708298631426 -0.047281808246370141 0 -0.48280626707294722 -0.031797354183133918 0 -0.5 -0.029549491336769099 0 -0.4870708298631426 -0.047281808246370141 0 -0.48280626707294722 -0.031797354183133918 0 -0.47335700373622491 -0.039823191043506623 0 -0.48280626707294722 -0.031797354183133918 0 -0.47335700373622491 -0.039823191043506623 0 -0.47246649845333311 -0.028517430831337259 0 -0.47335700373622491 -0.039823191043506623 0 -0.46087683860426898 -0.02924360124554623 0 -0.47246649845333311 -0.028517430831337259 0 -0.48253841009056581 -0.062220254237280108 0 -0.4650768201811335 -0.041929348462320541 0 -0.47335700373622491 -0.039823191043506623 0 -0.48253841009056581 -0.062220254237280108 0 -0.4650768201811335 -0.041929348462320541 0 -0.48253841009056581 -0.062220254237280108 0 -0.46506920436419169 -0.058496242629552983 0 -0.4650768201811335 -0.041929348462320541 0 -0.4870708298631426 -0.047281808246370141 0 -0.47335700373622491 -0.039823191043506623 0 -0.48253841009056581 -0.062220254237280108 0 -0.46506920436419169 -0.058496242629552983 0 -0.4650768201811335 -0.041929348462320541 0 -0.45193700918522511 -0.055773624749425037 0 -0.4650768201811335 -0.041929348462320541 0 -0.44728088154664231 -0.03972147040312058 0 -0.45193700918522511 -0.055773624749425037 0 -0.47335700373622491 -0.039823191043506623 0 -0.4650768201811335 -0.041929348462320541 0 -0.44728088154664231 -0.03972147040312058 0 -0.47335700373622491 -0.039823191043506623 0 -0.44728088154664231 -0.03972147040312058 0 -0.46087683860426898 -0.02924360124554623 0 -0.47335700373622491 -0.039823191043506623 0 -0.44728088154664231 -0.03972147040312058 0 -0.44728088154664231 -0.03972147040312058 0 -0.44818922285712248 -0.02672562807622933 0 -0.46087683860426898 -0.02924360124554623 0 -0.43474015841955438 -0.052914650506178211 0 -0.43430735823629502 -0.07014879670897918 0 -0.45193700918522511 -0.055773624749425037 0 -0.43474015841955438 -0.052914650506178211 0 -0.44728088154664231 -0.03972147040312058 0 -0.45193700918522511 -0.055773624749425037 0 -0.43600024872560589 -0.0082315699157260707 0 -0.446620173644454 -0.0078288486272926339 0 -0.44548490936833879 0.0079836322890614493 0 -0.446620173644454 -0.0078288486272926339 0 -0.45566486171557707 -0.0043858723528074116 0 -0.44548490936833879 0.0079836322890614493 0 -0.446620173644454 -0.0078288486272926339 0 -0.44217614618389989 -0.017779217654669409 0 -0.45581378025991631 -0.016836566386607771 0 -0.446620173644454 -0.0078288486272926339 0 -0.45581378025991631 -0.016836566386607771 0 -0.45566486171557707 -0.0043858723528074116 0 -0.43600024872560589 -0.0082315699157260707 0 -0.446620173644454 -0.0078288486272926339 0 -0.44217614618389989 -0.017779217654669409 0 -0.43236684285329841 -0.026839864835696201 0 -0.44217614618389989 -0.017779217654669409 0 -0.44818922285712248 -0.02672562807622933 0 -0.43236684285329841 -0.026839864835696201 0 -0.44728088154664231 -0.03972147040312058 0 -0.44818922285712248 -0.02672562807622933 0 -0.44217614618389989 -0.017779217654669409 0 -0.44818922285712248 -0.02672562807622933 0 -0.45581378025991631 -0.016836566386607771 0 -0.44818922285712248 -0.02672562807622933 0 -0.45581378025991631 -0.016836566386607771 0 -0.46087683860426898 -0.02924360124554623 0 -0.46087683860426898 -0.02924360124554623 0 -0.46718123516148419 -0.021142545271922931 0 -0.47246649845333311 -0.028517430831337259 0 -0.45581378025991631 -0.016836566386607771 0 -0.46718123516148419 -0.021142545271922931 0 -0.46921481052375552 -0.0098669412378615245 0 -0.45581378025991631 -0.016836566386607771 0 -0.46087683860426898 -0.02924360124554623 0 -0.46718123516148419 -0.021142545271922931 0 -0.45581378025991631 -0.016836566386607771 0 -0.45566486171557707 -0.0043858723528074116 0 -0.46921481052375552 -0.0098669412378615245 0 -0.45566486171557707 -0.0043858723528074116 0 -0.46921481052375552 -0.0098669412378615245 0 -0.46656040287201989 0.0035106926353418591 0 -0.46921481052375552 -0.0098669412378615245 0 -0.47980207908218347 0.0040643189180074634 0 -0.46656040287201989 0.0035106926353418591 0 -0.46921481052375552 -0.0098669412378615245 0 -0.48314434840528753 -0.010402919780856831 0 -0.47753424796614752 -0.02124818665826184 0 -0.46921481052375552 -0.0098669412378615245 0 -0.48314434840528753 -0.010402919780856831 0 -0.47980207908218347 0.0040643189180074634 0 -0.46718123516148419 -0.021142545271922931 0 -0.47246649845333311 -0.028517430831337259 0 -0.47753424796614752 -0.02124818665826184 0 -0.46718123516148419 -0.021142545271922931 0 -0.46921481052375552 -0.0098669412378615245 0 -0.47753424796614752 -0.02124818665826184 0 -0.48314434840528753 -0.010402919780856831 0 -0.47753424796614752 -0.02124818665826184 0 -0.48883229605044037 -0.019979553544617681 0 -0.48280626707294722 -0.031797354183133918 0 -0.47753424796614752 -0.02124818665826184 0 -0.48883229605044037 -0.019979553544617681 0 -0.48280626707294722 -0.031797354183133918 0 -0.47246649845333311 -0.028517430831337259 0 -0.47753424796614752 -0.02124818665826184 0 -0.48280626707294722 -0.031797354183133918 0 -0.5 -0.029549491336769099 0 -0.48883229605044037 -0.019979553544617681 0 -0.5 -0.029549491336769099 0 -0.48883229605044037 -0.019979553544617681 0 -0.5 -0.0030686569990343582 0 -0.48314434840528753 -0.010402919780856831 0 -0.5 -0.0030686569990343582 0 -0.47980207908218347 0.0040643189180074634 0 -0.48314434840528753 -0.010402919780856831 0 -0.48883229605044037 -0.019979553544617681 0 -0.5 -0.0030686569990343582 0 -0.5 -0.0030686569990343582 0 -0.48691945357611588 0.01534769880106703 0 -0.47980207908218347 0.0040643189180074634 0 -0.5 -0.0030686569990343582 0 -0.48691945357611588 0.01534769880106703 0 -0.49999999999999711 0.02341217733870055 0 -0.49999999999999711 0.02341217733870055 0 -0.48266688699927141 0.028454270451353611 0 -0.49999999999999711 0.02341217733870055 0 -0.48266688699927141 0.028454270451353611 0 -0.50000000000000033 0.037997062606891181 0 -0.48691945357611588 0.01534769880106703 0 -0.49999999999999711 0.02341217733870055 0 -0.48266688699927141 0.028454270451353611 0 -0.48266688699927141 0.028454270451353611 0 -0.46407589818380601 0.018218951370206019 0 -0.48266688699927141 0.028454270451353611 0 -0.46482037131211312 0.033645709163338727 0 -0.46407589818380601 0.018218951370206019 0 -0.48266688699927141 0.028454270451353611 0 -0.46482037131211312 0.033645709163338727 0 -0.48691945357611588 0.01534769880106703 0 -0.48266688699927141 0.028454270451353611 0 -0.46407589818380601 0.018218951370206019 0 -0.48691945357611588 0.01534769880106703 0 -0.47980207908218347 0.0040643189180074634 0 -0.46407589818380601 0.018218951370206019 0 -0.47980207908218347 0.0040643189180074634 0 -0.46656040287201989 0.0035106926353418591 0 -0.46407589818380601 0.018218951370206019 0 -0.48819502054006042 0.047232823823398072 0 -0.47855077189802209 0.058876356926773767 0 -0.5 0.065192081007342473 0 -0.48819502054006042 0.047232823823398072 0 -0.50000000000000033 0.037997062606891181 0 -0.5 0.065192081007342473 0 -0.48266688699927141 0.028454270451353611 0 -0.48819502054006042 0.047232823823398072 0 -0.50000000000000033 0.037997062606891181 0 -0.48266688699927141 0.028454270451353611 0 -0.50000000000000033 0.037997062606891181 0 -0.48266688699927141 0.028454270451353611 0 -0.48819502054006042 0.047232823823398072 0 -0.47671316448678891 0.037598312581519203 0 -0.48266688699927141 0.028454270451353611 0 -0.47671316448678891 0.037598312581519203 0 -0.46482037131211312 0.033645709163338727 0 -0.47671316448678891 0.037598312581519203 0 -0.47855077189802209 0.058876356926773767 0 -0.4576077313702861 0.056363845842604482 0 -0.48819502054006042 0.047232823823398072 0 -0.47671316448678891 0.037598312581519203 0 -0.47855077189802209 0.058876356926773767 0 -0.47671316448678891 0.037598312581519203 0 -0.4576077313702861 0.056363845842604482 0 -0.47855077189802209 0.058876356926773767 0 -0.4576077313702861 0.056363845842604482 0 -0.4669169122716389 0.067665563740368043 0 -0.46482037131211312 0.033645709163338727 0 -0.44697385562495462 0.038837147875323157 0 -0.45683923533563298 0.029356230624760751 0 -0.45816469611141131 0.04403665667344623 0 -0.46482037131211312 0.033645709163338727 0 -0.44697385562495462 0.038837147875323157 0 -0.46482037131211312 0.033645709163338727 0 -0.44697385562495462 0.038837147875323157 0 -0.47671316448678891 0.037598312581519203 0 -0.4576077313702861 0.056363845842604482 0 -0.45816469611141131 0.04403665667344623 0 -0.47671316448678891 0.037598312581519203 0 -0.45816469611141131 0.04403665667344623 0 -0.46482037131211312 0.033645709163338727 0 -0.44697385562495462 0.038837147875323157 0 -0.44273807693937012 0.056983263489506927 0 -0.43064524893181028 0.043587036446595048 0 -0.44697385562495462 0.038837147875323157 0 -0.43064524893181028 0.043587036446595048 0 -0.45816469611141131 0.04403665667344623 0 -0.44697385562495462 0.038837147875323157 0 -0.44273807693937012 0.056983263489506927 0 -0.44697385562495462 0.038837147875323157 0 -0.440123847860735 0.029310743425343112 0 -0.43064524893181028 0.043587036446595048 0 -0.44697385562495462 0.038837147875323157 0 -0.4484107165592533 0.03268162215722982 0 -0.45683923533563298 0.029356230624760751 0 -0.44697385562495462 0.038837147875323157 0 -0.4484107165592533 0.03268162215722982 0 -0.44697385562495462 0.038837147875323157 0 -0.4484107165592533 0.03268162215722982 0 -0.440123847860735 0.029310743425343112 0 -0.44697385562495462 0.038837147875323157 0 -0.44273807693937012 0.056983263489506927 0 -0.4576077313702861 0.056363845842604482 0 -0.45816469611141131 0.04403665667344623 0 -0.44273807693937012 0.056983263489506927 0 -0.46656040287201989 0.0035106926353418591 0 -0.46407589818380601 0.018218951370206019 0 -0.44548490936833879 0.0079836322890614493 0 -0.46407589818380601 0.018218951370206019 0 -0.45072297797252192 0.020093205462690701 0 -0.44548490936833879 0.0079836322890614493 0 -0.45566486171557707 -0.0043858723528074116 0 -0.46656040287201989 0.0035106926353418591 0 -0.44548490936833879 0.0079836322890614493 0 -0.46407589818380601 0.018218951370206019 0 -0.44548490936833879 0.0079836322890614493 0 -0.46482037131211312 0.033645709163338727 0 -0.46407589818380601 0.018218951370206019 0 -0.45683923533563298 0.029356230624760751 0 -0.46407589818380601 0.018218951370206019 0 -0.45683923533563298 0.029356230624760751 0 -0.45072297797252192 0.020093205462690701 0 -0.45072297797252192 0.020093205462690701 0 -0.44081921797561169 0.019340064154977969 0 -0.44548490936833879 0.0079836322890614493 0 -0.45072297797252192 0.020093205462690701 0 -0.44738319914075098 0.026156373165000468 0 -0.44081921797561169 0.019340064154977969 0 -0.4484107165592533 0.03268162215722982 0 -0.45683923533563298 0.029356230624760751 0 -0.44738319914075098 0.026156373165000468 0 -0.45683923533563298 0.029356230624760751 0 -0.45072297797252192 0.020093205462690701 0 -0.44738319914075098 0.026156373165000468 0 -0.44738319914075098 0.026156373165000468 0 -0.440123847860735 0.029310743425343112 0 -0.44081921797561169 0.019340064154977969 0 -0.4484107165592533 0.03268162215722982 0 -0.44738319914075098 0.026156373165000468 0 -0.440123847860735 0.029310743425343112 0 -0.44081921797561169 0.019340064154977969 0 -0.44548490936833879 0.0079836322890614493 0 -0.43517411674259548 0.01023086267386035 0 -0.42435158921531019 -0.011884154359624781 0 -0.42749841907356012 0.015851441043485109 0 -0.42689392055287168 -0.002251686792083131 0 -0.43517411674259548 0.01023086267386035 0 -0.42749841907356012 0.015851441043485109 0 -0.42689392055287168 -0.002251686792083131 0 -0.44548490936833879 0.0079836322890614493 0 -0.42435158921531019 -0.011884154359624781 0 -0.42689392055287168 -0.002251686792083131 0 -0.42749841907356012 0.015851441043485109 0 -0.42689392055287168 -0.002251686792083131 0 -0.44548490936833879 0.0079836322890614493 0 -0.43517411674259548 0.01023086267386035 0 -0.42435158921531019 -0.011884154359624781 0 -0.41982817475001177 0.002675378439020513 0 -0.42749841907356012 0.015851441043485109 0 -0.44081921797561169 0.019340064154977969 0 -0.43517411674259548 0.01023086267386035 0 -0.42749841907356012 0.015851441043485109 0 -0.41982817475001177 0.002675378439020513 0 -0.42019963129500149 0.01301502054343623 0 -0.42749841907356012 0.015851441043485109 0 -0.42019963129500149 0.01301502054343623 0 -0.41397316514593768 0.0120032702452889 0 -0.41949876621049642 0.021529992445950399 0 -0.41982817475001177 0.002675378439020513 0 -0.42019963129500149 0.01301502054343623 0 -0.41397316514593768 0.0120032702452889 0 -0.41397316514593768 0.0120032702452889 0 -0.40595219377090941 0.0044259991179628659 0 -0.40582173625185741 0.018160090344261359 0 -0.41982817475001177 0.002675378439020513 0 -0.41397316514593768 0.0120032702452889 0 -0.40595219377090941 0.0044259991179628659 0 -0.41949876621049642 0.021529992445950399 0 -0.40606417801446698 0.031923176902235319 0 -0.40582173625185741 0.018160090344261359 0 -0.41397316514593768 0.0120032702452889 0 -0.41949876621049642 0.021529992445950399 0 -0.40582173625185741 0.018160090344261359 0 -0.440123847860735 0.029310743425343112 0 -0.42749841907356012 0.015851441043485109 0 -0.43064524893181028 0.043587036446595048 0 -0.41949876621049642 0.021529992445950399 0 -0.42749841907356012 0.015851441043485109 0 -0.43064524893181028 0.043587036446595048 0 -0.42749841907356012 0.015851441043485109 0 -0.43064524893181028 0.043587036446595048 0 -0.42019963129500149 0.01301502054343623 0 -0.41949876621049642 0.021529992445950399 0 -0.42749841907356012 0.015851441043485109 0 -0.440123847860735 0.029310743425343112 0 -0.44081921797561169 0.019340064154977969 0 -0.42749841907356012 0.015851441043485109 0 -0.44273807693937012 0.056983263489506927 0 -0.43064524893181028 0.043587036446595048 0 -0.43366738024100299 0.070223561146865232 0 -0.43064524893181028 0.043587036446595048 0 -0.41103364957194172 0.04929192685240575 0 -0.43366738024100299 0.070223561146865232 0 -0.43064524893181028 0.043587036446595048 0 -0.43366738024100299 0.070223561146865232 0 -0.41103364957194172 0.04929192685240575 0 -0.4060054813581721 0.065782151629673213 0 -0.43366738024100299 0.070223561146865232 0 -0.41103364957194172 0.04929192685240575 0 -0.4060054813581721 0.065782151629673213 0 -0.41949876621049642 0.021529992445950399 0 -0.41103364957194172 0.04929192685240575 0 -0.40606417801446698 0.031923176902235319 0 -0.41949876621049642 0.021529992445950399 0 -0.41103364957194172 0.04929192685240575 0 -0.43064524893181028 0.043587036446595048 0 -0.41103364957194172 0.04929192685240575 0 -0.41949876621049642 0.021529992445950399 0 -0.43064524893181028 0.043587036446595048 0 -0.41103364957194172 0.04929192685240575 0 -0.40606417801446698 0.031923176902235319 0 -0.39885709170733102 0.042305674601676141 0 -0.39472514025265182 0.027652773830715321 0 -0.39885709170733102 0.042305674601676141 0 -0.3918760593779092 0.054864748858949867 0 -0.38512336896263621 0.038199287758959047 0 -0.41103364957194172 0.04929192685240575 0 -0.40606417801446698 0.031923176902235319 0 -0.39885709170733102 0.042305674601676141 0 -0.39885709170733102 0.042305674601676141 0 -0.38512336896263621 0.038199287758959047 0 -0.39472514025265182 0.027652773830715321 0 -0.41103364957194172 0.04929192685240575 0 -0.39885709170733102 0.042305674601676141 0 -0.3918760593779092 0.054864748858949867 0 -0.41103364957194172 0.04929192685240575 0 -0.3918760593779092 0.054864748858949867 0 -0.4060054813581721 0.065782151629673213 0 -0.3918760593779092 0.054864748858949867 0 -0.38936197527102512 0.063109861247586482 0 -0.4060054813581721 0.065782151629673213 0 -0.41103364957194172 0.04929192685240575 0 -0.3918760593779092 0.054864748858949867 0 -0.3918760593779092 0.054864748858949867 0 -0.38936197527102512 0.063109861247586482 0 -0.37271846918387808 0.060437570865498759 0 -0.38936197527102512 0.063109861247586482 0 -0.37271846918387808 0.060437570865498759 0 -0.3918760593779092 0.054864748858949867 0 -0.37271846918387808 0.060437570865498759 0 -0.3918760593779092 0.054864748858949867 0 -0.37453737129068299 0.046511671593561427 0 -0.37271846918387808 0.060437570865498759 0 -0.3918760593779092 0.054864748858949867 0 -0.38512336896263621 0.038199287758959047 0 -0.37453737129068299 0.046511671593561427 0 -0.38512336896263621 0.038199287758959047 0 -0.37731685083307881 0.020558362116467711 0 -0.37202796604525989 0.035598927357989828 0 -0.38512336896263621 0.038199287758959047 0 -0.37202796604525989 0.035598927357989828 0 -0.37453737129068299 0.046511671593561427 0 -0.37731685083307881 0.020558362116467711 0 -0.39244749411458563 0.01025852861956033 0 -0.39472514025265182 0.027652773830715321 0 -0.38512336896263621 0.038199287758959047 0 -0.37731685083307881 0.020558362116467711 0 -0.39472514025265182 0.027652773830715321 0 -0.39606373500968939 -0.0060366507209298152 0 -0.38026169374925373 0.001780029687210153 0 -0.39244749411458563 0.01025852861956033 0 -0.37731685083307881 0.020558362116467711 0 -0.38026169374925373 0.001780029687210153 0 -0.36971374226368309 0.0065556750077519262 0 -0.37731685083307881 0.020558362116467711 0 -0.38026169374925373 0.001780029687210153 0 -0.39244749411458563 0.01025852861956033 0 -0.39606373500968939 -0.0060366507209298152 0 -0.39244749411458563 0.01025852861956033 0 -0.40595219377090941 0.0044259991179628659 0 -0.39244749411458563 0.01025852861956033 0 -0.40595219377090941 0.0044259991179628659 0 -0.40582173625185741 0.018160090344261359 0 -0.39244749411458563 0.01025852861956033 0 -0.40582173625185741 0.018160090344261359 0 -0.39472514025265182 0.027652773830715321 0 -0.40606417801446698 0.031923176902235319 0 -0.40582173625185741 0.018160090344261359 0 -0.39472514025265182 0.027652773830715321 0 -0.3958094537157037 0.099220728167139824 0 -0.38472844556672708 0.1111789648906908 0 -0.39982532136584492 0.086050412972598078 0 -0.38472844556672708 0.1111789648906908 0 -0.39982532136584492 0.086050412972598078 0 -0.3958094537157037 0.099220728167139824 0 -0.39915282978602912 0.1137787912805769 0 -0.41690289233821859 0.096344515534075109 0 -0.3958094537157037 0.099220728167139824 0 -0.39982532136584492 0.086050412972598078 0 -0.41690289233821859 0.096344515534075109 0 -0.38472844556672708 0.1111789648906908 0 -0.39760115678321362 0.086675566277883254 0 -0.39982532136584492 0.086050412972598078 0 -0.3958094537157037 0.099220728167139824 0 -0.39915282978602912 0.1137787912805769 0 -0.38472844556672708 0.1111789648906908 0 -0.39915282978602912 0.1137787912805769 0 -0.39496934450890642 0.123387789699197 0 -0.40853745719559981 0.12611115011919941 0 -0.39915282978602912 0.1137787912805769 0 -0.39496934450890642 0.123387789699197 0 -0.38472844556672708 0.1111789648906908 0 -0.38472844556672708 0.1111789648906908 0 -0.36963156976761108 0.13630751680878439 0 -0.39496934450890642 0.123387789699197 0 -0.38472844556672708 0.1111789648906908 0 -0.38533996203186083 0.12947754562424801 0 -0.38472844556672708 0.1111789648906908 0 -0.37879289140473549 0.091995500054634236 0 -0.36694491698501192 0.104611890674563 0 -0.38472844556672708 0.1111789648906908 0 -0.37879289140473549 0.091995500054634236 0 -0.39760115678321362 0.086675566277883254 0 -0.37861309559226031 0.07546096731806104 0 -0.39428140607410311 0.075415791889160325 0 -0.39760115678321362 0.086675566277883254 0 -0.37879289140473549 0.091995500054634236 0 -0.37861309559226031 0.07546096731806104 0 -0.39760115678321362 0.086675566277883254 0 -0.37861309559226031 0.07546096731806104 0 -0.39760115678321362 0.086675566277883254 0 -0.37861309559226031 0.07546096731806104 0 -0.38936197527102512 0.063109861247586482 0 -0.37271846918387808 0.060437570865498759 0 -0.37861309559226031 0.07546096731806104 0 -0.38936197527102512 0.063109861247586482 0 -0.39428140607410311 0.075415791889160325 0 -0.39982532136584492 0.086050412972598078 0 -0.41005701134609118 0.069019899090150508 0 -0.4060054813581721 0.065782151629673213 0 -0.39982532136584492 0.086050412972598078 0 -0.41005701134609118 0.069019899090150508 0 -0.4060054813581721 0.065782151629673213 0 -0.39428140607410311 0.075415791889160325 0 -0.39982532136584492 0.086050412972598078 0 -0.38936197527102512 0.063109861247586482 0 -0.4060054813581721 0.065782151629673213 0 -0.4060054813581721 0.065782151629673213 0 -0.39982532136584492 0.086050412972598078 0 -0.38936197527102512 0.063109861247586482 0 -0.4060054813581721 0.065782151629673213 0 -0.39428140607410311 0.075415791889160325 0 -0.3958094537157037 0.099220728167139824 0 -0.39982532136584492 0.086050412972598078 0 -0.39428140607410311 0.075415791889160325 0 -0.39760115678321362 0.086675566277883254 0 -0.39982532136584492 0.086050412972598078 0 -0.41101768480260092 0.081271776912550733 0 -0.4214095048415899 0.077126688906077809 0 -0.41690289233821859 0.096344515534075109 0 -0.39982532136584492 0.086050412972598078 0 -0.41101768480260092 0.081271776912550733 0 -0.41690289233821859 0.096344515534075109 0 -0.39982532136584492 0.086050412972598078 0 -0.41101768480260092 0.081271776912550733 0 -0.41005701134609118 0.069019899090150508 0 -0.4060054813581721 0.065782151629673213 0 -0.43366738024100299 0.070223561146865232 0 -0.4060054813581721 0.065782151629673213 0 -0.41005701134609118 0.069019899090150508 0 -0.43366738024100299 0.070223561146865232 0 -0.41005701134609118 0.069019899090150508 0 -0.4214095048415899 0.077126688906077809 0 -0.43366738024100299 0.070223561146865232 0 -0.41101768480260092 0.081271776912550733 0 -0.41005701134609118 0.069019899090150508 0 -0.4214095048415899 0.077126688906077809 0 -0.43366738024100299 0.070223561146865232 0 -0.43465295489041039 0.078910239787575401 0 -0.43850229825378401 0.075129379103690302 0 -0.4214095048415899 0.077126688906077809 0 -0.43366738024100299 0.070223561146865232 0 -0.43465295489041039 0.078910239787575401 0 -0.43366738024100299 0.070223561146865232 0 -0.43465295489041039 0.078910239787575401 0 -0.43465295489041039 0.078910239787575401 0 -0.43850229825378401 0.075129379103690302 0 -0.4214095048415899 0.077126688906077809 0 -0.43465295489041039 0.078910239787575401 0 -0.41690289233821859 0.096344515534075109 0 -0.43465295489041039 0.078910239787575401 0 -0.43562332646504398 0.087462921247016184 0 -0.42800374862616619 0.095518955947958936 0 -0.43465295489041039 0.078910239787575401 0 -0.42800374862616619 0.095518955947958936 0 -0.41690289233821859 0.096344515534075109 0 -0.43465295489041039 0.078910239787575401 0 -0.41690289233821859 0.096344515534075109 0 -0.43465295489041039 0.078910239787575401 0 -0.43562332646504398 0.087462921247016184 0 -0.43562332646504398 0.087462921247016184 0 -0.43850229825378401 0.075129379103690302 0 -0.43465295489041039 0.078910239787575401 0 -0.43562332646504398 0.087462921247016184 0 -0.43850229825378401 0.075129379103690302 0 -0.43562332646504398 0.087462921247016184 0 -0.43848596561871628 0.112693710621662 0 -0.43562332646504398 0.087462921247016184 0 -0.43044646393524172 0.10964064887575339 0 -0.43848596561871628 0.112693710621662 0 -0.43562332646504398 0.087462921247016184 0 -0.43044646393524172 0.10964064887575339 0 -0.43562332646504398 0.087462921247016184 0 -0.42800374862616619 0.095518955947958936 0 -0.43044646393524172 0.10964064887575339 0 -0.4223931055019145 0.1052364542953748 0 -0.42800374862616619 0.095518955947958936 0 -0.43044646393524172 0.10964064887575339 0 -0.4223931055019145 0.1052364542953748 0 -0.42800374862616619 0.095518955947958936 0 -0.41690289233821859 0.096344515534075109 0 -0.39915282978602912 0.1137787912805769 0 -0.41690289233821859 0.096344515534075109 0 -0.41483729532309449 0.1119944268608781 0 -0.39915282978602912 0.1137787912805769 0 -0.41690289233821859 0.096344515534075109 0 -0.4223931055019145 0.1052364542953748 0 -0.41690289233821859 0.096344515534075109 0 -0.41483729532309449 0.1119944268608781 0 -0.41769405029543633 0.1217396982962764 0 -0.42212810329222528 0.11608592096655471 0 -0.42526960140543962 0.1318183765044906 0 -0.39915282978602912 0.1137787912805769 0 -0.41483729532309449 0.1119944268608781 0 -0.40853745719559981 0.12611115011919941 0 -0.41483729532309449 0.1119944268608781 0 -0.41769405029543633 0.1217396982962764 0 -0.40853745719559981 0.12611115011919941 0 -0.41483729532309449 0.1119944268608781 0 -0.41769405029543633 0.1217396982962764 0 -0.42212810329222528 0.11608592096655471 0 -0.4223931055019145 0.1052364542953748 0 -0.41483729532309449 0.1119944268608781 0 -0.42212810329222528 0.11608592096655471 0 -0.43044646393524172 0.10964064887575339 0 -0.43848596561871628 0.112693710621662 0 -0.42526960140543962 0.1318183765044906 0 -0.43044646393524172 0.10964064887575339 0 -0.42526960140543962 0.1318183765044906 0 -0.42212810329222528 0.11608592096655471 0 -0.43044646393524172 0.10964064887575339 0 -0.42526960140543962 0.1318183765044906 0 -0.4223931055019145 0.1052364542953748 0 -0.42212810329222528 0.11608592096655471 0 -0.43044646393524172 0.10964064887575339 0 -0.43848596561871628 0.112693710621662 0 -0.45573932337328571 0.1156276771232907 0 -0.44481514315821807 0.13119658443783511 0 -0.43848596561871628 0.112693710621662 0 -0.45063950250526302 0.1003283822229367 0 -0.45573932337328571 0.1156276771232907 0 -0.43848596561871628 0.112693710621662 0 -0.44338235890847022 0.096460903731943118 0 -0.45063950250526302 0.1003283822229367 0 -0.43562332646504398 0.087462921247016184 0 -0.43848596561871628 0.112693710621662 0 -0.44338235890847022 0.096460903731943118 0 -0.44338235890847022 0.096460903731943118 0 -0.45063950250526302 0.1003283822229367 0 -0.44878064104485738 0.085358600836157594 0 -0.45063950250526302 0.1003283822229367 0 -0.46039716589190149 0.10385039829316731 0 -0.45573932337328571 0.1156276771232907 0 -0.46039716589190149 0.10385039829316731 0 -0.4743737212408442 0.1141465540858058 0 -0.46924523101181193 0.094342132129464643 0 -0.45063950250526302 0.1003283822229367 0 -0.46039716589190149 0.10385039829316731 0 -0.45772500496348423 0.091517980778881652 0 -0.46039716589190149 0.10385039829316731 0 -0.45772500496348423 0.091517980778881652 0 -0.46924523101181193 0.094342132129464643 0 -0.45573932337328571 0.1156276771232907 0 -0.4743737212408442 0.1141465540858058 0 -0.46644945144912198 0.131514252450942 0 -0.46039716589190149 0.10385039829316731 0 -0.45573932337328571 0.1156276771232907 0 -0.4743737212408442 0.1141465540858058 0 -0.43850229825378401 0.075129379103690302 0 -0.45122117485175739 0.076837251888929148 0 -0.45572242412702818 0.069121787561551976 0 -0.4576077313702861 0.056363845842604482 0 -0.44273807693937012 0.056983263489506927 0 -0.43850229825378401 0.075129379103690302 0 -0.44273807693937012 0.056983263489506927 0 -0.43366738024100299 0.070223561146865232 0 -0.43850229825378401 0.075129379103690302 0 -0.44273807693937012 0.056983263489506927 0 -0.43850229825378401 0.075129379103690302 0 -0.4576077313702861 0.056363845842604482 0 -0.43850229825378401 0.075129379103690302 0 -0.4576077313702861 0.056363845842604482 0 -0.43850229825378401 0.075129379103690302 0 -0.45572242412702818 0.069121787561551976 0 -0.43850229825378401 0.075129379103690302 0 -0.45122117485175739 0.076837251888929148 0 -0.44878064104485738 0.085358600836157594 0 -0.43562332646504398 0.087462921247016184 0 -0.43850229825378401 0.075129379103690302 0 -0.44878064104485738 0.085358600836157594 0 -0.43562332646504398 0.087462921247016184 0 -0.44338235890847022 0.096460903731943118 0 -0.44878064104485738 0.085358600836157594 0 -0.45063950250526302 0.1003283822229367 0 -0.44878064104485738 0.085358600836157594 0 -0.45772500496348423 0.091517980778881652 0 -0.45772500496348423 0.091517980778881652 0 -0.46122547600601332 0.079877751323303117 0 -0.46924523101181193 0.094342132129464643 0 -0.45122117485175739 0.076837251888929148 0 -0.44878064104485738 0.085358600836157594 0 -0.46122547600601332 0.079877751323303117 0 -0.44878064104485738 0.085358600836157594 0 -0.45772500496348423 0.091517980778881652 0 -0.46122547600601332 0.079877751323303117 0 -0.45122117485175739 0.076837251888929148 0 -0.46122547600601332 0.079877751323303117 0 -0.45572242412702818 0.069121787561551976 0 -0.46122547600601332 0.079877751323303117 0 -0.4669169122716389 0.067665563740368043 0 -0.45572242412702818 0.069121787561551976 0 -0.4576077313702861 0.056363845842604482 0 -0.4669169122716389 0.067665563740368043 0 -0.45572242412702818 0.069121787561551976 0 -0.47855077189802209 0.058876356926773767 0 -0.4669169122716389 0.067665563740368043 0 -0.48008068252201119 0.079416289678921254 0 -0.46122547600601332 0.079877751323303117 0 -0.4669169122716389 0.067665563740368043 0 -0.48008068252201119 0.079416289678921254 0 -0.46122547600601332 0.079877751323303117 0 -0.48008068252201119 0.079416289678921254 0 -0.46924523101181193 0.094342132129464643 0 -0.48008068252201119 0.079416289678921254 0 -0.46924523101181193 0.094342132129464643 0 -0.48473992695493351 0.099974838622046105 0 -0.48008068252201119 0.079416289678921254 0 -0.5 0.092387099407793771 0 -0.48473992695493351 0.099974838622046105 0 -0.48008068252201119 0.079416289678921254 0 -0.5 0.092387099407793771 0 -0.5 0.065192081007342473 0 -0.47855077189802209 0.058876356926773767 0 -0.48008068252201119 0.079416289678921254 0 -0.5 0.065192081007342473 0 -0.4743737212408442 0.1141465540858058 0 -0.46924523101181193 0.094342132129464643 0 -0.48473992695493351 0.099974838622046105 0 -0.5 0.092387099407793771 0 -0.48473992695493351 0.099974838622046105 0 -0.5 0.1195821178082451 0 -0.4743737212408442 0.1141465540858058 0 -0.48473992695493351 0.099974838622046105 0 -0.5 0.1195821178082451 0 -0.4743737212408442 0.1141465540858058 0 -0.5 0.1195821178082451 0 -0.48464820379357398 0.13317740682077911 0 -0.5 0.1195821178082451 0 -0.48464820379357398 0.13317740682077911 0 -0.5 0.1467771362086964 0 -0.48464820379357398 0.13317740682077911 0 -0.48026326007117909 0.1517095005334437 0 -0.46644945144912198 0.131514252450942 0 -0.4743737212408442 0.1141465540858058 0 -0.48464820379357398 0.13317740682077911 0 -0.46644945144912198 0.131514252450942 0 -0.48464820379357398 0.13317740682077911 0 -0.48026326007117909 0.1517095005334437 0 -0.5 0.1467771362086964 0 -0.48026326007117909 0.1517095005334437 0 -0.5 0.1467771362086964 0 -0.49428745335302682 0.16742717965255291 0 -0.5 0.1467771362086964 0 -0.49428745335302682 0.16742717965255291 0 -0.5 0.17397215460914769 0 -0.5 0.17397215460914769 0 -0.48699053218560262 0.17994380529980719 0 -0.5 0.20116717300959891 0 -0.49428745335302682 0.16742717965255291 0 -0.5 0.17397215460914769 0 -0.48699053218560262 0.17994380529980719 0 -0.48699053218560262 0.17994380529980719 0 -0.46524164832624582 0.1638678829727605 0 -0.47542355924873991 0.19328463625497611 0 -0.49428745335302682 0.16742717965255291 0 -0.48699053218560262 0.17994380529980719 0 -0.46524164832624582 0.1638678829727605 0 -0.49428745335302682 0.16742717965255291 0 -0.46524164832624582 0.1638678829727605 0 -0.48026326007117909 0.1517095005334437 0 -0.49428745335302682 0.16742717965255291 0 -0.46524164832624582 0.1638678829727605 0 -0.46524164832624582 0.1638678829727605 0 -0.44703517496275169 0.17528412590164091 0 -0.45671792026364211 0.18864886548837459 0 -0.46524164832624582 0.1638678829727605 0 -0.47542355924873991 0.19328463625497611 0 -0.45671792026364211 0.18864886548837459 0 -0.44703517496275169 0.17528412590164091 0 -0.44486795029510279 0.1961429475512666 0 -0.43442931410308139 0.18549537428240889 0 -0.44703517496275169 0.17528412590164091 0 -0.45671792026364211 0.18864886548837459 0 -0.44486795029510279 0.1961429475512666 0 -0.44703517496275169 0.17528412590164091 0 -0.43442931410308139 0.18549537428240889 0 -0.43271434957460853 0.17271974793582731 0 -0.46524164832624582 0.1638678829727605 0 -0.43619584329946498 0.16030858629296821 0 -0.46524164832624582 0.1638678829727605 0 -0.45261869753370321 0.14836901551615081 0 -0.43619584329946498 0.16030858629296821 0 -0.46524164832624582 0.1638678829727605 0 -0.44703517496275169 0.17528412590164091 0 -0.43619584329946498 0.16030858629296821 0 -0.44703517496275169 0.17528412590164091 0 -0.43619584329946498 0.16030858629296821 0 -0.43271434957460853 0.17271974793582731 0 -0.45261869753370321 0.14836901551615081 0 -0.44481514315821807 0.13119658443783511 0 -0.43555362679829418 0.1452592553767848 0 -0.45261869753370321 0.14836901551615081 0 -0.43555362679829418 0.1452592553767848 0 -0.43619584329946498 0.16030858629296821 0 -0.45261869753370321 0.14836901551615081 0 -0.44481514315821807 0.13119658443783511 0 -0.46644945144912198 0.131514252450942 0 -0.45573932337328571 0.1156276771232907 0 -0.44481514315821807 0.13119658443783511 0 -0.46644945144912198 0.131514252450942 0 -0.48026326007117909 0.1517095005334437 0 -0.46524164832624582 0.1638678829727605 0 -0.45261869753370321 0.14836901551615081 0 -0.48026326007117909 0.1517095005334437 0 -0.45261869753370321 0.14836901551615081 0 -0.46644945144912198 0.131514252450942 0 -0.47927134528646531 0.24400249891552361 0 -0.46863279989436052 0.22923459548717651 0 -0.46367901183081589 0.2459929755485861 0 -0.47927134528646531 0.24400249891552361 0 -0.5 0.22836219141005001 0 -0.5 0.25555720981050117 0 -0.47927134528646531 0.24400249891552361 0 -0.5 0.22836219141005001 0 -0.48572368025585111 0.2190725068288385 0 -0.48572368025585111 0.2190725068288385 0 -0.46914456230378709 0.21229951743711059 0 -0.46863279989436052 0.22923459548717651 0 -0.47927134528646531 0.24400249891552361 0 -0.48572368025585111 0.2190725068288385 0 -0.46863279989436052 0.22923459548717651 0 -0.48572368025585111 0.2190725068288385 0 -0.46914456230378709 0.21229951743711059 0 -0.47542355924873991 0.19328463625497611 0 -0.48572368025585111 0.2190725068288385 0 -0.5 0.20116717300959891 0 -0.47542355924873991 0.19328463625497611 0 -0.5 0.22836219141005001 0 -0.48572368025585111 0.2190725068288385 0 -0.5 0.20116717300959891 0 -0.48699053218560262 0.17994380529980719 0 -0.5 0.20116717300959891 0 -0.47542355924873991 0.19328463625497611 0 -0.47542355924873991 0.19328463625497611 0 -0.45790076350072989 0.20297414603232411 0 -0.45671792026364211 0.18864886548837459 0 -0.46914456230378709 0.21229951743711059 0 -0.47542355924873991 0.19328463625497611 0 -0.45790076350072989 0.20297414603232411 0 -0.45790076350072989 0.20297414603232411 0 -0.45671792026364211 0.18864886548837459 0 -0.44486795029510279 0.1961429475512666 0 -0.44486795029510279 0.1961429475512666 0 -0.44426107471290721 0.20875115631479349 0 -0.43114327073074699 0.1980969231315734 0 -0.45790076350072989 0.20297414603232411 0 -0.44486795029510279 0.1961429475512666 0 -0.44426107471290721 0.20875115631479349 0 -0.45790076350072989 0.20297414603232411 0 -0.44426107471290721 0.20875115631479349 0 -0.45698951418020028 0.21871775314742331 0 -0.44426107471290721 0.20875115631479349 0 -0.44393227267475482 0.22442355441150261 0 -0.43158037488193318 0.2143127121397814 0 -0.44426107471290721 0.20875115631479349 0 -0.45698951418020028 0.21871775314742331 0 -0.44393227267475482 0.22442355441150261 0 -0.44426107471290721 0.20875115631479349 0 -0.43158037488193318 0.2143127121397814 0 -0.46914456230378709 0.21229951743711059 0 -0.45790076350072989 0.20297414603232411 0 -0.45698951418020028 0.21871775314742331 0 -0.45698951418020028 0.21871775314742331 0 -0.46863279989436052 0.22923459548717651 0 -0.4562841704675768 0.23453439668322329 0 -0.46914456230378709 0.21229951743711059 0 -0.45698951418020028 0.21871775314742331 0 -0.46863279989436052 0.22923459548717651 0 -0.45698951418020028 0.21871775314742331 0 -0.44393227267475482 0.22442355441150261 0 -0.4562841704675768 0.23453439668322329 0 -0.44393227267475482 0.22442355441150261 0 -0.4395420058495047 0.23537771984637751 0 -0.4562841704675768 0.23453439668322329 0 -0.44393227267475482 0.22442355441150261 0 -0.43158037488193318 0.2143127121397814 0 -0.44393227267475482 0.22442355441150261 0 -0.4395420058495047 0.23537771984637751 0 -0.43116678441885342 0.22688461464664331 0 -0.44393227267475482 0.22442355441150261 0 -0.4562841704675768 0.23453439668322329 0 -0.44232033459963249 0.24975072857012409 0 -0.4395420058495047 0.23537771984637751 0 -0.4562841704675768 0.23453439668322329 0 -0.44232033459963249 0.24975072857012409 0 -0.46367901183081589 0.2459929755485861 0 -0.4562841704675768 0.23453439668322329 0 -0.46863279989436052 0.22923459548717651 0 -0.46367901183081589 0.2459929755485861 0 -0.4562841704675768 0.23453439668322329 0 -0.40800457862894041 0.2414600901671255 0 -0.42276401000238112 0.23825362839368661 0 -0.41526818973791851 0.25618087752486901 0 -0.40800457862894041 0.2414600901671255 0 -0.42276401000238112 0.23825362839368661 0 -0.40320768540512941 0.22675652821724929 0 -0.40800457862894041 0.2414600901671255 0 -0.40020954799688602 0.2494290668338234 0 -0.41526818973791851 0.25618087752486901 0 -0.44232033459963249 0.24975072857012409 0 -0.42276401000238112 0.23825362839368661 0 -0.44232033459963249 0.24975072857012409 0 -0.42276401000238112 0.23825362839368661 0 -0.43027798896942648 0.25729758313145268 0 -0.44232033459963249 0.24975072857012409 0 -0.4395420058495047 0.23537771984637751 0 -0.42276401000238112 0.23825362839368661 0 -0.4395420058495047 0.23537771984637751 0 -0.42276401000238112 0.23825362839368661 0 -0.43116678441885342 0.22688461464664331 0 -0.42276401000238112 0.23825362839368661 0 -0.43116678441885342 0.22688461464664331 0 -0.41739403014353099 0.2205346201785148 0 -0.44393227267475482 0.22442355441150261 0 -0.43116678441885342 0.22688461464664331 0 -0.43158037488193318 0.2143127121397814 0 -0.43116678441885342 0.22688461464664331 0 -0.41739403014353099 0.2205346201785148 0 -0.43158037488193318 0.2143127121397814 0 -0.42276401000238112 0.23825362839368661 0 -0.40320768540512941 0.22675652821724929 0 -0.42276401000238112 0.23825362839368661 0 -0.41739403014353099 0.2205346201785148 0 -0.40320768540512941 0.22675652821724929 0 -0.41739403014353099 0.2205346201785148 0 -0.40389781134544378 0.2142401216254603 0 -0.40320768540512941 0.22675652821724929 0 -0.41739403014353099 0.2205346201785148 0 -0.40320768540512941 0.22675652821724929 0 -0.41739403014353099 0.2205346201785148 0 -0.41334494203715011 0.19938580873249351 0 -0.40389781134544378 0.2142401216254603 0 -0.41739403014353099 0.2205346201785148 0 -0.43158037488193318 0.2143127121397814 0 -0.41334494203715011 0.19938580873249351 0 -0.41739403014353099 0.2205346201785148 0 -0.43158037488193318 0.2143127121397814 0 -0.43158037488193318 0.2143127121397814 0 -0.43114327073074699 0.1980969231315734 0 -0.41334494203715011 0.19938580873249351 0 -0.44426107471290721 0.20875115631479349 0 -0.43158037488193318 0.2143127121397814 0 -0.43114327073074699 0.1980969231315734 0 -0.43158037488193318 0.2143127121397814 0 -0.41334494203715011 0.19938580873249351 0 -0.43114327073074699 0.1980969231315734 0 -0.43442931410308139 0.18549537428240889 0 -0.41837596835430801 0.18449353976869681 0 -0.44486795029510279 0.1961429475512666 0 -0.43114327073074699 0.1980969231315734 0 -0.43442931410308139 0.18549537428240889 0 -0.43114327073074699 0.1980969231315734 0 -0.41334494203715011 0.19938580873249351 0 -0.41837596835430801 0.18449353976869681 0 -0.41334494203715011 0.19938580873249351 0 -0.39671406984564223 0.1954178166627126 0 -0.39510950919236743 0.18445890532520501 0 -0.41334494203715011 0.19938580873249351 0 -0.39671406984564223 0.1954178166627126 0 -0.39377619867558789 0.2044935348875199 0 -0.41334494203715011 0.19938580873249351 0 -0.39510950919236743 0.18445890532520501 0 -0.39671406984564223 0.1954178166627126 0 -0.38462562947746348 0.19333301770563219 0 -0.39377619867558789 0.2044935348875199 0 -0.39671406984564223 0.1954178166627126 0 -0.38462562947746348 0.19333301770563219 0 -0.39510950919236743 0.18445890532520501 0 -0.38462562947746348 0.19333301770563219 0 -0.37727506075007411 0.20966236404195171 0 -0.37329499743712508 0.18294015117589099 0 -0.37727506075007411 0.20966236404195171 0 -0.37329499743712508 0.18294015117589099 0 -0.38462562947746348 0.19333301770563219 0 -0.37727506075007411 0.20966236404195171 0 -0.39377619867558789 0.2044935348875199 0 -0.37727506075007411 0.20966236404195171 0 -0.39377619867558789 0.2044935348875199 0 -0.3917662004658205 0.2200301161115242 0 -0.41334494203715011 0.19938580873249351 0 -0.39377619867558789 0.2044935348875199 0 -0.40389781134544378 0.2142401216254603 0 -0.39377619867558789 0.2044935348875199 0 -0.40389781134544378 0.2142401216254603 0 -0.3917662004658205 0.2200301161115242 0 -0.40320768540512941 0.22675652821724929 0 -0.38125512406302298 0.23638457690801251 0 -0.39751409233959961 0.23804278200556311 0 -0.40320768540512941 0.22675652821724929 0 -0.3917662004658205 0.2200301161115242 0 -0.38125512406302298 0.23638457690801251 0 -0.40320768540512941 0.22675652821724929 0 -0.38125512406302298 0.23638457690801251 0 -0.40389781134544378 0.2142401216254603 0 -0.40320768540512941 0.22675652821724929 0 -0.3917662004658205 0.2200301161115242 0 -0.40320768540512941 0.22675652821724929 0 -0.3917662004658205 0.2200301161115242 0 -0.37727506075007411 0.20966236404195171 0 -0.3917662004658205 0.2200301161115242 0 -0.38125512406302298 0.23638457690801251 0 -0.37727506075007411 0.20966236404195171 0 -0.38125512406302298 0.23638457690801251 0 -0.37033634686496802 0.2243533368576362 0 -0.37727506075007411 0.20966236404195171 0 -0.38125512406302298 0.23638457690801251 0 -0.38125512406302298 0.23638457690801251 0 -0.39107181206516778 0.24686383234283149 0 -0.38530848386116268 0.26359890362392718 0 -0.38125512406302298 0.23638457690801251 0 -0.38530848386116268 0.26359890362392718 0 -0.38125512406302298 0.23638457690801251 0 -0.39107181206516778 0.24686383234283149 0 -0.39751409233959961 0.23804278200556311 0 -0.38125512406302298 0.23638457690801251 0 -0.3726431826559814 0.24629667649255019 0 -0.37676997870215412 0.25311025520394509 0 -0.38125512406302298 0.23638457690801251 0 -0.37179140122334958 0.24053521713975051 0 -0.38125512406302298 0.23638457690801251 0 -0.3726431826559814 0.24629667649255019 0 -0.37179140122334958 0.24053521713975051 0 -0.39107181206516778 0.24686383234283149 0 -0.39751409233959961 0.23804278200556311 0 -0.40020954799688602 0.2494290668338234 0 -0.40800457862894041 0.2414600901671255 0 -0.40320768540512941 0.22675652821724929 0 -0.39751409233959961 0.23804278200556311 0 -0.40800457862894041 0.2414600901671255 0 -0.39751409233959961 0.23804278200556311 0 -0.40020954799688602 0.2494290668338234 0 -0.42009273887563758 0.1539961041332277 0 -0.4092050474209093 0.14235381291227961 0 -0.42526960140543962 0.1318183765044906 0 -0.42009273887563758 0.1539961041332277 0 -0.4092050474209093 0.14235381291227961 0 -0.40715003827268431 0.1567492896131758 0 -0.4092050474209093 0.14235381291227961 0 -0.40853745719559981 0.12611115011919941 0 -0.42526960140543962 0.1318183765044906 0 -0.41769405029543633 0.1217396982962764 0 -0.40853745719559981 0.12611115011919941 0 -0.42526960140543962 0.1318183765044906 0 -0.43848596561871628 0.112693710621662 0 -0.44481514315821807 0.13119658443783511 0 -0.42526960140543962 0.1318183765044906 0 -0.44481514315821807 0.13119658443783511 0 -0.42526960140543962 0.1318183765044906 0 -0.43555362679829418 0.1452592553767848 0 -0.42009273887563758 0.1539961041332277 0 -0.42526960140543962 0.1318183765044906 0 -0.42009273887563758 0.1539961041332277 0 -0.42526960140543962 0.1318183765044906 0 -0.43555362679829418 0.1452592553767848 0 -0.42009273887563758 0.1539961041332277 0 -0.43555362679829418 0.1452592553767848 0 -0.43619584329946498 0.16030858629296821 0 -0.43619584329946498 0.16030858629296821 0 -0.43271434957460853 0.17271974793582731 0 -0.42040139454842368 0.16890544978223071 0 -0.43442931410308139 0.18549537428240889 0 -0.43271434957460853 0.17271974793582731 0 -0.41837596835430801 0.18449353976869681 0 -0.43271434957460853 0.17271974793582731 0 -0.41837596835430801 0.18449353976869681 0 -0.42040139454842368 0.16890544978223071 0 -0.41334494203715011 0.19938580873249351 0 -0.41837596835430801 0.18449353976869681 0 -0.40444871789019787 0.17720501486965559 0 -0.41837596835430801 0.18449353976869681 0 -0.41318611396936811 0.17451806900196251 0 -0.42040139454842368 0.16890544978223071 0 -0.41318611396936811 0.17451806900196251 0 -0.40951837508454281 0.1674682715872671 0 -0.40444871789019787 0.17720501486965559 0 -0.41837596835430801 0.18449353976869681 0 -0.41318611396936811 0.17451806900196251 0 -0.40444871789019787 0.17720501486965559 0 -0.43619584329946498 0.16030858629296821 0 -0.40715003827268431 0.1567492896131758 0 -0.42009273887563758 0.1539961041332277 0 -0.43619584329946498 0.16030858629296821 0 -0.40715003827268431 0.1567492896131758 0 -0.43619584329946498 0.16030858629296821 0 -0.42040139454842368 0.16890544978223071 0 -0.40715003827268431 0.1567492896131758 0 -0.41318611396936811 0.17451806900196251 0 -0.42040139454842368 0.16890544978223071 0 -0.40951837508454281 0.1674682715872671 0 -0.42040139454842368 0.16890544978223071 0 -0.40951837508454281 0.1674682715872671 0 -0.40715003827268431 0.1567492896131758 0 -0.40951837508454281 0.1674682715872671 0 -0.40444871789019787 0.17720501486965559 0 -0.3870401438289065 0.15675626583921839 0 -0.40951837508454281 0.1674682715872671 0 -0.40715003827268431 0.1567492896131758 0 -0.3870401438289065 0.15675626583921839 0 -0.40444871789019787 0.17720501486965559 0 -0.39086811181476411 0.17198804698799891 0 -0.3870401438289065 0.15675626583921839 0 -0.40444871789019787 0.17720501486965559 0 -0.3870401438289065 0.15675626583921839 0 -0.41334494203715011 0.19938580873249351 0 -0.40444871789019787 0.17720501486965559 0 -0.39510950919236743 0.18445890532520501 0 -0.40444871789019787 0.17720501486965559 0 -0.39086811181476411 0.17198804698799891 0 -0.39510950919236743 0.18445890532520501 0 -0.39086811181476411 0.17198804698799891 0 -0.39510950919236743 0.18445890532520501 0 -0.37687407634758469 0.16953200191791651 0 -0.38462562947746348 0.19333301770563219 0 -0.39510950919236743 0.18445890532520501 0 -0.37329499743712508 0.18294015117589099 0 -0.39510950919236743 0.18445890532520501 0 -0.37687407634758469 0.16953200191791651 0 -0.39510950919236743 0.18445890532520501 0 -0.37687407634758469 0.16953200191791651 0 -0.37329499743712508 0.18294015117589099 0 -0.39086811181476411 0.17198804698799891 0 -0.3870401438289065 0.15675626583921839 0 -0.37687407634758469 0.16953200191791651 0 -0.3870401438289065 0.15675626583921839 0 -0.37687407634758469 0.16953200191791651 0 -0.37282452149182282 0.15587703698657759 0 -0.3870401438289065 0.15675626583921839 0 -0.36963156976761108 0.13630751680878439 0 -0.3870401438289065 0.15675626583921839 0 -0.38721005481349341 0.14118597661231189 0 -0.36963156976761108 0.13630751680878439 0 -0.3870401438289065 0.15675626583921839 0 -0.36963156976761108 0.13630751680878439 0 -0.37282452149182282 0.15587703698657759 0 -0.3870401438289065 0.15675626583921839 0 -0.38721005481349341 0.14118597661231189 0 -0.39695057047477439 0.1469960582080394 0 -0.40715003827268431 0.1567492896131758 0 -0.3870401438289065 0.15675626583921839 0 -0.39695057047477439 0.1469960582080394 0 -0.38721005481349341 0.14118597661231189 0 -0.39695057047477439 0.1469960582080394 0 -0.39708802796431519 0.1363924965812702 0 -0.4092050474209093 0.14235381291227961 0 -0.39695057047477439 0.1469960582080394 0 -0.39708802796431519 0.1363924965812702 0 -0.4092050474209093 0.14235381291227961 0 -0.40715003827268431 0.1567492896131758 0 -0.39695057047477439 0.1469960582080394 0 -0.4092050474209093 0.14235381291227961 0 -0.40853745719559981 0.12611115011919941 0 -0.39708802796431519 0.1363924965812702 0 -0.39496934450890642 0.123387789699197 0 -0.40853745719559981 0.12611115011919941 0 -0.39708802796431519 0.1363924965812702 0 -0.39496934450890642 0.123387789699197 0 -0.39708802796431519 0.1363924965812702 0 -0.38533996203186083 0.12947754562424801 0 -0.38472844556672708 0.1111789648906908 0 -0.38533996203186083 0.12947754562424801 0 -0.36963156976761108 0.13630751680878439 0 -0.38721005481349341 0.14118597661231189 0 -0.38533996203186083 0.12947754562424801 0 -0.36963156976761108 0.13630751680878439 0 -0.38721005481349341 0.14118597661231189 0 -0.39708802796431519 0.1363924965812702 0 -0.38533996203186083 0.12947754562424801 0 -0.36963156976761108 0.13630751680878439 0 -0.35294965040873921 0.1167123230200989 0 -0.36963156976761108 0.13630751680878439 0 -0.35363327782685883 0.1455018707488048 0 -0.35294965040873921 0.1167123230200989 0 -0.35363327782685883 0.1455018707488048 0 -0.34217438492003649 0.13008308880126629 0 -0.35294965040873921 0.1167123230200989 0 -0.35363327782685883 0.1455018707488048 0 -0.35294965040873921 0.1167123230200989 0 -0.34375596122011071 0.14242264236790719 0 -0.35363327782685883 0.1455018707488048 0 -0.34217438492003649 0.13008308880126629 0 -0.34800248461333871 0.1524168155382957 0 -0.35863864350280461 0.15460509851062501 0 -0.34112426392329082 0.16081958522619849 0 -0.34375596122011071 0.14242264236790719 0 -0.35863864350280461 0.15460509851062501 0 -0.34800248461333871 0.1524168155382957 0 -0.34375596122011071 0.14242264236790719 0 -0.35863864350280461 0.15460509851062501 0 -0.34375596122011071 0.14242264236790719 0 -0.35363327782685883 0.1455018707488048 0 -0.35863864350280461 0.15460509851062501 0 -0.36963156976761108 0.13630751680878439 0 -0.35863864350280461 0.15460509851062501 0 -0.36963156976761108 0.13630751680878439 0 -0.35863864350280461 0.15460509851062501 0 -0.37282452149182282 0.15587703698657759 0 -0.36963156976761108 0.13630751680878439 0 -0.35363327782685883 0.1455018707488048 0 -0.35863864350280461 0.15460509851062501 0 -0.37687407634758469 0.16953200191791651 0 -0.35863864350280461 0.15460509851062501 0 -0.37282452149182282 0.15587703698657759 0 -0.37687407634758469 0.16953200191791651 0 -0.35863864350280461 0.15460509851062501 0 -0.36116720547690112 0.173130197258235 0 -0.37687407634758469 0.16953200191791651 0 -0.35863864350280461 0.15460509851062501 0 -0.37687407634758469 0.16953200191791651 0 -0.37329499743712508 0.18294015117589099 0 -0.36116720547690112 0.173130197258235 0 -0.37329499743712508 0.18294015117589099 0 -0.36116720547690112 0.173130197258235 0 -0.35904129988889072 0.18539324175510441 0 -0.34386172348699812 0.17920108822052411 0 -0.35904129988889072 0.18539324175510441 0 -0.35180625376228519 0.19485744796288709 0 -0.36116720547690112 0.173130197258235 0 -0.34386172348699812 0.17920108822052411 0 -0.35904129988889072 0.18539324175510441 0 -0.35863864350280461 0.15460509851062501 0 -0.34386172348699812 0.17920108822052411 0 -0.35863864350280461 0.15460509851062501 0 -0.36116720547690112 0.173130197258235 0 -0.34386172348699812 0.17920108822052411 0 -0.35863864350280461 0.15460509851062501 0 -0.34386172348699812 0.17920108822052411 0 -0.34112426392329082 0.16081958522619849 0 -0.34112426392329082 0.16081958522619849 0 -0.32078196773778278 0.16087808273223489 0 -0.33232938817032459 0.14813340236244499 0 -0.33197387519403199 0.1709447841149021 0 -0.34112426392329082 0.16081958522619849 0 -0.32078196773778278 0.16087808273223489 0 -0.34386172348699812 0.17920108822052411 0 -0.33197387519403199 0.1709447841149021 0 -0.34112426392329082 0.16081958522619849 0 -0.34386172348699812 0.17920108822052411 0 -0.33197387519403199 0.1709447841149021 0 -0.32212754562805618 0.1828803802806509 0 -0.32212754562805618 0.1828803802806509 0 -0.32078196773778278 0.16087808273223489 0 -0.30640834439681641 0.17279941357631839 0 -0.33197387519403199 0.1709447841149021 0 -0.32212754562805618 0.1828803802806509 0 -0.32078196773778278 0.16087808273223489 0 -0.32078196773778278 0.16087808273223489 0 -0.33232938817032459 0.14813340236244499 0 -0.31143837259000562 0.14202310208484711 0 -0.31327437816127551 0.12594932630499539 0 -0.32887327893741941 0.13024018622518641 0 -0.31143837259000562 0.14202310208484711 0 -0.32887327893741941 0.13024018622518641 0 -0.33232938817032459 0.14813340236244499 0 -0.31143837259000562 0.14202310208484711 0 -0.34375596122011071 0.14242264236790719 0 -0.32887327893741941 0.13024018622518641 0 -0.33232938817032459 0.14813340236244499 0 -0.32887327893741941 0.13024018622518641 0 -0.34217438492003649 0.13008308880126629 0 -0.33165975620705401 0.1155384216443347 0 -0.34375596122011071 0.14242264236790719 0 -0.32887327893741941 0.13024018622518641 0 -0.34217438492003649 0.13008308880126629 0 -0.34375596122011071 0.14242264236790719 0 -0.32887327893741941 0.13024018622518641 0 -0.34800248461333871 0.1524168155382957 0 -0.34375596122011071 0.14242264236790719 0 -0.33232938817032459 0.14813340236244499 0 -0.34800248461333871 0.1524168155382957 0 -0.34112426392329082 0.16081958522619849 0 -0.33232938817032459 0.14813340236244499 0 -0.34841513450358119 0.24444094752668269 0 -0.35767306447925012 0.24413617229629239 0 -0.36112649006337738 0.2333378340897154 0 -0.34841513450358119 0.24444094752668269 0 -0.35767306447925012 0.24413617229629239 0 -0.35619852372575639 0.2573025576767981 0 -0.35767306447925012 0.24413617229629239 0 -0.365677472577283 0.24537241804501561 0 -0.35619852372575639 0.2573025576767981 0 -0.365677472577283 0.24537241804501561 0 -0.3726431826559814 0.24629667649255019 0 -0.36823185577447293 0.25353030447472152 0 -0.365677472577283 0.24537241804501561 0 -0.3726431826559814 0.24629667649255019 0 -0.37179140122334958 0.24053521713975051 0 -0.37179140122334958 0.24053521713975051 0 -0.36112649006337738 0.2333378340897154 0 -0.37112734055367952 0.23365274124877869 0 -0.38125512406302298 0.23638457690801251 0 -0.37179140122334958 0.24053521713975051 0 -0.37112734055367952 0.23365274124877869 0 -0.35767306447925012 0.24413617229629239 0 -0.365677472577283 0.24537241804501561 0 -0.36112649006337738 0.2333378340897154 0 -0.365677472577283 0.24537241804501561 0 -0.37179140122334958 0.24053521713975051 0 -0.36112649006337738 0.2333378340897154 0 -0.36112649006337738 0.2333378340897154 0 -0.37033634686496802 0.2243533368576362 0 -0.35011069413293322 0.21964919774478489 0 -0.36112649006337738 0.2333378340897154 0 -0.37112734055367952 0.23365274124877869 0 -0.37033634686496802 0.2243533368576362 0 -0.38125512406302298 0.23638457690801251 0 -0.37112734055367952 0.23365274124877869 0 -0.37033634686496802 0.2243533368576362 0 -0.34841513450358119 0.24444094752668269 0 -0.36112649006337738 0.2333378340897154 0 -0.35011069413293322 0.21964919774478489 0 -0.34841513450358119 0.24444094752668269 0 -0.35011069413293322 0.21964919774478489 0 -0.35011069413293322 0.21964919774478489 0 -0.36292093495828093 0.209071934153049 0 -0.35180625376228519 0.19485744796288709 0 -0.35011069413293322 0.21964919774478489 0 -0.35180625376228519 0.19485744796288709 0 -0.37033634686496802 0.2243533368576362 0 -0.35011069413293322 0.21964919774478489 0 -0.36292093495828093 0.209071934153049 0 -0.37727506075007411 0.20966236404195171 0 -0.37033634686496802 0.2243533368576362 0 -0.36292093495828093 0.209071934153049 0 -0.37727506075007411 0.20966236404195171 0 -0.36292093495828093 0.209071934153049 0 -0.3650763192811442 0.1968373241579848 0 -0.37727506075007411 0.20966236404195171 0 -0.37329499743712508 0.18294015117589099 0 -0.3650763192811442 0.1968373241579848 0 -0.36292093495828093 0.209071934153049 0 -0.3650763192811442 0.1968373241579848 0 -0.35180625376228519 0.19485744796288709 0 -0.37329499743712508 0.18294015117589099 0 -0.35904129988889072 0.18539324175510441 0 -0.3650763192811442 0.1968373241579848 0 -0.35904129988889072 0.18539324175510441 0 -0.3650763192811442 0.1968373241579848 0 -0.35180625376228519 0.19485744796288709 0 -0.34386172348699812 0.17920108822052411 0 -0.35180625376228519 0.19485744796288709 0 -0.32908480347119112 0.2037970779304227 0 -0.34386172348699812 0.17920108822052411 0 -0.32908480347119112 0.2037970779304227 0 -0.34386172348699812 0.17920108822052411 0 -0.32212754562805618 0.1828803802806509 0 -0.32908480347119112 0.2037970779304227 0 -0.32212754562805618 0.1828803802806509 0 -0.32908480347119112 0.2037970779304227 0 -0.30493182515838702 0.1983975801243871 0 -0.32908480347119112 0.2037970779304227 0 -0.31430788345538402 0.22839306764032141 0 -0.30493182515838702 0.1983975801243871 0 -0.32908480347119112 0.2037970779304227 0 -0.33219559659697412 0.2213065529253686 0 -0.31430788345538402 0.22839306764032141 0 -0.32908480347119112 0.2037970779304227 0 -0.31430788345538402 0.22839306764032141 0 -0.35011069413293322 0.21964919774478489 0 -0.35180625376228519 0.19485744796288709 0 -0.32908480347119112 0.2037970779304227 0 -0.35011069413293322 0.21964919774478489 0 -0.32908480347119112 0.2037970779304227 0 -0.33219559659697412 0.2213065529253686 0 -0.35011069413293322 0.21964919774478489 0 -0.33219559659697412 0.2213065529253686 0 -0.33069921177694861 0.23782461638387381 0 -0.34841513450358119 0.24444094752668269 0 -0.35011069413293322 0.21964919774478489 0 -0.33069921177694861 0.23782461638387381 0 -0.33219559659697412 0.2213065529253686 0 -0.31430788345538402 0.22839306764032141 0 -0.33069921177694861 0.23782461638387381 0 -0.31430788345538402 0.22839306764032141 0 -0.32112930310028709 0.2466169131273048 0 -0.30817986186735941 0.24732554518125391 0 -0.31430788345538402 0.22839306764032141 0 -0.32112930310028709 0.2466169131273048 0 -0.33069921177694861 0.23782461638387381 0 -0.32112930310028709 0.2466169131273048 0 -0.33069921177694861 0.23782461638387381 0 -0.33235698433416339 0.25521178264019467 0 -0.34841513450358119 0.24444094752668269 0 -0.33069921177694861 0.23782461638387381 0 -0.33235698433416339 0.25521178264019467 0 -0.28974477255446163 0.23791981048228319 0 -0.29196101805165731 0.25560451879594143 0 -0.27799867115793958 0.25153773544604102 0 -0.28974477255446163 0.23791981048228319 0 -0.30817986186735941 0.24732554518125391 0 -0.29196101805165731 0.25560451879594143 0 -0.31430788345538402 0.22839306764032141 0 -0.28974477255446163 0.23791981048228319 0 -0.30817986186735941 0.24732554518125391 0 -0.31430788345538402 0.22839306764032141 0 -0.28974477255446163 0.23791981048228319 0 -0.29181624091797059 0.2180015835550837 0 -0.28974477255446163 0.23791981048228319 0 -0.29181624091797059 0.2180015835550837 0 -0.27004857254035658 0.2235227199520704 0 -0.29181624091797059 0.2180015835550837 0 -0.30493182515838702 0.1983975801243871 0 -0.28012816723304279 0.2009847714642865 0 -0.31430788345538402 0.22839306764032141 0 -0.29181624091797059 0.2180015835550837 0 -0.30493182515838702 0.1983975801243871 0 -0.30493182515838702 0.1983975801243871 0 -0.28012816723304279 0.2009847714642865 0 -0.29099148929357138 0.18333695388549981 0 -0.28012816723304279 0.2009847714642865 0 -0.26006602822462421 0.20633197812702311 0 -0.26488302939832908 0.18444049292204689 0 -0.28012816723304279 0.2009847714642865 0 -0.29099148929357138 0.18333695388549981 0 -0.26488302939832908 0.18444049292204689 0 -0.26006602822462421 0.20633197812702311 0 -0.26488302939832908 0.18444049292204689 0 -0.23926157219466071 0.19388917217723509 0 -0.26006602822462421 0.20633197812702311 0 -0.25087245148626602 0.22646438269951799 0 -0.24291571004434509 0.21225689290567709 0 -0.29181624091797059 0.2180015835550837 0 -0.28012816723304279 0.2009847714642865 0 -0.27004857254035658 0.2235227199520704 0 -0.28012816723304279 0.2009847714642865 0 -0.26006602822462421 0.20633197812702311 0 -0.27004857254035658 0.2235227199520704 0 -0.27004857254035658 0.2235227199520704 0 -0.25087245148626602 0.22646438269951799 0 -0.25605024955360411 0.23809937611219889 0 -0.26006602822462421 0.20633197812702311 0 -0.27004857254035658 0.2235227199520704 0 -0.25087245148626602 0.22646438269951799 0 -0.27179360835740118 0.24194139068568721 0 -0.24876127740294221 0.2528047040624225 0 -0.25605024955360411 0.23809937611219889 0 -0.27179360835740118 0.24194139068568721 0 -0.24876127740294221 0.2528047040624225 0 -0.27179360835740118 0.24194139068568721 0 -0.26753070776848159 0.25438102187248229 0 -0.24876127740294221 0.2528047040624225 0 -0.27179360835740118 0.24194139068568721 0 -0.27799867115793958 0.25153773544604102 0 -0.26753070776848159 0.25438102187248229 0 -0.27004857254035658 0.2235227199520704 0 -0.25605024955360411 0.23809937611219889 0 -0.27179360835740118 0.24194139068568721 0 -0.28974477255446163 0.23791981048228319 0 -0.27004857254035658 0.2235227199520704 0 -0.27179360835740118 0.24194139068568721 0 -0.28974477255446163 0.23791981048228319 0 -0.27179360835740118 0.24194139068568721 0 -0.27799867115793958 0.25153773544604102 0 -0.29292808461591052 0.12614084841819709 0 -0.27886687808334942 0.13773667633940601 0 -0.28325637014906091 0.1155170481770629 0 -0.2919597869547409 0.15473890115184849 0 -0.29292808461591052 0.12614084841819709 0 -0.2919597869547409 0.15473890115184849 0 -0.29292808461591052 0.12614084841819709 0 -0.27886687808334942 0.13773667633940601 0 -0.31327437816127551 0.12594932630499539 0 -0.29292808461591052 0.12614084841819709 0 -0.31143837259000562 0.14202310208484711 0 -0.32078196773778278 0.16087808273223489 0 -0.2919597869547409 0.15473890115184849 0 -0.31143837259000562 0.14202310208484711 0 -0.2919597869547409 0.15473890115184849 0 -0.29292808461591052 0.12614084841819709 0 -0.31143837259000562 0.14202310208484711 0 -0.32078196773778278 0.16087808273223489 0 -0.2919597869547409 0.15473890115184849 0 -0.30640834439681641 0.17279941357631839 0 -0.30493182515838702 0.1983975801243871 0 -0.30640834439681641 0.17279941357631839 0 -0.29099148929357138 0.18333695388549981 0 -0.32212754562805618 0.1828803802806509 0 -0.30493182515838702 0.1983975801243871 0 -0.30640834439681641 0.17279941357631839 0 -0.2919597869547409 0.15473890115184849 0 -0.29099148929357138 0.18333695388549981 0 -0.26913961065505509 0.1590029900874228 0 -0.2919597869547409 0.15473890115184849 0 -0.30640834439681641 0.17279941357631839 0 -0.29099148929357138 0.18333695388549981 0 -0.2919597869547409 0.15473890115184849 0 -0.29099148929357138 0.18333695388549981 0 -0.29099148929357138 0.18333695388549981 0 -0.26913961065505509 0.1590029900874228 0 -0.26488302939832908 0.18444049292204689 0 -0.26488302939832908 0.18444049292204689 0 -0.2498858061379349 0.16761432791667591 0 -0.23926157219466071 0.19388917217723509 0 -0.26913961065505509 0.1590029900874228 0 -0.2443943061804808 0.14729524919240211 0 -0.2498858061379349 0.16761432791667591 0 -0.26913961065505509 0.1590029900874228 0 -0.26488302939832908 0.18444049292204689 0 -0.2498858061379349 0.16761432791667591 0 -0.26913961065505509 0.1590029900874228 0 -0.26197602749940641 0.1348922613791729 0 -0.2443943061804808 0.14729524919240211 0 -0.26913961065505509 0.1590029900874228 0 -0.27886687808334942 0.13773667633940601 0 -0.26197602749940641 0.1348922613791729 0 -0.2919597869547409 0.15473890115184849 0 -0.26913961065505509 0.1590029900874228 0 -0.27886687808334942 0.13773667633940601 0 -0.27886687808334942 0.13773667633940601 0 -0.26197602749940641 0.1348922613791729 0 -0.26806647064950251 0.1190434581512634 0 -0.26197602749940641 0.1348922613791729 0 -0.25493351727982888 0.124423508727017 0 -0.26806647064950251 0.1190434581512634 0 -0.26197602749940641 0.1348922613791729 0 -0.24640069598336689 0.13203961347326981 0 -0.2443943061804808 0.14729524919240211 0 -0.26197602749940641 0.1348922613791729 0 -0.25493351727982888 0.124423508727017 0 -0.24640069598336689 0.13203961347326981 0 -0.25772124213473657 0.1145357097167549 0 -0.26005657975102658 0.1028894306946134 0 -0.26806647064950251 0.1190434581512634 0 -0.25493351727982888 0.124423508727017 0 -0.25772124213473657 0.1145357097167549 0 -0.24628236409738219 0.1164562057313655 0 -0.25772124213473657 0.1145357097167549 0 -0.26005657975102658 0.1028894306946134 0 -0.24628236409738219 0.1164562057313655 0 -0.25493351727982888 0.124423508727017 0 -0.25772124213473657 0.1145357097167549 0 -0.26806647064950251 0.1190434581512634 0 -0.26005657975102658 0.1028894306946134 0 -0.26337238105942501 0.092245657376278573 0 -0.23582123597440621 0.1002601114950015 0 -0.26005657975102658 0.1028894306946134 0 -0.27641091923377031 0.10280816762485161 0 -0.26806647064950251 0.1190434581512634 0 -0.27641091923377031 0.10280816762485161 0 -0.28115080217867972 0.094206955985807639 0 -0.26337238105942501 0.092245657376278573 0 -0.26005657975102658 0.1028894306946134 0 -0.27641091923377031 0.10280816762485161 0 -0.26337238105942501 0.092245657376278573 0 -0.27641091923377031 0.10280816762485161 0 -0.26806647064950251 0.1190434581512634 0 -0.28325637014906091 0.1155170481770629 0 -0.27886687808334942 0.13773667633940601 0 -0.26806647064950251 0.1190434581512634 0 -0.28325637014906091 0.1155170481770629 0 -0.29292808461591052 0.12614084841819709 0 -0.28325637014906091 0.1155170481770629 0 -0.29389638227707998 0.09754279568454563 0 -0.29292808461591052 0.12614084841819709 0 -0.29389638227707998 0.09754279568454563 0 -0.27641091923377031 0.10280816762485161 0 -0.28115080217867972 0.094206955985807639 0 -0.29389638227707998 0.09754279568454563 0 -0.27641091923377031 0.10280816762485161 0 -0.28325637014906091 0.1155170481770629 0 -0.29389638227707998 0.09754279568454563 0 -0.29389638227707998 0.09754279568454563 0 -0.31091188047652168 0.092531836473700196 0 -0.31371493454795568 0.1089976590765339 0 -0.31327437816127551 0.12594932630499539 0 -0.29292808461591052 0.12614084841819709 0 -0.31371493454795568 0.1089976590765339 0 -0.29292808461591052 0.12614084841819709 0 -0.29389638227707998 0.09754279568454563 0 -0.31371493454795568 0.1089976590765339 0 -0.30177111562403641 0.071030162043740214 0 -0.31403957616140488 0.071007123947613049 0 -0.31847467122946183 0.076216749138828865 0 -0.30177111562403641 0.071030162043740214 0 -0.29092352614444372 0.08423120325755476 0 -0.31847467122946183 0.076216749138828865 0 -0.30177111562403641 0.071030162043740214 0 -0.29054361504559251 0.063795706396373358 0 -0.30333279089215248 0.058828569439526017 0 -0.30177111562403641 0.071030162043740214 0 -0.30785249942118897 0.065403304333216533 0 -0.30333279089215248 0.058828569439526017 0 -0.30785249942118897 0.065403304333216533 0 -0.31412139215243651 0.061776954184551043 0 -0.31403957616140488 0.071007123947613049 0 -0.30177111562403641 0.071030162043740214 0 -0.30785249942118897 0.065403304333216533 0 -0.31403957616140488 0.071007123947613049 0 -0.31091188047652168 0.092531836473700196 0 -0.29092352614444372 0.08423120325755476 0 -0.31847467122946183 0.076216749138828865 0 -0.29389638227707998 0.09754279568454563 0 -0.31091188047652168 0.092531836473700196 0 -0.29092352614444372 0.08423120325755476 0 -0.29092352614444372 0.08423120325755476 0 -0.31847467122946183 0.076216749138828865 0 -0.28115080217867972 0.094206955985807639 0 -0.29389638227707998 0.09754279568454563 0 -0.29092352614444372 0.08423120325755476 0 -0.29092352614444372 0.08423120325755476 0 -0.29054361504559251 0.063795706396373358 0 -0.27397142077990311 0.065737966637490222 0 -0.30177111562403641 0.071030162043740214 0 -0.29092352614444372 0.08423120325755476 0 -0.29054361504559251 0.063795706396373358 0 -0.28115080217867972 0.094206955985807639 0 -0.29092352614444372 0.08423120325755476 0 -0.26337238105942501 0.092245657376278573 0 -0.29092352614444372 0.08423120325755476 0 -0.26337238105942501 0.092245657376278573 0 -0.29092352614444372 0.08423120325755476 0 -0.27397142077990311 0.065737966637490222 0 -0.26337238105942501 0.092245657376278573 0 -0.26337238105942501 0.092245657376278573 0 -0.2472174533685505 0.067515717561348429 0 -0.24555943370552849 0.085634749108455921 0 -0.27397142077990311 0.065737966637490222 0 -0.26337238105942501 0.092245657376278573 0 -0.2472174533685505 0.067515717561348429 0 -0.27397142077990311 0.065737966637490222 0 -0.26356330893742702 0.042911559017133193 0 -0.2472174533685505 0.067515717561348429 0 -0.26356330893742702 0.042911559017133193 0 -0.29100220720748893 0.047317163434748177 0 -0.26356330893742702 0.042911559017133193 0 -0.27694383787473092 0.032726827249353913 0 -0.26402422636552969 0.01925871513702334 0 -0.26356330893742702 0.042911559017133193 0 -0.27694383787473092 0.032726827249353913 0 -0.29100220720748893 0.047317163434748177 0 -0.27397142077990311 0.065737966637490222 0 -0.26356330893742702 0.042911559017133193 0 -0.29100220720748893 0.047317163434748177 0 -0.24613462773256131 -0.0027825601762608149 0 -0.25395319572439562 0.0104417711316637 0 -0.26852915166412872 0.01044394053189596 0 -0.25395319572439562 0.0104417711316637 0 -0.26402422636552969 0.01925871513702334 0 -0.23712477713536281 0.0148469890339963 0 -0.24613462773256131 -0.0027825601762608149 0 -0.26852915166412872 0.01044394053189596 0 -0.25395319572439562 0.0104417711316637 0 -0.26402422636552969 0.01925871513702334 0 -0.26852915166412872 0.01044394053189596 0 -0.26402422636552969 0.01925871513702334 0 -0.23712477713536281 0.0148469890339963 0 -0.26356330893742702 0.042911559017133193 0 -0.26402422636552969 0.01925871513702334 0 -0.24832253994289469 0.030783652886797599 0 -0.26852915166412872 0.01044394053189596 0 -0.29092367559569648 0.023670441240051691 0 -0.26402422636552969 0.01925871513702334 0 -0.26852915166412872 0.01044394053189596 0 -0.29092367559569648 0.023670441240051691 0 -0.27694383787473092 0.032726827249353913 0 -0.26402422636552969 0.01925871513702334 0 -0.29092367559569648 0.023670441240051691 0 -0.26402422636552969 0.01925871513702334 0 -0.29092367559569648 0.023670441240051691 0 -0.28865051165842548 -0.003118290016904595 0 -0.29092367559569648 0.023670441240051691 0 -0.30717627480107801 0.0098828481306134294 0 -0.28865051165842548 -0.003118290016904595 0 -0.26852915166412872 0.01044394053189596 0 -0.29092367559569648 0.023670441240051691 0 -0.29092367559569648 0.023670441240051691 0 -0.30924245164633402 0.034489751583363683 0 -0.29092367559569648 0.023670441240051691 0 -0.30924245164633402 0.034489751583363683 0 -0.32029768564721239 0.028488015227755639 0 -0.29092367559569648 0.023670441240051691 0 -0.30717627480107801 0.0098828481306134294 0 -0.32029768564721239 0.028488015227755639 0 -0.29092367559569648 0.023670441240051691 0 -0.32029768564721239 0.028488015227755639 0 -0.30558464289699278 -0.0081443053338373112 0 -0.30717627480107801 0.0098828481306134294 0 -0.31747058042755821 0.00020985852733852489 0 -0.29054361504559251 0.063795706396373358 0 -0.29100220720748893 0.047317163434748177 0 -0.30333279089215248 0.058828569439526017 0 -0.29054361504559251 0.063795706396373358 0 -0.27397142077990311 0.065737966637490222 0 -0.29100220720748893 0.047317163434748177 0 -0.27694383787473092 0.032726827249353913 0 -0.29092367559569648 0.023670441240051691 0 -0.29100220720748893 0.047317163434748177 0 -0.29092367559569648 0.023670441240051691 0 -0.29100220720748893 0.047317163434748177 0 -0.30924245164633402 0.034489751583363683 0 -0.29100220720748893 0.047317163434748177 0 -0.30924245164633402 0.034489751583363683 0 -0.31844110547755089 0.051722767852363162 0 -0.29100220720748893 0.047317163434748177 0 -0.31844110547755089 0.051722767852363162 0 -0.29100220720748893 0.047317163434748177 0 -0.30333279089215248 0.058828569439526017 0 -0.31844110547755089 0.051722767852363162 0 -0.30785249942118897 0.065403304333216533 0 -0.30333279089215248 0.058828569439526017 0 -0.31412139215243651 0.061776954184551043 0 -0.30333279089215248 0.058828569439526017 0 -0.31412139215243651 0.061776954184551043 0 -0.31844110547755089 0.051722767852363162 0 -0.31412139215243651 0.061776954184551043 0 -0.31844110547755089 0.051722767852363162 0 -0.322754481938402 0.065266556302927284 0 -0.31844110547755089 0.051722767852363162 0 -0.33355379430607518 0.061531276315025488 0 -0.322754481938402 0.065266556302927284 0 -0.30924245164633402 0.034489751583363683 0 -0.3275612276969721 0.045309061926674631 0 -0.32029768564721239 0.028488015227755639 0 -0.30924245164633402 0.034489751583363683 0 -0.3275612276969721 0.045309061926674631 0 -0.30924245164633402 0.034489751583363683 0 -0.31844110547755089 0.051722767852363162 0 -0.3275612276969721 0.045309061926674631 0 -0.3275612276969721 0.045309061926674631 0 -0.3391927834591959 0.040368913677236988 0 -0.32029768564721239 0.028488015227755639 0 -0.3391927834591959 0.040368913677236988 0 -0.32029768564721239 0.028488015227755639 0 -0.34967169569872802 0.033305589215460882 0 -0.3275612276969721 0.045309061926674631 0 -0.34096558171391123 0.046507019937654007 0 -0.3391927834591959 0.040368913677236988 0 -0.3275612276969721 0.045309061926674631 0 -0.34588000374761219 0.056128372269982241 0 -0.3275612276969721 0.045309061926674631 0 -0.34096558171391123 0.046507019937654007 0 -0.34588000374761219 0.056128372269982241 0 -0.31844110547755089 0.051722767852363162 0 -0.34588000374761219 0.056128372269982241 0 -0.31844110547755089 0.051722767852363162 0 -0.33355379430607518 0.061531276315025488 0 -0.34588000374761219 0.056128372269982241 0 -0.31844110547755089 0.051722767852363162 0 -0.3275612276969721 0.045309061926674631 0 -0.34588000374761219 0.056128372269982241 0 -0.33355379430607518 0.061531276315025488 0 -0.34588000374761219 0.056128372269982241 0 -0.3435798998087316 0.063014331967841716 0 -0.31747058042755821 0.00020985852733852489 0 -0.32160367476142721 0.013663859659675121 0 -0.33230646687498078 0.0075631121505766903 0 -0.30717627480107801 0.0098828481306134294 0 -0.31747058042755821 0.00020985852733852489 0 -0.32160367476142721 0.013663859659675121 0 -0.32160367476142721 0.013663859659675121 0 -0.32966947365744897 0.021014728965295899 0 -0.33230646687498078 0.0075631121505766903 0 -0.30717627480107801 0.0098828481306134294 0 -0.32160367476142721 0.013663859659675121 0 -0.32029768564721239 0.028488015227755639 0 -0.32160367476142721 0.013663859659675121 0 -0.32029768564721239 0.028488015227755639 0 -0.32966947365744897 0.021014728965295899 0 -0.34025416053456348 0.029886705283481741 0 -0.33230646687498078 0.0075631121505766903 0 -0.34025416053456348 0.029886705283481741 0 -0.33230646687498078 0.0075631121505766903 0 -0.34940969928449711 0.019347230739458932 0 -0.32029768564721239 0.028488015227755639 0 -0.34967169569872802 0.033305589215460882 0 -0.34025416053456348 0.029886705283481741 0 -0.32966947365744897 0.021014728965295899 0 -0.33230646687498078 0.0075631121505766903 0 -0.32029768564721239 0.028488015227755639 0 -0.34025416053456348 0.029886705283481741 0 -0.32966947365744897 0.021014728965295899 0 -0.32029768564721239 0.028488015227755639 0 -0.34025416053456348 0.029886705283481741 0 -0.34967169569872802 0.033305589215460882 0 -0.34462003240937938 -0.0093973640104739985 0 -0.33230646687498078 0.0075631121505766903 0 -0.35040531424325788 0.0035402899006972961 0 -0.35040531424325788 0.0035402899006972961 0 -0.34940969928449711 0.019347230739458932 0 -0.36239163518945527 0.014424479867587121 0 -0.33230646687498078 0.0075631121505766903 0 -0.35040531424325788 0.0035402899006972961 0 -0.34940969928449711 0.019347230739458932 0 -0.3622564786717607 -0.0032207155525003838 0 -0.35040531424325788 0.0035402899006972961 0 -0.36239163518945527 0.014424479867587121 0 -0.34940969928449711 0.019347230739458932 0 -0.36184711277314252 0.027413248715079299 0 -0.36239163518945527 0.014424479867587121 0 -0.34025416053456348 0.029886705283481741 0 -0.34940969928449711 0.019347230739458932 0 -0.34967169569872802 0.033305589215460882 0 -0.34940969928449711 0.019347230739458932 0 -0.36184711277314252 0.027413248715079299 0 -0.34967169569872802 0.033305589215460882 0 -0.37731685083307881 0.020558362116467711 0 -0.36184711277314252 0.027413248715079299 0 -0.37202796604525989 0.035598927357989828 0 -0.37731685083307881 0.020558362116467711 0 -0.36184711277314252 0.027413248715079299 0 -0.36239163518945527 0.014424479867587121 0 -0.3622564786717607 -0.0032207155525003838 0 -0.38026169374925373 0.001780029687210153 0 -0.36971374226368309 0.0065556750077519262 0 -0.3622564786717607 -0.0032207155525003838 0 -0.36239163518945527 0.014424479867587121 0 -0.36971374226368309 0.0065556750077519262 0 -0.37731685083307881 0.020558362116467711 0 -0.36239163518945527 0.014424479867587121 0 -0.36971374226368309 0.0065556750077519262 0 -0.35153259441424162 0.057035955299250152 0 -0.35122831195186649 0.044221731876718802 0 -0.36347344975323032 0.05034168714841572 0 -0.3515911391231204 0.059501444022680518 0 -0.35962503440131161 0.064246368358231068 0 -0.3515911391231204 0.059501444022680518 0 -0.35153259441424162 0.057035955299250152 0 -0.35962503440131161 0.064246368358231068 0 -0.3515911391231204 0.059501444022680518 0 -0.35153259441424162 0.057035955299250152 0 -0.34588000374761219 0.056128372269982241 0 -0.35153259441424162 0.057035955299250152 0 -0.34588000374761219 0.056128372269982241 0 -0.3515911391231204 0.059501444022680518 0 -0.34588000374761219 0.056128372269982241 0 -0.3515911391231204 0.059501444022680518 0 -0.34588000374761219 0.056128372269982241 0 -0.3435798998087316 0.063014331967841716 0 -0.3515911391231204 0.059501444022680518 0 -0.35153259441424162 0.057035955299250152 0 -0.35153259441424162 0.057035955299250152 0 -0.34588000374761219 0.056128372269982241 0 -0.35122831195186649 0.044221731876718802 0 -0.34096558171391123 0.046507019937654007 0 -0.34588000374761219 0.056128372269982241 0 -0.35122831195186649 0.044221731876718802 0 -0.35153259441424162 0.057035955299250152 0 -0.35122831195186649 0.044221731876718802 0 -0.3391927834591959 0.040368913677236988 0 -0.35122831195186649 0.044221731876718802 0 -0.34967169569872802 0.033305589215460882 0 -0.34096558171391123 0.046507019937654007 0 -0.3391927834591959 0.040368913677236988 0 -0.35122831195186649 0.044221731876718802 0 -0.36184711277314252 0.027413248715079299 0 -0.34967169569872802 0.033305589215460882 0 -0.36200491442118482 0.039627807571554242 0 -0.35122831195186649 0.044221731876718802 0 -0.34967169569872802 0.033305589215460882 0 -0.36200491442118482 0.039627807571554242 0 -0.35122831195186649 0.044221731876718802 0 -0.36200491442118482 0.039627807571554242 0 -0.36347344975323032 0.05034168714841572 0 -0.36200491442118482 0.039627807571554242 0 -0.37453737129068299 0.046511671593561427 0 -0.36347344975323032 0.05034168714841572 0 -0.36184711277314252 0.027413248715079299 0 -0.36200491442118482 0.039627807571554242 0 -0.37202796604525989 0.035598927357989828 0 -0.36200491442118482 0.039627807571554242 0 -0.37202796604525989 0.035598927357989828 0 -0.37453737129068299 0.046511671593561427 0 -0.35153259441424162 0.057035955299250152 0 -0.37271846918387808 0.060437570865498759 0 -0.35962503440131161 0.064246368358231068 0 -0.35153259441424162 0.057035955299250152 0 -0.37271846918387808 0.060437570865498759 0 -0.35153259441424162 0.057035955299250152 0 -0.36347344975323032 0.05034168714841572 0 -0.37271846918387808 0.060437570865498759 0 -0.37453737129068299 0.046511671593561427 0 -0.36347344975323032 0.05034168714841572 0 -0.37271846918387808 0.060437570865498759 0 -0.37271846918387808 0.060437570865498759 0 -0.35962503440131161 0.064246368358231068 0 -0.37861309559226031 0.07546096731806104 0 -0.37271846918387808 0.060437570865498759 0 -0.35962503440131161 0.064246368358231068 0 -0.37861309559226031 0.07546096731806104 0 -0.35962503440131161 0.064246368358231068 0 -0.37861309559226031 0.07546096731806104 0 -0.35962503440131161 0.064246368358231068 0 -0.36321304414051669 0.079853480209087155 0 -0.35962503440131161 0.064246368358231068 0 -0.35175815083474649 0.066534795108069256 0 -0.3515911391231204 0.059501444022680518 0 -0.35962503440131161 0.064246368358231068 0 -0.35175815083474649 0.066534795108069256 0 -0.35962503440131161 0.064246368358231068 0 -0.35175815083474649 0.066534795108069256 0 -0.36321304414051669 0.079853480209087155 0 -0.3515911391231204 0.059501444022680518 0 -0.35175815083474649 0.066534795108069256 0 -0.3515911391231204 0.059501444022680518 0 -0.35175815083474649 0.066534795108069256 0 -0.3435798998087316 0.063014331967841716 0 -0.35175815083474649 0.066534795108069256 0 -0.3523539006217426 0.091623559064084134 0 -0.36321304414051669 0.079853480209087155 0 -0.35175815083474649 0.066534795108069256 0 -0.3523539006217426 0.091623559064084134 0 -0.34043322340794918 0.082916070619692139 0 -0.35175815083474649 0.066534795108069256 0 -0.3523539006217426 0.091623559064084134 0 -0.37879289140473549 0.091995500054634236 0 -0.37861309559226031 0.07546096731806104 0 -0.36321304414051669 0.079853480209087155 0 -0.37879289140473549 0.091995500054634236 0 -0.36321304414051669 0.079853480209087155 0 -0.36694491698501192 0.104611890674563 0 -0.3523539006217426 0.091623559064084134 0 -0.36321304414051669 0.079853480209087155 0 -0.36694491698501192 0.104611890674563 0 -0.36963156976761108 0.13630751680878439 0 -0.36694491698501192 0.104611890674563 0 -0.35294965040873921 0.1167123230200989 0 -0.38472844556672708 0.1111789648906908 0 -0.36963156976761108 0.13630751680878439 0 -0.36694491698501192 0.104611890674563 0 -0.3523539006217426 0.091623559064084134 0 -0.36694491698501192 0.104611890674563 0 -0.35294965040873921 0.1167123230200989 0 -0.3523539006217426 0.091623559064084134 0 -0.35294965040873921 0.1167123230200989 0 -0.35294965040873921 0.1167123230200989 0 -0.33571216081910099 0.096464536079463342 0 -0.3523539006217426 0.091623559064084134 0 -0.35294965040873921 0.1167123230200989 0 -0.33571216081910099 0.096464536079463342 0 -0.34217438492003649 0.13008308880126629 0 -0.35294965040873921 0.1167123230200989 0 -0.33165975620705401 0.1155384216443347 0 -0.35294965040873921 0.1167123230200989 0 -0.33571216081910099 0.096464536079463342 0 -0.33165975620705401 0.1155384216443347 0 -0.31327437816127551 0.12594932630499539 0 -0.33165975620705401 0.1155384216443347 0 -0.31371493454795568 0.1089976590765339 0 -0.31327437816127551 0.12594932630499539 0 -0.32887327893741941 0.13024018622518641 0 -0.33165975620705401 0.1155384216443347 0 -0.31091188047652168 0.092531836473700196 0 -0.33571216081910099 0.096464536079463342 0 -0.31371493454795568 0.1089976590765339 0 -0.33571216081910099 0.096464536079463342 0 -0.33165975620705401 0.1155384216443347 0 -0.31371493454795568 0.1089976590765339 0 -0.31091188047652168 0.092531836473700196 0 -0.33571216081910099 0.096464536079463342 0 -0.31847467122946183 0.076216749138828865 0 -0.33571216081910099 0.096464536079463342 0 -0.31847467122946183 0.076216749138828865 0 -0.31847467122946183 0.076216749138828865 0 -0.322754481938402 0.065266556302927284 0 -0.33511641103210432 0.071375772123449602 0 -0.31403957616140488 0.071007123947613049 0 -0.31847467122946183 0.076216749138828865 0 -0.322754481938402 0.065266556302927284 0 -0.31847467122946183 0.076216749138828865 0 -0.33511641103210432 0.071375772123449602 0 -0.31403957616140488 0.071007123947613049 0 -0.31847467122946183 0.076216749138828865 0 -0.31412139215243651 0.061776954184551043 0 -0.31403957616140488 0.071007123947613049 0 -0.322754481938402 0.065266556302927284 0 -0.31847467122946183 0.076216749138828865 0 -0.33511641103210432 0.071375772123449602 0 -0.34043322340794918 0.082916070619692139 0 -0.35175815083474649 0.066534795108069256 0 -0.33511641103210432 0.071375772123449602 0 -0.35175815083474649 0.066534795108069256 0 -0.33511641103210432 0.071375772123449602 0 -0.3435798998087316 0.063014331967841716 0 -0.35175815083474649 0.066534795108069256 0 -0.33511641103210432 0.071375772123449602 0 -0.34043322340794918 0.082916070619692139 0 -0.33355379430607518 0.061531276315025488 0 -0.322754481938402 0.065266556302927284 0 -0.33511641103210432 0.071375772123449602 0 -0.33355379430607518 0.061531276315025488 0 -0.33511641103210432 0.071375772123449602 0 -0.3435798998087316 0.063014331967841716 0 -0.33571216081910099 0.096464536079463342 0 -0.31847467122946183 0.076216749138828865 0 -0.34043322340794918 0.082916070619692139 0 -0.3523539006217426 0.091623559064084134 0 -0.33571216081910099 0.096464536079463342 0 -0.34043322340794918 0.082916070619692139 0 -0.3827905794449179 0.5 0 -0.39055596950169919 0.4683293460201563 0 -0.36864334186632691 0.45518350263740748 0 -0.3827905794449179 0.5 0 -0.39055596950169919 0.4683293460201563 0 -0.41246859713707151 0.48147518940290512 0 -0.39055596950169919 0.4683293460201563 0 -0.41246859713707151 0.48147518940290512 0 -0.39055596950169919 0.4683293460201563 0 -0.40466677106016807 0.45507999328599641 0 -0.38828621775966032 0.43400103619120067 0 -0.39055596950169919 0.4683293460201563 0 -0.38828621775966032 0.43400103619120067 0 -0.36864334186632691 0.45518350263740748 0 -0.39055596950169919 0.4683293460201563 0 -0.36864334186632691 0.45518350263740748 0 -0.40466677106016807 0.45507999328599641 0 -0.41658137794140448 0.4398254132733479 0 -0.38828621775966032 0.43400103619120067 0 -0.39055596950169919 0.4683293460201563 0 -0.40466677106016807 0.45507999328599641 0 -0.41246859713707151 0.48147518940290512 0 -0.41956653127112009 0.46743544609651022 0 -0.41658137794140448 0.4398254132733479 0 -0.40466677106016807 0.45507999328599641 0 -0.41956653127112009 0.46743544609651022 0 -0.41658137794140448 0.4398254132733479 0 -0.40466677106016807 0.45507999328599641 0 -0.41956653127112009 0.46743544609651022 0 -0.41246859713707151 0.48147518940290512 0 -0.41658137794140448 0.4398254132733479 0 -0.43435711899012558 0.45064083814931499 0 -0.43828582244022118 0.42614500446166531 0 -0.41956653127112009 0.46743544609651022 0 -0.41658137794140448 0.4398254132733479 0 -0.43435711899012558 0.45064083814931499 0 -0.41956653127112009 0.46743544609651022 0 -0.43435711899012558 0.45064083814931499 0 -0.44098625085368559 0.46931467423275669 0 -0.427958018795632 0.48049193525557948 0 -0.4343812247724439 0.49462103278565378 0 -0.44098625085368559 0.46931467423275669 0 -0.41956653127112009 0.46743544609651022 0 -0.427958018795632 0.48049193525557948 0 -0.44098625085368559 0.46931467423275669 0 -0.3827905794449179 0.5 0 -0.41246859713707151 0.48147518940290512 0 -0.4343812247724439 0.49462103278565378 0 -0.41956653127112009 0.46743544609651022 0 -0.427958018795632 0.48049193525557948 0 -0.41246859713707151 0.48147518940290512 0 -0.427958018795632 0.48049193525557948 0 -0.41246859713707151 0.48147518940290512 0 -0.4343812247724439 0.49462103278565378 0 -0.41246859713707151 0.48147518940290512 0 -0.4343812247724439 0.49462103278565378 0 -0.3827905794449179 0.5 0 -0.4343812247724439 0.49462103278565378 0 -0.5 0.5 0 -0.4343812247724439 0.49462103278565378 0 -0.44098625085368559 0.46931467423275669 0 -0.46966956066394377 0.46972720339228352 0 -0.4343812247724439 0.49462103278565378 0 -0.5 0.5 0 -0.46966956066394377 0.46972720339228352 0 -0.5 0.5 0 -0.46966956066394377 0.46972720339228352 0 -0.5 0.45991133323031469 0 -0.5 0.45991133323031469 0 -0.4772760298368014 0.43874276274817903 0 -0.50000000000000022 0.43000639632146198 0 -0.46966956066394377 0.46972720339228352 0 -0.5 0.45991133323031469 0 -0.4772760298368014 0.43874276274817903 0 -0.46966956066394377 0.46972720339228352 0 -0.4772760298368014 0.43874276274817903 0 -0.4552879741674159 0.44814200241991931 0 -0.44098625085368559 0.46931467423275669 0 -0.46966956066394377 0.46972720339228352 0 -0.4552879741674159 0.44814200241991931 0 -0.43435711899012558 0.45064083814931499 0 -0.44098625085368559 0.46931467423275669 0 -0.4552879741674159 0.44814200241991931 0 -0.43435711899012558 0.45064083814931499 0 -0.4552879741674159 0.44814200241991931 0 -0.43828582244022118 0.42614500446166531 0 -0.4552879741674159 0.44814200241991931 0 -0.43828582244022118 0.42614500446166531 0 -0.460551731597171 0.42484679573647938 0 -0.43828582244022118 0.42614500446166531 0 -0.460551731597171 0.42484679573647938 0 -0.45460588769427768 0.39746734059460148 0 -0.43828582244022118 0.42614500446166531 0 -0.45460588769427768 0.39746734059460148 0 -0.43158662032393602 0.40164559826162521 0 -0.460551731597171 0.42484679573647938 0 -0.47730294384713912 0.41373686845803181 0 -0.45460588769427768 0.39746734059460148 0 -0.4772760298368014 0.43874276274817903 0 -0.4552879741674159 0.44814200241991931 0 -0.460551731597171 0.42484679573647938 0 -0.4772760298368014 0.43874276274817903 0 -0.460551731597171 0.42484679573647938 0 -0.47730294384713912 0.41373686845803181 0 -0.47730294384713912 0.41373686845803181 0 -0.50000000000000022 0.43000639632146198 0 -0.5 0.39999160889394741 0 -0.47730294384713912 0.41373686845803181 0 -0.50000000000000022 0.43000639632146198 0 -0.4772760298368014 0.43874276274817903 0 -0.47730294384713912 0.41373686845803181 0 -0.50000000000000022 0.43000639632146198 0 -0.5 0.39999160889394741 0 -0.4803790629903727 0.39186093508418302 0 -0.5 0.36997682146643301 0 -0.47730294384713912 0.41373686845803181 0 -0.5 0.39999160889394741 0 -0.4803790629903727 0.39186093508418302 0 -0.47730294384713912 0.41373686845803181 0 -0.4803790629903727 0.39186093508418302 0 -0.45460588769427768 0.39746734059460148 0 -0.4803790629903727 0.39186093508418302 0 -0.47093454018462128 0.37324935132778603 0 -0.5 0.36997682146643301 0 -0.4803790629903727 0.39186093508418302 0 -0.45460588769427768 0.39746734059460148 0 -0.47093454018462128 0.37324935132778603 0 -0.45460588769427768 0.39746734059460148 0 -0.45022808516452428 0.37167580953096208 0 -0.47093454018462128 0.37324935132778603 0 -0.47730294384713912 0.41373686845803181 0 -0.45460588769427768 0.39746734059460148 0 -0.45460588769427768 0.39746734059460148 0 -0.43190883154141629 0.38119781273117143 0 -0.43158662032393602 0.40164559826162521 0 -0.45460588769427768 0.39746734059460148 0 -0.43190883154141629 0.38119781273117143 0 -0.45022808516452428 0.37167580953096208 0 -0.45460588769427768 0.39746734059460148 0 -0.43190883154141629 0.38119781273117143 0 -0.43190883154141629 0.38119781273117143 0 -0.41061107128197322 0.38460534762702331 0 -0.43158662032393602 0.40164559826162521 0 -0.43190883154141629 0.38119781273117143 0 -0.41061107128197322 0.38460534762702331 0 -0.41915027835674828 0.36971571053334562 0 -0.41061107128197322 0.38460534762702331 0 -0.41359622461168882 0.41221538045018558 0 -0.41061107128197322 0.38460534762702331 0 -0.43158662032393602 0.40164559826162521 0 -0.41359622461168882 0.41221538045018558 0 -0.43828582244022118 0.42614500446166531 0 -0.43158662032393602 0.40164559826162521 0 -0.41359622461168882 0.41221538045018558 0 -0.41658137794140448 0.4398254132733479 0 -0.43828582244022118 0.42614500446166531 0 -0.41359622461168882 0.41221538045018558 0 -0.41658137794140448 0.4398254132733479 0 -0.41359622461168882 0.41221538045018558 0 -0.38828621775966032 0.43400103619120067 0 -0.39328875336624203 0.39987850448014561 0 -0.37232218285486829 0.40926707911351989 0 -0.41359622461168882 0.41221538045018558 0 -0.38828621775966032 0.43400103619120067 0 -0.39328875336624203 0.39987850448014561 0 -0.41658137794140448 0.4398254132733479 0 -0.41359622461168882 0.41221538045018558 0 -0.38828621775966032 0.43400103619120067 0 -0.38828621775966032 0.43400103619120067 0 -0.37232218285486829 0.40926707911351989 0 -0.36619159497856102 0.43121011482110511 0 -0.38125343040201293 0.38356408568492728 0 -0.39328875336624203 0.39987850448014561 0 -0.37232218285486829 0.40926707911351989 0 -0.41061107128197322 0.38460534762702331 0 -0.38125343040201293 0.38356408568492728 0 -0.39328875336624203 0.39987850448014561 0 -0.41061107128197322 0.38460534762702331 0 -0.38125343040201293 0.38356408568492728 0 -0.38835135029975609 0.36372298254949559 0 -0.41061107128197322 0.38460534762702331 0 -0.41359622461168882 0.41221538045018558 0 -0.39328875336624203 0.39987850448014561 0 -0.3918842199319823 0.34456421019021438 0 -0.38835135029975609 0.36372298254949559 0 -0.40762591795225761 0.35699531480386071 0 -0.41061107128197322 0.38460534762702331 0 -0.38835135029975609 0.36372298254949559 0 -0.40762591795225761 0.35699531480386071 0 -0.38125343040201293 0.38356408568492728 0 -0.38835135029975609 0.36372298254949559 0 -0.36532466674253439 0.37074706829505921 0 -0.38835135029975609 0.36372298254949559 0 -0.37201902544519061 0.35025646349734368 0 -0.36532466674253439 0.37074706829505921 0 -0.3918842199319823 0.34456421019021438 0 -0.38835135029975609 0.36372298254949559 0 -0.37201902544519061 0.35025646349734368 0 -0.3918842199319823 0.34456421019021438 0 -0.37788159701835072 0.33190851028044471 0 -0.37201902544519061 0.35025646349734368 0 -0.37788159701835072 0.33190851028044471 0 -0.40464076462254189 0.32938528198069822 0 -0.38341194823712982 0.31205121284724552 0 -0.40464076462254189 0.32938528198069822 0 -0.40165561129282629 0.30177524915753579 0 -0.40464076462254189 0.32938528198069822 0 -0.40165561129282629 0.30177524915753579 0 -0.38341194823712982 0.31205121284724552 0 -0.3918842199319823 0.34456421019021438 0 -0.37788159701835072 0.33190851028044471 0 -0.40464076462254189 0.32938528198069822 0 -0.40464076462254189 0.32938528198069822 0 -0.40762591795225761 0.35699531480386071 0 -0.3918842199319823 0.34456421019021438 0 -0.40464076462254189 0.32938528198069822 0 -0.40762591795225761 0.35699531480386071 0 -0.40464076462254189 0.32938528198069822 0 -0.43496978012413878 0.33111792335348378 0 -0.42115532017599849 0.34475441112301197 0 -0.40464076462254189 0.32938528198069822 0 -0.40762591795225761 0.35699531480386071 0 -0.42115532017599849 0.34475441112301197 0 -0.40464076462254189 0.32938528198069822 0 -0.43496978012413878 0.33111792335348378 0 -0.42286196687747613 0.30488091182472649 0 -0.43496978012413878 0.33111792335348378 0 -0.44857464458498397 0.30656969008695217 0 -0.42286196687747613 0.30488091182472649 0 -0.43496978012413878 0.33111792335348378 0 -0.43589450917006572 0.35775665084719971 0 -0.42115532017599849 0.34475441112301197 0 -0.43589450917006572 0.35775665084719971 0 -0.42115532017599849 0.34475441112301197 0 -0.41915027835674828 0.36971571053334562 0 -0.40762591795225761 0.35699531480386071 0 -0.42115532017599849 0.34475441112301197 0 -0.41915027835674828 0.36971571053334562 0 -0.41061107128197322 0.38460534762702331 0 -0.40762591795225761 0.35699531480386071 0 -0.41915027835674828 0.36971571053334562 0 -0.41061107128197322 0.38460534762702331 0 -0.40762591795225761 0.35699531480386071 0 -0.43190883154141629 0.38119781273117143 0 -0.43589450917006572 0.35775665084719971 0 -0.41915027835674828 0.36971571053334562 0 -0.43190883154141629 0.38119781273117143 0 -0.43589450917006572 0.35775665084719971 0 -0.45022808516452428 0.37167580953096208 0 -0.43589450917006572 0.35775665084719971 0 -0.45022808516452428 0.37167580953096208 0 -0.45779665723224039 0.3487078921540519 0 -0.43496978012413878 0.33111792335348378 0 -0.43589450917006572 0.35775665084719971 0 -0.45779665723224039 0.3487078921540519 0 -0.45022808516452428 0.37167580953096208 0 -0.45779665723224039 0.3487078921540519 0 -0.47093454018462128 0.37324935132778603 0 -0.47093454018462128 0.37324935132778603 0 -0.48060092579396729 0.35294957222444717 0 -0.5 0.36997682146643301 0 -0.45779665723224039 0.3487078921540519 0 -0.48060092579396729 0.35294957222444717 0 -0.4776213608227079 0.3312599660920249 0 -0.45779665723224039 0.3487078921540519 0 -0.47093454018462128 0.37324935132778603 0 -0.48060092579396729 0.35294957222444717 0 -0.48060092579396729 0.35294957222444717 0 -0.5 0.36997682146643301 0 -0.5 0.33996203403891823 0 -0.5 0.33996203403891823 0 -0.4776213608227079 0.3312599660920249 0 -0.5 0.30994724661140349 0 -0.48060092579396729 0.35294957222444717 0 -0.5 0.33996203403891823 0 -0.4776213608227079 0.3312599660920249 0 -0.4776213608227079 0.3312599660920249 0 -0.47428732229249188 0.30825846834917792 0 -0.5 0.30994724661140349 0 -0.4776213608227079 0.3312599660920249 0 -0.45615043444151709 0.32629878094509529 0 -0.47428732229249188 0.30825846834917792 0 -0.45615043444151709 0.32629878094509529 0 -0.44857464458498397 0.30656969008695217 0 -0.47428732229249188 0.30825846834917792 0 -0.45779665723224039 0.3487078921540519 0 -0.4776213608227079 0.3312599660920249 0 -0.45615043444151709 0.32629878094509529 0 -0.43496978012413878 0.33111792335348378 0 -0.45779665723224039 0.3487078921540519 0 -0.45615043444151709 0.32629878094509529 0 -0.43496978012413878 0.33111792335348378 0 -0.45615043444151709 0.32629878094509529 0 -0.44857464458498397 0.30656969008695217 0 -0.44857464458498397 0.30656969008695217 0 -0.460757565094219 0.28553238183837781 0 -0.43633618658823609 0.28898822880895558 0 -0.44857464458498397 0.30656969008695217 0 -0.47428732229249188 0.30825846834917792 0 -0.44857464458498397 0.30656969008695217 0 -0.460757565094219 0.28553238183837781 0 -0.47428732229249188 0.30825846834917792 0 -0.460757565094219 0.28553238183837781 0 -0.47428732229249188 0.30825846834917792 0 -0.48329557423616931 0.29184705078658207 0 -0.460757565094219 0.28553238183837781 0 -0.48329557423616931 0.29184705078658207 0 -0.48143298379413529 0.27274492892299901 0 -0.48329557423616931 0.29184705078658207 0 -0.5 0.28275222821095242 0 -0.48143298379413529 0.27274492892299901 0 -0.48329557423616931 0.29184705078658207 0 -0.5 0.28275222821095242 0 -0.5 0.30994724661140349 0 -0.47428732229249188 0.30825846834917792 0 -0.48329557423616931 0.29184705078658207 0 -0.5 0.30994724661140349 0 -0.47428732229249188 0.30825846834917792 0 -0.5 0.30994724661140349 0 -0.47927134528646531 0.24400249891552361 0 -0.5 0.25555720981050117 0 -0.48143298379413529 0.27274492892299901 0 -0.5 0.28275222821095242 0 -0.5 0.25555720981050117 0 -0.48143298379413529 0.27274492892299901 0 -0.48143298379413529 0.27274492892299901 0 -0.46187665919688398 0.26124782874656161 0 -0.47927134528646531 0.24400249891552361 0 -0.48143298379413529 0.27274492892299901 0 -0.46187665919688398 0.26124782874656161 0 -0.44232033459963249 0.24975072857012409 0 -0.46367901183081589 0.2459929755485861 0 -0.46187665919688398 0.26124782874656161 0 -0.47927134528646531 0.24400249891552361 0 -0.46367901183081589 0.2459929755485861 0 -0.46187665919688398 0.26124782874656161 0 -0.460757565094219 0.28553238183837781 0 -0.48143298379413529 0.27274492892299901 0 -0.46187665919688398 0.26124782874656161 0 -0.460757565094219 0.28553238183837781 0 -0.46187665919688398 0.26124782874656161 0 -0.44441705528503561 0.26859404952590682 0 -0.460757565094219 0.28553238183837781 0 -0.44441705528503561 0.26859404952590682 0 -0.43633618658823609 0.28898822880895558 0 -0.44232033459963249 0.24975072857012409 0 -0.44441705528503561 0.26859404952590682 0 -0.43027798896942648 0.25729758313145268 0 -0.44232033459963249 0.24975072857012409 0 -0.46187665919688398 0.26124782874656161 0 -0.44441705528503561 0.26859404952590682 0 -0.44232033459963249 0.24975072857012409 0 -0.46187665919688398 0.26124782874656161 0 -0.42276401000238112 0.23825362839368661 0 -0.43027798896942648 0.25729758313145268 0 -0.41526818973791851 0.25618087752486901 0 -0.43027798896942648 0.25729758313145268 0 -0.41526818973791851 0.25618087752486901 0 -0.42662035522216502 0.27370863164267739 0 -0.41526818973791851 0.25618087752486901 0 -0.41222587585409948 0.27137398365906917 0 -0.40242780349893309 0.26302410107343083 0 -0.41526818973791851 0.25618087752486901 0 -0.41222587585409948 0.27137398365906917 0 -0.42662035522216502 0.27370863164267739 0 -0.41222587585409948 0.27137398365906917 0 -0.41416222349779269 0.28654326326967561 0 -0.39867045796311062 0.27416521633437341 0 -0.41222587585409948 0.27137398365906917 0 -0.42662035522216502 0.27370863164267739 0 -0.41416222349779269 0.28654326326967561 0 -0.44441705528503561 0.26859404952590682 0 -0.43027798896942648 0.25729758313145268 0 -0.42662035522216502 0.27370863164267739 0 -0.44441705528503561 0.26859404952590682 0 -0.42662035522216502 0.27370863164267739 0 -0.43633618658823609 0.28898822880895558 0 -0.43633618658823609 0.28898822880895558 0 -0.42286196687747613 0.30488091182472649 0 -0.41416222349779269 0.28654326326967561 0 -0.42662035522216502 0.27370863164267739 0 -0.43633618658823609 0.28898822880895558 0 -0.41416222349779269 0.28654326326967561 0 -0.44857464458498397 0.30656969008695217 0 -0.43633618658823609 0.28898822880895558 0 -0.42286196687747613 0.30488091182472649 0 -0.44857464458498397 0.30656969008695217 0 -0.42286196687747613 0.30488091182472649 0 -0.42286196687747613 0.30488091182472649 0 -0.41416222349779269 0.28654326326967561 0 -0.40165561129282629 0.30177524915753579 0 -0.40464076462254189 0.32938528198069822 0 -0.42286196687747613 0.30488091182472649 0 -0.40165561129282629 0.30177524915753579 0 -0.41416222349779269 0.28654326326967561 0 -0.40165561129282629 0.30177524915753579 0 -0.39867045796311062 0.27416521633437341 0 -0.40165561129282629 0.30177524915753579 0 -0.39867045796311062 0.27416521633437341 0 -0.39066478349911099 0.28663907106000391 0 -0.40165561129282629 0.30177524915753579 0 -0.38252781369212557 0.29365395475106948 0 -0.39066478349911099 0.28663907106000391 0 -0.40165561129282629 0.30177524915753579 0 -0.39867045796311062 0.27416521633437341 0 -0.40165561129282629 0.30177524915753579 0 -0.38341194823712982 0.31205121284724552 0 -0.38252781369212557 0.29365395475106948 0 -0.38341194823712982 0.31205121284724552 0 -0.38252781369212557 0.29365395475106948 0 -0.37075698576715138 0.30098594389909589 0 -0.39066478349911099 0.28663907106000391 0 -0.38252781369212557 0.29365395475106948 0 -0.37980525104838159 0.27696186399703709 0 -0.38252781369212557 0.29365395475106948 0 -0.37980525104838159 0.27696186399703709 0 -0.3686989296275221 0.28809436578274172 0 -0.37980525104838159 0.27696186399703709 0 -0.38530848386116268 0.26359890362392718 0 -0.36852861278281013 0.26299822445170579 0 -0.39066478349911099 0.28663907106000391 0 -0.37980525104838159 0.27696186399703709 0 -0.39867045796311062 0.27416521633437341 0 -0.37980525104838159 0.27696186399703709 0 -0.38530848386116268 0.26359890362392718 0 -0.39867045796311062 0.27416521633437341 0 -0.38530848386116268 0.26359890362392718 0 -0.37676997870215412 0.25311025520394509 0 -0.36852861278281013 0.26299822445170579 0 -0.38125512406302298 0.23638457690801251 0 -0.38530848386116268 0.26359890362392718 0 -0.37676997870215412 0.25311025520394509 0 -0.40020954799688602 0.2494290668338234 0 -0.38530848386116268 0.26359890362392718 0 -0.40242780349893309 0.26302410107343083 0 -0.39107181206516778 0.24686383234283149 0 -0.40020954799688602 0.2494290668338234 0 -0.38530848386116268 0.26359890362392718 0 -0.40020954799688602 0.2494290668338234 0 -0.41526818973791851 0.25618087752486901 0 -0.40242780349893309 0.26302410107343083 0 -0.41222587585409948 0.27137398365906917 0 -0.40242780349893309 0.26302410107343083 0 -0.39867045796311062 0.27416521633437341 0 -0.38530848386116268 0.26359890362392718 0 -0.40242780349893309 0.26302410107343083 0 -0.39867045796311062 0.27416521633437341 0 -0.35601707160558982 0.27106354013768619 0 -0.34671957487422939 0.26923269730858052 0 -0.35619852372575639 0.2573025576767981 0 -0.35601707160558982 0.27106354013768619 0 -0.34618093481824008 0.27710846248924231 0 -0.35668239268261498 0.28313667060002262 0 -0.35601707160558982 0.27106354013768619 0 -0.36524669248623731 0.27673181450609291 0 -0.35668239268261498 0.28313667060002262 0 -0.34618093481824008 0.27710846248924231 0 -0.34671957487422939 0.26923269730858052 0 -0.35601707160558982 0.27106354013768619 0 -0.34618093481824008 0.27710846248924231 0 -0.34671957487422939 0.26923269730858052 0 -0.34841513450358119 0.24444094752668269 0 -0.34671957487422939 0.26923269730858052 0 -0.34841513450358119 0.24444094752668269 0 -0.34671957487422939 0.26923269730858052 0 -0.35619852372575639 0.2573025576767981 0 -0.34841513450358119 0.24444094752668269 0 -0.34671957487422939 0.26923269730858052 0 -0.33978737822478411 0.25986465252918389 0 -0.34671957487422939 0.26923269730858052 0 -0.35619852372575639 0.2573025576767981 0 -0.35601707160558982 0.27106354013768619 0 -0.35619852372575639 0.2573025576767981 0 -0.36852861278281013 0.26299822445170579 0 -0.35619852372575639 0.2573025576767981 0 -0.36823185577447293 0.25353030447472152 0 -0.36852861278281013 0.26299822445170579 0 -0.365677472577283 0.24537241804501561 0 -0.35619852372575639 0.2573025576767981 0 -0.36823185577447293 0.25353030447472152 0 -0.365677472577283 0.24537241804501561 0 -0.35619852372575639 0.2573025576767981 0 -0.37676997870215412 0.25311025520394509 0 -0.36823185577447293 0.25353030447472152 0 -0.36852861278281013 0.26299822445170579 0 -0.3726431826559814 0.24629667649255019 0 -0.37676997870215412 0.25311025520394509 0 -0.36823185577447293 0.25353030447472152 0 -0.37980525104838159 0.27696186399703709 0 -0.36852861278281013 0.26299822445170579 0 -0.36524669248623731 0.27673181450609291 0 -0.35601707160558982 0.27106354013768619 0 -0.36852861278281013 0.26299822445170579 0 -0.36524669248623731 0.27673181450609291 0 -0.37980525104838159 0.27696186399703709 0 -0.36524669248623731 0.27673181450609291 0 -0.3686989296275221 0.28809436578274172 0 -0.38252781369212557 0.29365395475106948 0 -0.3686989296275221 0.28809436578274172 0 -0.37075698576715138 0.30098594389909589 0 -0.3686989296275221 0.28809436578274172 0 -0.37075698576715138 0.30098594389909589 0 -0.35717444208862192 0.29709594694313252 0 -0.3686989296275221 0.28809436578274172 0 -0.35717444208862192 0.29709594694313252 0 -0.35668239268261498 0.28313667060002262 0 -0.36524669248623731 0.27673181450609291 0 -0.3686989296275221 0.28809436578274172 0 -0.35668239268261498 0.28313667060002262 0 -0.38341194823712982 0.31205121284724552 0 -0.37075698576715138 0.30098594389909589 0 -0.36277528361694572 0.3145020204235861 0 -0.37075698576715138 0.30098594389909589 0 -0.35717444208862192 0.29709594694313252 0 -0.36277528361694572 0.3145020204235861 0 -0.35717444208862192 0.29709594694313252 0 -0.34155253547940312 0.30531097659032408 0 -0.36277528361694572 0.3145020204235861 0 -0.35717444208862192 0.29709594694313252 0 -0.34640752835161481 0.28992537126616769 0 -0.34155253547940312 0.30531097659032408 0 -0.35717444208862192 0.29709594694313252 0 -0.35668239268261498 0.28313667060002262 0 -0.34640752835161481 0.28992537126616769 0 -0.34618093481824008 0.27710846248924231 0 -0.35668239268261498 0.28313667060002262 0 -0.34640752835161481 0.28992537126616769 0 -0.34640752835161481 0.28992537126616769 0 -0.33325635928693892 0.2861774075675988 0 -0.34155253547940312 0.30531097659032408 0 -0.34618093481824008 0.27710846248924231 0 -0.34640752835161481 0.28992537126616769 0 -0.33325635928693892 0.2861774075675988 0 -0.33325635928693892 0.2861774075675988 0 -0.34155253547940312 0.30531097659032408 0 -0.31979314369964801 0.30312211782661691 0 -0.34155253547940312 0.30531097659032408 0 -0.31979314369964801 0.30312211782661691 0 -0.32865615686585897 0.32156583669801442 0 -0.31979314369964801 0.30312211782661691 0 -0.30632992811235721 0.32006682808563502 0 -0.31979314369964801 0.30312211782661691 0 -0.32301549698457638 0.28134334111212361 0 -0.31026758868155269 0.28251444373424389 0 -0.33325635928693892 0.2861774075675988 0 -0.31979314369964801 0.30312211782661691 0 -0.32301549698457638 0.28134334111212361 0 -0.33325635928693892 0.2861774075675988 0 -0.31979314369964801 0.30312211782661691 0 -0.32301549698457638 0.28134334111212361 0 -0.33165781918716247 0.27057318264127789 0 -0.3201025740675803 0.26432955379088041 0 -0.32301549698457638 0.28134334111212361 0 -0.3201025740675803 0.26432955379088041 0 -0.31026758868155269 0.28251444373424389 0 -0.33325635928693892 0.2861774075675988 0 -0.32301549698457638 0.28134334111212361 0 -0.33165781918716247 0.27057318264127789 0 -0.34618093481824008 0.27710846248924231 0 -0.34671957487422939 0.26923269730858052 0 -0.33325635928693892 0.2861774075675988 0 -0.34671957487422939 0.26923269730858052 0 -0.33325635928693892 0.2861774075675988 0 -0.34671957487422939 0.26923269730858052 0 -0.33325635928693892 0.2861774075675988 0 -0.33165781918716247 0.27057318264127789 0 -0.34671957487422939 0.26923269730858052 0 -0.33165781918716247 0.27057318264127789 0 -0.33978737822478411 0.25986465252918389 0 -0.34841513450358119 0.24444094752668269 0 -0.33978737822478411 0.25986465252918389 0 -0.33235698433416339 0.25521178264019467 0 -0.33165781918716247 0.27057318264127789 0 -0.33978737822478411 0.25986465252918389 0 -0.33235698433416339 0.25521178264019467 0 -0.32112930310028709 0.2466169131273048 0 -0.30817986186735941 0.24732554518125391 0 -0.3201025740675803 0.26432955379088041 0 -0.32112930310028709 0.2466169131273048 0 -0.33235698433416339 0.25521178264019467 0 -0.3201025740675803 0.26432955379088041 0 -0.33165781918716247 0.27057318264127789 0 -0.33235698433416339 0.25521178264019467 0 -0.3201025740675803 0.26432955379088041 0 -0.30817986186735941 0.24732554518125391 0 -0.30511396499773419 0.26578923452446251 0 -0.29196101805165731 0.25560451879594143 0 -0.30817986186735941 0.24732554518125391 0 -0.3201025740675803 0.26432955379088041 0 -0.30511396499773419 0.26578923452446251 0 -0.30511396499773419 0.26578923452446251 0 -0.29486464407720908 0.28019598693032138 0 -0.29196101805165731 0.25560451879594143 0 -0.30511396499773419 0.26578923452446251 0 -0.29486464407720908 0.28019598693032138 0 -0.31026758868155269 0.28251444373424389 0 -0.3201025740675803 0.26432955379088041 0 -0.30511396499773419 0.26578923452446251 0 -0.31026758868155269 0.28251444373424389 0 -0.29486464407720908 0.28019598693032138 0 -0.29196101805165731 0.25560451879594143 0 -0.27885573811185888 0.28028832016328531 0 -0.29196101805165731 0.25560451879594143 0 -0.26896324905769647 0.26784193539381129 0 -0.29196101805165731 0.25560451879594143 0 -0.27799867115793958 0.25153773544604102 0 -0.26896324905769647 0.26784193539381129 0 -0.27799867115793958 0.25153773544604102 0 -0.26753070776848159 0.25438102187248229 0 -0.26896324905769647 0.26784193539381129 0 -0.27885573811185888 0.28028832016328531 0 -0.26896324905769647 0.26784193539381129 0 -0.26267925354151311 0.28383120725400501 0 -0.29196101805165731 0.25560451879594143 0 -0.27885573811185888 0.28028832016328531 0 -0.26896324905769647 0.26784193539381129 0 -0.26896324905769647 0.26784193539381129 0 -0.24596548006373559 0.28007935199168121 0 -0.26896324905769647 0.26784193539381129 0 -0.26267925354151311 0.28383120725400501 0 -0.24596548006373559 0.28007935199168121 0 -0.26896324905769647 0.26784193539381129 0 -0.25520130937803109 0.26883872543203041 0 -0.24596548006373559 0.28007935199168121 0 -0.26753070776848159 0.25438102187248229 0 -0.24876127740294221 0.2528047040624225 0 -0.24095723218311091 0.26808330557051868 0 -0.26753070776848159 0.25438102187248229 0 -0.24095723218311091 0.26808330557051868 0 -0.26753070776848159 0.25438102187248229 0 -0.25520130937803109 0.26883872543203041 0 -0.24095723218311091 0.26808330557051868 0 -0.26753070776848159 0.25438102187248229 0 -0.26896324905769647 0.26784193539381129 0 -0.25520130937803109 0.26883872543203041 0 -0.25472341230510098 0.30887321963266001 0 -0.26961593452121652 0.29864527084501802 0 -0.26867471868112808 0.31769630913793567 0 -0.25472341230510098 0.30887321963266001 0 -0.25319554269661387 0.29366757690703482 0 -0.26961593452121652 0.29864527084501802 0 -0.25472341230510098 0.30887321963266001 0 -0.25319554269661387 0.29366757690703482 0 -0.24347169829486681 0.30254630321753589 0 -0.25319554269661387 0.29366757690703482 0 -0.26267925354151311 0.28383120725400501 0 -0.26961593452121652 0.29864527084501802 0 -0.25319554269661387 0.29366757690703482 0 -0.26267925354151311 0.28383120725400501 0 -0.24596548006373559 0.28007935199168121 0 -0.27885573811185888 0.28028832016328531 0 -0.26961593452121652 0.29864527084501802 0 -0.2851868380785974 0.29541653706142079 0 -0.27885573811185888 0.28028832016328531 0 -0.26267925354151311 0.28383120725400501 0 -0.26961593452121652 0.29864527084501802 0 -0.26961593452121652 0.29864527084501802 0 -0.2851868380785974 0.29541653706142079 0 -0.28491548360739921 0.31502017440761187 0 -0.26961593452121652 0.29864527084501802 0 -0.28491548360739921 0.31502017440761187 0 -0.26867471868112808 0.31769630913793567 0 -0.2851868380785974 0.29541653706142079 0 -0.29962190507020681 0.30016997851471822 0 -0.28491548360739921 0.31502017440761187 0 -0.29486464407720908 0.28019598693032138 0 -0.2851868380785974 0.29541653706142079 0 -0.29962190507020681 0.30016997851471822 0 -0.29486464407720908 0.28019598693032138 0 -0.27885573811185888 0.28028832016328531 0 -0.2851868380785974 0.29541653706142079 0 -0.31979314369964801 0.30312211782661691 0 -0.31026758868155269 0.28251444373424389 0 -0.29962190507020681 0.30016997851471822 0 -0.29486464407720908 0.28019598693032138 0 -0.31026758868155269 0.28251444373424389 0 -0.29962190507020681 0.30016997851471822 0 -0.29962190507020681 0.30016997851471822 0 -0.30632992811235721 0.32006682808563502 0 -0.28491548360739921 0.31502017440761187 0 -0.31979314369964801 0.30312211782661691 0 -0.29962190507020681 0.30016997851471822 0 -0.30632992811235721 0.32006682808563502 0 -0.30632992811235721 0.32006682808563502 0 -0.3029968728812315 0.34296218473764012 0 -0.32016184307330908 0.34045261513984371 0 -0.30632992811235721 0.32006682808563502 0 -0.3029968728812315 0.34296218473764012 0 -0.29319031625017788 0.32801983335366702 0 -0.3029968728812315 0.34296218473764012 0 -0.29319031625017788 0.32801983335366702 0 -0.2810843339047438 0.33727848729975302 0 -0.28491548360739921 0.31502017440761187 0 -0.29319031625017788 0.32801983335366702 0 -0.2810843339047438 0.33727848729975302 0 -0.30632992811235721 0.32006682808563502 0 -0.28491548360739921 0.31502017440761187 0 -0.29319031625017788 0.32801983335366702 0 -0.28491548360739921 0.31502017440761187 0 -0.26867471868112808 0.31769630913793567 0 -0.2810843339047438 0.33727848729975302 0 -0.26867471868112808 0.31769630913793567 0 -0.2810843339047438 0.33727848729975302 0 -0.25839961193523758 0.34080969025861529 0 -0.25839961193523758 0.34080969025861529 0 -0.25377111074274072 0.32346642096175449 0 -0.2403373306542288 0.33608942090753469 0 -0.26867471868112808 0.31769630913793567 0 -0.25839961193523758 0.34080969025861529 0 -0.25377111074274072 0.32346642096175449 0 -0.25472341230510098 0.30887321963266001 0 -0.26867471868112808 0.31769630913793567 0 -0.25377111074274072 0.32346642096175449 0 -0.25495219836938332 0.37104419793038118 0 -0.26770335801926187 0.35935668786389502 0 -0.2471350300773151 0.35938575025991659 0 -0.25495219836938332 0.37104419793038118 0 -0.26770335801926187 0.35935668786389502 0 -0.26906829360360529 0.3753550697319693 0 -0.25839961193523758 0.34080969025861529 0 -0.26770335801926187 0.35935668786389502 0 -0.2471350300773151 0.35938575025991659 0 -0.2810843339047438 0.33727848729975302 0 -0.26770335801926187 0.35935668786389502 0 -0.28958724664160818 0.35367881448823268 0 -0.2810843339047438 0.33727848729975302 0 -0.25839961193523758 0.34080969025861529 0 -0.26770335801926187 0.35935668786389502 0 -0.26770335801926187 0.35935668786389502 0 -0.2864385631271571 0.37139895105386722 0 -0.28958724664160818 0.35367881448823268 0 -0.26770335801926187 0.35935668786389502 0 -0.2864385631271571 0.37139895105386722 0 -0.26906829360360529 0.3753550697319693 0 -0.2864385631271571 0.37139895105386722 0 -0.28958724664160818 0.35367881448823268 0 -0.31052958513820761 0.36415199562372369 0 -0.3029968728812315 0.34296218473764012 0 -0.2810843339047438 0.33727848729975302 0 -0.28958724664160818 0.35367881448823268 0 -0.3029968728812315 0.34296218473764012 0 -0.28958724664160818 0.35367881448823268 0 -0.31052958513820761 0.36415199562372369 0 -0.3029968728812315 0.34296218473764012 0 -0.31052958513820761 0.36415199562372369 0 -0.32016184307330908 0.34045261513984371 0 -0.2864385631271571 0.37139895105386722 0 -0.31052958513820761 0.36415199562372369 0 -0.29973132043966783 0.38709780548941181 0 -0.31052958513820761 0.36415199562372369 0 -0.33299186803046932 0.35968442960904762 0 -0.32472331627718282 0.38861933954016259 0 -0.33299186803046932 0.35968442960904762 0 -0.35208854281346669 0.35597891845094731 0 -0.34615819774164852 0.37958756766054452 0 -0.33299186803046932 0.35968442960904762 0 -0.32016184307330908 0.34045261513984371 0 -0.3390589288587772 0.33941526750975293 0 -0.33299186803046932 0.35968442960904762 0 -0.3390589288587772 0.33941526750975293 0 -0.35208854281346669 0.35597891845094731 0 -0.31052958513820761 0.36415199562372369 0 -0.33299186803046932 0.35968442960904762 0 -0.32016184307330908 0.34045261513984371 0 -0.31979314369964801 0.30312211782661691 0 -0.30632992811235721 0.32006682808563502 0 -0.32865615686585897 0.32156583669801442 0 -0.30632992811235721 0.32006682808563502 0 -0.32016184307330908 0.34045261513984371 0 -0.32865615686585897 0.32156583669801442 0 -0.34155253547940312 0.30531097659032408 0 -0.32865615686585897 0.32156583669801442 0 -0.34545044998010932 0.3232693713860022 0 -0.32865615686585897 0.32156583669801442 0 -0.3390589288587772 0.33941526750975293 0 -0.34545044998010932 0.3232693713860022 0 -0.32016184307330908 0.34045261513984371 0 -0.32865615686585897 0.32156583669801442 0 -0.3390589288587772 0.33941526750975293 0 -0.3390589288587772 0.33941526750975293 0 -0.35799224462602358 0.33605340333925532 0 -0.34545044998010932 0.3232693713860022 0 -0.34155253547940312 0.30531097659032408 0 -0.34545044998010932 0.3232693713860022 0 -0.36277528361694572 0.3145020204235861 0 -0.35799224462602358 0.33605340333925532 0 -0.34545044998010932 0.3232693713860022 0 -0.36277528361694572 0.3145020204235861 0 -0.37788159701835072 0.33190851028044471 0 -0.38341194823712982 0.31205121284724552 0 -0.36277528361694572 0.3145020204235861 0 -0.37788159701835072 0.33190851028044471 0 -0.35799224462602358 0.33605340333925532 0 -0.36277528361694572 0.3145020204235861 0 -0.37788159701835072 0.33190851028044471 0 -0.35799224462602358 0.33605340333925532 0 -0.37201902544519061 0.35025646349734368 0 -0.35799224462602358 0.33605340333925532 0 -0.37201902544519061 0.35025646349734368 0 -0.35208854281346669 0.35597891845094731 0 -0.37201902544519061 0.35025646349734368 0 -0.36532466674253439 0.37074706829505921 0 -0.35208854281346669 0.35597891845094731 0 -0.36532466674253439 0.37074706829505921 0 -0.35208854281346669 0.35597891845094731 0 -0.34615819774164852 0.37958756766054452 0 -0.3390589288587772 0.33941526750975293 0 -0.35799224462602358 0.33605340333925532 0 -0.35208854281346669 0.35597891845094731 0 -0.34615819774164852 0.37958756766054452 0 -0.36255204606514069 0.3913612373068559 0 -0.34377996462718963 0.41004592134232581 0 -0.36532466674253439 0.37074706829505921 0 -0.34615819774164852 0.37958756766054452 0 -0.36255204606514069 0.3913612373068559 0 -0.38125343040201293 0.38356408568492728 0 -0.36532466674253439 0.37074706829505921 0 -0.36255204606514069 0.3913612373068559 0 -0.38125343040201293 0.38356408568492728 0 -0.36255204606514069 0.3913612373068559 0 -0.37232218285486829 0.40926707911351989 0 -0.36255204606514069 0.3913612373068559 0 -0.37232218285486829 0.40926707911351989 0 -0.34377996462718963 0.41004592134232581 0 -0.36619159497856102 0.43121011482110511 0 -0.34377996462718963 0.41004592134232581 0 -0.34673071423095458 0.44203765925465882 0 -0.37232218285486829 0.40926707911351989 0 -0.36619159497856102 0.43121011482110511 0 -0.34377996462718963 0.41004592134232581 0 -0.34377996462718963 0.41004592134232581 0 -0.32932948593050981 0.42798135486562627 0 -0.31146424929690059 0.41318140855659929 0 -0.34377996462718963 0.41004592134232581 0 -0.32932948593050981 0.42798135486562627 0 -0.34673071423095458 0.44203765925465882 0 -0.32932948593050981 0.42798135486562627 0 -0.31146424929690059 0.41318140855659929 0 -0.3117216301057596 0.44296700602485412 0 -0.34377996462718963 0.41004592134232581 0 -0.32472331627718282 0.38861933954016259 0 -0.31146424929690059 0.41318140855659929 0 -0.34615819774164852 0.37958756766054452 0 -0.34377996462718963 0.41004592134232581 0 -0.32472331627718282 0.38861933954016259 0 -0.33299186803046932 0.35968442960904762 0 -0.34615819774164852 0.37958756766054452 0 -0.32472331627718282 0.38861933954016259 0 -0.31052958513820761 0.36415199562372369 0 -0.32472331627718282 0.38861933954016259 0 -0.29973132043966783 0.38709780548941181 0 -0.32472331627718282 0.38861933954016259 0 -0.29973132043966783 0.38709780548941181 0 -0.31146424929690059 0.41318140855659929 0 -0.29973132043966783 0.38709780548941181 0 -0.28168954024113158 0.40812530945664149 0 -0.31146424929690059 0.41318140855659929 0 -0.29973132043966783 0.38709780548941181 0 -0.27821954413451389 0.3874946502277819 0 -0.28168954024113158 0.40812530945664149 0 -0.2864385631271571 0.37139895105386722 0 -0.29973132043966783 0.38709780548941181 0 -0.27821954413451389 0.3874946502277819 0 -0.27821954413451389 0.3874946502277819 0 -0.26906829360360529 0.3753550697319693 0 -0.25824411560826399 0.38594659662541841 0 -0.2864385631271571 0.37139895105386722 0 -0.27821954413451389 0.3874946502277819 0 -0.26906829360360529 0.3753550697319693 0 -0.27821954413451389 0.3874946502277819 0 -0.26062057036094738 0.40297122170995398 0 -0.28168954024113158 0.40812530945664149 0 -0.27821954413451389 0.3874946502277819 0 -0.26062057036094738 0.40297122170995398 0 -0.25824411560826399 0.38594659662541841 0 -0.26062057036094738 0.40297122170995398 0 -0.25824411560826399 0.38594659662541841 0 -0.2431108887785752 0.39311585256634118 0 -0.25495219836938332 0.37104419793038118 0 -0.25824411560826399 0.38594659662541841 0 -0.23808268936379981 0.37595139682938949 0 -0.25495219836938332 0.37104419793038118 0 -0.26906829360360529 0.3753550697319693 0 -0.25824411560826399 0.38594659662541841 0 -0.26147869440212279 0.43179533862150571 0 -0.24256739124621299 0.41220700609406608 0 -0.26062057036094738 0.40297122170995398 0 -0.26147869440212279 0.43179533862150571 0 -0.24256739124621299 0.41220700609406608 0 -0.26062057036094738 0.40297122170995398 0 -0.26147869440212279 0.43179533862150571 0 -0.28168954024113158 0.40812530945664149 0 -0.26147869440212279 0.43179533862150571 0 -0.28934882232078951 0.42949054676170922 0 -0.28168954024113158 0.40812530945664149 0 -0.28934882232078951 0.42949054676170922 0 -0.28168954024113158 0.40812530945664149 0 -0.31146424929690059 0.41318140855659929 0 -0.28934882232078951 0.42949054676170922 0 -0.31146424929690059 0.41318140855659929 0 -0.3117216301057596 0.44296700602485412 0 -0.27078119098970121 0.47560318227805187 0 -0.29212709411627202 0.5 0 -0.22676464465278429 0.5 0 -0.3117216301057596 0.44296700602485412 0 -0.30454544511682002 0.46834816670139767 0 -0.28038999755803268 0.45138367114894551 0 -0.28934882232078951 0.42949054676170922 0 -0.3117216301057596 0.44296700602485412 0 -0.28038999755803268 0.45138367114894551 0 -0.30454544511682002 0.46834816670139767 0 -0.28038999755803268 0.45138367114894551 0 -0.27078119098970121 0.47560318227805187 0 -0.26147869440212279 0.43179533862150571 0 -0.28038999755803268 0.45138367114894551 0 -0.26147869440212279 0.43179533862150571 0 -0.28934882232078951 0.42949054676170922 0 -0.28038999755803268 0.45138367114894551 0 -0.28038999755803268 0.45138367114894551 0 -0.2500787735045969 0.45828407353991618 0 -0.27078119098970121 0.47560318227805187 0 -0.26147869440212279 0.43179533862150571 0 -0.28038999755803268 0.45138367114894551 0 -0.2500787735045969 0.45828407353991618 0 -0.30454544511682002 0.46834816670139767 0 -0.29212709411627202 0.5 0 -0.33572374952182898 0.47630291232257549 0 -0.30454544511682002 0.46834816670139767 0 -0.27078119098970121 0.47560318227805187 0 -0.29212709411627202 0.5 0 -0.3827905794449179 0.5 0 -0.29212709411627202 0.5 0 -0.33572374952182898 0.47630291232257549 0 -0.3117216301057596 0.44296700602485412 0 -0.30454544511682002 0.46834816670139767 0 -0.33133958567895738 0.45585238013620122 0 -0.30454544511682002 0.46834816670139767 0 -0.33572374952182898 0.47630291232257549 0 -0.33133958567895738 0.45585238013620122 0 -0.32932948593050981 0.42798135486562627 0 -0.3117216301057596 0.44296700602485412 0 -0.33133958567895738 0.45585238013620122 0 -0.32932948593050981 0.42798135486562627 0 -0.33133958567895738 0.45585238013620122 0 -0.34673071423095458 0.44203765925465882 0 -0.33572374952182898 0.47630291232257549 0 -0.33133958567895738 0.45585238013620122 0 -0.36864334186632691 0.45518350263740748 0 -0.33133958567895738 0.45585238013620122 0 -0.34673071423095458 0.44203765925465882 0 -0.36864334186632691 0.45518350263740748 0 -0.34673071423095458 0.44203765925465882 0 -0.36864334186632691 0.45518350263740748 0 -0.36619159497856102 0.43121011482110511 0 -0.34673071423095458 0.44203765925465882 0 -0.36864334186632691 0.45518350263740748 0 -0.38828621775966032 0.43400103619120067 0 -0.36619159497856102 0.43121011482110511 0 -0.36864334186632691 0.45518350263740748 0 -0.3827905794449179 0.5 0 -0.33572374952182898 0.47630291232257549 0 -0.36864334186632691 0.45518350263740748 0 -0.1456546657203556 0.4999999999999995 0 -0.17222074236697629 0.48922091640599658 0 -0.22676464465278429 0.5 0 -0.15444645870102441 0.48201772721012209 0 -0.13535268249389321 0.48021805930151351 0 -0.1424855301907611 0.46137787349155368 0 -0.15444645870102441 0.48201772721012209 0 -0.1424855301907611 0.46137787349155368 0 -0.15980345261285761 0.46360268687191297 0 -0.15444645870102441 0.48201772721012209 0 -0.1456546657203556 0.4999999999999995 0 -0.13535268249389321 0.48021805930151351 0 -0.1456546657203556 0.4999999999999995 0 -0.13535268249389321 0.48021805930151351 0 -0.1456546657203556 0.4999999999999995 0 -0.13535268249389321 0.48021805930151351 0 -0.11694584121169049 0.5 0 -0.13535268249389321 0.48021805930151351 0 -0.12505069926743059 0.46043611860302752 0 -0.13535268249389321 0.48021805930151351 0 -0.12505069926743059 0.46043611860302752 0 -0.1424855301907611 0.46137787349155368 0 -0.12505069926743059 0.46043611860302752 0 -0.1327998323608354 0.4464443629262137 0 -0.1424855301907611 0.46137787349155368 0 -0.1327998323608354 0.4464443629262137 0 -0.14738616285873879 0.43798445733782942 0 -0.12876126653444539 0.43176824396660829 0 -0.1327998323608354 0.4464443629262137 0 -0.12876126653444539 0.43176824396660829 0 -0.1147487160409681 0.44065417790454159 0 -0.1327998323608354 0.4464443629262137 0 -0.14738616285873879 0.43798445733782942 0 -0.1424855301907611 0.46137787349155368 0 -0.14738616285873879 0.43798445733782942 0 -0.15980345261285761 0.46360268687191297 0 -0.14738616285873879 0.43798445733782942 0 -0.1424855301907611 0.46137787349155368 0 -0.15980345261285761 0.46360268687191297 0 -0.15980345261285761 0.46360268687191297 0 -0.17560702934822159 0.44491732679063678 0 -0.19196087962881511 0.46295528261940411 0 -0.14738616285873879 0.43798445733782942 0 -0.15980345261285761 0.46360268687191297 0 -0.17560702934822159 0.44491732679063678 0 -0.15980345261285761 0.46360268687191297 0 -0.17222074236697629 0.48922091640599658 0 -0.19196087962881511 0.46295528261940411 0 -0.15444645870102441 0.48201772721012209 0 -0.15980345261285761 0.46360268687191297 0 -0.17222074236697629 0.48922091640599658 0 -0.15980345261285761 0.46360268687191297 0 -0.17222074236697629 0.48922091640599658 0 -0.15444645870102441 0.48201772721012209 0 -0.1456546657203556 0.4999999999999995 0 -0.17222074236697629 0.48922091640599658 0 -0.17222074236697629 0.48922091640599658 0 -0.22676464465278429 0.5 0 -0.19196087962881511 0.46295528261940411 0 -0.22676464465278429 0.5 0 -0.22087160732595509 0.45207592423486531 0 -0.19196087962881511 0.46295528261940411 0 -0.2500787735045969 0.45828407353991618 0 -0.27078119098970121 0.47560318227805187 0 -0.22676464465278429 0.5 0 -0.2500787735045969 0.45828407353991618 0 -0.22676464465278429 0.5 0 -0.22087160732595509 0.45207592423486531 0 -0.26147869440212279 0.43179533862150571 0 -0.2500787735045969 0.45828407353991618 0 -0.23811142315988459 0.43473111178919932 0 -0.2500787735045969 0.45828407353991618 0 -0.22087160732595509 0.45207592423486531 0 -0.23811142315988459 0.43473111178919932 0 -0.22087160732595509 0.45207592423486531 0 -0.19196087962881511 0.46295528261940411 0 -0.19922015772587939 0.43897788655106229 0 -0.17560702934822159 0.44491732679063678 0 -0.19196087962881511 0.46295528261940411 0 -0.19922015772587939 0.43897788655106229 0 -0.22087160732595509 0.45207592423486531 0 -0.19922015772587939 0.43897788655106229 0 -0.21556064932053501 0.41929321645564283 0 -0.19922015772587939 0.43897788655106229 0 -0.19663531306918289 0.41973875454685639 0 -0.1824886551703189 0.4278481167102377 0 -0.19663531306918289 0.41973875454685639 0 -0.18674040860545429 0.40517584297791231 0 -0.1824886551703189 0.4278481167102377 0 -0.19663531306918289 0.41973875454685639 0 -0.20085245917578051 0.41024358743357409 0 -0.18674040860545429 0.40517584297791231 0 -0.19663531306918289 0.41973875454685639 0 -0.20085245917578051 0.41024358743357409 0 -0.21556064932053501 0.41929321645564283 0 -0.20085245917578051 0.41024358743357409 0 -0.21556064932053501 0.41929321645564283 0 -0.20447346570794989 0.39676653575388499 0 -0.19922015772587939 0.43897788655106229 0 -0.19663531306918289 0.41973875454685639 0 -0.21556064932053501 0.41929321645564283 0 -0.21556064932053501 0.41929321645564283 0 -0.24256739124621299 0.41220700609406608 0 -0.23811142315988459 0.43473111178919932 0 -0.22087160732595509 0.45207592423486531 0 -0.21556064932053501 0.41929321645564283 0 -0.23811142315988459 0.43473111178919932 0 -0.21556064932053501 0.41929321645564283 0 -0.24256739124621299 0.41220700609406608 0 -0.2236560880903033 0.39261867356662661 0 -0.26147869440212279 0.43179533862150571 0 -0.24256739124621299 0.41220700609406608 0 -0.23811142315988459 0.43473111178919932 0 -0.23808268936379981 0.37595139682938949 0 -0.2431108887785752 0.39311585256634118 0 -0.2236560880903033 0.39261867356662661 0 -0.25824411560826399 0.38594659662541841 0 -0.23808268936379981 0.37595139682938949 0 -0.2431108887785752 0.39311585256634118 0 -0.24256739124621299 0.41220700609406608 0 -0.2431108887785752 0.39311585256634118 0 -0.2236560880903033 0.39261867356662661 0 -0.26062057036094738 0.40297122170995398 0 -0.24256739124621299 0.41220700609406608 0 -0.2431108887785752 0.39311585256634118 0 -0.24256739124621299 0.41220700609406608 0 -0.2236560880903033 0.39261867356662661 0 -0.23808268936379981 0.37595139682938949 0 -0.2236560880903033 0.39261867356662661 0 -0.22340982480580671 0.37038928921178788 0 -0.2236560880903033 0.39261867356662661 0 -0.21111143413495351 0.38081228503445219 0 -0.22340982480580671 0.37038928921178788 0 -0.21111143413495351 0.38081228503445219 0 -0.1909921620405895 0.38250356924558659 0 -0.2130256300301184 0.36178335739437539 0 -0.2236560880903033 0.39261867356662661 0 -0.21111143413495351 0.38081228503445219 0 -0.20447346570794989 0.39676653575388499 0 -0.21556064932053501 0.41929321645564283 0 -0.2236560880903033 0.39261867356662661 0 -0.20447346570794989 0.39676653575388499 0 -0.20447346570794989 0.39676653575388499 0 -0.1909921620405895 0.38250356924558659 0 -0.18674040860545429 0.40517584297791231 0 -0.20085245917578051 0.41024358743357409 0 -0.20447346570794989 0.39676653575388499 0 -0.18674040860545429 0.40517584297791231 0 -0.1909921620405895 0.38250356924558659 0 -0.18674040860545429 0.40517584297791231 0 -0.21111143413495351 0.38081228503445219 0 -0.20447346570794989 0.39676653575388499 0 -0.1909921620405895 0.38250356924558659 0 -0.1909921620405895 0.38250356924558659 0 -0.1934164052688607 0.3695764070985747 0 -0.1909921620405895 0.38250356924558659 0 -0.17971191236045461 0.37502281284415218 0 -0.1934164052688607 0.3695764070985747 0 -0.1909921620405895 0.38250356924558659 0 -0.17508990921518461 0.39745800345496712 0 -0.1909921620405895 0.38250356924558659 0 -0.17971191236045461 0.37502281284415218 0 -0.17405943630946569 0.3786528094973558 0 -0.1909921620405895 0.38250356924558659 0 -0.17405943630946569 0.3786528094973558 0 -0.17508990921518461 0.39745800345496712 0 -0.17971191236045461 0.37502281284415218 0 -0.17405943630946569 0.3786528094973558 0 -0.17405943630946569 0.3786528094973558 0 -0.1614159387646362 0.38229395351161072 0 -0.17508990921518461 0.39745800345496712 0 -0.17971191236045461 0.37502281284415218 0 -0.1614159387646362 0.38229395351161072 0 -0.16372390597115699 0.36940443020492769 0 -0.17971191236045461 0.37502281284415218 0 -0.17405943630946569 0.3786528094973558 0 -0.1614159387646362 0.38229395351161072 0 -0.17971191236045461 0.37502281284415218 0 -0.1614159387646362 0.38229395351161072 0 -0.1614159387646362 0.38229395351161072 0 -0.17508990921518461 0.39745800345496712 0 -0.1614159387646362 0.38229395351161072 0 -0.157940496048497 0.39663770938125908 0 -0.17508990921518461 0.39745800345496712 0 -0.157940496048497 0.39663770938125908 0 -0.17508990921518461 0.39745800345496712 0 -0.1612824075184347 0.41044253954472709 0 -0.17764782736038981 0.40029466297863092 0 -0.17508990921518461 0.39745800345496712 0 -0.1612824075184347 0.41044253954472709 0 -0.17508990921518461 0.39745800345496712 0 -0.1612824075184347 0.41044253954472709 0 -0.1909921620405895 0.38250356924558659 0 -0.17764782736038981 0.40029466297863092 0 -0.17508990921518461 0.39745800345496712 0 -0.17764782736038981 0.40029466297863092 0 -0.17834616864664901 0.40786970607996109 0 -0.1612824075184347 0.41044253954472709 0 -0.1909921620405895 0.38250356924558659 0 -0.17764782736038981 0.40029466297863092 0 -0.18674040860545429 0.40517584297791231 0 -0.17764782736038981 0.40029466297863092 0 -0.17508990921518461 0.39745800345496712 0 -0.17764782736038981 0.40029466297863092 0 -0.18674040860545429 0.40517584297791231 0 -0.17834616864664901 0.40786970607996109 0 -0.18674040860545429 0.40517584297791231 0 -0.1756961758689165 0.41483951190869739 0 -0.1824886551703189 0.4278481167102377 0 -0.18674040860545429 0.40517584297791231 0 -0.1756961758689165 0.41483951190869739 0 -0.17834616864664901 0.40786970607996109 0 -0.18674040860545429 0.40517584297791231 0 -0.1824886551703189 0.4278481167102377 0 -0.17560702934822159 0.44491732679063678 0 -0.19922015772587939 0.43897788655106229 0 -0.1824886551703189 0.4278481167102377 0 -0.17560702934822159 0.44491732679063678 0 -0.1824886551703189 0.4278481167102377 0 -0.1650646712290969 0.42668840489218518 0 -0.1756961758689165 0.41483951190869739 0 -0.1824886551703189 0.4278481167102377 0 -0.1650646712290969 0.42668840489218518 0 -0.14738616285873879 0.43798445733782942 0 -0.17560702934822159 0.44491732679063678 0 -0.1650646712290969 0.42668840489218518 0 -0.1650646712290969 0.42668840489218518 0 -0.1612824075184347 0.41044253954472709 0 -0.14747490582168479 0.42342707563448723 0 -0.1756961758689165 0.41483951190869739 0 -0.17834616864664901 0.40786970607996109 0 -0.1612824075184347 0.41044253954472709 0 -0.1756961758689165 0.41483951190869739 0 -0.1650646712290969 0.42668840489218518 0 -0.1612824075184347 0.41044253954472709 0 -0.1612824075184347 0.41044253954472709 0 -0.14747490582168479 0.42342707563448723 0 -0.1475779244965946 0.40391234910072688 0 -0.14747490582168479 0.42342707563448723 0 -0.13496887310462 0.4123662278037456 0 -0.1475779244965946 0.40391234910072688 0 -0.1612824075184347 0.41044253954472709 0 -0.14747490582168479 0.42342707563448723 0 -0.14738616285873879 0.43798445733782942 0 -0.1650646712290969 0.42668840489218518 0 -0.14747490582168479 0.42342707563448723 0 -0.14738616285873879 0.43798445733782942 0 -0.14747490582168479 0.42342707563448723 0 -0.13496887310462 0.4123662278037456 0 -0.14738616285873879 0.43798445733782942 0 -0.13496887310462 0.4123662278037456 0 -0.12876126653444539 0.43176824396660829 0 -0.13496887310462 0.4123662278037456 0 -0.11273074502896641 0.4223238236543535 0 -0.14738616285873879 0.43798445733782942 0 -0.12876126653444539 0.43176824396660829 0 -0.13496887310462 0.4123662278037456 0 -0.13496887310462 0.4123662278037456 0 -0.138038061812918 0.40063702296415749 0 -0.1270268014195767 0.3959808635710958 0 -0.1270268014195767 0.3959808635710958 0 -0.14433630024763461 0.38908170129426312 0 -0.13496887310462 0.4123662278037456 0 -0.1270268014195767 0.3959808635710958 0 -0.11862379889288301 0.4059769841200741 0 -0.13496887310462 0.4123662278037456 0 -0.1270268014195767 0.3959808635710958 0 -0.138038061812918 0.40063702296415749 0 -0.1270268014195767 0.3959808635710958 0 -0.14433630024763461 0.38908170129426312 0 -0.13496887310462 0.4123662278037456 0 -0.138038061812918 0.40063702296415749 0 -0.1475779244965946 0.40391234910072688 0 -0.1270268014195767 0.3959808635710958 0 -0.13321572078215341 0.38610206820148307 0 -0.14433630024763461 0.38908170129426312 0 -0.1270268014195767 0.3959808635710958 0 -0.13321572078215341 0.38610206820148307 0 -0.1225515833505012 0.38674799826966177 0 -0.1302522434074527 0.38031279203728452 0 -0.13321572078215341 0.38610206820148307 0 -0.1225515833505012 0.38674799826966177 0 -0.1302522434074527 0.38031279203728452 0 -0.13550190189517061 0.37202476884449481 0 -0.1201014318531059 0.37902818048640902 0 -0.1302522434074527 0.38031279203728452 0 -0.13321572078215341 0.38610206820148307 0 -0.14168181517454601 0.37849840032929138 0 -0.1302522434074527 0.38031279203728452 0 -0.14168181517454601 0.37849840032929138 0 -0.13550190189517061 0.37202476884449481 0 -0.13321572078215341 0.38610206820148307 0 -0.14433630024763461 0.38908170129426312 0 -0.14168181517454601 0.37849840032929138 0 -0.1614159387646362 0.38229395351161072 0 -0.157940496048497 0.39663770938125908 0 -0.14433630024763461 0.38908170129426312 0 -0.1614159387646362 0.38229395351161072 0 -0.14168181517454601 0.37849840032929138 0 -0.14895420933351361 0.36847424487924441 0 -0.1614159387646362 0.38229395351161072 0 -0.14433630024763461 0.38908170129426312 0 -0.1614159387646362 0.38229395351161072 0 -0.14433630024763461 0.38908170129426312 0 -0.14168181517454601 0.37849840032929138 0 -0.1614159387646362 0.38229395351161072 0 -0.14895420933351361 0.36847424487924441 0 -0.157940496048497 0.39663770938125908 0 -0.14433630024763461 0.38908170129426312 0 -0.1475779244965946 0.40391234910072688 0 -0.157940496048497 0.39663770938125908 0 -0.1612824075184347 0.41044253954472709 0 -0.1475779244965946 0.40391234910072688 0 -0.138038061812918 0.40063702296415749 0 -0.14433630024763461 0.38908170129426312 0 -0.1475779244965946 0.40391234910072688 0 -0.1480849939444232 0.35572579534259668 0 -0.1381112163636907 0.35224745974349309 0 -0.14017919426294129 0.35517626997393381 0 -0.1381112163636907 0.35224745974349309 0 -0.1454328406405688 0.34136013485471411 0 -0.1480849939444232 0.35572579534259668 0 -0.1381112163636907 0.35224745974349309 0 -0.1454328406405688 0.34136013485471411 0 -0.1480849939444232 0.35572579534259668 0 -0.15933746817382571 0.34217872813671629 0 -0.1604639588257063 0.35287700263993532 0 -0.1480849939444232 0.35572579534259668 0 -0.1561281702689975 0.36157767599885882 0 -0.1604639588257063 0.35287700263993532 0 -0.1480849939444232 0.35572579534259668 0 -0.1561281702689975 0.36157767599885882 0 -0.14895420933351361 0.36847424487924441 0 -0.14168181517454601 0.37849840032929138 0 -0.14895420933351361 0.36847424487924441 0 -0.13550190189517061 0.37202476884449481 0 -0.14895420933351361 0.36847424487924441 0 -0.13649247990238919 0.35465453624687993 0 -0.14017919426294129 0.35517626997393381 0 -0.14895420933351361 0.36847424487924441 0 -0.13649247990238919 0.35465453624687993 0 -0.1480849939444232 0.35572579534259668 0 -0.14895420933351361 0.36847424487924441 0 -0.14017919426294129 0.35517626997393381 0 -0.14895420933351361 0.36847424487924441 0 -0.13550190189517061 0.37202476884449481 0 -0.13649247990238919 0.35465453624687993 0 -0.13649247990238919 0.35465453624687993 0 -0.1201014318531059 0.37902818048640902 0 -0.1253184095907556 0.3632742682549277 0 -0.13649247990238919 0.35465453624687993 0 -0.1201014318531059 0.37902818048640902 0 -0.13550190189517061 0.37202476884449481 0 -0.13649247990238919 0.35465453624687993 0 -0.1201014318531059 0.37902818048640902 0 -0.12769321093489169 0.35667648874089419 0 -0.13649247990238919 0.35465453624687993 0 -0.1255146899224818 0.35113617066638919 0 -0.1253184095907556 0.3632742682549277 0 -0.12769321093489169 0.35667648874089419 0 -0.1232350078942777 0.35766167253352771 0 -0.1253184095907556 0.3632742682549277 0 -0.12769321093489169 0.35667648874089419 0 -0.13649247990238919 0.35465453624687993 0 -0.12769321093489169 0.35667648874089419 0 -0.1255146899224818 0.35113617066638919 0 -0.1232350078942777 0.35766167253352771 0 -0.13649247990238919 0.35465453624687993 0 -0.1381112163636907 0.35224745974349309 0 -0.14017919426294129 0.35517626997393381 0 -0.13649247990238919 0.35465453624687993 0 -0.1381112163636907 0.35224745974349309 0 -0.1381112163636907 0.35224745974349309 0 -0.14017919426294129 0.35517626997393381 0 -0.1381112163636907 0.35224745974349309 0 -0.13642921339706379 0.33987005067708592 0 -0.1454328406405688 0.34136013485471411 0 -0.13649247990238919 0.35465453624687993 0 -0.1231662170054082 0.33987608423406268 0 -0.13649247990238919 0.35465453624687993 0 -0.1381112163636907 0.35224745974349309 0 -0.1231662170054082 0.33987608423406268 0 -0.13649247990238919 0.35465453624687993 0 -0.1255146899224818 0.35113617066638919 0 -0.1231662170054082 0.33987608423406268 0 -0.1381112163636907 0.35224745974349309 0 -0.1255963750453917 0.3345230946529969 0 -0.13642921339706379 0.33987005067708592 0 -0.1381112163636907 0.35224745974349309 0 -0.1255963750453917 0.3345230946529969 0 -0.1231662170054082 0.33987608423406268 0 -0.1381112163636907 0.35224745974349309 0 -0.1255963750453917 0.3345230946529969 0 -0.1255963750453917 0.3345230946529969 0 -0.13363766649968911 0.33325924757052938 0 -0.13642921339706379 0.33987005067708592 0 -0.1255963750453917 0.3345230946529969 0 -0.13079531210827611 0.32883402943233342 0 -0.13363766649968911 0.33325924757052938 0 -0.13079531210827611 0.32883402943233342 0 -0.13363766649968911 0.33325924757052938 0 -0.13743686147379411 0.32695644792074718 0 -0.13363766649968911 0.33325924757052938 0 -0.13743686147379411 0.32695644792074718 0 -0.1410590111551758 0.33348755149581122 0 -0.13363766649968911 0.33325924757052938 0 -0.13642921339706379 0.33987005067708592 0 -0.1410590111551758 0.33348755149581122 0 -0.12651034541422951 0.32059732758505999 0 -0.13743686147379411 0.32695644792074718 0 -0.14217174524668499 0.31552556667779891 0 -0.12651034541422951 0.32059732758505999 0 -0.14217174524668499 0.31552556667779891 0 -0.13485674365609979 0.30652834356593173 0 -0.13079531210827611 0.32883402943233342 0 -0.12651034541422951 0.32059732758505999 0 -0.13743686147379411 0.32695644792074718 0 -0.1255963750453917 0.3345230946529969 0 -0.13079531210827611 0.32883402943233342 0 -0.12651034541422951 0.32059732758505999 0 -0.14217174524668499 0.31552556667779891 0 -0.15235847376476341 0.32599187645597949 0 -0.15663195358510551 0.29625795756936291 0 -0.13743686147379411 0.32695644792074718 0 -0.14217174524668499 0.31552556667779891 0 -0.15235847376476341 0.32599187645597949 0 -0.1480849939444232 0.35572579534259668 0 -0.15235847376476341 0.32599187645597949 0 -0.1480849939444232 0.35572579534259668 0 -0.15235847376476341 0.32599187645597949 0 -0.15933746817382571 0.34217872813671629 0 -0.1480849939444232 0.35572579534259668 0 -0.15235847376476341 0.32599187645597949 0 -0.1454328406405688 0.34136013485471411 0 -0.13642921339706379 0.33987005067708592 0 -0.1454328406405688 0.34136013485471411 0 -0.1410590111551758 0.33348755149581122 0 -0.13743686147379411 0.32695644792074718 0 -0.15235847376476341 0.32599187645597949 0 -0.1410590111551758 0.33348755149581122 0 -0.15235847376476341 0.32599187645597949 0 -0.1454328406405688 0.34136013485471411 0 -0.1410590111551758 0.33348755149581122 0 -0.15235847376476341 0.32599187645597949 0 -0.15933746817382571 0.34217872813671629 0 -0.16539118596425301 0.3313397628592068 0 -0.15933746817382571 0.34217872813671629 0 -0.16539118596425301 0.3313397628592068 0 -0.17228560847494451 0.34550823391557378 0 -0.15235847376476341 0.32599187645597949 0 -0.16539118596425301 0.3313397628592068 0 -0.16477929367221761 0.31437846247030649 0 -0.16539118596425301 0.3313397628592068 0 -0.16477929367221761 0.31437846247030649 0 -0.17697217308185309 0.31679160178529081 0 -0.17697217308185309 0.31679160178529081 0 -0.18745807156483629 0.32727895466204288 0 -0.1945429485541828 0.31915156098870939 0 -0.16539118596425301 0.3313397628592068 0 -0.17697217308185309 0.31679160178529081 0 -0.1782426174881562 0.33204366881637531 0 -0.17697217308185309 0.31679160178529081 0 -0.18745807156483629 0.32727895466204288 0 -0.1782426174881562 0.33204366881637531 0 -0.1782426174881562 0.33204366881637531 0 -0.17228560847494451 0.34550823391557378 0 -0.187922461723768 0.33919261449201382 0 -0.16539118596425301 0.3313397628592068 0 -0.1782426174881562 0.33204366881637531 0 -0.17228560847494451 0.34550823391557378 0 -0.18745807156483629 0.32727895466204288 0 -0.1782426174881562 0.33204366881637531 0 -0.187922461723768 0.33919261449201382 0 -0.1860372393219567 0.34862340534041181 0 -0.18185171975112241 0.35632373877576867 0 -0.17228560847494451 0.34550823391557378 0 -0.1860372393219567 0.34862340534041181 0 -0.17228560847494451 0.34550823391557378 0 -0.187922461723768 0.33919261449201382 0 -0.18185171975112241 0.35632373877576867 0 -0.17228560847494451 0.34550823391557378 0 -0.16683311356170771 0.35937932668181471 0 -0.17228560847494451 0.34550823391557378 0 -0.1604639588257063 0.35287700263993532 0 -0.16683311356170771 0.35937932668181471 0 -0.1561281702689975 0.36157767599885882 0 -0.1604639588257063 0.35287700263993532 0 -0.16683311356170771 0.35937932668181471 0 -0.15933746817382571 0.34217872813671629 0 -0.17228560847494451 0.34550823391557378 0 -0.1604639588257063 0.35287700263993532 0 -0.1614159387646362 0.38229395351161072 0 -0.14895420933351361 0.36847424487924441 0 -0.16372390597115699 0.36940443020492769 0 -0.1561281702689975 0.36157767599885882 0 -0.16372390597115699 0.36940443020492769 0 -0.16683311356170771 0.35937932668181471 0 -0.1561281702689975 0.36157767599885882 0 -0.14895420933351361 0.36847424487924441 0 -0.16372390597115699 0.36940443020492769 0 -0.16372390597115699 0.36940443020492769 0 -0.16683311356170771 0.35937932668181471 0 -0.17725045526576899 0.36517856839221058 0 -0.18185171975112241 0.35632373877576867 0 -0.17725045526576899 0.36517856839221058 0 -0.1941316246844032 0.36576253345438953 0 -0.17971191236045461 0.37502281284415218 0 -0.17725045526576899 0.36517856839221058 0 -0.1941316246844032 0.36576253345438953 0 -0.17971191236045461 0.37502281284415218 0 -0.16372390597115699 0.36940443020492769 0 -0.17725045526576899 0.36517856839221058 0 -0.18185171975112241 0.35632373877576867 0 -0.16683311356170771 0.35937932668181471 0 -0.17725045526576899 0.36517856839221058 0 -0.17971191236045461 0.37502281284415218 0 -0.1934164052688607 0.3695764070985747 0 -0.17971191236045461 0.37502281284415218 0 -0.1941316246844032 0.36576253345438953 0 -0.1909921620405895 0.38250356924558659 0 -0.1934164052688607 0.3695764070985747 0 -0.2130256300301184 0.36178335739437539 0 -0.1934164052688607 0.3695764070985747 0 -0.1941316246844032 0.36576253345438953 0 -0.2130256300301184 0.36178335739437539 0 -0.17971191236045461 0.37502281284415218 0 -0.1934164052688607 0.3695764070985747 0 -0.1941316246844032 0.36576253345438953 0 -0.1909921620405895 0.38250356924558659 0 -0.2130256300301184 0.36178335739437539 0 -0.1934164052688607 0.3695764070985747 0 -0.1941316246844032 0.36576253345438953 0 -0.19660040581638261 0.35259787504619272 0 -0.20486224074802289 0.34163424322682517 0 -0.187922461723768 0.33919261449201382 0 -0.1941316246844032 0.36576253345438953 0 -0.19660040581638261 0.35259787504619272 0 -0.217234477669316 0.35092597718096208 0 -0.1860372393219567 0.34862340534041181 0 -0.19660040581638261 0.35259787504619272 0 -0.187922461723768 0.33919261449201382 0 -0.18185171975112241 0.35632373877576867 0 -0.1941316246844032 0.36576253345438953 0 -0.19660040581638261 0.35259787504619272 0 -0.1860372393219567 0.34862340534041181 0 -0.18185171975112241 0.35632373877576867 0 -0.19660040581638261 0.35259787504619272 0 -0.1941316246844032 0.36576253345438953 0 -0.19660040581638261 0.35259787504619272 0 -0.1941316246844032 0.36576253345438953 0 -0.217234477669316 0.35092597718096208 0 -0.19660040581638261 0.35259787504619272 0 -0.217234477669316 0.35092597718096208 0 -0.20486224074802289 0.34163424322682517 0 -0.1941316246844032 0.36576253345438953 0 -0.217234477669316 0.35092597718096208 0 -0.2130256300301184 0.36178335739437539 0 -0.1934164052688607 0.3695764070985747 0 -0.2130256300301184 0.36178335739437539 0 -0.21111143413495351 0.38081228503445219 0 -0.2130256300301184 0.36178335739437539 0 -0.22340982480580671 0.37038928921178788 0 -0.23808268936379981 0.37595139682938949 0 -0.22340982480580671 0.37038928921178788 0 -0.23214878421102511 0.3646685662936191 0 -0.22340982480580671 0.37038928921178788 0 -0.23214878421102511 0.3646685662936191 0 -0.2250539603706857 0.35700308803932362 0 -0.2130256300301184 0.36178335739437539 0 -0.2250539603706857 0.35700308803932362 0 -0.2130256300301184 0.36178335739437539 0 -0.22340982480580671 0.37038928921178788 0 -0.2250539603706857 0.35700308803932362 0 -0.2130256300301184 0.36178335739437539 0 -0.22668399793333691 0.34893906630815319 0 -0.2130256300301184 0.36178335739437539 0 -0.2250539603706857 0.35700308803932362 0 -0.22668399793333691 0.34893906630815319 0 -0.217234477669316 0.35092597718096208 0 -0.22668399793333691 0.34893906630815319 0 -0.2403373306542288 0.33608942090753469 0 -0.217234477669316 0.35092597718096208 0 -0.2130256300301184 0.36178335739437539 0 -0.22668399793333691 0.34893906630815319 0 -0.23214878421102511 0.3646685662936191 0 -0.2250539603706857 0.35700308803932362 0 -0.23628063788978709 0.35507565915501887 0 -0.2250539603706857 0.35700308803932362 0 -0.22668399793333691 0.34893906630815319 0 -0.23628063788978709 0.35507565915501887 0 -0.22668399793333691 0.34893906630815319 0 -0.23628063788978709 0.35507565915501887 0 -0.24325146889206259 0.34709422923394262 0 -0.22668399793333691 0.34893906630815319 0 -0.24325146889206259 0.34709422923394262 0 -0.2403373306542288 0.33608942090753469 0 -0.25839961193523758 0.34080969025861529 0 -0.24325146889206259 0.34709422923394262 0 -0.2471350300773151 0.35938575025991659 0 -0.23628063788978709 0.35507565915501887 0 -0.24325146889206259 0.34709422923394262 0 -0.2471350300773151 0.35938575025991659 0 -0.23808268936379981 0.37595139682938949 0 -0.23214878421102511 0.3646685662936191 0 -0.2471350300773151 0.35938575025991659 0 -0.25495219836938332 0.37104419793038118 0 -0.23808268936379981 0.37595139682938949 0 -0.2471350300773151 0.35938575025991659 0 -0.23214878421102511 0.3646685662936191 0 -0.23628063788978709 0.35507565915501887 0 -0.2471350300773151 0.35938575025991659 0 -0.25377111074274072 0.32346642096175449 0 -0.2396114688940405 0.3172174367266809 0 -0.2403373306542288 0.33608942090753469 0 -0.2396114688940405 0.3172174367266809 0 -0.2403373306542288 0.33608942090753469 0 -0.2266088362870316 0.33065713249162437 0 -0.25472341230510098 0.30887321963266001 0 -0.25377111074274072 0.32346642096175449 0 -0.2396114688940405 0.3172174367266809 0 -0.25839961193523758 0.34080969025861529 0 -0.24325146889206259 0.34709422923394262 0 -0.2403373306542288 0.33608942090753469 0 -0.25377111074274072 0.32346642096175449 0 -0.2403373306542288 0.33608942090753469 0 -0.217234477669316 0.35092597718096208 0 -0.2403373306542288 0.33608942090753469 0 -0.2266088362870316 0.33065713249162437 0 -0.217234477669316 0.35092597718096208 0 -0.2403373306542288 0.33608942090753469 0 -0.217234477669316 0.35092597718096208 0 -0.2266088362870316 0.33065713249162437 0 -0.2133618248585944 0.33097822854624309 0 -0.22668399793333691 0.34893906630815319 0 -0.2403373306542288 0.33608942090753469 0 -0.2396114688940405 0.3172174367266809 0 -0.22249404417665181 0.31806924478230508 0 -0.2305822357402926 0.30491319054262328 0 -0.2396114688940405 0.3172174367266809 0 -0.2266088362870316 0.33065713249162437 0 -0.22249404417665181 0.31806924478230508 0 -0.2266088362870316 0.33065713249162437 0 -0.22249404417665181 0.31806924478230508 0 -0.2133618248585944 0.33097822854624309 0 -0.22249404417665181 0.31806924478230508 0 -0.20752081244106371 0.31781055971321898 0 -0.21636620346371799 0.30734092637624472 0 -0.22249404417665181 0.31806924478230508 0 -0.20752081244106371 0.31781055971321898 0 -0.2133618248585944 0.33097822854624309 0 -0.20752081244106371 0.31781055971321898 0 -0.2133618248585944 0.33097822854624309 0 -0.1996101569762212 0.32921532722782543 0 -0.217234477669316 0.35092597718096208 0 -0.2133618248585944 0.33097822854624309 0 -0.20486224074802289 0.34163424322682517 0 -0.2133618248585944 0.33097822854624309 0 -0.20486224074802289 0.34163424322682517 0 -0.1996101569762212 0.32921532722782543 0 -0.20486224074802289 0.34163424322682517 0 -0.1996101569762212 0.32921532722782543 0 -0.187922461723768 0.33919261449201382 0 -0.18745807156483629 0.32727895466204288 0 -0.1996101569762212 0.32921532722782543 0 -0.187922461723768 0.33919261449201382 0 -0.17697217308185309 0.31679160178529081 0 -0.1945429485541828 0.31915156098870939 0 -0.19996994207581401 0.30455418518742089 0 -0.20752081244106371 0.31781055971321898 0 -0.1945429485541828 0.31915156098870939 0 -0.19996994207581401 0.30455418518742089 0 -0.20752081244106371 0.31781055971321898 0 -0.1996101569762212 0.32921532722782543 0 -0.1945429485541828 0.31915156098870939 0 -0.18745807156483629 0.32727895466204288 0 -0.1996101569762212 0.32921532722782543 0 -0.1945429485541828 0.31915156098870939 0 -0.17697217308185309 0.31679160178529081 0 -0.19996994207581401 0.30455418518742089 0 -0.17697217308185309 0.31679160178529081 0 -0.19996994207581401 0.30455418518742089 0 -0.18781028101236991 0.29548787296659151 0 -0.19996994207581401 0.30455418518742089 0 -0.18781028101236991 0.29548787296659151 0 -0.21438375659774039 0.28178558926855513 0 -0.18781028101236991 0.29548787296659151 0 -0.20269661549402401 0.2745313308158932 0 -0.17966428453956501 0.28539464419262861 0 -0.18781028101236991 0.29548787296659151 0 -0.21438375659774039 0.28178558926855513 0 -0.20269661549402401 0.2745313308158932 0 -0.18781028101236991 0.29548787296659151 0 -0.21438375659774039 0.28178558926855513 0 -0.19996994207581401 0.30455418518742089 0 -0.21438375659774039 0.28178558926855513 0 -0.22296771106977481 0.29231676858955102 0 -0.20752081244106371 0.31781055971321898 0 -0.19996994207581401 0.30455418518742089 0 -0.21636620346371799 0.30734092637624472 0 -0.19996994207581401 0.30455418518742089 0 -0.22296771106977481 0.29231676858955102 0 -0.19996994207581401 0.30455418518742089 0 -0.21636620346371799 0.30734092637624472 0 -0.22296771106977481 0.29231676858955102 0 -0.2305822357402926 0.30491319054262328 0 -0.22296771106977481 0.29231676858955102 0 -0.2392365335730568 0.29470463824968518 0 -0.22249404417665181 0.31806924478230508 0 -0.21636620346371799 0.30734092637624472 0 -0.2305822357402926 0.30491319054262328 0 -0.21636620346371799 0.30734092637624472 0 -0.2305822357402926 0.30491319054262328 0 -0.22296771106977481 0.29231676858955102 0 -0.22296771106977481 0.29231676858955102 0 -0.24596548006373559 0.28007935199168121 0 -0.2310685449785905 0.2805662538550765 0 -0.21438375659774039 0.28178558926855513 0 -0.22296771106977481 0.29231676858955102 0 -0.2310685449785905 0.2805662538550765 0 -0.22296771106977481 0.29231676858955102 0 -0.2392365335730568 0.29470463824968518 0 -0.24596548006373559 0.28007935199168121 0 -0.22296771106977481 0.29231676858955102 0 -0.24596548006373559 0.28007935199168121 0 -0.25319554269661387 0.29366757690703482 0 -0.2392365335730568 0.29470463824968518 0 -0.24596548006373559 0.28007935199168121 0 -0.25319554269661387 0.29366757690703482 0 -0.2392365335730568 0.29470463824968518 0 -0.24347169829486681 0.30254630321753589 0 -0.25472341230510098 0.30887321963266001 0 -0.2396114688940405 0.3172174367266809 0 -0.24347169829486681 0.30254630321753589 0 -0.2396114688940405 0.3172174367266809 0 -0.2305822357402926 0.30491319054262328 0 -0.24347169829486681 0.30254630321753589 0 -0.2305822357402926 0.30491319054262328 0 -0.2392365335730568 0.29470463824968518 0 -0.24347169829486681 0.30254630321753589 0 -0.24876127740294221 0.2528047040624225 0 -0.2257289464484831 0.26366801743915791 0 -0.24876127740294221 0.2528047040624225 0 -0.24095723218311091 0.26808330557051868 0 -0.2257289464484831 0.26366801743915791 0 -0.25520130937803109 0.26883872543203041 0 -0.24596548006373559 0.28007935199168121 0 -0.24095723218311091 0.26808330557051868 0 -0.24596548006373559 0.28007935199168121 0 -0.24095723218311091 0.26808330557051868 0 -0.2310685449785905 0.2805662538550765 0 -0.21438375659774039 0.28178558926855513 0 -0.24095723218311091 0.26808330557051868 0 -0.21438375659774039 0.28178558926855513 0 -0.24095723218311091 0.26808330557051868 0 -0.2310685449785905 0.2805662538550765 0 -0.21438375659774039 0.28178558926855513 0 -0.24095723218311091 0.26808330557051868 0 -0.2257289464484831 0.26366801743915791 0 -0.24876127740294221 0.2528047040624225 0 -0.2257289464484831 0.26366801743915791 0 -0.2271738902703776 0.24987456810256481 0 -0.2257289464484831 0.26366801743915791 0 -0.21549118147049071 0.25577727394810351 0 -0.2271738902703776 0.24987456810256481 0 -0.2257289464484831 0.26366801743915791 0 -0.21549118147049071 0.25577727394810351 0 -0.20269661549402401 0.2745313308158932 0 -0.21549118147049071 0.25577727394810351 0 -0.20368118960306431 0.25910513864254159 0 -0.20269661549402401 0.2745313308158932 0 -0.21549118147049071 0.25577727394810351 0 -0.20368118960306431 0.25910513864254159 0 -0.2034764802968782 0.24589376941659341 0 -0.2257289464484831 0.26366801743915791 0 -0.20269661549402401 0.2745313308158932 0 -0.21438375659774039 0.28178558926855513 0 -0.2257289464484831 0.26366801743915791 0 -0.20269661549402401 0.2745313308158932 0 -0.20269661549402401 0.2745313308158932 0 -0.18874726687228849 0.2739224034060796 0 -0.17966428453956501 0.28539464419262861 0 -0.20269661549402401 0.2745313308158932 0 -0.17966428453956501 0.28539464419262861 0 -0.20269661549402401 0.2745313308158932 0 -0.18874726687228849 0.2739224034060796 0 -0.19477154838721211 0.2652811687565701 0 -0.20368118960306431 0.25910513864254159 0 -0.20269661549402401 0.2745313308158932 0 -0.19477154838721211 0.2652811687565701 0 -0.18874726687228849 0.2739224034060796 0 -0.19477154838721211 0.2652811687565701 0 -0.18521391148398281 0.26682157704054321 0 -0.20368118960306431 0.25910513864254159 0 -0.1950514855809734 0.25460762233452011 0 -0.2034764802968782 0.24589376941659341 0 -0.20368118960306431 0.25910513864254159 0 -0.19477154838721211 0.2652811687565701 0 -0.1950514855809734 0.25460762233452011 0 -0.18867148883641821 0.25957069153531143 0 -0.19477154838721211 0.2652811687565701 0 -0.18521391148398281 0.26682157704054321 0 -0.18867148883641821 0.25957069153531143 0 -0.19477154838721211 0.2652811687565701 0 -0.1950514855809734 0.25460762233452011 0 -0.18867148883641821 0.25957069153531143 0 -0.1950514855809734 0.25460762233452011 0 -0.18681981676205911 0.25190833722250611 0 -0.1950514855809734 0.25460762233452011 0 -0.18681981676205911 0.25190833722250611 0 -0.19288838960020871 0.24588662843359799 0 -0.18867148883641821 0.25957069153531143 0 -0.18681981676205911 0.25190833722250611 0 -0.18003010332163741 0.25853701855124872 0 -0.18681981676205911 0.25190833722250611 0 -0.18003010332163741 0.25853701855124872 0 -0.17765105329778991 0.24987310820468861 0 -0.18003010332163741 0.25853701855124872 0 -0.17734905021001399 0.26736894594447258 0 -0.18521391148398281 0.26682157704054321 0 -0.18867148883641821 0.25957069153531143 0 -0.18003010332163741 0.25853701855124872 0 -0.18521391148398281 0.26682157704054321 0 -0.18003010332163741 0.25853701855124872 0 -0.1744958598096556 0.25525503595080851 0 -0.17146762184800271 0.26035226452021809 0 -0.17146762184800271 0.26035226452021809 0 -0.16861251124252261 0.2668892781930316 0 -0.17734905021001399 0.26736894594447258 0 -0.18003010332163741 0.25853701855124872 0 -0.17146762184800271 0.26035226452021809 0 -0.17734905021001399 0.26736894594447258 0 -0.18003010332163741 0.25853701855124872 0 -0.1744958598096556 0.25525503595080851 0 -0.17765105329778991 0.24987310820468861 0 -0.1744958598096556 0.25525503595080851 0 -0.17088696578349821 0.25118883804052722 0 -0.17765105329778991 0.24987310820468861 0 -0.1630808722682143 0.25138782056360459 0 -0.16405889827974979 0.25497306078024168 0 -0.15985641292665881 0.27382288906648372 0 -0.1630808722682143 0.25138782056360459 0 -0.15985641292665881 0.27382288906648372 0 -0.15529751045797649 0.25856198976223438 0 -0.16405889827974979 0.25497306078024168 0 -0.15985641292665881 0.27382288906648372 0 -0.16861251124252261 0.2668892781930316 0 -0.1630808722682143 0.25138782056360459 0 -0.15985641292665881 0.27382288906648372 0 -0.1744958598096556 0.25525503595080851 0 -0.17088696578349821 0.25118883804052722 0 -0.16960733858181459 0.25482779016593821 0 -0.17088696578349821 0.25118883804052722 0 -0.1671855651982124 0.25154772682291288 0 -0.16960733858181459 0.25482779016593821 0 -0.1671855651982124 0.25154772682291288 0 -0.1630808722682143 0.25138782056360459 0 -0.16405889827974979 0.25497306078024168 0 -0.1671855651982124 0.25154772682291288 0 -0.16960733858181459 0.25482779016593821 0 -0.16405889827974979 0.25497306078024168 0 -0.16960733858181459 0.25482779016593821 0 -0.17146762184800271 0.26035226452021809 0 -0.16405889827974979 0.25497306078024168 0 -0.1744958598096556 0.25525503595080851 0 -0.16960733858181459 0.25482779016593821 0 -0.17146762184800271 0.26035226452021809 0 -0.17146762184800271 0.26035226452021809 0 -0.16405889827974979 0.25497306078024168 0 -0.16861251124252261 0.2668892781930316 0 -0.1577330381259438 0.25020660813494461 0 -0.1630808722682143 0.25138782056360459 0 -0.15529751045797649 0.25856198976223438 0 -0.1630808722682143 0.25138782056360459 0 -0.16405889827974979 0.25497306078024168 0 -0.15985641292665881 0.27382288906648372 0 -0.16861251124252261 0.2668892781930316 0 -0.17033057294818771 0.27792923065374198 0 -0.17033057294818771 0.27792923065374198 0 -0.17734905021001399 0.26736894594447258 0 -0.17994505716910089 0.27594868072535572 0 -0.17033057294818771 0.27792923065374198 0 -0.17994505716910089 0.27594868072535572 0 -0.17966428453956501 0.28539464419262861 0 -0.16861251124252261 0.2668892781930316 0 -0.17033057294818771 0.27792923065374198 0 -0.17734905021001399 0.26736894594447258 0 -0.18874726687228849 0.2739224034060796 0 -0.18521391148398281 0.26682157704054321 0 -0.17994505716910089 0.27594868072535572 0 -0.17734905021001399 0.26736894594447258 0 -0.18521391148398281 0.26682157704054321 0 -0.17994505716910089 0.27594868072535572 0 -0.18874726687228849 0.2739224034060796 0 -0.17994505716910089 0.27594868072535572 0 -0.17966428453956501 0.28539464419262861 0 -0.18781028101236991 0.29548787296659151 0 -0.17966428453956501 0.28539464419262861 0 -0.17254268196511319 0.30151111368169242 0 -0.17697217308185309 0.31679160178529081 0 -0.18781028101236991 0.29548787296659151 0 -0.17254268196511319 0.30151111368169242 0 -0.15235847376476341 0.32599187645597949 0 -0.16477929367221761 0.31437846247030649 0 -0.15663195358510551 0.29625795756936291 0 -0.16477929367221761 0.31437846247030649 0 -0.17254268196511319 0.30151111368169242 0 -0.15663195358510551 0.29625795756936291 0 -0.16477929367221761 0.31437846247030649 0 -0.17697217308185309 0.31679160178529081 0 -0.17254268196511319 0.30151111368169242 0 -0.17966428453956501 0.28539464419262861 0 -0.15663195358510551 0.29625795756936291 0 -0.17966428453956501 0.28539464419262861 0 -0.17254268196511319 0.30151111368169242 0 -0.15663195358510551 0.29625795756936291 0 -0.15985641292665881 0.27382288906648372 0 -0.17033057294818771 0.27792923065374198 0 -0.15663195358510551 0.29625795756936291 0 -0.15985641292665881 0.27382288906648372 0 -0.15663195358510551 0.29625795756936291 0 -0.17033057294818771 0.27792923065374198 0 -0.17966428453956501 0.28539464419262861 0 -0.15663195358510551 0.29625795756936291 0 -0.15663195358510551 0.29625795756936291 0 -0.13485674365609979 0.30652834356593173 0 -0.13995416570179259 0.28501465157011457 0 -0.15985641292665881 0.27382288906648372 0 -0.15663195358510551 0.29625795756936291 0 -0.13995416570179259 0.28501465157011457 0 -0.14217174524668499 0.31552556667779891 0 -0.15663195358510551 0.29625795756936291 0 -0.13485674365609979 0.30652834356593173 0 -0.15663195358510551 0.29625795756936291 0 -0.13485674365609979 0.30652834356593173 0 -0.15235847376476341 0.32599187645597949 0 -0.15663195358510551 0.29625795756936291 0 -0.13485674365609979 0.30652834356593173 0 -0.13995416570179259 0.28501465157011457 0 -0.12054951746373049 0.29674124661567791 0 -0.13995416570179259 0.28501465157011457 0 -0.1216182326047293 0.27880351579457918 0 -0.12054951746373049 0.29674124661567791 0 -0.13736209258400431 0.26867405641108549 0 -0.12517034569087329 0.26217123428648609 0 -0.1216182326047293 0.27880351579457918 0 -0.13995416570179259 0.28501465157011457 0 -0.13736209258400431 0.26867405641108549 0 -0.1216182326047293 0.27880351579457918 0 -0.12517034569087329 0.26217123428648609 0 -0.12701487005276749 0.2501847663328795 0 -0.1379006560818605 0.25507269134306892 0 -0.12701487005276749 0.2501847663328795 0 -0.1379006560818605 0.25507269134306892 0 -0.13568327514835921 0.24636813967690591 0 -0.13736209258400431 0.26867405641108549 0 -0.12517034569087329 0.26217123428648609 0 -0.1379006560818605 0.25507269134306892 0 -0.13736209258400431 0.26867405641108549 0 -0.14792240371345139 0.25813706825163002 0 -0.14807851707677669 0.26884213101230958 0 -0.13736209258400431 0.26867405641108549 0 -0.1379006560818605 0.25507269134306892 0 -0.14792240371345139 0.25813706825163002 0 -0.1379006560818605 0.25507269134306892 0 -0.14792240371345139 0.25813706825163002 0 -0.14605631191633631 0.25195853849921879 0 -0.1379006560818605 0.25507269134306892 0 -0.14605631191633631 0.25195853849921879 0 -0.1439144169701066 0.24572070102477209 0 -0.14792240371345139 0.25813706825163002 0 -0.14605631191633631 0.25195853849921879 0 -0.15266680853711681 0.24878949605430181 0 -0.1577330381259438 0.25020660813494461 0 -0.15529751045797649 0.25856198976223438 0 -0.15266680853711681 0.24878949605430181 0 -0.14792240371345139 0.25813706825163002 0 -0.15529751045797649 0.25856198976223438 0 -0.15266680853711681 0.24878949605430181 0 -0.14792240371345139 0.25813706825163002 0 -0.15529751045797649 0.25856198976223438 0 -0.14807851707677669 0.26884213101230958 0 -0.15985641292665881 0.27382288906648372 0 -0.15529751045797649 0.25856198976223438 0 -0.14807851707677669 0.26884213101230958 0 -0.15985641292665881 0.27382288906648372 0 -0.13995416570179259 0.28501465157011457 0 -0.14807851707677669 0.26884213101230958 0 -0.13995416570179259 0.28501465157011457 0 -0.13736209258400431 0.26867405641108549 0 -0.14807851707677669 0.26884213101230958 0 -0.104307154017933 0.27764485487447521 0 -0.093288357702168673 0.28876629437267481 0 -0.088258478605160617 0.27451810894167172 0 -0.104307154017933 0.27764485487447521 0 -0.096918642748101663 0.25884353207917937 0 -0.11272823507668241 0.26661307628546121 0 -0.104307154017933 0.27764485487447521 0 -0.096918642748101663 0.25884353207917937 0 -0.088258478605160617 0.27451810894167172 0 -0.096918642748101663 0.25884353207917937 0 -0.1142662752577719 0.25401796063542698 0 -0.10527764935830999 0.24585666309022691 0 -0.096918642748101663 0.25884353207917937 0 -0.1142662752577719 0.25401796063542698 0 -0.11272823507668241 0.26661307628546121 0 -0.12517034569087329 0.26217123428648609 0 -0.12701487005276749 0.2501847663328795 0 -0.1142662752577719 0.25401796063542698 0 -0.12517034569087329 0.26217123428648609 0 -0.1142662752577719 0.25401796063542698 0 -0.11272823507668241 0.26661307628546121 0 -0.104307154017933 0.27764485487447521 0 -0.1216182326047293 0.27880351579457918 0 -0.11272823507668241 0.26661307628546121 0 -0.12517034569087329 0.26217123428648609 0 -0.1216182326047293 0.27880351579457918 0 -0.11272823507668241 0.26661307628546121 0 -0.104307154017933 0.27764485487447521 0 -0.1216182326047293 0.27880351579457918 0 -0.1095750334405888 0.28971766472909122 0 -0.1216182326047293 0.27880351579457918 0 -0.12054951746373049 0.29674124661567791 0 -0.1095750334405888 0.28971766472909122 0 -0.12054951746373049 0.29674124661567791 0 -0.1095750334405888 0.28971766472909122 0 -0.1031849457146304 0.30278251196758788 0 -0.12054951746373049 0.29674124661567791 0 -0.1031849457146304 0.30278251196758788 0 -0.1130815337270938 0.31679872956249988 0 -0.13485674365609979 0.30652834356593173 0 -0.1130815337270938 0.31679872956249988 0 -0.13485674365609979 0.30652834356593173 0 -0.12054951746373049 0.29674124661567791 0 -0.1130815337270938 0.31679872956249988 0 -0.1031849457146304 0.30278251196758788 0 -0.093288357702168673 0.28876629437267481 0 -0.089256910207850593 0.30654731827016568 0 -0.1031849457146304 0.30278251196758788 0 -0.1130815337270938 0.31679872956249988 0 -0.1031849457146304 0.30278251196758788 0 -0.098550758443808756 0.31436186281319561 0 -0.1130815337270938 0.31679872956249988 0 -0.1031849457146304 0.30278251196758788 0 -0.089256910207850593 0.30654731827016568 0 -0.098550758443808756 0.31436186281319561 0 -0.104307154017933 0.27764485487447521 0 -0.1095750334405888 0.28971766472909122 0 -0.093288357702168673 0.28876629437267481 0 -0.1095750334405888 0.28971766472909122 0 -0.1031849457146304 0.30278251196758788 0 -0.093288357702168673 0.28876629437267481 0 -0.1031849457146304 0.30278251196758788 0 -0.093288357702168673 0.28876629437267481 0 -0.093288357702168673 0.28876629437267481 0 -0.080572090498991791 0.2834835017440655 0 -0.077238435258758523 0.29636028338540898 0 -0.093288357702168673 0.28876629437267481 0 -0.080572090498991791 0.2834835017440655 0 -0.088258478605160617 0.27451810894167172 0 -0.093288357702168673 0.28876629437267481 0 -0.089256910207850593 0.30654731827016568 0 -0.077238435258758523 0.29636028338540898 0 -0.089256910207850593 0.30654731827016568 0 -0.077238435258758523 0.29636028338540898 0 -0.070508850949636923 0.31850775663582948 0 -0.089256910207850593 0.30654731827016568 0 -0.087819730328295556 0.31642623897467093 0 -0.098550758443808756 0.31436186281319561 0 -0.077238435258758523 0.29636028338540898 0 -0.060344718814996347 0.29793554781593151 0 -0.070508850949636923 0.31850775663582948 0 -0.077238435258758523 0.29636028338540898 0 -0.067966476611951515 0.28305462057374542 0 -0.060344718814996347 0.29793554781593151 0 -0.080572090498991791 0.2834835017440655 0 -0.077238435258758523 0.29636028338540898 0 -0.067966476611951515 0.28305462057374542 0 -0.067966476611951515 0.28305462057374542 0 -0.066352789846777338 0.26754112536010788 0 -0.059195744390685069 0.27519342922719359 0 -0.067966476611951515 0.28305462057374542 0 -0.066352789846777338 0.26754112536010788 0 -0.076108704316919615 0.27471820144682679 0 -0.066352789846777338 0.26754112536010788 0 -0.076108704316919615 0.27471820144682679 0 -0.076862715579893576 0.26378560823276698 0 -0.080572090498991791 0.2834835017440655 0 -0.067966476611951515 0.28305462057374542 0 -0.076108704316919615 0.27471820144682679 0 -0.096918642748101663 0.25884353207917937 0 -0.088258478605160617 0.27451810894167172 0 -0.076862715579893576 0.26378560823276698 0 -0.080572090498991791 0.2834835017440655 0 -0.076108704316919615 0.27471820144682679 0 -0.088258478605160617 0.27451810894167172 0 -0.076108704316919615 0.27471820144682679 0 -0.088258478605160617 0.27451810894167172 0 -0.076862715579893576 0.26378560823276698 0 -0.096918642748101663 0.25884353207917937 0 -0.076862715579893576 0.26378560823276698 0 -0.081875503252899745 0.2498241544096946 0 -0.076862715579893576 0.26378560823276698 0 -0.067606741840857673 0.25204697458185249 0 -0.081875503252899745 0.2498241544096946 0 -0.066352789846777338 0.26754112536010788 0 -0.076862715579893576 0.26378560823276698 0 -0.067606741840857673 0.25204697458185249 0 -0.066352789846777338 0.26754112536010788 0 -0.067606741840857673 0.25204697458185249 0 -0.056111339401405558 0.26211830827063343 0 -0.067606741840857673 0.25204697458185249 0 -0.056111339401405558 0.26211830827063343 0 -0.05655884302288991 0.249034829183472 0 -0.056111339401405558 0.26211830827063343 0 -0.051754069380406512 0.27013110060179912 0 -0.046593199484255249 0.26419186892263419 0 -0.056111339401405558 0.26211830827063343 0 -0.045612068389216921 0.253673824051033 0 -0.046593199484255249 0.26419186892263419 0 -0.056111339401405558 0.26211830827063343 0 -0.045612068389216921 0.253673824051033 0 -0.05655884302288991 0.249034829183472 0 -0.067966476611951515 0.28305462057374542 0 -0.059195744390685069 0.27519342922719359 0 -0.053240803198880429 0.28461133180040171 0 -0.056111339401405558 0.26211830827063343 0 -0.059195744390685069 0.27519342922719359 0 -0.051754069380406512 0.27013110060179912 0 -0.066352789846777338 0.26754112536010788 0 -0.056111339401405558 0.26211830827063343 0 -0.059195744390685069 0.27519342922719359 0 -0.051754069380406512 0.27013110060179912 0 -0.046427157924307849 0.27608347840191028 0 -0.043180319256961079 0.26996561669139463 0 -0.051754069380406512 0.27013110060179912 0 -0.043180319256961079 0.26996561669139463 0 -0.046593199484255249 0.26419186892263419 0 -0.059195744390685069 0.27519342922719359 0 -0.046427157924307849 0.27608347840191028 0 -0.053240803198880429 0.28461133180040171 0 -0.059195744390685069 0.27519342922719359 0 -0.051754069380406512 0.27013110060179912 0 -0.046427157924307849 0.27608347840191028 0 -0.046427157924307849 0.27608347840191028 0 -0.040633373927232 0.28195630472380478 0 -0.053240803198880429 0.28461133180040171 0 -0.046427157924307849 0.27608347840191028 0 -0.037086811672319343 0.27368157863591969 0 -0.040633373927232 0.28195630472380478 0 -0.043180319256961079 0.26996561669139463 0 -0.046593199484255249 0.26419186892263419 0 -0.037322699921316309 0.26408093841505892 0 -0.046427157924307849 0.27608347840191028 0 -0.043180319256961079 0.26996561669139463 0 -0.037086811672319343 0.27368157863591969 0 -0.043180319256961079 0.26996561669139463 0 -0.037086811672319343 0.27368157863591969 0 -0.037322699921316309 0.26408093841505892 0 -0.037086811672319343 0.27368157863591969 0 -0.037322699921316309 0.26408093841505892 0 -0.022690322428127681 0.26953812792904891 0 -0.037086811672319343 0.27368157863591969 0 -0.032428078195909107 0.27880650094557391 0 -0.040633373927232 0.28195630472380478 0 -0.045612068389216921 0.253673824051033 0 -0.033610184006601942 0.25421372805889852 0 -0.038192553801957803 0.2442243901960475 0 -0.045612068389216921 0.253673824051033 0 -0.046593199484255249 0.26419186892263419 0 -0.037322699921316309 0.26408093841505892 0 -0.045612068389216921 0.253673824051033 0 -0.037322699921316309 0.26408093841505892 0 -0.033610184006601942 0.25421372805889852 0 -0.033610184006601942 0.25421372805889852 0 -0.022690322428127681 0.26953812792904891 0 -0.022888323594145579 0.2460185847254103 0 -0.022690322428127681 0.26953812792904891 0 -0.0097255599005584576 0.2537478340129366 0 -0.022888323594145579 0.2460185847254103 0 -0.037322699921316309 0.26408093841505892 0 -0.033610184006601942 0.25421372805889852 0 -0.022690322428127681 0.26953812792904891 0 -0.022690322428127681 0.26953812792904891 0 -0.0091377098372894087 0.271511558173339 0 -0.029936709290574879 0.28427569244334422 0 -0.0091377098372894087 0.271511558173339 0 -0.029936709290574879 0.28427569244334422 0 -0.032428078195909107 0.27880650094557391 0 -0.022690322428127681 0.26953812792904891 0 -0.029936709290574879 0.28427569244334422 0 -0.037086811672319343 0.27368157863591969 0 -0.032428078195909107 0.27880650094557391 0 -0.022690322428127681 0.26953812792904891 0 -0.0091377098372894087 0.271511558173339 0 -0.0025599095403403649 0.27977633556201248 0 0.011661289615996171 0.25874742390333422 0 -0.0091377098372894087 0.271511558173339 0 -0.0025599095403403649 0.27977633556201248 0 -0.029936709290574879 0.28427569244334422 0 -0.0091377098372894087 0.271511558173339 0 -0.001027734196442548 0.25671378483192281 0 -0.0097255599005584576 0.2537478340129366 0 -0.022690322428127681 0.26953812792904891 0 -0.0091377098372894087 0.271511558173339 0 -0.0097255599005584576 0.2537478340129366 0 -0.001027734196442548 0.25671378483192281 0 -0.0097255599005584576 0.2537478340129366 0 0.00025641157241185561 0.2444175911446678 0 -0.0031481986628824482 0.29516697200486008 0 -0.0256017494251339 0.30294723354851649 0 -0.0057695730947078683 0.31035600288349219 0 -0.0031481986628824482 0.29516697200486008 0 -0.0256017494251339 0.30294723354851649 0 -0.0031481986628824482 0.29516697200486008 0 -0.015311641729732881 0.29054155838968337 0 -0.0256017494251339 0.30294723354851649 0 -0.0025599095403403649 0.27977633556201248 0 -0.0031481986628824482 0.29516697200486008 0 -0.015311641729732881 0.29054155838968337 0 -0.015311641729732881 0.29054155838968337 0 -0.029936709290574879 0.28427569244334422 0 -0.0256017494251339 0.30294723354851649 0 -0.0025599095403403649 0.27977633556201248 0 -0.015311641729732881 0.29054155838968337 0 -0.029936709290574879 0.28427569244334422 0 -0.0025599095403403649 0.27977633556201248 0 -0.029936709290574879 0.28427569244334422 0 -0.029936709290574879 0.28427569244334422 0 -0.031793173661291717 0.28458080099575161 0 -0.0057695730947078683 0.31035600288349219 0 -0.0256017494251339 0.30294723354851649 0 -0.016939776402571671 0.31868318938565571 0 -0.0256017494251339 0.30294723354851649 0 -0.048055300187385387 0.31072749509217301 0 -0.0256017494251339 0.30294723354851649 0 -0.044877347524109788 0.29344461005982447 0 -0.048055300187385387 0.31072749509217301 0 -0.029936709290574879 0.28427569244334422 0 -0.0256017494251339 0.30294723354851649 0 -0.044877347524109788 0.29344461005982447 0 -0.029936709290574879 0.28427569244334422 0 -0.044877347524109788 0.29344461005982447 0 -0.029936709290574879 0.28427569244334422 0 -0.031793173661291717 0.28458080099575161 0 -0.044877347524109788 0.29344461005982447 0 -0.032428078195909107 0.27880650094557391 0 -0.031793173661291717 0.28458080099575161 0 -0.040633373927232 0.28195630472380478 0 -0.032428078195909107 0.27880650094557391 0 -0.029936709290574879 0.28427569244334422 0 -0.031793173661291717 0.28458080099575161 0 -0.044877347524109788 0.29344461005982447 0 -0.040633373927232 0.28195630472380478 0 -0.053240803198880429 0.28461133180040171 0 -0.031793173661291717 0.28458080099575161 0 -0.044877347524109788 0.29344461005982447 0 -0.040633373927232 0.28195630472380478 0 -0.044877347524109788 0.29344461005982447 0 -0.053240803198880429 0.28461133180040171 0 -0.060344718814996347 0.29793554781593151 0 -0.067966476611951515 0.28305462057374542 0 -0.053240803198880429 0.28461133180040171 0 -0.060344718814996347 0.29793554781593151 0 -0.044877347524109788 0.29344461005982447 0 -0.048055300187385387 0.31072749509217301 0 -0.060344718814996347 0.29793554781593151 0 -0.048055300187385387 0.31072749509217301 0 -0.060344718814996347 0.29793554781593151 0 -0.070508850949636923 0.31850775663582948 0 -0.048055300187385387 0.31072749509217301 0 -0.048973632993934792 0.32999852004094538 0 -0.070508850949636923 0.31850775663582948 0 -0.048055300187385387 0.31072749509217301 0 -0.070508850949636923 0.31850775663582948 0 -0.048973632993934792 0.32999852004094538 0 -0.066046944266062099 0.33898282746694369 0 -0.070508850949636923 0.31850775663582948 0 -0.048973632993934792 0.32999852004094538 0 -0.039131486820235963 0.35167763675438968 0 -0.066046944266062099 0.33898282746694369 0 -0.048973632993934792 0.32999852004094538 0 -0.030833095715602499 0.32651239623783618 0 -0.039131486820235963 0.35167763675438968 0 -0.0256017494251339 0.30294723354851649 0 -0.048055300187385387 0.31072749509217301 0 -0.030833095715602499 0.32651239623783618 0 -0.048055300187385387 0.31072749509217301 0 -0.048973632993934792 0.32999852004094538 0 -0.030833095715602499 0.32651239623783618 0 -0.030833095715602499 0.32651239623783618 0 -0.016939776402571671 0.31868318938565571 0 -0.01520170284268035 0.32973069729245469 0 -0.0256017494251339 0.30294723354851649 0 -0.030833095715602499 0.32651239623783618 0 -0.016939776402571671 0.31868318938565571 0 -0.030833095715602499 0.32651239623783618 0 -0.017329747002984321 0.34370786039743861 0 -0.039131486820235963 0.35167763675438968 0 -0.030833095715602499 0.32651239623783618 0 -0.017329747002984321 0.34370786039743861 0 -0.01520170284268035 0.32973069729245469 0 -0.01520170284268035 0.32973069729245469 0 -0.0055079606727005907 0.33639864939169839 0 -0.0053979344195426472 0.32335139104964439 0 -0.017329747002984321 0.34370786039743861 0 -0.01520170284268035 0.32973069729245469 0 -0.0055079606727005907 0.33639864939169839 0 -0.0055079606727005907 0.33639864939169839 0 -0.0053979344195426472 0.32335139104964439 0 0.007341404746538307 0.33252062683342892 0 -0.0057695730947078683 0.31035600288349219 0 -0.0053979344195426472 0.32335139104964439 0 0.0061718291126791414 0.31870090922115207 0 -0.0057695730947078683 0.31035600288349219 0 -0.016939776402571671 0.31868318938565571 0 -0.0053979344195426472 0.32335139104964439 0 -0.016939776402571671 0.31868318938565571 0 -0.01520170284268035 0.32973069729245469 0 -0.0053979344195426472 0.32335139104964439 0 -0.0122160293744098 0.3643724460418355 0 -0.0030870451113787709 0.3789815244911342 0 0.014699428071416391 0.37706725532928143 0 -0.0122160293744098 0.3643724460418355 0 -0.02677905737335191 0.38108991094012362 0 -0.0030870451113787709 0.3789815244911342 0 -0.017329747002984321 0.34370786039743861 0 -0.0122160293744098 0.3643724460418355 0 0.0022059717687382412 0.35216545461279242 0 -0.017329747002984321 0.34370786039743861 0 -0.0055079606727005907 0.33639864939169839 0 0.0022059717687382412 0.35216545461279242 0 -0.0122160293744098 0.3643724460418355 0 -0.039131486820235963 0.35167763675438968 0 -0.017329747002984321 0.34370786039743861 0 -0.0122160293744098 0.3643724460418355 0 -0.039131486820235963 0.35167763675438968 0 -0.0122160293744098 0.3643724460418355 0 -0.039131486820235963 0.35167763675438968 0 -0.02677905737335191 0.38108991094012362 0 -0.05270857816331892 0.36842824385842099 0 -0.02677905737335191 0.38108991094012362 0 -0.039131486820235963 0.35167763675438968 0 -0.05270857816331892 0.36842824385842099 0 -0.02677905737335191 0.38108991094012362 0 -0.039131486820235963 0.35167763675438968 0 -0.05270857816331892 0.36842824385842099 0 -0.066046944266062099 0.33898282746694369 0 -0.039131486820235963 0.35167763675438968 0 -0.066046944266062099 0.33898282746694369 0 -0.05270857816331892 0.36842824385842099 0 -0.078638098953286106 0.3557665767767183 0 -0.05270857816331892 0.36842824385842099 0 -0.078638098953286106 0.3557665767767183 0 -0.073326934228594709 0.37907412096112292 0 -0.078638098953286106 0.3557665767767183 0 -0.096514738635255864 0.37248640545853479 0 -0.1016418233551063 0.35809732215781481 0 -0.078638098953286106 0.3557665767767183 0 -0.096514738635255864 0.37248640545853479 0 -0.073326934228594709 0.37907412096112292 0 -0.078638098953286106 0.3557665767767183 0 -0.10456761974325331 0.34310490969501561 0 -0.078638098953286106 0.3557665767767183 0 -0.091551374761033227 0.34044895934183689 0 -0.10456761974325331 0.34310490969501561 0 -0.078638098953286106 0.3557665767767183 0 -0.082749330250437417 0.34017182145958702 0 -0.091551374761033227 0.34044895934183689 0 -0.05270857816331892 0.36842824385842099 0 -0.078638098953286106 0.3557665767767183 0 -0.066046944266062099 0.33898282746694369 0 -0.078638098953286106 0.3557665767767183 0 -0.066046944266062099 0.33898282746694369 0 -0.082749330250437417 0.34017182145958702 0 -0.066046944266062099 0.33898282746694369 0 -0.070508850949636923 0.31850775663582948 0 -0.092962401711885995 0.32628801817949299 0 -0.089256910207850593 0.30654731827016568 0 -0.070508850949636923 0.31850775663582948 0 -0.087819730328295556 0.31642623897467093 0 -0.070508850949636923 0.31850775663582948 0 -0.092962401711885995 0.32628801817949299 0 -0.070508850949636923 0.31850775663582948 0 -0.092962401711885995 0.32628801817949299 0 -0.087819730328295556 0.31642623897467093 0 -0.092962401711885995 0.32628801817949299 0 -0.087819730328295556 0.31642623897467093 0 -0.098550758443808756 0.31436186281319561 0 -0.066046944266062099 0.33898282746694369 0 -0.092962401711885995 0.32628801817949299 0 -0.082749330250437417 0.34017182145958702 0 -0.066046944266062099 0.33898282746694369 0 -0.092962401711885995 0.32628801817949299 0 -0.092962401711885995 0.32628801817949299 0 -0.082749330250437417 0.34017182145958702 0 -0.092330302099610614 0.33474291958946217 0 -0.082749330250437417 0.34017182145958702 0 -0.092330302099610614 0.33474291958946217 0 -0.091551374761033227 0.34044895934183689 0 -0.091551374761033227 0.34044895934183689 0 -0.099216124604437572 0.33608881339678343 0 -0.10456761974325331 0.34310490969501561 0 -0.092330302099610614 0.33474291958946217 0 -0.091551374761033227 0.34044895934183689 0 -0.099216124604437572 0.33608881339678343 0 -0.092330302099610614 0.33474291958946217 0 -0.099216124604437572 0.33608881339678343 0 -0.099063514440104264 0.32840208259786979 0 -0.092962401711885995 0.32628801817949299 0 -0.092330302099610614 0.33474291958946217 0 -0.099063514440104264 0.32840208259786979 0 -0.099216124604437572 0.33608881339678343 0 -0.099063514440104264 0.32840208259786979 0 -0.1056324251965803 0.33219009063558019 0 -0.1056324251965803 0.33219009063558019 0 -0.1098399541084268 0.32509763222124571 0 -0.11229446198463271 0.33609424949409072 0 -0.099063514440104264 0.32840208259786979 0 -0.1056324251965803 0.33219009063558019 0 -0.1041942216159016 0.32598181535087473 0 -0.1056324251965803 0.33219009063558019 0 -0.10456761974325331 0.34310490969501561 0 -0.11229446198463271 0.33609424949409072 0 -0.099216124604437572 0.33608881339678343 0 -0.1056324251965803 0.33219009063558019 0 -0.10456761974325331 0.34310490969501561 0 -0.092962401711885995 0.32628801817949299 0 -0.1130815337270938 0.31679872956249988 0 -0.092962401711885995 0.32628801817949299 0 -0.1041942216159016 0.32598181535087473 0 -0.1130815337270938 0.31679872956249988 0 -0.092962401711885995 0.32628801817949299 0 -0.098550758443808756 0.31436186281319561 0 -0.1130815337270938 0.31679872956249988 0 -0.092962401711885995 0.32628801817949299 0 -0.099063514440104264 0.32840208259786979 0 -0.1041942216159016 0.32598181535087473 0 -0.092962401711885995 0.32628801817949299 0 -0.099063514440104264 0.32840208259786979 0 -0.1041942216159016 0.32598181535087473 0 -0.1130815337270938 0.31679872956249988 0 -0.1098399541084268 0.32509763222124571 0 -0.1056324251965803 0.33219009063558019 0 -0.1041942216159016 0.32598181535087473 0 -0.1098399541084268 0.32509763222124571 0 -0.1255963750453917 0.3345230946529969 0 -0.12651034541422951 0.32059732758505999 0 -0.1130815337270938 0.31679872956249988 0 -0.1255963750453917 0.3345230946529969 0 -0.1130815337270938 0.31679872956249988 0 -0.12651034541422951 0.32059732758505999 0 -0.13485674365609979 0.30652834356593173 0 -0.1130815337270938 0.31679872956249988 0 -0.1255963750453917 0.3345230946529969 0 -0.1130815337270938 0.31679872956249988 0 -0.1098399541084268 0.32509763222124571 0 -0.1255963750453917 0.3345230946529969 0 -0.1098399541084268 0.32509763222124571 0 -0.1231662170054082 0.33987608423406268 0 -0.10456761974325331 0.34310490969501561 0 -0.11229446198463271 0.33609424949409072 0 -0.11482706298822901 0.34296169642861069 0 -0.11229446198463271 0.33609424949409072 0 -0.11482706298822901 0.34296169642861069 0 -0.1231662170054082 0.33987608423406268 0 -0.1098399541084268 0.32509763222124571 0 -0.11229446198463271 0.33609424949409072 0 -0.1231662170054082 0.33987608423406268 0 -0.1098399541084268 0.32509763222124571 0 -0.1231662170054082 0.33987608423406268 0 -0.11482706298822901 0.34296169642861069 0 -0.1231662170054082 0.33987608423406268 0 -0.1192914047065855 0.34733897746037978 0 -0.1255146899224818 0.35113617066638919 0 -0.1231662170054082 0.33987608423406268 0 -0.1192914047065855 0.34733897746037978 0 -0.1255146899224818 0.35113617066638919 0 -0.1192914047065855 0.34733897746037978 0 -0.119783813992987 0.35273300228528581 0 -0.1192914047065855 0.34733897746037978 0 -0.1131652396238218 0.34998793368755082 0 -0.119783813992987 0.35273300228528581 0 -0.10456761974325331 0.34310490969501561 0 -0.11482706298822901 0.34296169642861069 0 -0.1131652396238218 0.34998793368755082 0 -0.11482706298822901 0.34296169642861069 0 -0.1192914047065855 0.34733897746037978 0 -0.1131652396238218 0.34998793368755082 0 -0.1131652396238218 0.34998793368755082 0 -0.1160623559403245 0.35913392950662759 0 -0.119783813992987 0.35273300228528581 0 -0.1131652396238218 0.34998793368755082 0 -0.1160623559403245 0.35913392950662759 0 -0.1016418233551063 0.35809732215781481 0 -0.1160623559403245 0.35913392950662759 0 -0.119783813992987 0.35273300228528581 0 -0.1232350078942777 0.35766167253352771 0 -0.1255146899224818 0.35113617066638919 0 -0.119783813992987 0.35273300228528581 0 -0.1232350078942777 0.35766167253352771 0 -0.1253184095907556 0.3632742682549277 0 -0.1197826406861399 0.36877371109537338 0 -0.1201014318531059 0.37902818048640902 0 -0.1253184095907556 0.3632742682549277 0 -0.1232350078942777 0.35766167253352771 0 -0.1210996035278744 0.36221089534761408 0 -0.1160623559403245 0.35913392950662759 0 -0.1210996035278744 0.36221089534761408 0 -0.1197826406861399 0.36877371109537338 0 -0.1253184095907556 0.3632742682549277 0 -0.1210996035278744 0.36221089534761408 0 -0.1197826406861399 0.36877371109537338 0 -0.1160623559403245 0.35913392950662759 0 -0.1232350078942777 0.35766167253352771 0 -0.1210996035278744 0.36221089534761408 0 -0.1197826406861399 0.36877371109537338 0 -0.1104123910190009 0.37492736366718421 0 -0.1088827899271655 0.36668374637710699 0 -0.1197826406861399 0.36877371109537338 0 -0.1104123910190009 0.37492736366718421 0 -0.1201014318531059 0.37902818048640902 0 -0.1160623559403245 0.35913392950662759 0 -0.1197826406861399 0.36877371109537338 0 -0.1088827899271655 0.36668374637710699 0 -0.1088827899271655 0.36668374637710699 0 -0.096514738635255864 0.37248640545853479 0 -0.1016418233551063 0.35809732215781481 0 -0.1160623559403245 0.35913392950662759 0 -0.1088827899271655 0.36668374637710699 0 -0.1016418233551063 0.35809732215781481 0 -0.1104123910190009 0.37492736366718421 0 -0.1088827899271655 0.36668374637710699 0 -0.096514738635255864 0.37248640545853479 0 -0.078638098953286106 0.3557665767767183 0 -0.10456761974325331 0.34310490969501561 0 -0.1016418233551063 0.35809732215781481 0 -0.10456761974325331 0.34310490969501561 0 -0.1131652396238218 0.34998793368755082 0 -0.1016418233551063 0.35809732215781481 0 -0.1037103838038226 0.40340182472593822 0 -0.1038815516563303 0.38422333704069211 0 -0.088668812970466027 0.39127291086539401 0 -0.1037103838038226 0.40340182472593822 0 -0.1038815516563303 0.38422333704069211 0 -0.1201014318531059 0.37902818048640902 0 -0.096514738635255864 0.37248640545853479 0 -0.1038815516563303 0.38422333704069211 0 -0.088668812970466027 0.39127291086539401 0 -0.1104123910190009 0.37492736366718421 0 -0.096514738635255864 0.37248640545853479 0 -0.1038815516563303 0.38422333704069211 0 -0.1037103838038226 0.40340182472593822 0 -0.1201014318531059 0.37902818048640902 0 -0.1225515833505012 0.38674799826966177 0 -0.1104123910190009 0.37492736366718421 0 -0.1038815516563303 0.38422333704069211 0 -0.1201014318531059 0.37902818048640902 0 -0.1302522434074527 0.38031279203728452 0 -0.1201014318531059 0.37902818048640902 0 -0.1225515833505012 0.38674799826966177 0 -0.1037103838038226 0.40340182472593822 0 -0.1225515833505012 0.38674799826966177 0 -0.11862379889288301 0.4059769841200741 0 -0.1270268014195767 0.3959808635710958 0 -0.1225515833505012 0.38674799826966177 0 -0.11862379889288301 0.4059769841200741 0 -0.1270268014195767 0.3959808635710958 0 -0.1225515833505012 0.38674799826966177 0 -0.1037103838038226 0.40340182472593822 0 -0.1201014318531059 0.37902818048640902 0 -0.1037103838038226 0.40340182472593822 0 -0.11862379889288301 0.4059769841200741 0 -0.11273074502896641 0.4223238236543535 0 -0.13496887310462 0.4123662278037456 0 -0.11862379889288301 0.4059769841200741 0 -0.11273074502896641 0.4223238236543535 0 -0.12876126653444539 0.43176824396660829 0 -0.11273074502896641 0.4223238236543535 0 -0.1147487160409681 0.44065417790454159 0 -0.11273074502896641 0.4223238236543535 0 -0.1021530869971638 0.43466765265802543 0 -0.1147487160409681 0.44065417790454159 0 -0.11273074502896641 0.4223238236543535 0 -0.1021530869971638 0.43466765265802543 0 -0.087319335754539346 0.42777546896546742 0 -0.1021530869971638 0.43466765265802543 0 -0.087319335754539346 0.42777546896546742 0 -0.098307295518781673 0.44923738803321389 0 -0.1037103838038226 0.40340182472593822 0 -0.11273074502896641 0.4223238236543535 0 -0.087319335754539346 0.42777546896546742 0 -0.1037103838038226 0.40340182472593822 0 -0.087319335754539346 0.42777546896546742 0 -0.083757189985442349 0.40668743099335419 0 -0.087319335754539346 0.42777546896546742 0 -0.074503874460675065 0.42013164905816519 0 -0.1037103838038226 0.40340182472593822 0 -0.083757189985442349 0.40668743099335419 0 -0.087319335754539346 0.42777546896546742 0 -0.087319335754539346 0.42777546896546742 0 -0.075893298354227381 0.42998056793638101 0 -0.074503874460675065 0.42013164905816519 0 -0.087319335754539346 0.42777546896546742 0 -0.075893298354227381 0.42998056793638101 0 -0.0746748216627839 0.43985209347086968 0 -0.066296205653790866 0.43259351905051718 0 -0.074503874460675065 0.42013164905816519 0 -0.060298199850704802 0.41666313903326568 0 -0.066296205653790866 0.43259351905051718 0 -0.051042347806786188 0.43046679890852552 0 -0.0746748216627839 0.43985209347086968 0 -0.051042347806786188 0.43046679890852552 0 -0.0746748216627839 0.43985209347086968 0 -0.075893298354227381 0.42998056793638101 0 -0.066296205653790866 0.43259351905051718 0 -0.0746748216627839 0.43985209347086968 0 -0.075893298354227381 0.42998056793638101 0 -0.066296205653790866 0.43259351905051718 0 -0.074503874460675065 0.42013164905816519 0 -0.074503874460675065 0.42013164905816519 0 -0.069057991563363105 0.40016989844506279 0 -0.060298199850704802 0.41666313903326568 0 -0.083757189985442349 0.40668743099335419 0 -0.074503874460675065 0.42013164905816519 0 -0.069057991563363105 0.40016989844506279 0 -0.083757189985442349 0.40668743099335419 0 -0.069057991563363105 0.40016989844506279 0 -0.088668812970466027 0.39127291086539401 0 -0.1037103838038226 0.40340182472593822 0 -0.083757189985442349 0.40668743099335419 0 -0.088668812970466027 0.39127291086539401 0 -0.096514738635255864 0.37248640545853479 0 -0.088668812970466027 0.39127291086539401 0 -0.073326934228594709 0.37907412096112292 0 -0.069057991563363105 0.40016989844506279 0 -0.073326934228594709 0.37907412096112292 0 -0.053083695932408838 0.38770860145539998 0 -0.069057991563363105 0.40016989844506279 0 -0.088668812970466027 0.39127291086539401 0 -0.073326934228594709 0.37907412096112292 0 -0.05270857816331892 0.36842824385842099 0 -0.073326934228594709 0.37907412096112292 0 -0.053083695932408838 0.38770860145539998 0 -0.053083695932408838 0.38770860145539998 0 -0.050127997583053342 0.40579051572381603 0 -0.038589347588927653 0.39778604960605107 0 -0.069057991563363105 0.40016989844506279 0 -0.053083695932408838 0.38770860145539998 0 -0.050127997583053342 0.40579051572381603 0 -0.050127997583053342 0.40579051572381603 0 -0.038589347588927653 0.39778604960605107 0 -0.035811446075607857 0.40706801414010968 0 -0.038589347588927653 0.39778604960605107 0 -0.027610819240083399 0.39936719191142722 0 -0.035811446075607857 0.40706801414010968 0 -0.053083695932408838 0.38770860145539998 0 -0.038589347588927653 0.39778604960605107 0 -0.02677905737335191 0.38108991094012362 0 -0.05270857816331892 0.36842824385842099 0 -0.053083695932408838 0.38770860145539998 0 -0.02677905737335191 0.38108991094012362 0 -0.02677905737335191 0.38108991094012362 0 -0.027610819240083399 0.39936719191142722 0 -0.018242503230165991 0.39567684069982628 0 -0.038589347588927653 0.39778604960605107 0 -0.02677905737335191 0.38108991094012362 0 -0.027610819240083399 0.39936719191142722 0 -0.027610819240083399 0.39936719191142722 0 -0.019896271150841579 0.41001011527615361 0 -0.035811446075607857 0.40706801414010968 0 -0.027610819240083399 0.39936719191142722 0 -0.018242503230165991 0.39567684069982628 0 -0.019896271150841579 0.41001011527615361 0 -0.00084953658338491472 0.39375157802182609 0 -0.019896271150841579 0.41001011527615361 0 0.0033036961006330588 0.39871841338897179 0 -0.019896271150841579 0.41001011527615361 0 0.0033036961006330588 0.39871841338897179 0 -0.018242503230165991 0.39567684069982628 0 -0.00084953658338491472 0.39375157802182609 0 -0.019896271150841579 0.41001011527615361 0 -0.00084953658338491472 0.39375157802182609 0 -0.0030870451113787709 0.3789815244911342 0 0.0033020970124285859 0.38577120654020591 0 -0.02677905737335191 0.38108991094012362 0 -0.00084953658338491472 0.39375157802182609 0 -0.02677905737335191 0.38108991094012362 0 -0.00084953658338491472 0.39375157802182609 0 -0.0030870451113787709 0.3789815244911342 0 -0.02677905737335191 0.38108991094012362 0 -0.018242503230165991 0.39567684069982628 0 -0.00084953658338491472 0.39375157802182609 0 -0.01151982461694397 0.4266468478543094 0 -0.019279377621816609 0.44158860321839122 0 0.0025756332403864819 0.43738836999124497 0 -0.01151982461694397 0.4266468478543094 0 0.0011925257591587661 0.42375005210502698 0 0.0025756332403864819 0.43738836999124497 0 -0.003777400094790911 0.4116962097838372 0 -0.027409873950788581 0.42108150434618141 0 -0.003777400094790911 0.4116962097838372 0 -0.019896271150841579 0.41001011527615361 0 0.0033036961006330588 0.39871841338897179 0 -0.01151982461694397 0.4266468478543094 0 -0.003777400094790911 0.4116962097838372 0 -0.027409873950788581 0.42108150434618141 0 -0.01151982461694397 0.4266468478543094 0 -0.003777400094790911 0.4116962097838372 0 0.0011925257591587661 0.42375005210502698 0 -0.027409873950788581 0.42108150434618141 0 -0.019896271150841579 0.41001011527615361 0 -0.043096238402316231 0.42130181716333542 0 -0.003777400094790911 0.4116962097838372 0 -0.027409873950788581 0.42108150434618141 0 -0.019896271150841579 0.41001011527615361 0 -0.01151982461694397 0.4266468478543094 0 -0.027409873950788581 0.42108150434618141 0 -0.019279377621816609 0.44158860321839122 0 -0.027409873950788581 0.42108150434618141 0 -0.037294577012078167 0.43468311007226668 0 -0.019279377621816609 0.44158860321839122 0 -0.027409873950788581 0.42108150434618141 0 -0.037294577012078167 0.43468311007226668 0 -0.051042347806786188 0.43046679890852552 0 -0.027409873950788581 0.42108150434618141 0 -0.051042347806786188 0.43046679890852552 0 -0.027409873950788581 0.42108150434618141 0 -0.043096238402316231 0.42130181716333542 0 -0.051042347806786188 0.43046679890852552 0 -0.037294577012078167 0.43468311007226668 0 -0.051042347806786188 0.43046679890852552 0 -0.046839481195184753 0.44102180746828318 0 -0.019896271150841579 0.41001011527615361 0 -0.043096238402316231 0.42130181716333542 0 -0.019896271150841579 0.41001011527615361 0 -0.035811446075607857 0.40706801414010968 0 -0.043096238402316231 0.42130181716333542 0 -0.050127997583053342 0.40579051572381603 0 -0.035811446075607857 0.40706801414010968 0 -0.043096238402316231 0.42130181716333542 0 -0.069057991563363105 0.40016989844506279 0 -0.050127997583053342 0.40579051572381603 0 -0.060298199850704802 0.41666313903326568 0 -0.050127997583053342 0.40579051572381603 0 -0.043096238402316231 0.42130181716333542 0 -0.060298199850704802 0.41666313903326568 0 -0.066296205653790866 0.43259351905051718 0 -0.043096238402316231 0.42130181716333542 0 -0.060298199850704802 0.41666313903326568 0 -0.066296205653790866 0.43259351905051718 0 -0.043096238402316231 0.42130181716333542 0 -0.051042347806786188 0.43046679890852552 0 -0.066296205653790866 0.43259351905051718 0 -0.043096238402316231 0.42130181716333542 0 -0.051042347806786188 0.43046679890852552 0 -0.056676833231442472 0.44417162254419912 0 -0.065041462412146436 0.44409395459099532 0 -0.056676833231442472 0.44417162254419912 0 -0.059977229159370732 0.45208681244893512 0 -0.049795116049671961 0.44986547459070991 0 -0.056676833231442472 0.44417162254419912 0 -0.059977229159370732 0.45208681244893512 0 -0.065041462412146436 0.44409395459099532 0 -0.051042347806786188 0.43046679890852552 0 -0.056676833231442472 0.44417162254419912 0 -0.046839481195184753 0.44102180746828318 0 -0.056676833231442472 0.44417162254419912 0 -0.049795116049671961 0.44986547459070991 0 -0.046839481195184753 0.44102180746828318 0 -0.052935456482816182 0.46890583067229941 0 -0.063119609612918556 0.47324452239930093 0 -0.063512034044033397 0.46208471483730029 0 -0.051304312179029948 0.4595487592863286 0 -0.052935456482816182 0.46890583067229941 0 -0.063512034044033397 0.46208471483730029 0 -0.059977229159370732 0.45208681244893512 0 -0.051304312179029948 0.4595487592863286 0 -0.063512034044033397 0.46208471483730029 0 -0.059977229159370732 0.45208681244893512 0 -0.049795116049671961 0.44986547459070991 0 -0.051304312179029948 0.4595487592863286 0 -0.049795116049671961 0.44986547459070991 0 -0.051304312179029948 0.4595487592863286 0 -0.043218222077844592 0.45572910710069531 0 -0.051304312179029948 0.4595487592863286 0 -0.042609525593627122 0.46500757034697121 0 -0.052935456482816182 0.46890583067229941 0 -0.051304312179029948 0.4595487592863286 0 -0.042609525593627122 0.46500757034697121 0 -0.043218222077844592 0.45572910710069531 0 -0.042609525593627122 0.46500757034697121 0 -0.043218222077844592 0.45572910710069531 0 -0.032993624690948992 0.45830170005375159 0 -0.043218222077844592 0.45572910710069531 0 -0.032993624690948992 0.45830170005375159 0 -0.039388531875944918 0.44592203122571489 0 -0.042609525593627122 0.46500757034697121 0 -0.032993624690948992 0.45830170005375159 0 -0.03530085312772667 0.47153689678813038 0 -0.037294577012078167 0.43468311007226668 0 -0.039388531875944918 0.44592203122571489 0 -0.019279377621816609 0.44158860321839122 0 -0.037294577012078167 0.43468311007226668 0 -0.046839481195184753 0.44102180746828318 0 -0.039388531875944918 0.44592203122571489 0 -0.049795116049671961 0.44986547459070991 0 -0.046839481195184753 0.44102180746828318 0 -0.039388531875944918 0.44592203122571489 0 -0.049795116049671961 0.44986547459070991 0 -0.043218222077844592 0.45572910710069531 0 -0.039388531875944918 0.44592203122571489 0 -0.032993624690948992 0.45830170005375159 0 -0.039388531875944918 0.44592203122571489 0 -0.019279377621816609 0.44158860321839122 0 -0.032993624690948992 0.45830170005375159 0 -0.019279377621816609 0.44158860321839122 0 -0.02167447531029908 0.4678370135564926 0 -0.032993624690948992 0.45830170005375159 0 -0.02167447531029908 0.4678370135564926 0 -0.03530085312772667 0.47153689678813038 0 -0.019279377621816609 0.44158860321839122 0 -0.02167447531029908 0.4678370135564926 0 -0.0042756412190714538 0.46069134778337989 0 -0.019279377621816609 0.44158860321839122 0 -0.0042756412190714538 0.46069134778337989 0 -0.019279377621816609 0.44158860321839122 0 -0.0042756412190714538 0.46069134778337989 0 0.0025756332403864819 0.43738836999124497 0 -0.0021105431770298551 0.5 0 -0.002499422334772967 0.4956972825827205 0 -0.030819367685695039 0.5 0 -0.01143595866844376 0.48848206158808177 0 -0.002499422334772967 0.4956972825827205 0 -0.030730676255967222 0.49249772825208749 0 -0.0028711584709379318 0.48851997124698332 0 -0.0029301951384713282 0.48100999381006943 0 0.0053809422579363239 0.48889054700706142 0 -0.01143595866844376 0.48848206158808177 0 -0.002499422334772967 0.4956972825827205 0 -0.0028711584709379318 0.48851997124698332 0 -0.01143595866844376 0.48848206158808177 0 -0.0028711584709379318 0.48851997124698332 0 -0.0029301951384713282 0.48100999381006943 0 -0.02167447531029908 0.4678370135564926 0 -0.0042756412190714538 0.46069134778337989 0 -0.014905725637118179 0.4783379144501323 0 -0.0042756412190714538 0.46069134778337989 0 -0.0029301951384713282 0.48100999381006943 0 -0.014905725637118179 0.4783379144501323 0 -0.01143595866844376 0.48848206158808177 0 -0.0029301951384713282 0.48100999381006943 0 -0.014905725637118179 0.4783379144501323 0 -0.01143595866844376 0.48848206158808177 0 -0.014905725637118179 0.4783379144501323 0 -0.022912839665773049 0.4847183869220385 0 -0.014905725637118179 0.4783379144501323 0 -0.027878266324808651 0.47881347502204602 0 -0.022912839665773049 0.4847183869220385 0 -0.02167447531029908 0.4678370135564926 0 -0.014905725637118179 0.4783379144501323 0 -0.027878266324808651 0.47881347502204602 0 -0.02167447531029908 0.4678370135564926 0 -0.027878266324808651 0.47881347502204602 0 -0.03530085312772667 0.47153689678813038 0 -0.027878266324808651 0.47881347502204602 0 -0.03000579762012388 0.48493262322195407 0 -0.022912839665773049 0.4847183869220385 0 -0.002499422334772967 0.4956972825827205 0 -0.030819367685695039 0.5 0 -0.030730676255967222 0.49249772825208749 0 -0.002499422334772967 0.4956972825827205 0 -0.030730676255967222 0.49249772825208749 0 -0.03000579762012388 0.48493262322195407 0 -0.022912839665773049 0.4847183869220385 0 -0.030730676255967222 0.49249772825208749 0 -0.01143595866844376 0.48848206158808177 0 -0.022912839665773049 0.4847183869220385 0 -0.030730676255967222 0.49249772825208749 0 -0.030730676255967222 0.49249772825208749 0 -0.058961930177161503 0.48929817392145453 0 -0.030819367685695039 0.5 0 -0.030730676255967222 0.49249772825208749 0 -0.05952819219436023 0.5 0 -0.030730676255967222 0.49249772825208749 0 -0.040007556755916801 0.48167287552022431 0 -0.058961930177161503 0.48929817392145453 0 -0.03000579762012388 0.48493262322195407 0 -0.030730676255967222 0.49249772825208749 0 -0.040007556755916801 0.48167287552022431 0 -0.027878266324808651 0.47881347502204602 0 -0.03530085312772667 0.47153689678813038 0 -0.040007556755916801 0.48167287552022431 0 -0.027878266324808651 0.47881347502204602 0 -0.03000579762012388 0.48493262322195407 0 -0.040007556755916801 0.48167287552022431 0 -0.040007556755916801 0.48167287552022431 0 -0.043759697314156278 0.47439953677969399 0 -0.053307560153131817 0.47914988038420181 0 -0.042609525593627122 0.46500757034697121 0 -0.043759697314156278 0.47439953677969399 0 -0.052935456482816182 0.46890583067229941 0 -0.03530085312772667 0.47153689678813038 0 -0.040007556755916801 0.48167287552022431 0 -0.043759697314156278 0.47439953677969399 0 -0.042609525593627122 0.46500757034697121 0 -0.03530085312772667 0.47153689678813038 0 -0.043759697314156278 0.47439953677969399 0 -0.040007556755916801 0.48167287552022431 0 -0.053307560153131817 0.47914988038420181 0 -0.058961930177161503 0.48929817392145453 0 -0.043759697314156278 0.47439953677969399 0 -0.052935456482816182 0.46890583067229941 0 -0.053307560153131817 0.47914988038420181 0 -0.053307560153131817 0.47914988038420181 0 -0.067678370494056325 0.4806651911337772 0 -0.063119609612918556 0.47324452239930093 0 -0.053307560153131817 0.47914988038420181 0 -0.058961930177161503 0.48929817392145453 0 -0.067678370494056325 0.4806651911337772 0 -0.052935456482816182 0.46890583067229941 0 -0.053307560153131817 0.47914988038420181 0 -0.063119609612918556 0.47324452239930093 0 -0.030730676255967222 0.49249772825208749 0 -0.058961930177161503 0.48929817392145453 0 -0.05952819219436023 0.5 0 -0.058961930177161503 0.48929817392145453 0 -0.05952819219436023 0.5 0 -0.073778153131018945 0.4938801024995097 0 -0.05952819219436023 0.5 0 -0.073778153131018945 0.4938801024995097 0 -0.088237016703025528 0.5 0 -0.058961930177161503 0.48929817392145453 0 -0.087193184098355775 0.48609861959082151 0 -0.058961930177161503 0.48929817392145453 0 -0.087193184098355775 0.48609861959082151 0 -0.067678370494056325 0.4806651911337772 0 -0.058961930177161503 0.48929817392145453 0 -0.073778153131018945 0.4938801024995097 0 -0.087193184098355775 0.48609861959082151 0 -0.087193184098355775 0.48609861959082151 0 -0.088237016703025528 0.5 0 -0.099796072755208826 0.48247057042022617 0 -0.073778153131018945 0.4938801024995097 0 -0.087193184098355775 0.48609861959082151 0 -0.088237016703025528 0.5 0 -0.087193184098355775 0.48609861959082151 0 -0.086738876255678971 0.47241458969845579 0 -0.099796072755208826 0.48247057042022617 0 -0.087193184098355775 0.48609861959082151 0 -0.086738876255678971 0.47241458969845579 0 -0.075809568428714016 0.47553475937310691 0 -0.086738876255678971 0.47241458969845579 0 -0.075809568428714016 0.47553475937310691 0 -0.07648433803138123 0.46405369069625352 0 -0.087193184098355775 0.48609861959082151 0 -0.075809568428714016 0.47553475937310691 0 -0.067678370494056325 0.4806651911337772 0 -0.075809568428714016 0.47553475937310691 0 -0.063119609612918556 0.47324452239930093 0 -0.07648433803138123 0.46405369069625352 0 -0.075809568428714016 0.47553475937310691 0 -0.067678370494056325 0.4806651911337772 0 -0.063119609612918556 0.47324452239930093 0 -0.063119609612918556 0.47324452239930093 0 -0.063512034044033397 0.46208471483730029 0 -0.07648433803138123 0.46405369069625352 0 -0.059977229159370732 0.45208681244893512 0 -0.063512034044033397 0.46208471483730029 0 -0.071085600418729508 0.45245737601819058 0 -0.07648433803138123 0.46405369069625352 0 -0.071085600418729508 0.45245737601819058 0 -0.082300344727662539 0.45247396745017188 0 -0.063512034044033397 0.46208471483730029 0 -0.07648433803138123 0.46405369069625352 0 -0.071085600418729508 0.45245737601819058 0 -0.051042347806786188 0.43046679890852552 0 -0.065041462412146436 0.44409395459099532 0 -0.0746748216627839 0.43985209347086968 0 -0.065041462412146436 0.44409395459099532 0 -0.071085600418729508 0.45245737601819058 0 -0.0746748216627839 0.43985209347086968 0 -0.059977229159370732 0.45208681244893512 0 -0.065041462412146436 0.44409395459099532 0 -0.071085600418729508 0.45245737601819058 0 -0.071085600418729508 0.45245737601819058 0 -0.0746748216627839 0.43985209347086968 0 -0.082300344727662539 0.45247396745017188 0 -0.0746748216627839 0.43985209347086968 0 -0.082300344727662539 0.45247396745017188 0 -0.098307295518781673 0.44923738803321389 0 -0.087319335754539346 0.42777546896546742 0 -0.0746748216627839 0.43985209347086968 0 -0.098307295518781673 0.44923738803321389 0 -0.0746748216627839 0.43985209347086968 0 -0.098307295518781673 0.44923738803321389 0 -0.082300344727662539 0.45247396745017188 0 -0.088285101457650561 0.46120195293493432 0 -0.098307295518781673 0.44923738803321389 0 -0.086738876255678971 0.47241458969845579 0 -0.07648433803138123 0.46405369069625352 0 -0.088285101457650561 0.46120195293493432 0 -0.07648433803138123 0.46405369069625352 0 -0.082300344727662539 0.45247396745017188 0 -0.088285101457650561 0.46120195293493432 0 -0.086738876255678971 0.47241458969845579 0 -0.088285101457650561 0.46120195293493432 0 -0.097594652754748393 0.46783012879657582 0 -0.1093343790132586 0.46043587685965681 0 -0.097594652754748393 0.46783012879657582 0 -0.11416285094099619 0.47514109150077882 0 -0.1093343790132586 0.46043587685965681 0 -0.097594652754748393 0.46783012879657582 0 -0.098307295518781673 0.44923738803321389 0 -0.088285101457650561 0.46120195293493432 0 -0.097594652754748393 0.46783012879657582 0 -0.098307295518781673 0.44923738803321389 0 -0.1093343790132586 0.46043587685965681 0 -0.098307295518781673 0.44923738803321389 0 -0.1147487160409681 0.44065417790454159 0 -0.1021530869971638 0.43466765265802543 0 -0.098307295518781673 0.44923738803321389 0 -0.1147487160409681 0.44065417790454159 0 -0.12505069926743059 0.46043611860302752 0 -0.1147487160409681 0.44065417790454159 0 -0.12505069926743059 0.46043611860302752 0 -0.1327998323608354 0.4464443629262137 0 -0.1147487160409681 0.44065417790454159 0 -0.12505069926743059 0.46043611860302752 0 -0.1093343790132586 0.46043587685965681 0 -0.11416285094099619 0.47514109150077882 0 -0.12505069926743059 0.46043611860302752 0 -0.1093343790132586 0.46043587685965681 0 -0.1147487160409681 0.44065417790454159 0 -0.13535268249389321 0.48021805930151351 0 -0.12505069926743059 0.46043611860302752 0 -0.11416285094099619 0.47514109150077882 0 -0.11416285094099619 0.47514109150077882 0 -0.11694584121169049 0.5 0 -0.099796072755208826 0.48247057042022617 0 -0.13535268249389321 0.48021805930151351 0 -0.11416285094099619 0.47514109150077882 0 -0.11694584121169049 0.5 0 -0.088237016703025528 0.5 0 -0.11694584121169049 0.5 0 -0.099796072755208826 0.48247057042022617 0 -0.097594652754748393 0.46783012879657582 0 -0.11416285094099619 0.47514109150077882 0 -0.099796072755208826 0.48247057042022617 0 -0.086738876255678971 0.47241458969845579 0 -0.097594652754748393 0.46783012879657582 0 -0.099796072755208826 0.48247057042022617 0 -0.1672211174872601 0.092817608912967586 0 -0.15952044792503281 0.081889007358188298 0 -0.1425273844176477 0.090138558552944309 0 -0.1672211174872601 0.092817608912967586 0 -0.15952044792503281 0.081889007358188298 0 -0.1726254484753964 0.078126881396298267 0 -0.16077900612774981 0.070432496630227756 0 -0.1726254484753964 0.078126881396298267 0 -0.15333604639391929 0.060757103519607947 0 -0.1726254484753964 0.078126881396298267 0 -0.15333604639391929 0.060757103519607947 0 -0.17281983737040391 0.05646836440976933 0 -0.1726254484753964 0.078126881396298267 0 -0.15333604639391929 0.060757103519607947 0 -0.15952044792503281 0.081889007358188298 0 -0.16077900612774981 0.070432496630227756 0 -0.1726254484753964 0.078126881396298267 0 -0.1726254484753964 0.078126881396298267 0 -0.17281983737040391 0.05646836440976933 0 -0.19434983651055571 0.05924552448259144 0 -0.1726254484753964 0.078126881396298267 0 -0.1919148505568726 0.095496659272989698 0 -0.1672211174872601 0.092817608912967586 0 -0.1726254484753964 0.078126881396298267 0 -0.1919148505568726 0.095496659272989698 0 -0.1672211174872601 0.092817608912967586 0 -0.1919148505568726 0.095496659272989698 0 -0.17321302256856991 0.10618904574154329 0 -0.18493450585185989 0.11506273993605361 0 -0.1919148505568726 0.095496659272989698 0 -0.1672211174872601 0.092817608912967586 0 -0.17321302256856991 0.10618904574154329 0 -0.1919148505568726 0.095496659272989698 0 -0.18493450585185989 0.11506273993605361 0 -0.1632354384419431 0.12137486161517901 0 -0.17321302256856991 0.10618904574154329 0 -0.18493450585185989 0.11506273993605361 0 -0.1632354384419431 0.12137486161517901 0 -0.18493450585185989 0.11506273993605361 0 -0.1632354384419431 0.12137486161517901 0 -0.17744321909081509 0.13194928835353731 0 -0.17321302256856991 0.10618904574154329 0 -0.1632354384419431 0.12137486161517901 0 -0.15875920050491241 0.1061933589705277 0 -0.1672211174872601 0.092817608912967586 0 -0.17321302256856991 0.10618904574154329 0 -0.15875920050491241 0.1061933589705277 0 -0.15875920050491241 0.1061933589705277 0 -0.1424446685738438 0.109280702769442 0 -0.1425273844176477 0.090138558552944309 0 -0.1672211174872601 0.092817608912967586 0 -0.15875920050491241 0.1061933589705277 0 -0.1425273844176477 0.090138558552944309 0 -0.1632354384419431 0.12137486161517901 0 -0.15875920050491241 0.1061933589705277 0 -0.1424446685738438 0.109280702769442 0 -0.1632354384419431 0.12137486161517901 0 -0.14153637103202629 0.12768698329430431 0 -0.1632354384419431 0.12137486161517901 0 -0.1424446685738438 0.109280702769442 0 -0.14153637103202629 0.12768698329430431 0 -0.1424446685738438 0.109280702769442 0 -0.12859924464456701 0.1215355048709401 0 -0.1213020492873991 0.110310165124333 0 -0.1424446685738438 0.109280702769442 0 -0.12859924464456701 0.1215355048709401 0 -0.14153637103202629 0.12768698329430431 0 -0.1424446685738438 0.109280702769442 0 -0.12617373323283021 0.093555904281981683 0 -0.1425273844176477 0.090138558552944309 0 -0.1424446685738438 0.109280702769442 0 -0.12617373323283021 0.093555904281981683 0 -0.1213020492873991 0.110310165124333 0 -0.1308573042916529 0.080128241015979942 0 -0.1425273844176477 0.090138558552944309 0 -0.13926053883663231 0.073831160728477188 0 -0.12617373323283021 0.093555904281981683 0 -0.1308573042916529 0.080128241015979942 0 -0.1425273844176477 0.090138558552944309 0 -0.12617373323283021 0.093555904281981683 0 -0.1308573042916529 0.080128241015979942 0 -0.1196002052569579 0.07925181986621313 0 -0.1672211174872601 0.092817608912967586 0 -0.1425273844176477 0.090138558552944309 0 -0.1425273844176477 0.090138558552944309 0 -0.1484089252736 0.076576579863559063 0 -0.13926053883663231 0.073831160728477188 0 -0.15952044792503281 0.081889007358188298 0 -0.1425273844176477 0.090138558552944309 0 -0.1484089252736 0.076576579863559063 0 -0.16077900612774981 0.070432496630227756 0 -0.1484089252736 0.076576579863559063 0 -0.13995724906093759 0.066591676047957751 0 -0.16077900612774981 0.070432496630227756 0 -0.13995724906093759 0.066591676047957751 0 -0.1381291491129765 0.052193439765737183 0 -0.15952044792503281 0.081889007358188298 0 -0.16077900612774981 0.070432496630227756 0 -0.1484089252736 0.076576579863559063 0 -0.1484089252736 0.076576579863559063 0 -0.13995724906093759 0.066591676047957751 0 -0.13926053883663231 0.073831160728477188 0 -0.13995724906093759 0.066591676047957751 0 -0.12914696285726951 0.064485797362907771 0 -0.1314567785024621 0.069453805320275064 0 -0.13995724906093759 0.066591676047957751 0 -0.12914696285726951 0.064485797362907771 0 -0.131078292530626 0.05896100809726329 0 -0.13995724906093759 0.066591676047957751 0 -0.13926053883663231 0.073831160728477188 0 -0.1314567785024621 0.069453805320275064 0 -0.1308573042916529 0.080128241015979942 0 -0.13926053883663231 0.073831160728477188 0 -0.1314567785024621 0.069453805320275064 0 -0.1308573042916529 0.080128241015979942 0 -0.1248918650389821 0.071208644368017882 0 -0.1196002052569579 0.07925181986621313 0 -0.1308573042916529 0.080128241015979942 0 -0.1314567785024621 0.069453805320275064 0 -0.1248918650389821 0.071208644368017882 0 -0.12914696285726951 0.064485797362907771 0 -0.1314567785024621 0.069453805320275064 0 -0.1267372364114136 0.067611418500094986 0 -0.1314567785024621 0.069453805320275064 0 -0.1267372364114136 0.067611418500094986 0 -0.1248918650389821 0.071208644368017882 0 -0.12914696285726951 0.064485797362907771 0 -0.1267372364114136 0.067611418500094986 0 -0.12498503722429249 0.064616217945234367 0 -0.12914696285726951 0.064485797362907771 0 -0.12498503722429249 0.064616217945234367 0 -0.1248641855462891 0.060884203277834052 0 -0.131078292530626 0.05896100809726329 0 -0.12543315050897619 0.052684294334212289 0 -0.1248641855462891 0.060884203277834052 0 -0.12914696285726951 0.064485797362907771 0 -0.131078292530626 0.05896100809726329 0 -0.1248641855462891 0.060884203277834052 0 -0.13995724906093759 0.066591676047957751 0 -0.131078292530626 0.05896100809726329 0 -0.1381291491129765 0.052193439765737183 0 -0.131078292530626 0.05896100809726329 0 -0.1381291491129765 0.052193439765737183 0 -0.12543315050897619 0.052684294334212289 0 -0.1381291491129765 0.052193439765737183 0 -0.1154792920982039 0.033954382901245792 0 -0.1340466443124424 0.043387325642917703 0 -0.1378912739810996 0.02561140363455677 0 -0.1147572422309661 0.026017547766226549 0 -0.1381291491129765 0.052193439765737183 0 -0.1340466443124424 0.043387325642917703 0 -0.1154792920982039 0.033954382901245792 0 -0.1381291491129765 0.052193439765737183 0 -0.12543315050897619 0.052684294334212289 0 -0.1154792920982039 0.033954382901245792 0 -0.1340466443124424 0.043387325642917703 0 -0.1378912739810996 0.02561140363455677 0 -0.15815809245957141 0.036923989580585181 0 -0.16077900612774981 0.070432496630227756 0 -0.1381291491129765 0.052193439765737183 0 -0.1340466443124424 0.043387325642917703 0 -0.15333604639391929 0.060757103519607947 0 -0.15815809245957141 0.036923989580585181 0 -0.16077900612774981 0.070432496630227756 0 -0.1381291491129765 0.052193439765737183 0 -0.15333604639391929 0.060757103519607947 0 -0.1340466443124424 0.043387325642917703 0 -0.15333604639391929 0.060757103519607947 0 -0.1381291491129765 0.052193439765737183 0 -0.1340466443124424 0.043387325642917703 0 -0.15333604639391929 0.060757103519607947 0 -0.13456797813674581 0.0069355328586848406 0 -0.1378912739810996 0.02561140363455677 0 -0.1147572422309661 0.026017547766226549 0 -0.1378912739810996 0.02561140363455677 0 -0.15390566091118141 0.018446788591968358 0 -0.15815809245957141 0.036923989580585181 0 -0.13456797813674581 0.0069355328586848406 0 -0.1378912739810996 0.02561140363455677 0 -0.15390566091118141 0.018446788591968358 0 -0.15647714871318821 -0.0096605231674667252 0 -0.13456797813674581 0.0069355328586848406 0 -0.15390566091118141 0.018446788591968358 0 -0.15647714871318821 -0.0096605231674667252 0 -0.17971321096532061 -0.001381161084463442 0 -0.17342398660387731 0.017299734241961871 0 -0.15647714871318821 -0.0096605231674667252 0 -0.15390566091118141 0.018446788591968358 0 -0.17342398660387731 0.017299734241961871 0 -0.15390566091118141 0.018446788591968358 0 -0.17342398660387731 0.017299734241961871 0 -0.15815809245957141 0.036923989580585181 0 -0.17342398660387731 0.017299734241961871 0 -0.15815809245957141 0.036923989580585181 0 -0.18162123881617931 0.036096353758983228 0 -0.17342398660387731 0.017299734241961871 0 -0.18162123881617931 0.036096353758983228 0 -0.19318413414889171 0.0169893345470522 0 -0.17971321096532061 -0.001381161084463442 0 -0.17342398660387731 0.017299734241961871 0 -0.19318413414889171 0.0169893345470522 0 -0.15333604639391929 0.060757103519607947 0 -0.15815809245957141 0.036923989580585181 0 -0.17281983737040391 0.05646836440976933 0 -0.15815809245957141 0.036923989580585181 0 -0.18162123881617931 0.036096353758983228 0 -0.17281983737040391 0.05646836440976933 0 -0.18162123881617931 0.036096353758983228 0 -0.17281983737040391 0.05646836440976933 0 -0.19434983651055571 0.05924552448259144 0 -0.18162123881617931 0.036096353758983228 0 -0.19434983651055571 0.05924552448259144 0 -0.20093798579707259 0.035662965187854348 0 -0.19434983651055571 0.05924552448259144 0 -0.20093798579707259 0.035662965187854348 0 -0.21852658806825639 0.042893403538309123 0 -0.20093798579707259 0.035662965187854348 0 -0.21852658806825639 0.042893403538309123 0 -0.2192170341837858 0.015223114542628429 0 -0.21852658806825639 0.042893403538309123 0 -0.21783614195272699 0.070563692533989808 0 -0.19434983651055571 0.05924552448259144 0 -0.21852658806825639 0.042893403538309123 0 -0.21783614195272699 0.070563692533989808 0 -0.17971321096532061 -0.001381161084463442 0 -0.2036260325626193 -0.002978392342358185 0 -0.19318413414889171 0.0169893345470522 0 -0.18162123881617931 0.036096353758983228 0 -0.20093798579707259 0.035662965187854348 0 -0.19318413414889171 0.0169893345470522 0 -0.20093798579707259 0.035662965187854348 0 -0.19318413414889171 0.0169893345470522 0 -0.2192170341837858 0.015223114542628429 0 -0.2036260325626193 -0.002978392342358185 0 -0.22786629277407161 0.00053210229903320294 0 -0.2192170341837858 0.015223114542628429 0 -0.2036260325626193 -0.002978392342358185 0 -0.19318413414889171 0.0169893345470522 0 -0.2192170341837858 0.015223114542628429 0 -0.22786629277407161 0.00053210229903320294 0 -0.2192170341837858 0.015223114542628429 0 -0.23712477713536281 0.0148469890339963 0 -0.21852658806825639 0.042893403538309123 0 -0.2192170341837858 0.015223114542628429 0 -0.21852658806825639 0.042893403538309123 0 -0.2192170341837858 0.015223114542628429 0 -0.23224915364749349 0.03044241699999467 0 -0.2192170341837858 0.015223114542628429 0 -0.23224915364749349 0.03044241699999467 0 -0.23712477713536281 0.0148469890339963 0 -0.26402422636552969 0.01925871513702334 0 -0.24832253994289469 0.030783652886797599 0 -0.23712477713536281 0.0148469890339963 0 -0.23224915364749349 0.03044241699999467 0 -0.24832253994289469 0.030783652886797599 0 -0.23712477713536281 0.0148469890339963 0 -0.24613462773256131 -0.0027825601762608149 0 -0.25395319572439562 0.0104417711316637 0 -0.23712477713536281 0.0148469890339963 0 -0.24613462773256131 -0.0027825601762608149 0 -0.22786629277407161 0.00053210229903320294 0 -0.23712477713536281 0.0148469890339963 0 -0.21852658806825639 0.042893403538309123 0 -0.23805482890716781 0.048464924998241857 0 -0.21783614195272699 0.070563692533989808 0 -0.23805482890716781 0.048464924998241857 0 -0.2472174533685505 0.067515717561348429 0 -0.21783614195272699 0.070563692533989808 0 -0.21852658806825639 0.042893403538309123 0 -0.23224915364749349 0.03044241699999467 0 -0.23805482890716781 0.048464924998241857 0 -0.26356330893742702 0.042911559017133193 0 -0.24832253994289469 0.030783652886797599 0 -0.23805482890716781 0.048464924998241857 0 -0.23224915364749349 0.03044241699999467 0 -0.24832253994289469 0.030783652886797599 0 -0.23805482890716781 0.048464924998241857 0 -0.26356330893742702 0.042911559017133193 0 -0.23805482890716781 0.048464924998241857 0 -0.2472174533685505 0.067515717561348429 0 -0.26337238105942501 0.092245657376278573 0 -0.24555943370552849 0.085634749108455921 0 -0.23582123597440621 0.1002601114950015 0 -0.2472174533685505 0.067515717561348429 0 -0.24555943370552849 0.085634749108455921 0 -0.23048625919715471 0.084531839300801687 0 -0.24555943370552849 0.085634749108455921 0 -0.23048625919715471 0.084531839300801687 0 -0.23582123597440621 0.1002601114950015 0 -0.23048625919715471 0.084531839300801687 0 -0.21783614195272699 0.070563692533989808 0 -0.21714569583719759 0.098233981529670292 0 -0.2472174533685505 0.067515717561348429 0 -0.23048625919715471 0.084531839300801687 0 -0.21783614195272699 0.070563692533989808 0 -0.19434983651055571 0.05924552448259144 0 -0.21783614195272699 0.070563692533989808 0 -0.19877439466654981 0.080333347843108083 0 -0.21783614195272699 0.070563692533989808 0 -0.21714569583719759 0.098233981529670292 0 -0.21783614195272699 0.070563692533989808 0 -0.19877439466654981 0.080333347843108083 0 -0.21714569583719759 0.098233981529670292 0 -0.19877439466654981 0.080333347843108083 0 -0.1919148505568726 0.095496659272989698 0 -0.21714569583719759 0.098233981529670292 0 -0.1726254484753964 0.078126881396298267 0 -0.19877439466654981 0.080333347843108083 0 -0.1919148505568726 0.095496659272989698 0 -0.1726254484753964 0.078126881396298267 0 -0.19434983651055571 0.05924552448259144 0 -0.19877439466654981 0.080333347843108083 0 -0.18493450585185989 0.11506273993605361 0 -0.20663357326177739 0.1087506182569306 0 -0.20420735864060049 0.1244126035718069 0 -0.18493450585185989 0.11506273993605361 0 -0.20663357326177739 0.1087506182569306 0 -0.18493450585185989 0.11506273993605361 0 -0.1919148505568726 0.095496659272989698 0 -0.20663357326177739 0.1087506182569306 0 -0.1919148505568726 0.095496659272989698 0 -0.20663357326177739 0.1087506182569306 0 -0.1919148505568726 0.095496659272989698 0 -0.20663357326177739 0.1087506182569306 0 -0.21714569583719759 0.098233981529670292 0 -0.1919148505568726 0.095496659272989698 0 -0.21714569583719759 0.098233981529670292 0 -0.20663357326177739 0.1087506182569306 0 -0.21714569583719759 0.098233981529670292 0 -0.21695822028758499 0.1057472436376506 0 -0.20663357326177739 0.1087506182569306 0 -0.21695822028758499 0.1057472436376506 0 -0.21714569583719759 0.098233981529670292 0 -0.21695822028758499 0.1057472436376506 0 -0.21695822028758499 0.1057472436376506 0 -0.21665803454002561 0.1177774748179206 0 -0.20663357326177739 0.1087506182569306 0 -0.21665803454002561 0.1177774748179206 0 -0.20663357326177739 0.1087506182569306 0 -0.21695822028758499 0.1057472436376506 0 -0.21665803454002561 0.1177774748179206 0 -0.20663357326177739 0.1087506182569306 0 -0.20420735864060049 0.1244126035718069 0 -0.21665803454002561 0.1177774748179206 0 -0.21665803454002561 0.1177774748179206 0 -0.21635933987940439 0.1297479492618652 0 -0.20420735864060049 0.1244126035718069 0 -0.21665803454002561 0.1177774748179206 0 -0.21635933987940439 0.1297479492618652 0 -0.21665803454002561 0.1177774748179206 0 -0.2312544227843199 0.13092127370470941 0 -0.21695822028758499 0.1057472436376506 0 -0.21665803454002561 0.1177774748179206 0 -0.225344367999845 0.11015081031068689 0 -0.21665803454002561 0.1177774748179206 0 -0.225344367999845 0.11015081031068689 0 -0.23193998119736259 0.1168184112921738 0 -0.21665803454002561 0.1177774748179206 0 -0.23193998119736259 0.1168184112921738 0 -0.2312544227843199 0.13092127370470941 0 -0.23193998119736259 0.1168184112921738 0 -0.23896936601560789 0.1240588760503796 0 -0.2312544227843199 0.13092127370470941 0 -0.21714569583719759 0.098233981529670292 0 -0.21695822028758499 0.1057472436376506 0 -0.23582123597440621 0.1002601114950015 0 -0.23048625919715471 0.084531839300801687 0 -0.21714569583719759 0.098233981529670292 0 -0.23582123597440621 0.1002601114950015 0 -0.21695822028758499 0.1057472436376506 0 -0.225344367999845 0.11015081031068689 0 -0.23582123597440621 0.1002601114950015 0 -0.225344367999845 0.11015081031068689 0 -0.23193998119736259 0.1168184112921738 0 -0.23582123597440621 0.1002601114950015 0 -0.21695822028758499 0.1057472436376506 0 -0.23582123597440621 0.1002601114950015 0 -0.21714569583719759 0.098233981529670292 0 -0.23582123597440621 0.1002601114950015 0 -0.26337238105942501 0.092245657376278573 0 -0.23582123597440621 0.1002601114950015 0 -0.26005657975102658 0.1028894306946134 0 -0.23582123597440621 0.1002601114950015 0 -0.26005657975102658 0.1028894306946134 0 -0.23582123597440621 0.1002601114950015 0 -0.24628236409738219 0.1164562057313655 0 -0.23193998119736259 0.1168184112921738 0 -0.23582123597440621 0.1002601114950015 0 -0.24628236409738219 0.1164562057313655 0 -0.23193998119736259 0.1168184112921738 0 -0.23896936601560789 0.1240588760503796 0 -0.24628236409738219 0.1164562057313655 0 -0.23896936601560789 0.1240588760503796 0 -0.24628236409738219 0.1164562057313655 0 -0.24640069598336689 0.13203961347326981 0 -0.25493351727982888 0.124423508727017 0 -0.24628236409738219 0.1164562057313655 0 -0.24640069598336689 0.13203961347326981 0 -0.24640069598336689 0.13203961347326981 0 -0.2312544227843199 0.13092127370470941 0 -0.2443943061804808 0.14729524919240211 0 -0.23896936601560789 0.1240588760503796 0 -0.24640069598336689 0.13203961347326981 0 -0.2312544227843199 0.13092127370470941 0 -0.2312544227843199 0.13092127370470941 0 -0.2224648650338974 0.14737119854140229 0 -0.21635933987940439 0.1297479492618652 0 -0.21665803454002561 0.1177774748179206 0 -0.2312544227843199 0.13092127370470941 0 -0.21635933987940439 0.1297479492618652 0 -0.2224648650338974 0.14737119854140229 0 -0.2443943061804808 0.14729524919240211 0 -0.23519499884182199 0.15890676781204641 0 -0.2312544227843199 0.13092127370470941 0 -0.2224648650338974 0.14737119854140229 0 -0.2443943061804808 0.14729524919240211 0 -0.2443943061804808 0.14729524919240211 0 -0.23519499884182199 0.15890676781204641 0 -0.2498858061379349 0.16761432791667591 0 -0.2498858061379349 0.16761432791667591 0 -0.22403501801497511 0.17334629559770531 0 -0.23519499884182199 0.15890676781204641 0 -0.2498858061379349 0.16761432791667591 0 -0.22403501801497511 0.17334629559770531 0 -0.2498858061379349 0.16761432791667591 0 -0.22403501801497511 0.17334629559770531 0 -0.23926157219466071 0.19388917217723509 0 -0.22403501801497511 0.17334629559770531 0 -0.23926157219466071 0.19388917217723509 0 -0.21702986350208731 0.19341142300472169 0 -0.2224648650338974 0.14737119854140229 0 -0.23519499884182199 0.15890676781204641 0 -0.22403501801497511 0.17334629559770531 0 -0.22403501801497511 0.17334629559770531 0 -0.1981842298920152 0.1790782632787348 0 -0.20525925506811371 0.1540989828181584 0 -0.2224648650338974 0.14737119854140229 0 -0.22403501801497511 0.17334629559770531 0 -0.20525925506811371 0.1540989828181584 0 -0.22403501801497511 0.17334629559770531 0 -0.1981842298920152 0.1790782632787348 0 -0.22403501801497511 0.17334629559770531 0 -0.1981842298920152 0.1790782632787348 0 -0.21702986350208731 0.19341142300472169 0 -0.1981842298920152 0.1790782632787348 0 -0.19110550515843031 0.16033590379186941 0 -0.17824109291575391 0.16870505887983631 0 -0.1981842298920152 0.1790782632787348 0 -0.19110550515843031 0.16033590379186941 0 -0.20525925506811371 0.1540989828181584 0 -0.19110550515843031 0.16033590379186941 0 -0.19373302743310519 0.13733687815690851 0 -0.20525925506811371 0.1540989828181584 0 -0.19373302743310519 0.13733687815690851 0 -0.20770108142785451 0.13971491618339121 0 -0.20525925506811371 0.1540989828181584 0 -0.19110550515843031 0.16033590379186941 0 -0.19373302743310519 0.13733687815690851 0 -0.17931027735769209 0.14726505687891911 0 -0.18493450585185989 0.11506273993605361 0 -0.20420735864060049 0.1244126035718069 0 -0.19373302743310519 0.13733687815690851 0 -0.20420735864060049 0.1244126035718069 0 -0.19373302743310519 0.13733687815690851 0 -0.20770108142785451 0.13971491618339121 0 -0.2224648650338974 0.14737119854140229 0 -0.20770108142785451 0.13971491618339121 0 -0.21635933987940439 0.1297479492618652 0 -0.20420735864060049 0.1244126035718069 0 -0.20770108142785451 0.13971491618339121 0 -0.21635933987940439 0.1297479492618652 0 -0.2224648650338974 0.14737119854140229 0 -0.20770108142785451 0.13971491618339121 0 -0.20525925506811371 0.1540989828181584 0 -0.23593812143186271 0.23912583053028991 0 -0.2207962709530189 0.22674983753405481 0 -0.21740227253594921 0.2411390204151814 0 -0.2271738902703776 0.24987456810256481 0 -0.23593812143186271 0.23912583053028991 0 -0.21740227253594921 0.2411390204151814 0 -0.21549118147049071 0.25577727394810351 0 -0.2271738902703776 0.24987456810256481 0 -0.21740227253594921 0.2411390204151814 0 -0.25605024955360411 0.23809937611219889 0 -0.24876127740294221 0.2528047040624225 0 -0.23593812143186271 0.23912583053028991 0 -0.24876127740294221 0.2528047040624225 0 -0.2271738902703776 0.24987456810256481 0 -0.23593812143186271 0.23912583053028991 0 -0.25087245148626602 0.22646438269951799 0 -0.25605024955360411 0.23809937611219889 0 -0.23593812143186271 0.23912583053028991 0 -0.25087245148626602 0.22646438269951799 0 -0.23593812143186271 0.23912583053028991 0 -0.23564957889609461 0.2238267855608691 0 -0.25087245148626602 0.22646438269951799 0 -0.23564957889609461 0.2238267855608691 0 -0.24291571004434509 0.21225689290567709 0 -0.23564957889609461 0.2238267855608691 0 -0.2207962709530189 0.22674983753405481 0 -0.22581407265540809 0.2122733666480994 0 -0.23593812143186271 0.23912583053028991 0 -0.23564957889609461 0.2238267855608691 0 -0.2207962709530189 0.22674983753405481 0 -0.22581407265540809 0.2122733666480994 0 -0.24291571004434509 0.21225689290567709 0 -0.23926157219466071 0.19388917217723509 0 -0.26006602822462421 0.20633197812702311 0 -0.24291571004434509 0.21225689290567709 0 -0.23926157219466071 0.19388917217723509 0 -0.23564957889609461 0.2238267855608691 0 -0.22581407265540809 0.2122733666480994 0 -0.24291571004434509 0.21225689290567709 0 -0.22581407265540809 0.2122733666480994 0 -0.23926157219466071 0.19388917217723509 0 -0.21702986350208731 0.19341142300472169 0 -0.1981842298920152 0.1790782632787348 0 -0.21702986350208731 0.19341142300472169 0 -0.2007469687415542 0.19616328920875131 0 -0.21702986350208731 0.19341142300472169 0 -0.2007469687415542 0.19616328920875131 0 -0.2059369472409634 0.21216872800489439 0 -0.1981842298920152 0.1790782632787348 0 -0.2007469687415542 0.19616328920875131 0 -0.18716732443918371 0.19000513721550311 0 -0.18825367576223431 0.20278800193103641 0 -0.2007469687415542 0.19616328920875131 0 -0.18716732443918371 0.19000513721550311 0 -0.18825367576223431 0.20278800193103641 0 -0.2059369472409634 0.21216872800489439 0 -0.1895107002542184 0.22248778498097771 0 -0.18825367576223431 0.20278800193103641 0 -0.2007469687415542 0.19616328920875131 0 -0.2059369472409634 0.21216872800489439 0 -0.22581407265540809 0.2122733666480994 0 -0.21702986350208731 0.19341142300472169 0 -0.2059369472409634 0.21216872800489439 0 -0.2207962709530189 0.22674983753405481 0 -0.22581407265540809 0.2122733666480994 0 -0.2059369472409634 0.21216872800489439 0 -0.2207962709530189 0.22674983753405481 0 -0.2059369472409634 0.21216872800489439 0 -0.20308099900304941 0.23083348530164149 0 -0.2207962709530189 0.22674983753405481 0 -0.20308099900304941 0.23083348530164149 0 -0.21740227253594921 0.2411390204151814 0 -0.2059369472409634 0.21216872800489439 0 -0.1895107002542184 0.22248778498097771 0 -0.20308099900304941 0.23083348530164149 0 -0.1895107002542184 0.22248778498097771 0 -0.20308099900304941 0.23083348530164149 0 -0.1924308103693543 0.23520812269036331 0 -0.1895107002542184 0.22248778498097771 0 -0.1924308103693543 0.23520812269036331 0 -0.1818574771671457 0.23550753333685701 0 -0.20308099900304941 0.23083348530164149 0 -0.1924308103693543 0.23520812269036331 0 -0.2034764802968782 0.24589376941659341 0 -0.1924308103693543 0.23520812269036331 0 -0.19288838960020871 0.24588662843359799 0 -0.18449495907706209 0.2435944599372532 0 -0.18681981676205911 0.25190833722250611 0 -0.19288838960020871 0.24588662843359799 0 -0.18449495907706209 0.2435944599372532 0 -0.1950514855809734 0.25460762233452011 0 -0.19288838960020871 0.24588662843359799 0 -0.2034764802968782 0.24589376941659341 0 -0.1924308103693543 0.23520812269036331 0 -0.19288838960020871 0.24588662843359799 0 -0.2034764802968782 0.24589376941659341 0 -0.20308099900304941 0.23083348530164149 0 -0.2034764802968782 0.24589376941659341 0 -0.21740227253594921 0.2411390204151814 0 -0.21549118147049071 0.25577727394810351 0 -0.2034764802968782 0.24589376941659341 0 -0.21740227253594921 0.2411390204151814 0 -0.1630808722682143 0.25138782056360459 0 -0.15788241013116289 0.2425372414902382 0 -0.15754813272750809 0.23110594658933389 0 -0.1630808722682143 0.25138782056360459 0 -0.16602209593977901 0.2309234426434239 0 -0.1630808722682143 0.25138782056360459 0 -0.16829375107778491 0.24536112456425241 0 -0.16602209593977901 0.2309234426434239 0 -0.1630808722682143 0.25138782056360459 0 -0.16602209593977901 0.2309234426434239 0 -0.15754813272750809 0.23110594658933389 0 -0.1630808722682143 0.25138782056360459 0 -0.15754813272750809 0.23110594658933389 0 -0.1577330381259438 0.25020660813494461 0 -0.1630808722682143 0.25138782056360459 0 -0.15788241013116289 0.2425372414902382 0 -0.15788241013116289 0.2425372414902382 0 -0.15754813272750809 0.23110594658933389 0 -0.15353718512073511 0.23645738869561631 0 -0.17101546118833519 0.2401212551457016 0 -0.17446422267010961 0.23464326870780619 0 -0.16602209593977901 0.2309234426434239 0 -0.17101546118833519 0.2401212551457016 0 -0.16829375107778491 0.24536112456425241 0 -0.16602209593977901 0.2309234426434239 0 -0.17101546118833519 0.2401212551457016 0 -0.16829375107778491 0.24536112456425241 0 -0.17295204395604641 0.24566711415410589 0 -0.1671855651982124 0.25154772682291288 0 -0.1630808722682143 0.25138782056360459 0 -0.16829375107778491 0.24536112456425241 0 -0.17088696578349821 0.25118883804052722 0 -0.1671855651982124 0.25154772682291288 0 -0.16829375107778491 0.24536112456425241 0 -0.17088696578349821 0.25118883804052722 0 -0.16829375107778491 0.24536112456425241 0 -0.17295204395604641 0.24566711415410589 0 -0.17295204395604641 0.24566711415410589 0 -0.17765105329778991 0.24987310820468861 0 -0.1769129884328238 0.24179124481535949 0 -0.17765105329778991 0.24987310820468861 0 -0.18449495907706209 0.2435944599372532 0 -0.1769129884328238 0.24179124481535949 0 -0.17088696578349821 0.25118883804052722 0 -0.17295204395604641 0.24566711415410589 0 -0.17765105329778991 0.24987310820468861 0 -0.17101546118833519 0.2401212551457016 0 -0.17295204395604641 0.24566711415410589 0 -0.1769129884328238 0.24179124481535949 0 -0.18681981676205911 0.25190833722250611 0 -0.17765105329778991 0.24987310820468861 0 -0.18449495907706209 0.2435944599372532 0 -0.18449495907706209 0.2435944599372532 0 -0.1818574771671457 0.23550753333685701 0 -0.1769129884328238 0.24179124481535949 0 -0.1924308103693543 0.23520812269036331 0 -0.18449495907706209 0.2435944599372532 0 -0.1818574771671457 0.23550753333685701 0 -0.1818574771671457 0.23550753333685701 0 -0.1769129884328238 0.24179124481535949 0 -0.17446422267010961 0.23464326870780619 0 -0.17101546118833519 0.2401212551457016 0 -0.1769129884328238 0.24179124481535949 0 -0.17446422267010961 0.23464326870780619 0 -0.1818574771671457 0.23550753333685701 0 -0.17446422267010961 0.23464326870780619 0 -0.17653217682214789 0.22486907251769289 0 -0.17446422267010961 0.23464326870780619 0 -0.17653217682214789 0.22486907251769289 0 -0.16602209593977901 0.2309234426434239 0 -0.1895107002542184 0.22248778498097771 0 -0.1818574771671457 0.23550753333685701 0 -0.17653217682214789 0.22486907251769289 0 -0.1895107002542184 0.22248778498097771 0 -0.17653217682214789 0.22486907251769289 0 -0.1799271246932922 0.21334984792177841 0 -0.16602209593977901 0.2309234426434239 0 -0.16896331961134381 0.2104590647232433 0 -0.15754813272750809 0.23110594658933389 0 -0.1615443657116912 0.21983633375598169 0 -0.15201539318680191 0.21082407261506311 0 -0.17653217682214789 0.22486907251769289 0 -0.16602209593977901 0.2309234426434239 0 -0.16896331961134381 0.2104590647232433 0 -0.16602209593977901 0.2309234426434239 0 -0.1615443657116912 0.21983633375598169 0 -0.16896331961134381 0.2104590647232433 0 -0.16602209593977901 0.2309234426434239 0 -0.15754813272750809 0.23110594658933389 0 -0.1615443657116912 0.21983633375598169 0 -0.1615443657116912 0.21983633375598169 0 -0.16896331961134381 0.2104590647232433 0 -0.15201539318680191 0.21082407261506311 0 -0.16896331961134381 0.2104590647232433 0 -0.16233987029924099 0.19732605074838511 0 -0.15201539318680191 0.21082407261506311 0 -0.17653217682214789 0.22486907251769289 0 -0.16896331961134381 0.2104590647232433 0 -0.1799271246932922 0.21334984792177841 0 -0.18825367576223431 0.20278800193103641 0 -0.1895107002542184 0.22248778498097771 0 -0.1799271246932922 0.21334984792177841 0 -0.18825367576223431 0.20278800193103641 0 -0.1799271246932922 0.21334984792177841 0 -0.17758168146405059 0.20237272447649021 0 -0.16896331961134381 0.2104590647232433 0 -0.1799271246932922 0.21334984792177841 0 -0.17758168146405059 0.20237272447649021 0 -0.16896331961134381 0.2104590647232433 0 -0.17758168146405059 0.20237272447649021 0 -0.17190454328290861 0.1899946868030627 0 -0.18825367576223431 0.20278800193103641 0 -0.17758168146405059 0.20237272447649021 0 -0.17946270919424109 0.19338572551360439 0 -0.18825367576223431 0.20278800193103641 0 -0.18716732443918371 0.19000513721550311 0 -0.17946270919424109 0.19338572551360439 0 -0.18716732443918371 0.19000513721550311 0 -0.17946270919424109 0.19338572551360439 0 -0.17233344176905549 0.18481023095976409 0 -0.17758168146405059 0.20237272447649021 0 -0.17946270919424109 0.19338572551360439 0 -0.17190454328290861 0.1899946868030627 0 -0.17946270919424109 0.19338572551360439 0 -0.17190454328290861 0.1899946868030627 0 -0.17233344176905549 0.18481023095976409 0 -0.16896331961134381 0.2104590647232433 0 -0.17190454328290861 0.1899946868030627 0 -0.16233987029924099 0.19732605074838511 0 -0.17190454328290861 0.1899946868030627 0 -0.16233987029924099 0.19732605074838511 0 -0.17233344176905549 0.18481023095976409 0 -0.16896331961134381 0.2104590647232433 0 -0.17190454328290861 0.1899946868030627 0 -0.1464826536460955 0.19054219864079239 0 -0.17233344176905549 0.18481023095976409 0 -0.16233987029924099 0.19732605074838511 0 -0.1464826536460955 0.19054219864079239 0 -0.17233344176905549 0.18481023095976409 0 -0.1464826536460955 0.19054219864079239 0 -0.15201539318680191 0.21082407261506311 0 -0.1464826536460955 0.19054219864079239 0 -0.13639677342282 0.20377279249316241 0 -0.15201539318680191 0.21082407261506311 0 -0.16233987029924099 0.19732605074838511 0 -0.1464826536460955 0.19054219864079239 0 -0.15201539318680191 0.21082407261506311 0 -0.1464826536460955 0.19054219864079239 0 -0.12099071185382559 0.19619459831947869 0 -0.1464826536460955 0.19054219864079239 0 -0.13027591869708691 0.18026912521056801 0 -0.12099071185382559 0.19619459831947869 0 -0.1464826536460955 0.19054219864079239 0 -0.13639677342282 0.20377279249316241 0 -0.12099071185382559 0.19619459831947869 0 -0.13639677342282 0.20377279249316241 0 -0.12507817226566839 0.2125325468920094 0 -0.13876744587984841 0.21450218734809631 0 -0.13639677342282 0.20377279249316241 0 -0.12507817226566839 0.2125325468920094 0 -0.12099071185382559 0.19619459831947869 0 -0.12507817226566839 0.2125325468920094 0 -0.13876744587984841 0.21450218734809631 0 -0.1272728230052467 0.22459437801428009 0 -0.13876744587984841 0.21450218734809631 0 -0.15201539318680191 0.21082407261506311 0 -0.14703897292717399 0.22308954786850291 0 -0.13639677342282 0.20377279249316241 0 -0.13876744587984841 0.21450218734809631 0 -0.15201539318680191 0.21082407261506311 0 -0.15754813272750809 0.23110594658933389 0 -0.15201539318680191 0.21082407261506311 0 -0.14703897292717399 0.22308954786850291 0 -0.15754813272750809 0.23110594658933389 0 -0.15201539318680191 0.21082407261506311 0 -0.15754813272750809 0.23110594658933389 0 -0.14846307019197971 0.23210495993133731 0 -0.14703897292717399 0.22308954786850291 0 -0.15754813272750809 0.23110594658933389 0 -0.14846307019197971 0.23210495993133731 0 -0.15353718512073511 0.23645738869561631 0 -0.14846307019197971 0.23210495993133731 0 -0.14703897292717399 0.22308954786850291 0 -0.13840082264973191 0.22691057285868371 0 -0.14846307019197971 0.23210495993133731 0 -0.13840082264973191 0.22691057285868371 0 -0.14125147558170789 0.2382979569574584 0 -0.13876744587984841 0.21450218734809631 0 -0.14703897292717399 0.22308954786850291 0 -0.13840082264973191 0.22691057285868371 0 -0.13876744587984841 0.21450218734809631 0 -0.1272728230052467 0.22459437801428009 0 -0.13840082264973191 0.22691057285868371 0 -0.1272728230052467 0.22459437801428009 0 -0.13840082264973191 0.22691057285868371 0 -0.130978178653991 0.23830194473067401 0 -0.1272728230052467 0.22459437801428009 0 -0.130978178653991 0.23830194473067401 0 -0.1188265011125848 0.23168671671366431 0 -0.13840082264973191 0.22691057285868371 0 -0.130978178653991 0.23830194473067401 0 -0.14125147558170789 0.2382979569574584 0 -0.130978178653991 0.23830194473067401 0 -0.13568327514835921 0.24636813967690591 0 -0.14125147558170789 0.2382979569574584 0 -0.12701487005276749 0.2501847663328795 0 -0.130978178653991 0.23830194473067401 0 -0.13568327514835921 0.24636813967690591 0 -0.12701487005276749 0.2501847663328795 0 -0.130978178653991 0.23830194473067401 0 -0.1177292446923362 0.24238917957977271 0 -0.13568327514835921 0.24636813967690591 0 -0.1439144169701066 0.24572070102477209 0 -0.14125147558170789 0.2382979569574584 0 -0.1379006560818605 0.25507269134306892 0 -0.13568327514835921 0.24636813967690591 0 -0.1439144169701066 0.24572070102477209 0 -0.14605631191633631 0.25195853849921879 0 -0.1439144169701066 0.24572070102477209 0 -0.15266680853711681 0.24878949605430181 0 -0.14846307019197971 0.23210495993133731 0 -0.14125147558170789 0.2382979569574584 0 -0.15025512743228961 0.24008140677155601 0 -0.1439144169701066 0.24572070102477209 0 -0.14125147558170789 0.2382979569574584 0 -0.15025512743228961 0.24008140677155601 0 -0.14846307019197971 0.23210495993133731 0 -0.15025512743228961 0.24008140677155601 0 -0.15353718512073511 0.23645738869561631 0 -0.15788241013116289 0.2425372414902382 0 -0.15025512743228961 0.24008140677155601 0 -0.15353718512073511 0.23645738869561631 0 -0.15788241013116289 0.2425372414902382 0 -0.15025512743228961 0.24008140677155601 0 -0.15266680853711681 0.24878949605430181 0 -0.1439144169701066 0.24572070102477209 0 -0.15025512743228961 0.24008140677155601 0 -0.15266680853711681 0.24878949605430181 0 -0.1577330381259438 0.25020660813494461 0 -0.15788241013116289 0.2425372414902382 0 -0.15266680853711681 0.24878949605430181 0 -0.16609739614247371 0.15286774187992319 0 -0.16084996050811409 0.165121763785012 0 -0.15482790940711019 0.14860038729534769 0 -0.16609739614247371 0.15286774187992319 0 -0.16600284636947499 0.13870690518062631 0 -0.17931027735769209 0.14726505687891911 0 -0.16609739614247371 0.15286774187992319 0 -0.16600284636947499 0.13870690518062631 0 -0.15482790940711019 0.14860038729534769 0 -0.16600284636947499 0.13870690518062631 0 -0.15482790940711019 0.14860038729534769 0 -0.1537833291097522 0.13504194045438681 0 -0.1632354384419431 0.12137486161517901 0 -0.16600284636947499 0.13870690518062631 0 -0.17744321909081509 0.13194928835353731 0 -0.1632354384419431 0.12137486161517901 0 -0.16600284636947499 0.13870690518062631 0 -0.1537833291097522 0.13504194045438681 0 -0.19373302743310519 0.13733687815690851 0 -0.17744321909081509 0.13194928835353731 0 -0.17931027735769209 0.14726505687891911 0 -0.16600284636947499 0.13870690518062631 0 -0.17744321909081509 0.13194928835353731 0 -0.17931027735769209 0.14726505687891911 0 -0.18493450585185989 0.11506273993605361 0 -0.19373302743310519 0.13733687815690851 0 -0.17744321909081509 0.13194928835353731 0 -0.19110550515843031 0.16033590379186941 0 -0.17931027735769209 0.14726505687891911 0 -0.17824109291575391 0.16870505887983631 0 -0.16609739614247371 0.15286774187992319 0 -0.17931027735769209 0.14726505687891911 0 -0.17824109291575391 0.16870505887983631 0 -0.1981842298920152 0.1790782632787348 0 -0.18716732443918371 0.19000513721550311 0 -0.17233344176905549 0.18481023095976409 0 -0.17824109291575391 0.16870505887983631 0 -0.17233344176905549 0.18481023095976409 0 -0.16803882154840949 0.1742259648718166 0 -0.1981842298920152 0.1790782632787348 0 -0.17233344176905549 0.18481023095976409 0 -0.1981842298920152 0.1790782632787348 0 -0.17824109291575391 0.16870505887983631 0 -0.17233344176905549 0.18481023095976409 0 -0.1464826536460955 0.19054219864079239 0 -0.17233344176905549 0.18481023095976409 0 -0.15763196737641369 0.1780172648797762 0 -0.17233344176905549 0.18481023095976409 0 -0.16803882154840949 0.1742259648718166 0 -0.15763196737641369 0.1780172648797762 0 -0.16803882154840949 0.1742259648718166 0 -0.15763196737641369 0.1780172648797762 0 -0.16084996050811409 0.165121763785012 0 -0.17824109291575391 0.16870505887983631 0 -0.16803882154840949 0.1742259648718166 0 -0.16084996050811409 0.165121763785012 0 -0.16609739614247371 0.15286774187992319 0 -0.17824109291575391 0.16870505887983631 0 -0.16084996050811409 0.165121763785012 0 -0.16084996050811409 0.165121763785012 0 -0.13927874386169389 0.1641341616648464 0 -0.15482790940711019 0.14860038729534769 0 -0.15763196737641369 0.1780172648797762 0 -0.16084996050811409 0.165121763785012 0 -0.13927874386169389 0.1641341616648464 0 -0.1464826536460955 0.19054219864079239 0 -0.15763196737641369 0.1780172648797762 0 -0.13927874386169389 0.1641341616648464 0 -0.1464826536460955 0.19054219864079239 0 -0.13927874386169389 0.1641341616648464 0 -0.1464826536460955 0.19054219864079239 0 -0.13027591869708691 0.18026912521056801 0 -0.13927874386169389 0.1641341616648464 0 -0.13027591869708691 0.18026912521056801 0 -0.13927874386169389 0.1641341616648464 0 -0.1217222422297539 0.16200997823369059 0 -0.13927874386169389 0.1641341616648464 0 -0.12443263851028941 0.14988769920030279 0 -0.1217222422297539 0.16200997823369059 0 -0.13927874386169389 0.1641341616648464 0 -0.14430023749757501 0.14263791947955709 0 -0.13207483407729231 0.13772612468890039 0 -0.13927874386169389 0.1641341616648464 0 -0.13207483407729231 0.13772612468890039 0 -0.12443263851028941 0.14988769920030279 0 -0.13927874386169389 0.1641341616648464 0 -0.13207483407729231 0.13772612468890039 0 -0.13927874386169389 0.1641341616648464 0 -0.14430023749757501 0.14263791947955709 0 -0.15482790940711019 0.14860038729534769 0 -0.14430023749757501 0.14263791947955709 0 -0.15482790940711019 0.14860038729534769 0 -0.1537833291097522 0.13504194045438681 0 -0.1632354384419431 0.12137486161517901 0 -0.1537833291097522 0.13504194045438681 0 -0.14153637103202629 0.12768698329430431 0 -0.14430023749757501 0.14263791947955709 0 -0.1537833291097522 0.13504194045438681 0 -0.14153637103202629 0.12768698329430431 0 -0.13207483407729231 0.13772612468890039 0 -0.11983730362210961 0.13399910497342951 0 -0.12443263851028941 0.14988769920030279 0 -0.14153637103202629 0.12768698329430431 0 -0.13207483407729231 0.13772612468890039 0 -0.11983730362210961 0.13399910497342951 0 -0.12859924464456701 0.1215355048709401 0 -0.14153637103202629 0.12768698329430431 0 -0.11983730362210961 0.13399910497342951 0 -0.14153637103202629 0.12768698329430431 0 -0.11983730362210961 0.13399910497342951 0 -0.14430023749757501 0.14263791947955709 0 -0.14153637103202629 0.12768698329430431 0 -0.13207483407729231 0.13772612468890039 0 -0.12859924464456701 0.1215355048709401 0 -0.11983730362210961 0.13399910497342951 0 -0.1181026629572412 0.1237369467265572 0 -0.11983730362210961 0.13399910497342951 0 -0.1045301897291042 0.1304004041612849 0 -0.1100170304373448 0.1523318022140161 0 -0.11983730362210961 0.13399910497342951 0 -0.1045301897291042 0.1304004041612849 0 -0.1181026629572412 0.1237369467265572 0 -0.1045301897291042 0.1304004041612849 0 -0.094644688208859934 0.13673889698817929 0 -0.098954001863672286 0.14425135800251851 0 -0.1045301897291042 0.1304004041612849 0 -0.091109088430227025 0.1297030076884485 0 -0.093124564740551585 0.11951123520431139 0 -0.1045301897291042 0.1304004041612849 0 -0.094644688208859934 0.13673889698817929 0 -0.091109088430227025 0.1297030076884485 0 -0.1045301897291042 0.1304004041612849 0 -0.1100170304373448 0.1523318022140161 0 -0.098954001863672286 0.14425135800251851 0 -0.092756504101056014 0.16183939260259811 0 -0.093170604831196102 0.14514266516296201 0 -0.1045301897291042 0.1304004041612849 0 -0.098954001863672286 0.14425135800251851 0 -0.1100170304373448 0.1523318022140161 0 -0.098954001863672286 0.14425135800251851 0 -0.1100170304373448 0.1523318022140161 0 -0.092756504101056014 0.16183939260259811 0 -0.094644688208859934 0.13673889698817929 0 -0.098954001863672286 0.14425135800251851 0 -0.093170604831196102 0.14514266516296201 0 -0.11983730362210961 0.13399910497342951 0 -0.1100170304373448 0.1523318022140161 0 -0.12443263851028941 0.14988769920030279 0 -0.1100170304373448 0.1523318022140161 0 -0.12443263851028941 0.14988769920030279 0 -0.1217222422297539 0.16200997823369059 0 -0.1100170304373448 0.1523318022140161 0 -0.1155038711455853 0.17426320026674741 0 -0.1100170304373448 0.1523318022140161 0 -0.1217222422297539 0.16200997823369059 0 -0.1155038711455853 0.17426320026674741 0 -0.13027591869708691 0.18026912521056801 0 -0.1155038711455853 0.17426320026674741 0 -0.12099071185382559 0.19619459831947869 0 -0.1155038711455853 0.17426320026674741 0 -0.12099071185382559 0.19619459831947869 0 -0.13027591869708691 0.18026912521056801 0 -0.1217222422297539 0.16200997823369059 0 -0.1155038711455853 0.17426320026674741 0 -0.1155038711455853 0.17426320026674741 0 -0.1089078120790275 0.1861417310869122 0 -0.12099071185382559 0.19619459831947869 0 -0.1089078120790275 0.1861417310869122 0 -0.101303610426677 0.1720762486394847 0 -0.093183502906941246 0.18441065909046181 0 -0.1155038711455853 0.17426320026674741 0 -0.1089078120790275 0.1861417310869122 0 -0.101303610426677 0.1720762486394847 0 -0.101303610426677 0.1720762486394847 0 -0.093183502906941246 0.18441065909046181 0 -0.087452941890107175 0.1734707065761725 0 -0.1100170304373448 0.1523318022140161 0 -0.101303610426677 0.1720762486394847 0 -0.092756504101056014 0.16183939260259811 0 -0.1100170304373448 0.1523318022140161 0 -0.1155038711455853 0.17426320026674741 0 -0.101303610426677 0.1720762486394847 0 -0.101303610426677 0.1720762486394847 0 -0.092756504101056014 0.16183939260259811 0 -0.087452941890107175 0.1734707065761725 0 -0.087452941890107175 0.1734707065761725 0 -0.075167386310746986 0.1761015324745244 0 -0.074926960681005086 0.1569267047485928 0 -0.092756504101056014 0.16183939260259811 0 -0.087452941890107175 0.1734707065761725 0 -0.074926960681005086 0.1569267047485928 0 -0.093183502906941246 0.18441065909046181 0 -0.075167386310746986 0.1761015324745244 0 -0.085327046263257905 0.1948158640779861 0 -0.093183502906941246 0.18441065909046181 0 -0.087452941890107175 0.1734707065761725 0 -0.075167386310746986 0.1761015324745244 0 -0.062633992215574946 0.18492871105978881 0 -0.075167386310746986 0.1761015324745244 0 -0.058892994826834813 0.16827861236172811 0 -0.062633992215574946 0.18492871105978881 0 -0.075167386310746986 0.1761015324745244 0 -0.071625878134402271 0.1950331257014776 0 -0.074926960681005086 0.1569267047485928 0 -0.0547290880242201 0.14477215021220821 0 -0.058892994826834813 0.16827861236172811 0 -0.075167386310746986 0.1761015324745244 0 -0.074926960681005086 0.1569267047485928 0 -0.058892994826834813 0.16827861236172811 0 -0.074926960681005086 0.1569267047485928 0 -0.070470377237729503 0.140814557940355 0 -0.085537468441490627 0.13729634491354939 0 -0.074926960681005086 0.1569267047485928 0 -0.070470377237729503 0.140814557940355 0 -0.0547290880242201 0.14477215021220821 0 -0.065658527100709171 0.1261036169987898 0 -0.085537468441490627 0.13729634491354939 0 -0.080670698815576841 0.1207504564246636 0 -0.070470377237729503 0.140814557940355 0 -0.065658527100709171 0.1261036169987898 0 -0.085537468441490627 0.13729634491354939 0 -0.070470377237729503 0.140814557940355 0 -0.065658527100709171 0.1261036169987898 0 -0.0547290880242201 0.14477215021220821 0 -0.065658527100709171 0.1261036169987898 0 -0.085537468441490627 0.13729634491354939 0 -0.085537468441490627 0.13729634491354939 0 -0.091109088430227025 0.1297030076884485 0 -0.080670698815576841 0.1207504564246636 0 -0.085537468441490627 0.13729634491354939 0 -0.080670698815576841 0.1207504564246636 0 -0.094644688208859934 0.13673889698817929 0 -0.085537468441490627 0.13729634491354939 0 -0.091109088430227025 0.1297030076884485 0 -0.094644688208859934 0.13673889698817929 0 -0.085537468441490627 0.13729634491354939 0 -0.093170604831196102 0.14514266516296201 0 -0.092756504101056014 0.16183939260259811 0 -0.085537468441490627 0.13729634491354939 0 -0.092756504101056014 0.16183939260259811 0 -0.085537468441490627 0.13729634491354939 0 -0.093170604831196102 0.14514266516296201 0 -0.092756504101056014 0.16183939260259811 0 -0.074926960681005086 0.1569267047485928 0 -0.085537468441490627 0.13729634491354939 0 -0.096918642748101663 0.25884353207917937 0 -0.10527764935830999 0.24585666309022691 0 -0.092889133894903914 0.23898184422739829 0 -0.10527764935830999 0.24585666309022691 0 -0.1064060989641548 0.23314395827208301 0 -0.092889133894903914 0.23898184422739829 0 -0.1142662752577719 0.25401796063542698 0 -0.10527764935830999 0.24585666309022691 0 -0.1177292446923362 0.24238917957977271 0 -0.12701487005276749 0.2501847663328795 0 -0.1142662752577719 0.25401796063542698 0 -0.1177292446923362 0.24238917957977271 0 -0.130978178653991 0.23830194473067401 0 -0.1177292446923362 0.24238917957977271 0 -0.1188265011125848 0.23168671671366431 0 -0.10527764935830999 0.24585666309022691 0 -0.1177292446923362 0.24238917957977271 0 -0.1064060989641548 0.23314395827208301 0 -0.1177292446923362 0.24238917957977271 0 -0.1188265011125848 0.23168671671366431 0 -0.1064060989641548 0.23314395827208301 0 -0.1188265011125848 0.23168671671366431 0 -0.1144769473590085 0.22253268574018539 0 -0.1064060989641548 0.23314395827208301 0 -0.1272728230052467 0.22459437801428009 0 -0.1188265011125848 0.23168671671366431 0 -0.1144769473590085 0.22253268574018539 0 -0.12507817226566839 0.2125325468920094 0 -0.1272728230052467 0.22459437801428009 0 -0.1144769473590085 0.22253268574018539 0 -0.1064060989641548 0.23314395827208301 0 -0.099000838753867226 0.22035743758342499 0 -0.092889133894903914 0.23898184422739829 0 -0.1144769473590085 0.22253268574018539 0 -0.1064060989641548 0.23314395827208301 0 -0.099000838753867226 0.22035743758342499 0 -0.099000838753867226 0.22035743758342499 0 -0.1044012646096156 0.2047830593386209 0 -0.093636030366002737 0.20430170432051789 0 -0.099000838753867226 0.22035743758342499 0 -0.093636030366002737 0.20430170432051789 0 -0.089199328512639731 0.2158612154154767 0 -0.1144769473590085 0.22253268574018539 0 -0.099000838753867226 0.22035743758342499 0 -0.110277250052529 0.21288107696565059 0 -0.099000838753867226 0.22035743758342499 0 -0.1044012646096156 0.2047830593386209 0 -0.110277250052529 0.21288107696565059 0 -0.12507817226566839 0.2125325468920094 0 -0.1160111438005865 0.2055892091575047 0 -0.12099071185382559 0.19619459831947869 0 -0.12507817226566839 0.2125325468920094 0 -0.1144769473590085 0.22253268574018539 0 -0.110277250052529 0.21288107696565059 0 -0.12507817226566839 0.2125325468920094 0 -0.12099071185382559 0.19619459831947869 0 -0.1044012646096156 0.2047830593386209 0 -0.110277250052529 0.21288107696565059 0 -0.1160111438005865 0.2055892091575047 0 -0.12507817226566839 0.2125325468920094 0 -0.110277250052529 0.21288107696565059 0 -0.1160111438005865 0.2055892091575047 0 -0.1044012646096156 0.2047830593386209 0 -0.1160111438005865 0.2055892091575047 0 -0.11203384401901439 0.19818062972046291 0 -0.1160111438005865 0.2055892091575047 0 -0.11203384401901439 0.19818062972046291 0 -0.12099071185382559 0.19619459831947869 0 -0.11203384401901439 0.19818062972046291 0 -0.12099071185382559 0.19619459831947869 0 -0.1089078120790275 0.1861417310869122 0 -0.11203384401901439 0.19818062972046291 0 -0.12099071185382559 0.19619459831947869 0 -0.1089078120790275 0.1861417310869122 0 -0.093183502906941246 0.18441065909046181 0 -0.100567824174277 0.1944270166359546 0 -0.1089078120790275 0.1861417310869122 0 -0.11203384401901439 0.19818062972046291 0 -0.100567824174277 0.1944270166359546 0 -0.1044012646096156 0.2047830593386209 0 -0.11203384401901439 0.19818062972046291 0 -0.100567824174277 0.1944270166359546 0 -0.1044012646096156 0.2047830593386209 0 -0.100567824174277 0.1944270166359546 0 -0.093636030366002737 0.20430170432051789 0 -0.093183502906941246 0.18441065909046181 0 -0.100567824174277 0.1944270166359546 0 -0.085327046263257905 0.1948158640779861 0 -0.100567824174277 0.1944270166359546 0 -0.085327046263257905 0.1948158640779861 0 -0.093636030366002737 0.20430170432051789 0 -0.075167386310746986 0.1761015324745244 0 -0.085327046263257905 0.1948158640779861 0 -0.071625878134402271 0.1950331257014776 0 -0.062633992215574946 0.18492871105978881 0 -0.071625878134402271 0.1950331257014776 0 -0.058248363310689028 0.20369306447587149 0 -0.085327046263257905 0.1948158640779861 0 -0.071625878134402271 0.1950331257014776 0 -0.077298308468114085 0.21355660726041531 0 -0.071625878134402271 0.1950331257014776 0 -0.077298308468114085 0.21355660726041531 0 -0.058248363310689028 0.20369306447587149 0 -0.077298308468114085 0.21355660726041531 0 -0.061577682280210072 0.22520203633696789 0 -0.058248363310689028 0.20369306447587149 0 -0.085327046263257905 0.1948158640779861 0 -0.077298308468114085 0.21355660726041531 0 -0.093636030366002737 0.20430170432051789 0 -0.077298308468114085 0.21355660726041531 0 -0.093636030366002737 0.20430170432051789 0 -0.089199328512639731 0.2158612154154767 0 -0.077298308468114085 0.21355660726041531 0 -0.089199328512639731 0.2158612154154767 0 -0.086608062047219186 0.2257143787015112 0 -0.099000838753867226 0.22035743758342499 0 -0.086608062047219186 0.2257143787015112 0 -0.092889133894903914 0.23898184422739829 0 -0.086608062047219186 0.2257143787015112 0 -0.075100282200741927 0.23546281292727569 0 -0.092889133894903914 0.23898184422739829 0 -0.077298308468114085 0.21355660726041531 0 -0.086608062047219186 0.2257143787015112 0 -0.075100282200741927 0.23546281292727569 0 -0.099000838753867226 0.22035743758342499 0 -0.089199328512639731 0.2158612154154767 0 -0.086608062047219186 0.2257143787015112 0 -0.077298308468114085 0.21355660726041531 0 -0.075100282200741927 0.23546281292727569 0 -0.061577682280210072 0.22520203633696789 0 -0.075100282200741927 0.23546281292727569 0 -0.062802133369800561 0.23914110938024591 0 -0.061577682280210072 0.22520203633696789 0 -0.067606741840857673 0.25204697458185249 0 -0.075100282200741927 0.23546281292727569 0 -0.081875503252899745 0.2498241544096946 0 -0.067606741840857673 0.25204697458185249 0 -0.075100282200741927 0.23546281292727569 0 -0.062802133369800561 0.23914110938024591 0 -0.096918642748101663 0.25884353207917937 0 -0.081875503252899745 0.2498241544096946 0 -0.092889133894903914 0.23898184422739829 0 -0.075100282200741927 0.23546281292727569 0 -0.081875503252899745 0.2498241544096946 0 -0.092889133894903914 0.23898184422739829 0 -0.038192553801957803 0.2442243901960475 0 -0.050472260293731037 0.23851457134785389 0 -0.034500581304367693 0.23179481040493349 0 -0.033610184006601942 0.25421372805889852 0 -0.038192553801957803 0.2442243901960475 0 -0.022888323594145579 0.2460185847254103 0 -0.038192553801957803 0.2442243901960475 0 -0.034500581304367693 0.23179481040493349 0 -0.022888323594145579 0.2460185847254103 0 -0.045612068389216921 0.253673824051033 0 -0.038192553801957803 0.2442243901960475 0 -0.050472260293731037 0.23851457134785389 0 -0.045612068389216921 0.253673824051033 0 -0.05655884302288991 0.249034829183472 0 -0.050472260293731037 0.23851457134785389 0 -0.062802133369800561 0.23914110938024591 0 -0.05655884302288991 0.249034829183472 0 -0.050472260293731037 0.23851457134785389 0 -0.067606741840857673 0.25204697458185249 0 -0.062802133369800561 0.23914110938024591 0 -0.05655884302288991 0.249034829183472 0 -0.050472260293731037 0.23851457134785389 0 -0.061577682280210072 0.22520203633696789 0 -0.045629920716902313 0.21891965766592431 0 -0.062802133369800561 0.23914110938024591 0 -0.050472260293731037 0.23851457134785389 0 -0.061577682280210072 0.22520203633696789 0 -0.045629920716902313 0.21891965766592431 0 -0.034500581304367693 0.23179481040493349 0 -0.030454298313305098 0.2159341981197119 0 -0.050472260293731037 0.23851457134785389 0 -0.045629920716902313 0.21891965766592431 0 -0.034500581304367693 0.23179481040493349 0 -0.042147977231230649 0.20352069824590241 0 -0.02582006994210451 0.19970793945289239 0 -0.030454298313305098 0.2159341981197119 0 -0.045629920716902313 0.21891965766592431 0 -0.042147977231230649 0.20352069824590241 0 -0.030454298313305098 0.2159341981197119 0 -0.061577682280210072 0.22520203633696789 0 -0.045629920716902313 0.21891965766592431 0 -0.058248363310689028 0.20369306447587149 0 -0.045629920716902313 0.21891965766592431 0 -0.042147977231230649 0.20352069824590241 0 -0.058248363310689028 0.20369306447587149 0 -0.042147977231230649 0.20352069824590241 0 -0.058248363310689028 0.20369306447587149 0 -0.044833296111456152 0.1871298258294917 0 -0.062633992215574946 0.18492871105978881 0 -0.058248363310689028 0.20369306447587149 0 -0.044833296111456152 0.1871298258294917 0 -0.042147977231230649 0.20352069824590241 0 -0.02582006994210451 0.19970793945289239 0 -0.044833296111456152 0.1871298258294917 0 -0.02582006994210451 0.19970793945289239 0 -0.044833296111456152 0.1871298258294917 0 -0.02381584947115168 0.18142878975492749 0 -0.02582006994210451 0.19970793945289239 0 -0.02381584947115168 0.18142878975492749 0 0.0022543291610422288 0.19737710509633699 0 -0.02582006994210451 0.19970793945289239 0 -0.015818723166899858 0.21380635768153261 0 0.0022543291610422288 0.19737710509633699 0 -0.015818723166899858 0.21380635768153261 0 -0.0058843016075920407 0.2201006000927504 0 0.0022543291610422288 0.19737710509633699 0 -0.02582006994210451 0.19970793945289239 0 -0.015818723166899858 0.21380635768153261 0 -0.030454298313305098 0.2159341981197119 0 -0.034500581304367693 0.23179481040493349 0 -0.030454298313305098 0.2159341981197119 0 -0.018808517518325619 0.22785572526708639 0 -0.015818723166899858 0.21380635768153261 0 -0.030454298313305098 0.2159341981197119 0 -0.018808517518325619 0.22785572526708639 0 -0.015818723166899858 0.21380635768153261 0 -0.018808517518325619 0.22785572526708639 0 -0.0058843016075920407 0.2201006000927504 0 -0.0058843016075920407 0.2201006000927504 0 -0.0046373257720508836 0.23526814971484741 0 0.0075887292582739307 0.2261956627039487 0 -0.018808517518325619 0.22785572526708639 0 -0.0058843016075920407 0.2201006000927504 0 -0.0046373257720508836 0.23526814971484741 0 -0.018808517518325619 0.22785572526708639 0 -0.0046373257720508836 0.23526814971484741 0 -0.022888323594145579 0.2460185847254103 0 -0.0097255599005584576 0.2537478340129366 0 -0.0046373257720508836 0.23526814971484741 0 -0.022888323594145579 0.2460185847254103 0 -0.0097255599005584576 0.2537478340129366 0 -0.0046373257720508836 0.23526814971484741 0 0.00025641157241185561 0.2444175911446678 0 -0.0046373257720508836 0.23526814971484741 0 -0.022888323594145579 0.2460185847254103 0 -0.034500581304367693 0.23179481040493349 0 -0.018808517518325619 0.22785572526708639 0 -0.022888323594145579 0.2460185847254103 0 -0.034012312330835397 0.14806166290974701 0 -0.0547290880242201 0.14477215021220821 0 -0.039534046995434537 0.16503293239325231 0 -0.034012312330835397 0.14806166290974701 0 -0.046900860058809418 0.13276722071079999 0 -0.0547290880242201 0.14477215021220821 0 -0.034012312330835397 0.14806166290974701 0 -0.034324787078354013 0.12998778434922581 0 -0.027406662002773849 0.13688891865905339 0 -0.034324787078354013 0.12998778434922581 0 -0.046900860058809418 0.13276722071079999 0 -0.045779585759928382 0.11491088908402899 0 -0.034012312330835397 0.14806166290974701 0 -0.034324787078354013 0.12998778434922581 0 -0.046900860058809418 0.13276722071079999 0 -0.065658527100709171 0.1261036169987898 0 -0.046900860058809418 0.13276722071079999 0 -0.0547290880242201 0.14477215021220821 0 -0.0547290880242201 0.14477215021220821 0 -0.058892994826834813 0.16827861236172811 0 -0.039534046995434537 0.16503293239325231 0 -0.062633992215574946 0.18492871105978881 0 -0.058892994826834813 0.16827861236172811 0 -0.044833296111456152 0.1871298258294917 0 -0.058892994826834813 0.16827861236172811 0 -0.044833296111456152 0.1871298258294917 0 -0.039534046995434537 0.16503293239325231 0 -0.044833296111456152 0.1871298258294917 0 -0.039534046995434537 0.16503293239325231 0 -0.02381584947115168 0.18142878975492749 0 -0.034012312330835397 0.14806166290974701 0 -0.039534046995434537 0.16503293239325231 0 -0.02092074120810912 0.16052655329141141 0 -0.039534046995434537 0.16503293239325231 0 -0.02092074120810912 0.16052655329141141 0 -0.02381584947115168 0.18142878975492749 0 -0.02092074120810912 0.16052655329141141 0 -0.02381584947115168 0.18142878975492749 0 -0.0030800709361894218 0.16855854748872559 0 -0.02092074120810912 0.16052655329141141 0 -0.02381584947115168 0.18142878975492749 0 -0.0030800709361894218 0.16855854748872559 0 0.0022543291610422288 0.19737710509633699 0 -0.02381584947115168 0.18142878975492749 0 -0.0030800709361894218 0.16855854748872559 0 0.0022543291610422288 0.19737710509633699 0 -0.02092074120810912 0.16052655329141141 0 -0.0030800709361894218 0.16855854748872559 0 -0.0133553363625693 0.15092280085159279 0 -0.0030800709361894218 0.16855854748872559 0 -0.0133553363625693 0.15092280085159279 0 -0.0084144710334210903 0.13973998988111411 0 -0.0030800709361894218 0.16855854748872559 0 -0.0084144710334210903 0.13973998988111411 0 0.0034110226586233209 0.14730426193922841 0 -0.0030800709361894218 0.16855854748872559 0 -0.0084144710334210903 0.13973998988111411 0 -0.0133553363625693 0.15092280085159279 0 -0.01802563294506657 0.13962431682789511 0 -0.0084144710334210903 0.13973998988111411 0 -0.02092074120810912 0.16052655329141141 0 -0.0133553363625693 0.15092280085159279 0 -0.01802563294506657 0.13962431682789511 0 -0.02092074120810912 0.16052655329141141 0 -0.01802563294506657 0.13962431682789511 0 -0.034012312330835397 0.14806166290974701 0 -0.027406662002773849 0.13688891865905339 0 -0.01802563294506657 0.13962431682789511 0 -0.034012312330835397 0.14806166290974701 0 -0.02092074120810912 0.16052655329141141 0 -0.01802563294506657 0.13962431682789511 0 -0.01802563294506657 0.13962431682789511 0 -0.015130524682025109 0.1187220803643787 0 -0.01802563294506657 0.13962431682789511 0 -0.023263915656839398 0.12988191054934561 0 -0.015130524682025109 0.1187220803643787 0 -0.034324787078354013 0.12998778434922581 0 -0.023263915656839398 0.12988191054934561 0 -0.02571751971827484 0.1220354306868363 0 -0.034324787078354013 0.12998778434922581 0 -0.027406662002773849 0.13688891865905339 0 -0.023263915656839398 0.12988191054934561 0 -0.027406662002773849 0.13688891865905339 0 -0.01802563294506657 0.13962431682789511 0 -0.023263915656839398 0.12988191054934561 0 -0.01802563294506657 0.13962431682789511 0 -0.010089899628318881 0.13010525459047451 0 -0.015130524682025109 0.1187220803643787 0 -0.01802563294506657 0.13962431682789511 0 -0.010089899628318881 0.13010525459047451 0 -0.0084144710334210903 0.13973998988111411 0 -0.0084144710334210903 0.13973998988111411 0 -0.00050582028833272958 0.13475683345702161 0 0.0034110226586233209 0.14730426193922841 0 -0.010089899628318881 0.13010525459047451 0 -0.0084144710334210903 0.13973998988111411 0 -0.00050582028833272958 0.13475683345702161 0 -0.010089899628318881 0.13010525459047451 0 -0.0021765999405103219 0.1261647660836111 0 -0.0079453897508632854 0.1232476990958352 0 -0.010089899628318881 0.13010525459047451 0 -0.00050582028833272958 0.13475683345702161 0 -0.0021765999405103219 0.1261647660836111 0 -0.015130524682025109 0.1187220803643787 0 0.0013847876652264049 0.1116556566951655 0 -0.015130524682025109 0.1187220803643787 0 -1.082451211425074e-05 0.110129527180838 0 0.0013847876652264049 0.1116556566951655 0 -0.003620475529514939 0.11975618077422551 0 -0.015130524682025109 0.1187220803643787 0 0.0013847876652264049 0.1116556566951655 0 -0.003620475529514939 0.11975618077422551 0 0.0013847876652264049 0.1116556566951655 0 0.0011377236739010311 0.12124401978785319 0 -0.0021765999405103219 0.1261647660836111 0 -0.003620475529514939 0.11975618077422551 0 0.0011377236739010311 0.12124401978785319 0 -0.0021765999405103219 0.1261647660836111 0 -0.003620475529514939 0.11975618077422551 0 -0.0079453897508632854 0.1232476990958352 0 -0.003620475529514939 0.11975618077422551 0 -0.0079453897508632854 0.1232476990958352 0 -0.015130524682025109 0.1187220803643787 0 -0.010089899628318881 0.13010525459047451 0 -0.0079453897508632854 0.1232476990958352 0 -0.015130524682025109 0.1187220803643787 0 -0.015130524682025109 0.1187220803643787 0 -0.013478455821190991 0.106794397236272 0 -0.015130524682025109 0.1187220803643787 0 -1.082451211425074e-05 0.110129527180838 0 -0.013478455821190991 0.106794397236272 0 -1.082451211425074e-05 0.110129527180838 0 -0.01210813347330097 0.096900880606015927 0 -1.082451211425074e-05 0.110129527180838 0 -0.013478455821190991 0.106794397236272 0 -7.6700219940714371e-05 0.095538716507578794 0 -0.01210813347330097 0.096900880606015927 0 -0.0064972959022543599 0.092146588103564367 0 -1.082451211425074e-05 0.110129527180838 0 -7.6700219940714371e-05 0.095538716507578794 0 -0.01210813347330097 0.096900880606015927 0 -0.015420490350097311 0.097817368416335482 0 -0.01210813347330097 0.096900880606015927 0 -0.013478455821190991 0.106794397236272 0 -0.015420490350097311 0.097817368416335482 0 -0.01210813347330097 0.096900880606015927 0 -0.018137538345641972 0.090307607145888646 0 -0.01210813347330097 0.096900880606015927 0 -0.013478455821190991 0.106794397236272 0 -1.082451211425074e-05 0.110129527180838 0 -0.01210813347330097 0.096900880606015927 0 -0.013478455821190991 0.106794397236272 0 -0.013478455821190991 0.106794397236272 0 -0.025900644419147339 0.1037181611692686 0 -0.015420490350097311 0.097817368416335482 0 -0.013478455821190991 0.106794397236272 0 -0.025900644419147339 0.1037181611692686 0 -0.013478455821190991 0.106794397236272 0 -0.025900644419147339 0.1037181611692686 0 -0.021183389922895091 0.1138911874901216 0 -0.015420490350097311 0.097817368416335482 0 -0.023140112622165251 0.096363947001081279 0 -0.025900644419147339 0.1037181611692686 0 -0.015420490350097311 0.097817368416335482 0 -0.025900644419147339 0.1037181611692686 0 -0.015420490350097311 0.097817368416335482 0 -0.023140112622165251 0.096363947001081279 0 -0.018137538345641972 0.090307607145888646 0 -0.023140112622165251 0.096363947001081279 0 -0.025900644419147339 0.1037181611692686 0 -0.03099810596223972 0.091725920456211654 0 -0.025900644419147339 0.1037181611692686 0 -0.021183389922895091 0.1138911874901216 0 -0.031602423173611192 0.1163752533880351 0 -0.02571751971827484 0.1220354306868363 0 -0.021183389922895091 0.1138911874901216 0 -0.031602423173611192 0.1163752533880351 0 -0.034324787078354013 0.12998778434922581 0 -0.02571751971827484 0.1220354306868363 0 -0.031602423173611192 0.1163752533880351 0 -0.023263915656839398 0.12988191054934561 0 -0.015130524682025109 0.1187220803643787 0 -0.018213082759674488 0.1200410176574533 0 -0.02571751971827484 0.1220354306868363 0 -0.018213082759674488 0.1200410176574533 0 -0.021183389922895091 0.1138911874901216 0 -0.023263915656839398 0.12988191054934561 0 -0.02571751971827484 0.1220354306868363 0 -0.018213082759674488 0.1200410176574533 0 -0.015130524682025109 0.1187220803643787 0 -0.018213082759674488 0.1200410176574533 0 -0.021183389922895091 0.1138911874901216 0 -0.015130524682025109 0.1187220803643787 0 -0.018213082759674488 0.1200410176574533 0 -0.015130524682025109 0.1187220803643787 0 -0.013478455821190991 0.106794397236272 0 -0.021183389922895091 0.1138911874901216 0 -0.0084219324823134947 0.070287076297094325 0 -0.0136305450471505 0.07673597036668596 0 -0.010604690209934301 0.086046251436724647 0 -0.0084219324823134947 0.070287076297094325 0 -0.02196131455640677 0.060664682308354922 0 -0.0084219324823134947 0.070287076297094325 0 -0.02196131455640677 0.060664682308354922 0 -0.0070245807461425357 0.060198411639901549 0 -0.0084219324823134947 0.070287076297094325 0 -0.0070245807461425357 0.060198411639901549 0 -0.0084219324823134947 0.070287076297094325 0 -0.0070245807461425357 0.060198411639901549 0 0.0046500417895332172 0.067209172902438011 0 -0.0084219324823134947 0.070287076297094325 0 0.0068947271390474262 0.081172575551173715 0 -0.0084219324823134947 0.070287076297094325 0 -0.0136305450471505 0.07673597036668596 0 -0.022339077115217321 0.071273989716746616 0 -0.0084219324823134947 0.070287076297094325 0 -0.010604690209934301 0.086046251436724647 0 -0.0084219324823134947 0.070287076297094325 0 -0.0061345752928342809 0.084801301913973365 0 -0.010604690209934301 0.086046251436724647 0 -0.0136305450471505 0.07673597036668596 0 -0.014449257295196621 0.081648625493298377 0 -0.010604690209934301 0.086046251436724647 0 -0.014449257295196621 0.081648625493298377 0 -0.01249226556469747 0.084947072569874132 0 -0.010604690209934301 0.086046251436724647 0 -0.0061345752928342809 0.084801301913973365 0 -0.010604690209934301 0.086046251436724647 0 -0.01249226556469747 0.084947072569874132 0 -0.010604690209934301 0.086046251436724647 0 -0.0084219324823134947 0.070287076297094325 0 -0.0061345752928342809 0.084801301913973365 0 0.0068947271390474262 0.081172575551173715 0 -7.6700219940714371e-05 0.095538716507578794 0 -0.0061345752928342809 0.084801301913973365 0 -0.0064972959022543599 0.092146588103564367 0 -0.0061345752928342809 0.084801301913973365 0 -0.0064972959022543599 0.092146588103564367 0 -0.010604690209934301 0.086046251436724647 0 -0.01210813347330097 0.096900880606015927 0 -0.0064972959022543599 0.092146588103564367 0 -0.010604690209934301 0.086046251436724647 0 -0.01210813347330097 0.096900880606015927 0 -0.010604690209934301 0.086046251436724647 0 -0.01210813347330097 0.096900880606015927 0 -0.010604690209934301 0.086046251436724647 0 -0.018137538345641972 0.090307607145888646 0 -0.01210813347330097 0.096900880606015927 0 -0.018137538345641972 0.090307607145888646 0 -0.01249226556469747 0.084947072569874132 0 -0.010604690209934301 0.086046251436724647 0 -0.03099810596223972 0.091725920456211654 0 -0.03099810596223972 0.091725920456211654 0 -0.020604905515811199 0.08090842642224777 0 -0.036773901594487478 0.075073482276942716 0 -0.010604690209934301 0.086046251436724647 0 -0.018137538345641972 0.090307607145888646 0 -0.03099810596223972 0.091725920456211654 0 -0.01249226556469747 0.084947072569874132 0 -0.03099810596223972 0.091725920456211654 0 -0.020604905515811199 0.08090842642224777 0 -0.010604690209934301 0.086046251436724647 0 -0.03099810596223972 0.091725920456211654 0 -0.023140112622165251 0.096363947001081279 0 -0.018137538345641972 0.090307607145888646 0 -0.03099810596223972 0.091725920456211654 0 -0.014449257295196621 0.081648625493298377 0 -0.01249226556469747 0.084947072569874132 0 -0.020604905515811199 0.08090842642224777 0 -0.0136305450471505 0.07673597036668596 0 -0.014449257295196621 0.081648625493298377 0 -0.020604905515811199 0.08090842642224777 0 -0.020604905515811199 0.08090842642224777 0 -0.022339077115217321 0.071273989716746616 0 -0.036773901594487478 0.075073482276942716 0 -0.0136305450471505 0.07673597036668596 0 -0.020604905515811199 0.08090842642224777 0 -0.022339077115217321 0.071273989716746616 0 -0.022339077115217321 0.071273989716746616 0 -0.033934107054421153 0.063174613375541006 0 -0.036773901594487478 0.075073482276942716 0 -0.022339077115217321 0.071273989716746616 0 -0.033934107054421153 0.063174613375541006 0 -0.02196131455640677 0.060664682308354922 0 -0.0084219324823134947 0.070287076297094325 0 -0.022339077115217321 0.071273989716746616 0 -0.02196131455640677 0.060664682308354922 0 -0.033934107054421153 0.063174613375541006 0 -0.036773901594487478 0.075073482276942716 0 -0.045863521316537113 0.061724012252009443 0 -0.03099810596223972 0.091725920456211654 0 -0.036773901594487478 0.075073482276942716 0 -0.048505856421524357 0.08096091138080054 0 -0.03099810596223972 0.091725920456211654 0 -0.048505856421524357 0.08096091138080054 0 -0.051391521714545349 0.09740558947569769 0 -0.059900729281534462 0.087476850148222429 0 -0.048505856421524357 0.08096091138080054 0 -0.051391521714545349 0.09740558947569769 0 -0.059900729281534462 0.087476850148222429 0 -0.051391521714545349 0.09740558947569769 0 -0.072282394084413254 0.092232164958065604 0 -0.059900729281534462 0.087476850148222429 0 -0.055301057398105591 0.079605366378520948 0 -0.06303668554377824 0.08215791395177012 0 -0.055301057398105591 0.079605366378520948 0 -0.059875295620436607 0.074400695087199889 0 -0.06303668554377824 0.08215791395177012 0 -0.059900729281534462 0.087476850148222429 0 -0.055301057398105591 0.079605366378520948 0 -0.048505856421524357 0.08096091138080054 0 -0.036773901594487478 0.075073482276942716 0 -0.059763564960910842 0.072351519386149477 0 -0.036773901594487478 0.075073482276942716 0 -0.059763564960910842 0.072351519386149477 0 -0.045863521316537113 0.061724012252009443 0 -0.036773901594487478 0.075073482276942716 0 -0.048505856421524357 0.08096091138080054 0 -0.059763564960910842 0.072351519386149477 0 -0.055301057398105591 0.079605366378520948 0 -0.048505856421524357 0.08096091138080054 0 -0.059763564960910842 0.072351519386149477 0 -0.055301057398105591 0.079605366378520948 0 -0.059875295620436607 0.074400695087199889 0 -0.059763564960910842 0.072351519386149477 0 -0.059875295620436607 0.074400695087199889 0 -0.059763564960910842 0.072351519386149477 0 -0.067823951334401278 0.077074493186841675 0 -0.059875295620436607 0.074400695087199889 0 -0.059763564960910842 0.072351519386149477 0 -0.025900644419147339 0.1037181611692686 0 -0.045779585759928382 0.11491088908402899 0 -0.031602423173611192 0.1163752533880351 0 -0.034324787078354013 0.12998778434922581 0 -0.045779585759928382 0.11491088908402899 0 -0.031602423173611192 0.1163752533880351 0 -0.025900644419147339 0.1037181611692686 0 -0.045779585759928382 0.11491088908402899 0 -0.051391521714545349 0.09740558947569769 0 -0.025900644419147339 0.1037181611692686 0 -0.051391521714545349 0.09740558947569769 0 -0.025900644419147339 0.1037181611692686 0 -0.045779585759928382 0.11491088908402899 0 -0.03099810596223972 0.091725920456211654 0 -0.051391521714545349 0.09740558947569769 0 -0.025900644419147339 0.1037181611692686 0 -0.03099810596223972 0.091725920456211654 0 -0.051391521714545349 0.09740558947569769 0 -0.045779585759928382 0.11491088908402899 0 -0.051391521714545349 0.09740558947569769 0 -0.061215323846092191 0.11074555970056491 0 -0.051391521714545349 0.09740558947569769 0 -0.072282394084413254 0.092232164958065604 0 -0.065658527100709171 0.1261036169987898 0 -0.045779585759928382 0.11491088908402899 0 -0.061215323846092191 0.11074555970056491 0 -0.065658527100709171 0.1261036169987898 0 -0.046900860058809418 0.13276722071079999 0 -0.045779585759928382 0.11491088908402899 0 -0.065658527100709171 0.1261036169987898 0 -0.045779585759928382 0.11491088908402899 0 -0.065658527100709171 0.1261036169987898 0 -0.061215323846092191 0.11074555970056491 0 -0.080670698815576841 0.1207504564246636 0 -0.061215323846092191 0.11074555970056491 0 -0.080670698815576841 0.1207504564246636 0 -0.075803929189660987 0.10420456793577849 0 -0.080670698815576841 0.1207504564246636 0 -0.075803929189660987 0.10420456793577849 0 -0.080670698815576841 0.1207504564246636 0 -0.090269497706986015 0.1082333016386062 0 -0.075803929189660987 0.10420456793577849 0 -0.080670698815576841 0.1207504564246636 0 -0.093124564740551585 0.11951123520431139 0 -0.090269497706986015 0.1082333016386062 0 -0.091109088430227025 0.1297030076884485 0 -0.080670698815576841 0.1207504564246636 0 -0.093124564740551585 0.11951123520431139 0 -0.084726186175134416 0.099161283882588977 0 -0.087846689796005448 0.088377816149243782 0 -0.094945592029715115 0.097587154027320488 0 -0.090269497706986015 0.1082333016386062 0 -0.084726186175134416 0.099161283882588977 0 -0.094945592029715115 0.097587154027320488 0 -0.090269497706986015 0.1082333016386062 0 -0.084726186175134416 0.099161283882588977 0 -0.075803929189660987 0.10420456793577849 0 -0.090269497706986015 0.1082333016386062 0 -0.075803929189660987 0.10420456793577849 0 -0.084726186175134416 0.099161283882588977 0 -0.075803929189660987 0.10420456793577849 0 -0.072282394084413254 0.092232164958065604 0 -0.051391521714545349 0.09740558947569769 0 -0.061215323846092191 0.11074555970056491 0 -0.075803929189660987 0.10420456793577849 0 -0.051391521714545349 0.09740558947569769 0 -0.075803929189660987 0.10420456793577849 0 -0.072282394084413254 0.092232164958065604 0 -0.075803929189660987 0.10420456793577849 0 -0.072282394084413254 0.092232164958065604 0 -0.051391521714545349 0.09740558947569769 0 -0.075803929189660987 0.10420456793577849 0 -0.059900729281534462 0.087476850148222429 0 -0.06303668554377824 0.08215791395177012 0 -0.072282394084413254 0.092232164958065604 0 -0.072282394084413254 0.092232164958065604 0 -0.067823951334401278 0.077074493186841675 0 -0.06303668554377824 0.08215791395177012 0 -0.072282394084413254 0.092232164958065604 0 -0.067823951334401278 0.077074493186841675 0 -0.072282394084413254 0.092232164958065604 0 -0.067823951334401278 0.077074493186841675 0 -0.079251390841234504 0.081642049330389141 0 -0.059763564960910842 0.072351519386149477 0 -0.067823951334401278 0.077074493186841675 0 -0.089052528150118118 0.068883723027405516 0 -0.059763564960910842 0.072351519386149477 0 -0.089052528150118118 0.068883723027405516 0 -0.07955839009984407 0.051415774286016097 0 -0.059763564960910842 0.072351519386149477 0 -0.089052528150118118 0.068883723027405516 0 -0.059875295620436607 0.074400695087199889 0 -0.06303668554377824 0.08215791395177012 0 -0.067823951334401278 0.077074493186841675 0 -0.067823951334401278 0.077074493186841675 0 -0.089052528150118118 0.068883723027405516 0 -0.079251390841234504 0.081642049330389141 0 -0.089052528150118118 0.068883723027405516 0 -0.079251390841234504 0.081642049330389141 0 -0.087846689796005448 0.088377816149243782 0 -0.089052528150118118 0.068883723027405516 0 -0.087846689796005448 0.088377816149243782 0 -0.1034109855075976 0.084523467340421779 0 -0.072282394084413254 0.092232164958065604 0 -0.079251390841234504 0.081642049330389141 0 -0.087846689796005448 0.088377816149243782 0 -0.084726186175134416 0.099161283882588977 0 -0.072282394084413254 0.092232164958065604 0 -0.087846689796005448 0.088377816149243782 0 -0.072282394084413254 0.092232164958065604 0 -0.087846689796005448 0.088377816149243782 0 -0.087846689796005448 0.088377816149243782 0 -0.1034109855075976 0.084523467340421779 0 -0.087846689796005448 0.088377816149243782 0 -0.1034109855075976 0.084523467340421779 0 -0.094945592029715115 0.097587154027320488 0 -0.089052528150118118 0.068883723027405516 0 -0.1034109855075976 0.084523467340421779 0 -0.11834149133932539 0.065415926668661556 0 -0.089052528150118118 0.068883723027405516 0 -0.11834149133932539 0.065415926668661556 0 -0.1034109855075976 0.084523467340421779 0 -0.11834149133932539 0.065415926668661556 0 -0.1196002052569579 0.07925181986621313 0 -0.1248918650389821 0.071208644368017882 0 -0.11834149133932539 0.065415926668661556 0 -0.1196002052569579 0.07925181986621313 0 -0.11834149133932539 0.065415926668661556 0 -0.1196002052569579 0.07925181986621313 0 -0.1221075907295128 0.064970022671733157 0 -0.11834149133932539 0.065415926668661556 0 -0.11761483325678419 0.057428437628981553 0 -0.1267372364114136 0.067611418500094986 0 -0.1248918650389821 0.071208644368017882 0 -0.1221075907295128 0.064970022671733157 0 -0.1248918650389821 0.071208644368017882 0 -0.1221075907295128 0.064970022671733157 0 -0.11834149133932539 0.065415926668661556 0 -0.1267372364114136 0.067611418500094986 0 -0.1221075907295128 0.064970022671733157 0 -0.12498503722429249 0.064616217945234367 0 -0.1221075907295128 0.064970022671733157 0 -0.12498503722429249 0.064616217945234367 0 -0.1248641855462891 0.060884203277834052 0 -0.1221075907295128 0.064970022671733157 0 -0.11834149133932539 0.065415926668661556 0 -0.1034109855075976 0.084523467340421779 0 -0.1134749361482975 0.087935485493058643 0 -0.1196002052569579 0.07925181986621313 0 -0.1034109855075976 0.084523467340421779 0 -0.1134749361482975 0.087935485493058643 0 -0.1126041528388577 0.097700571521466578 0 -0.12617373323283021 0.093555904281981683 0 -0.1134749361482975 0.087935485493058643 0 -0.1126041528388577 0.097700571521466578 0 -0.12617373323283021 0.093555904281981683 0 -0.1134749361482975 0.087935485493058643 0 -0.1196002052569579 0.07925181986621313 0 -0.12617373323283021 0.093555904281981683 0 -0.1126041528388577 0.097700571521466578 0 -0.1213020492873991 0.110310165124333 0 -0.1126041528388577 0.097700571521466578 0 -0.1213020492873991 0.110310165124333 0 -0.1091287103024067 0.1072127085974878 0 -0.12859924464456701 0.1215355048709401 0 -0.1213020492873991 0.110310165124333 0 -0.1181026629572412 0.1237369467265572 0 -0.1045301897291042 0.1304004041612849 0 -0.1181026629572412 0.1237369467265572 0 -0.1112183568740978 0.1167935532587327 0 -0.1213020492873991 0.110310165124333 0 -0.1181026629572412 0.1237369467265572 0 -0.1112183568740978 0.1167935532587327 0 -0.1213020492873991 0.110310165124333 0 -0.1112183568740978 0.1167935532587327 0 -0.1091287103024067 0.1072127085974878 0 -0.1045301897291042 0.1304004041612849 0 -0.093124564740551585 0.11951123520431139 0 -0.09904334902086373 0.1084690061085536 0 -0.1045301897291042 0.1304004041612849 0 -0.1112183568740978 0.1167935532587327 0 -0.09904334902086373 0.1084690061085536 0 -0.1045301897291042 0.1304004041612849 0 -0.09904334902086373 0.1084690061085536 0 -0.1112183568740978 0.1167935532587327 0 -0.09904334902086373 0.1084690061085536 0 -0.1091287103024067 0.1072127085974878 0 -0.093124564740551585 0.11951123520431139 0 -0.090269497706986015 0.1082333016386062 0 -0.09904334902086373 0.1084690061085536 0 -0.090269497706986015 0.1082333016386062 0 -0.09904334902086373 0.1084690061085536 0 -0.094945592029715115 0.097587154027320488 0 -0.09904334902086373 0.1084690061085536 0 -0.094945592029715115 0.097587154027320488 0 -0.1036700140194133 0.099545174726951013 0 -0.1034109855075976 0.084523467340421779 0 -0.094945592029715115 0.097587154027320488 0 -0.1036700140194133 0.099545174726951013 0 -0.1126041528388577 0.097700571521466578 0 -0.1036700140194133 0.099545174726951013 0 -0.1091287103024067 0.1072127085974878 0 -0.1034109855075976 0.084523467340421779 0 -0.1126041528388577 0.097700571521466578 0 -0.1036700140194133 0.099545174726951013 0 -0.09904334902086373 0.1084690061085536 0 -0.1036700140194133 0.099545174726951013 0 -0.1091287103024067 0.1072127085974878 0 -0.1051602409766375 0.036522041629709498 0 -0.08867988608806876 0.024763138750980681 0 -0.092705648696492698 0.015615645630436501 0 -0.1008444352441903 0.01348930215338873 0 -0.1147572422309661 0.026017547766226549 0 -0.092705648696492698 0.015615645630436501 0 -0.1051602409766375 0.036522041629709498 0 -0.092705648696492698 0.015615645630436501 0 -0.1147572422309661 0.026017547766226549 0 -0.1154792920982039 0.033954382901245792 0 -0.092705648696492698 0.015615645630436501 0 -0.1154792920982039 0.033954382901245792 0 -0.092705648696492698 0.015615645630436501 0 -0.1154792920982039 0.033954382901245792 0 -0.1051602409766375 0.036522041629709498 0 -0.092705648696492698 0.015615645630436501 0 -0.1008444352441903 0.01348930215338873 0 -0.1147572422309661 0.026017547766226549 0 -0.1123811332199436 -0.0001008497836227223 0 -0.1008444352441903 0.01348930215338873 0 -0.1147572422309661 0.026017547766226549 0 -0.1008444352441903 0.01348930215338873 0 -0.1006658800619662 0.0004949334613425756 0 -0.086931628257415489 0.00096105654054996249 0 -0.1008444352441903 0.01348930215338873 0 -0.086931628257415489 0.00096105654054996249 0 -0.1123811332199436 -0.0001008497836227223 0 -0.1008444352441903 0.01348930215338873 0 -0.1006658800619662 0.0004949334613425756 0 -0.1123811332199436 -0.0001008497836227223 0 -0.13456797813674581 0.0069355328586848406 0 -0.1147572422309661 0.026017547766226549 0 -0.1123811332199436 -0.0001008497836227223 0 -0.1147572422309661 0.026017547766226549 0 -0.1147572422309661 0.026017547766226549 0 -0.1154792920982039 0.033954382901245792 0 -0.1154792920982039 0.033954382901245792 0 -0.11761483325678419 0.057428437628981553 0 -0.1154792920982039 0.033954382901245792 0 -0.11761483325678419 0.057428437628981553 0 -0.1051602409766375 0.036522041629709498 0 -0.1340466443124424 0.043387325642917703 0 -0.1147572422309661 0.026017547766226549 0 -0.1340466443124424 0.043387325642917703 0 -0.1147572422309661 0.026017547766226549 0 -0.1154792920982039 0.033954382901245792 0 -0.12543315050897619 0.052684294334212289 0 -0.1154792920982039 0.033954382901245792 0 -0.11761483325678419 0.057428437628981553 0 -0.11761483325678419 0.057428437628981553 0 -0.1051602409766375 0.036522041629709498 0 -0.11834149133932539 0.065415926668661556 0 -0.11761483325678419 0.057428437628981553 0 -0.1011852039292796 0.053053087774960733 0 -0.11834149133932539 0.065415926668661556 0 -0.11761483325678419 0.057428437628981553 0 -0.12543315050897619 0.052684294334212289 0 -0.1248641855462891 0.060884203277834052 0 -0.11761483325678419 0.057428437628981553 0 -0.1221075907295128 0.064970022671733157 0 -0.11761483325678419 0.057428437628981553 0 -0.1221075907295128 0.064970022671733157 0 -0.1248641855462891 0.060884203277834052 0 -0.11761483325678419 0.057428437628981553 0 -0.11761483325678419 0.057428437628981553 0 -0.1011852039292796 0.053053087774960733 0 -0.1051602409766375 0.036522041629709498 0 -0.089052528150118118 0.068883723027405516 0 -0.11834149133932539 0.065415926668661556 0 -0.1011852039292796 0.053053087774960733 0 -0.1011852039292796 0.053053087774960733 0 -0.1051602409766375 0.036522041629709498 0 -0.090365943962128201 0.039881416113618118 0 -0.1051602409766375 0.036522041629709498 0 -0.090365943962128201 0.039881416113618118 0 -0.08867988608806876 0.024763138750980681 0 -0.090365943962128201 0.039881416113618118 0 -0.07955839009984407 0.051415774286016097 0 -0.077245998716811037 0.033653038126423521 0 -0.090365943962128201 0.039881416113618118 0 -0.077245998716811037 0.033653038126423521 0 -0.08867988608806876 0.024763138750980681 0 -0.1011852039292796 0.053053087774960733 0 -0.090365943962128201 0.039881416113618118 0 -0.07955839009984407 0.051415774286016097 0 -0.089052528150118118 0.068883723027405516 0 -0.1011852039292796 0.053053087774960733 0 -0.07955839009984407 0.051415774286016097 0 -0.059763564960910842 0.072351519386149477 0 -0.07955839009984407 0.051415774286016097 0 -0.058180776234878009 0.043322672594568963 0 -0.07955839009984407 0.051415774286016097 0 -0.077245998716811037 0.033653038126423521 0 -0.058180776234878009 0.043322672594568963 0 -0.077245998716811037 0.033653038126423521 0 -0.069992498395819475 0.02107929684568647 0 -0.058180776234878009 0.043322672594568963 0 -0.077245998716811037 0.033653038126423521 0 -0.069992498395819475 0.02107929684568647 0 -0.079814036086356621 0.018115807406263729 0 -0.077245998716811037 0.033653038126423521 0 -0.079814036086356621 0.018115807406263729 0 -0.08867988608806876 0.024763138750980681 0 -0.079814036086356621 0.018115807406263729 0 -0.08867988608806876 0.024763138750980681 0 -0.087712689725897186 0.01159500821416398 0 -0.08867988608806876 0.024763138750980681 0 -0.087712689725897186 0.01159500821416398 0 -0.08867988608806876 0.024763138750980681 0 -0.092705648696492698 0.015615645630436501 0 -0.087712689725897186 0.01159500821416398 0 -0.071363944254352912 -0.00157000638721369 0 -0.079814036086356621 0.018115807406263729 0 -0.087712689725897186 0.01159500821416398 0 -0.071363944254352912 -0.00157000638721369 0 -0.087712689725897186 0.01159500821416398 0 -0.080554433586790014 -0.0047814985908740948 0 -0.071363944254352912 -0.00157000638721369 0 -0.087347362854447858 0.0066211765084267082 0 -0.071363944254352912 -0.00157000638721369 0 -0.087347362854447858 0.0066211765084267082 0 -0.087712689725897186 0.01159500821416398 0 -0.1008444352441903 0.01348930215338873 0 -0.087347362854447858 0.0066211765084267082 0 -0.086931628257415489 0.00096105654054996249 0 -0.087347362854447858 0.0066211765084267082 0 -0.086931628257415489 0.00096105654054996249 0 -0.087347362854447858 0.0066211765084267082 0 -0.092705648696492698 0.015615645630436501 0 -0.1008444352441903 0.01348930215338873 0 -0.087347362854447858 0.0066211765084267082 0 -0.092705648696492698 0.015615645630436501 0 -0.087347362854447858 0.0066211765084267082 0 -0.092705648696492698 0.015615645630436501 0 -0.087712689725897186 0.01159500821416398 0 -0.092705648696492698 0.015615645630436501 0 -0.087712689725897186 0.01159500821416398 0 -0.087347362854447858 0.0066211765084267082 0 -0.087712689725897186 0.01159500821416398 0 -0.080554433586790014 -0.0047814985908740948 0 -0.087347362854447858 0.0066211765084267082 0 -0.080554433586790014 -0.0047814985908740948 0 -0.087347362854447858 0.0066211765084267082 0 -0.086931628257415489 0.00096105654054996249 0 -0.071363944254352912 -0.00157000638721369 0 -0.069992498395819475 0.02107929684568647 0 -0.056597987508844767 0.014293825802988481 0 -0.071363944254352912 -0.00157000638721369 0 -0.069992498395819475 0.02107929684568647 0 -0.079814036086356621 0.018115807406263729 0 -0.056597987508844767 0.014293825802988481 0 -0.058180776234878009 0.043322672594568963 0 -0.040798192357645598 0.033222851916970678 0 -0.069992498395819475 0.02107929684568647 0 -0.056597987508844767 0.014293825802988481 0 -0.058180776234878009 0.043322672594568963 0 -0.056597987508844767 0.014293825802988481 0 -0.058180776234878009 0.043322672594568963 0 -0.040798192357645598 0.033222851916970678 0 -0.022931990399943539 0.038795778614009763 0 -0.03077951101406223 0.01865969425367155 0 -0.056597987508844767 0.014293825802988481 0 -0.040798192357645598 0.033222851916970678 0 -0.03077951101406223 0.01865969425367155 0 -0.038627031628180902 -0.001476390106666611 0 -0.03077951101406223 0.01865969425367155 0 -0.038627031628180902 -0.001476390106666611 0 -0.056597987508844767 0.014293825802988481 0 -0.03077951101406223 0.01865969425367155 0 -0.059763564960910842 0.072351519386149477 0 -0.058180776234878009 0.043322672594568963 0 -0.045863521316537113 0.061724012252009443 0 -0.059763564960910842 0.072351519386149477 0 -0.058180776234878009 0.043322672594568963 0 -0.040798192357645598 0.033222851916970678 0 -0.03550069663049947 0.05104228831961468 0 -0.022931990399943539 0.038795778614009763 0 -0.058180776234878009 0.043322672594568963 0 -0.040798192357645598 0.033222851916970678 0 -0.03550069663049947 0.05104228831961468 0 -0.058180776234878009 0.043322672594568963 0 -0.03550069663049947 0.05104228831961468 0 -0.045863521316537113 0.061724012252009443 0 -0.033934107054421153 0.063174613375541006 0 -0.03550069663049947 0.05104228831961468 0 -0.045863521316537113 0.061724012252009443 0 -0.03550069663049947 0.05104228831961468 0 -0.02196131455640677 0.060664682308354922 0 -0.033934107054421153 0.063174613375541006 0 -0.03550069663049947 0.05104228831961468 0 -0.02196131455640677 0.060664682308354922 0 -0.03550069663049947 0.05104228831961468 0 -0.02196131455640677 0.060664682308354922 0 -0.02435550673727507 0.049942747390998979 0 -0.02435550673727507 0.049942747390998979 0 -0.022931990399943539 0.038795778614009763 0 -0.014567175175425899 0.051928203536141929 0 -0.02196131455640677 0.060664682308354922 0 -0.02435550673727507 0.049942747390998979 0 -0.014567175175425899 0.051928203536141929 0 -0.022931990399943539 0.038795778614009763 0 -0.01048797217524014 0.04189107844736429 0 -0.014567175175425899 0.051928203536141929 0 -0.03550069663049947 0.05104228831961468 0 -0.02435550673727507 0.049942747390998979 0 -0.022931990399943539 0.038795778614009763 0 -0.01048797217524014 0.04189107844736429 0 -0.0131110129819415 0.029201117355291281 0 0.0043156378938197194 0.030980734054216051 0 -0.022931990399943539 0.038795778614009763 0 -0.01048797217524014 0.04189107844736429 0 -0.0131110129819415 0.029201117355291281 0 -0.01048797217524014 0.04189107844736429 0 -0.014567175175425899 0.051928203536141929 0 -0.00048850319971554797 0.055571147250719322 0 -0.014567175175425899 0.051928203536141929 0 -0.0070245807461425357 0.060198411639901549 0 -0.00048850319971554797 0.055571147250719322 0 -0.0070245807461425357 0.060198411639901549 0 -0.00048850319971554797 0.055571147250719322 0 0.0046500417895332172 0.067209172902438011 0 -0.02196131455640677 0.060664682308354922 0 -0.014567175175425899 0.051928203536141929 0 -0.0070245807461425357 0.060198411639901549 0 -0.024119736900757981 0.0044669919336378736 0 -0.03077951101406223 0.01865969425367155 0 -0.0056712292142813321 0.01567830140719477 0 -0.018158467351820511 -0.01003296171284794 0 -0.024119736900757981 0.0044669919336378736 0 -0.0056712292142813321 0.01567830140719477 0 -0.038627031628180902 -0.001476390106666611 0 -0.024119736900757981 0.0044669919336378736 0 -0.03077951101406223 0.01865969425367155 0 -0.022931990399943539 0.038795778614009763 0 -0.03077951101406223 0.01865969425367155 0 -0.0131110129819415 0.029201117355291281 0 -0.03077951101406223 0.01865969425367155 0 -0.0056712292142813321 0.01567830140719477 0 -0.0131110129819415 0.029201117355291281 0 -0.022931990399943539 0.038795778614009763 0 -0.03077951101406223 0.01865969425367155 0 -0.0056712292142813321 0.01567830140719477 0 -0.0131110129819415 0.029201117355291281 0 0.0043156378938197194 0.030980734054216051 0 -0.018158467351820511 -0.01003296171284794 0 -0.0056712292142813321 0.01567830140719477 0 -0.00066596878166239742 -0.01102915960288571 0 -0.0056712292142813321 0.01567830140719477 0 0.0062984138645736706 0.0040987891581732759 0 0.0062984138645736706 0.0040987891581732759 0 0.015394451627877091 0.017781716080078652 0 0.022925687491744558 0.003154738795317772 0 -0.0056712292142813321 0.01567830140719477 0 0.0062984138645736706 0.0040987891581732759 0 0.015394451627877091 0.017781716080078652 0 0.0043156378938197194 0.030980734054216051 0 0.015394451627877091 0.017781716080078652 0 0.02293739045754084 0.03103286418533803 0 -0.0056712292142813321 0.01567830140719477 0 0.0043156378938197194 0.030980734054216051 0 0.015394451627877091 0.017781716080078652 0 0.015394451627877091 0.017781716080078652 0 0.02293739045754084 0.03103286418533803 0 0.02916730267240401 0.019154280858209621 0 0.02293739045754084 0.03103286418533803 0 0.02916730267240401 0.019154280858209621 0 0.038479124794164418 0.029960225494417809 0 0.015394451627877091 0.017781716080078652 0 0.02916730267240401 0.019154280858209621 0 0.022925687491744558 0.003154738795317772 0 -0.01048797217524014 0.04189107844736429 0 -0.00048850319971554797 0.055571147250719322 0 0.012000602778833859 0.050335452511999577 0 -0.00048850319971554797 0.055571147250719322 0 0.012498064330148211 0.061864564466470567 0 0.012000602778833859 0.050335452511999577 0 -0.00048850319971554797 0.055571147250719322 0 0.012498064330148211 0.061864564466470567 0 0.0046500417895332172 0.067209172902438011 0 -0.01048797217524014 0.04189107844736429 0 0.012000602778833859 0.050335452511999577 0 0.0043156378938197194 0.030980734054216051 0 0.02293739045754084 0.03103286418533803 0 0.012000602778833859 0.050335452511999577 0 -0.01048797217524014 0.04189107844736429 0 0.0043156378938197194 0.030980734054216051 0 0.012000602778833859 0.050335452511999577 0 0.02293739045754084 0.03103286418533803 0 0.012000602778833859 0.050335452511999577 0 0.033938814637121513 0.043102900715600079 0 0.012000602778833859 0.050335452511999577 0 0.034489177732907862 0.058779826576634872 0 0.012000602778833859 0.050335452511999577 0 0.034489177732907862 0.058779826576634872 0 0.025805121988156279 0.065262591583926804 0 0.012000602778833859 0.050335452511999577 0 0.034489177732907862 0.058779826576634872 0 0.033938814637121513 0.043102900715600079 0 0.012498064330148211 0.061864564466470567 0 0.012000602778833859 0.050335452511999577 0 0.025805121988156279 0.065262591583926804 0 0.034489177732907862 0.058779826576634872 0 0.047453505301693538 0.051570241641249633 0 0.056977752686981027 0.067224200641272464 0 0.034489177732907862 0.058779826576634872 0 0.033938814637121513 0.043102900715600079 0 0.047453505301693538 0.051570241641249633 0 0.033938814637121513 0.043102900715600079 0 0.048690571532047117 0.040435571341586082 0 0.047453505301693538 0.051570241641249633 0 0.02293739045754084 0.03103286418533803 0 0.033938814637121513 0.043102900715600079 0 0.038479124794164418 0.029960225494417809 0 0.033938814637121513 0.043102900715600079 0 0.048690571532047117 0.040435571341586082 0 0.038479124794164418 0.029960225494417809 0 0.048690571532047117 0.040435571341586082 0 0.038479124794164418 0.029960225494417809 0 0.050703609084149552 0.029508413715293311 0 0.058135578889103701 0.037272832716029117 0 0.050703609084149552 0.029508413715293311 0 0.070109000038558494 0.031522535591724757 0 0.058135578889103701 0.037272832716029117 0 0.048690571532047117 0.040435571341586082 0 0.050703609084149552 0.029508413715293311 0 0.058135578889103701 0.037272832716029117 0 0.048690571532047117 0.040435571341586082 0 0.06303913490165966 0.047624810215512348 0 0.048690571532047117 0.040435571341586082 0 0.047453505301693538 0.051570241641249633 0 0.06303913490165966 0.047624810215512348 0 0.047453505301693538 0.051570241641249633 0 0.06303913490165966 0.047624810215512348 0 0.056977752686981027 0.067224200641272464 0 0.022925687491744558 0.003154738795317772 0 0.038233289107768818 0.0091268824257572934 0 0.046517343765151618 0.017338637193521321 0 0.022925687491744558 0.003154738795317772 0 0.046517343765151618 0.017338637193521321 0 0.038233289107768818 0.0091268824257572934 0 0.054343110401092812 0.0060465465512951301 0 0.045624452311687443 -0.0024205124681315432 0 0.02916730267240401 0.019154280858209621 0 0.022925687491744558 0.003154738795317772 0 0.046517343765151618 0.017338637193521321 0 0.038233289107768818 0.0091268824257572934 0 0.045624452311687443 -0.0024205124681315432 0 0.033493316951729857 -0.0044145458703618657 0 0.022925687491744558 0.003154738795317772 0 0.038233289107768818 0.0091268824257572934 0 0.033493316951729857 -0.0044145458703618657 0 0.02916730267240401 0.019154280858209621 0 0.038479124794164418 0.029960225494417809 0 0.046517343765151618 0.017338637193521321 0 0.038479124794164418 0.029960225494417809 0 0.046517343765151618 0.017338637193521321 0 0.050703609084149552 0.029508413715293311 0 0.046517343765151618 0.017338637193521321 0 0.050703609084149552 0.029508413715293311 0 0.070109000038558494 0.031522535591724757 0 0.046517343765151618 0.017338637193521321 0 0.06214101256343383 0.01960508717235537 0 0.070109000038558494 0.031522535591724757 0 0.046517343765151618 0.017338637193521321 0 0.070109000038558494 0.031522535591724757 0 0.06214101256343383 0.01960508717235537 0 0.054343110401092812 0.0060465465512951301 0 0.067326731398199557 0.0072435020532937676 0 0.038233289107768818 0.0091268824257572934 0 0.06214101256343383 0.01960508717235537 0 0.038233289107768818 0.0091268824257572934 0 0.046517343765151618 0.017338637193521321 0 0.06214101256343383 0.01960508717235537 0 0.038233289107768818 0.0091268824257572934 0 0.06214101256343383 0.01960508717235537 0 0.054343110401092812 0.0060465465512951301 0 0.054343110401092812 0.0060465465512951301 0 0.058390066624374452 -0.003322226426799232 0 0.045624452311687443 -0.0024205124681315432 0 0.054343110401092812 0.0060465465512951301 0 0.067326731398199557 0.0072435020532937676 0 0.058390066624374452 -0.003322226426799232 0 0.06214101256343383 0.01960508717235537 0 0.067326731398199557 0.0072435020532937676 0 0.078320651399707106 0.01559220826660852 0 0.067326731398199557 0.0072435020532937676 0 0.082478933454306638 0.0053231697351442953 0 0.078320651399707106 0.01559220826660852 0 0.067326731398199557 0.0072435020532937676 0 0.082478933454306638 0.0053231697351442953 0 0.071896711174575384 -0.0055566056989646102 0 0.082478933454306638 0.0053231697351442953 0 0.093607843563496718 0.015705990453295751 0 0.10103114816576229 -0.00187795814595874 0 0.082478933454306638 0.0053231697351442953 0 0.078320651399707106 0.01559220826660852 0 0.093607843563496718 0.015705990453295751 0 0.078320651399707106 0.01559220826660852 0 0.086048736019098765 0.030083291918953411 0 0.093607843563496718 0.015705990453295751 0 0.06214101256343383 0.01960508717235537 0 0.086048736019098765 0.030083291918953411 0 0.06214101256343383 0.01960508717235537 0 0.086048736019098765 0.030083291918953411 0 0.070109000038558494 0.031522535591724757 0 0.06214101256343383 0.01960508717235537 0 0.078320651399707106 0.01559220826660852 0 0.086048736019098765 0.030083291918953411 0 0.070109000038558494 0.031522535591724757 0 0.077384758617768473 0.0432000926617645 0 0.06303913490165966 0.047624810215512348 0 0.058135578889103701 0.037272832716029117 0 0.070109000038558494 0.031522535591724757 0 0.06303913490165966 0.047624810215512348 0 0.086048736019098765 0.030083291918953411 0 0.070109000038558494 0.031522535591724757 0 0.077384758617768473 0.0432000926617645 0 0.077384758617768473 0.0432000926617645 0 0.06303913490165966 0.047624810215512348 0 0.080870269221939045 0.06057001442699219 0 0.06303913490165966 0.047624810215512348 0 0.080870269221939045 0.06057001442699219 0 0.056977752686981027 0.067224200641272464 0 0.080870269221939045 0.06057001442699219 0 0.1047627857568964 0.053915828212710057 0 0.090710029257504349 0.066087891879324845 0 0.080870269221939045 0.06057001442699219 0 0.1047627857568964 0.053915828212710057 0 0.077384758617768473 0.0432000926617645 0 0.080870269221939045 0.06057001442699219 0 0.089724498487173066 0.046431410014710968 0 0.080870269221939045 0.06057001442699219 0 0.089724498487173066 0.046431410014710968 0 0.1047627857568964 0.053915828212710057 0 0.086048736019098765 0.030083291918953411 0 0.089724498487173066 0.046431410014710968 0 0.097623119934482985 0.04274800670298147 0 0.086048736019098765 0.030083291918953411 0 0.077384758617768473 0.0432000926617645 0 0.089724498487173066 0.046431410014710968 0 0.086048736019098765 0.030083291918953411 0 0.10995645947476369 0.04056149666555145 0 0.086048736019098765 0.030083291918953411 0 0.10995645947476369 0.04056149666555145 0 0.1018201328856537 0.02773080492377572 0 0.086048736019098765 0.030083291918953411 0 0.097623119934482985 0.04274800670298147 0 0.10995645947476369 0.04056149666555145 0 0.097623119934482985 0.04274800670298147 0 0.1047627857568964 0.053915828212710057 0 0.10995645947476369 0.04056149666555145 0 0.10995645947476369 0.04056149666555145 0 0.1124066729966556 0.03059028327655949 0 0.1018201328856537 0.02773080492377572 0 0.089724498487173066 0.046431410014710968 0 0.097623119934482985 0.04274800670298147 0 0.1047627857568964 0.053915828212710057 0 0.1047627857568964 0.053915828212710057 0 0.11840434228854579 0.041738437315920703 0 0.12865530229185401 0.047261641998428097 0 0.1047627857568964 0.053915828212710057 0 0.12865530229185401 0.047261641998428097 0 0.1047627857568964 0.053915828212710057 0 0.1192351758823044 0.059345832468055401 0 0.12865530229185401 0.047261641998428097 0 0.1047627857568964 0.053915828212710057 0 0.1192351758823044 0.059345832468055401 0 0.1159794291640585 0.069980700851869776 0 0.10995645947476369 0.04056149666555145 0 0.11840434228854579 0.041738437315920703 0 0.1124066729966556 0.03059028327655949 0 0.1047627857568964 0.053915828212710057 0 0.10995645947476369 0.04056149666555145 0 0.11840434228854579 0.041738437315920703 0 0.11840434228854579 0.041738437315920703 0 0.12189417177048111 0.032221846461315033 0 0.12865530229185401 0.047261641998428097 0 0.11840434228854579 0.041738437315920703 0 0.12189417177048111 0.032221846461315033 0 0.1124066729966556 0.03059028327655949 0 0.12189417177048111 0.032221846461315033 0 0.1162774161956527 0.020093176250961658 0 0.1289287667629318 0.018122330563568521 0 0.12189417177048111 0.032221846461315033 0 0.1124066729966556 0.03059028327655949 0 0.1162774161956527 0.020093176250961658 0 0.1124066729966556 0.03059028327655949 0 0.1162774161956527 0.020093176250961658 0 0.1060875153648365 0.021195938041832379 0 0.1162774161956527 0.020093176250961658 0 0.1063266277127094 0.01087514656395331 0 0.1060875153648365 0.021195938041832379 0 0.1162774161956527 0.020093176250961658 0 0.1165119839184577 0.0034348635392658648 0 0.1063266277127094 0.01087514656395331 0 0.1165119839184577 0.0034348635392658648 0 0.1289287667629318 0.018122330563568521 0 0.12920223123400901 -0.011016980871291051 0 0.1162774161956527 0.020093176250961658 0 0.1165119839184577 0.0034348635392658648 0 0.1289287667629318 0.018122330563568521 0 0.093607843563496718 0.015705990453295751 0 0.1063266277127094 0.01087514656395331 0 0.10103114816576229 -0.00187795814595874 0 0.1165119839184577 0.0034348635392658648 0 0.1063266277127094 0.01087514656395331 0 0.10103114816576229 -0.00187795814595874 0 0.093607843563496718 0.015705990453295751 0 0.1018201328856537 0.02773080492377572 0 0.1060875153648365 0.021195938041832379 0 0.086048736019098765 0.030083291918953411 0 0.093607843563496718 0.015705990453295751 0 0.1018201328856537 0.02773080492377572 0 0.1124066729966556 0.03059028327655949 0 0.1018201328856537 0.02773080492377572 0 0.1060875153648365 0.021195938041832379 0 0.093607843563496718 0.015705990453295751 0 0.1063266277127094 0.01087514656395331 0 0.1060875153648365 0.021195938041832379 0 0.10865703615256821 0.1079802026556536 0 0.1000663309669611 0.10417155599218569 0 0.1009194186274593 0.1115740056497919 0 0.10865703615256821 0.1079802026556536 0 0.1052542092792708 0.09686972469282068 0 0.1000663309669611 0.10417155599218569 0 0.1052542092792708 0.09686972469282068 0 0.093976664335049767 0.097669897293584954 0 0.097785326609778137 0.090151210122667969 0 0.1052542092792708 0.09686972469282068 0 0.093976664335049767 0.097669897293584954 0 0.1000663309669611 0.10417155599218569 0 0.1000663309669611 0.10417155599218569 0 0.1009194186274593 0.1115740056497919 0 0.092533088805133792 0.108087392131529 0 0.093976664335049767 0.097669897293584954 0 0.1000663309669611 0.10417155599218569 0 0.092533088805133792 0.108087392131529 0 0.1009194186274593 0.1115740056497919 0 0.095101003301700029 0.12008882466627049 0 0.10703356195214619 0.1188867754661791 0 0.1009194186274593 0.1115740056497919 0 0.095101003301700029 0.12008882466627049 0 0.092533088805133792 0.108087392131529 0 0.095101003301700029 0.12008882466627049 0 0.10703356195214619 0.1188867754661791 0 0.1013540510112672 0.1282313823213678 0 0.10865703615256821 0.1079802026556536 0 0.1009194186274593 0.1115740056497919 0 0.10703356195214619 0.1188867754661791 0 0.10865703615256821 0.1079802026556536 0 0.10703356195214619 0.1188867754661791 0 0.12040158611293281 0.11615033297019051 0 0.10703356195214619 0.1188867754661791 0 0.12040158611293281 0.11615033297019051 0 0.1132217939704926 0.13092571048270699 0 0.12040158611293281 0.11615033297019051 0 0.1187714911589767 0.1008905423939797 0 0.12823199110065181 0.1041393684752147 0 0.10865703615256821 0.1079802026556536 0 0.12040158611293281 0.11615033297019051 0 0.1187714911589767 0.1008905423939797 0 0.10865703615256821 0.1079802026556536 0 0.1052542092792708 0.09686972469282068 0 0.1187714911589767 0.1008905423939797 0 0.1187714911589767 0.1008905423939797 0 0.12668381814980131 0.092166051232884558 0 0.12823199110065181 0.1041393684752147 0 0.1116993296014565 0.08209957772341131 0 0.13348551527237121 0.081600058803962566 0 0.1052542092792708 0.09686972469282068 0 0.1187714911589767 0.1008905423939797 0 0.1116993296014565 0.08209957772341131 0 0.1116993296014565 0.08209957772341131 0 0.13348551527237121 0.081600058803962566 0 0.12668381814980131 0.092166051232884558 0 0.1187714911589767 0.1008905423939797 0 0.1116993296014565 0.08209957772341131 0 0.12668381814980131 0.092166051232884558 0 0.1116993296014565 0.08209957772341131 0 0.1159794291640585 0.069980700851869776 0 0.13348551527237121 0.081600058803962566 0 0.1192351758823044 0.059345832468055401 0 0.1159794291640585 0.069980700851869776 0 0.12845573216069869 0.068527059703126225 0 0.1047627857568964 0.053915828212710057 0 0.099687873739960242 0.071528347385210536 0 0.090710029257504349 0.066087891879324845 0 0.1047627857568964 0.053915828212710057 0 0.1159794291640585 0.069980700851869776 0 0.099687873739960242 0.071528347385210536 0 0.1116993296014565 0.08209957772341131 0 0.1159794291640585 0.069980700851869776 0 0.099687873739960242 0.071528347385210536 0 0.1116993296014565 0.08209957772341131 0 0.089913143930541672 0.08259909664286004 0 0.1116993296014565 0.08209957772341131 0 0.099687873739960242 0.071528347385210536 0 0.089913143930541672 0.08259909664286004 0 0.1116993296014565 0.08209957772341131 0 0.097785326609778137 0.090151210122667969 0 0.089913143930541672 0.08259909664286004 0 0.1052542092792708 0.09686972469282068 0 0.1116993296014565 0.08209957772341131 0 0.097785326609778137 0.090151210122667969 0 0.097785326609778137 0.090151210122667969 0 0.088083285902572001 0.091517754260662901 0 0.089913143930541672 0.08259909664286004 0 0.089913143930541672 0.08259909664286004 0 0.068126958259626891 0.083098615562310921 0 0.089913143930541672 0.08259909664286004 0 0.088211202373779551 0.074505149389693631 0 0.068126958259626891 0.083098615562310921 0 0.088211202373779551 0.074505149389693631 0 0.068126958259626891 0.083098615562310921 0 0.093976664335049767 0.097669897293584954 0 0.097785326609778137 0.090151210122667969 0 0.088083285902572001 0.091517754260662901 0 0.089913143930541672 0.08259909664286004 0 0.078985793294952034 0.091179467748513224 0 0.068126958259626891 0.083098615562310921 0 0.088083285902572001 0.091517754260662901 0 0.089913143930541672 0.08259909664286004 0 0.078985793294952034 0.091179467748513224 0 0.088211202373779551 0.074505149389693631 0 0.080018015194946501 0.069920119982017803 0 0.068126958259626891 0.083098615562310921 0 0.090710029257504349 0.066087891879324845 0 0.088211202373779551 0.074505149389693631 0 0.080018015194946501 0.069920119982017803 0 0.099687873739960242 0.071528347385210536 0 0.089913143930541672 0.08259909664286004 0 0.088211202373779551 0.074505149389693631 0 0.099687873739960242 0.071528347385210536 0 0.090710029257504349 0.066087891879324845 0 0.088211202373779551 0.074505149389693631 0 0.080870269221939045 0.06057001442699219 0 0.090710029257504349 0.066087891879324845 0 0.080018015194946501 0.069920119982017803 0 0.080870269221939045 0.06057001442699219 0 0.070986075588172964 0.072484272426051044 0 0.056977752686981027 0.067224200641272464 0 0.080870269221939045 0.06057001442699219 0 0.056977752686981027 0.067224200641272464 0 0.080870269221939045 0.06057001442699219 0 0.080018015194946501 0.069920119982017803 0 0.070986075588172964 0.072484272426051044 0 0.080018015194946501 0.069920119982017803 0 0.070986075588172964 0.072484272426051044 0 0.068126958259626891 0.083098615562310921 0 0.070986075588172964 0.072484272426051044 0 0.068126958259626891 0.083098615562310921 0 0.061462547313560191 0.074932504409479392 0 0.070986075588172964 0.072484272426051044 0 0.056977752686981027 0.067224200641272464 0 0.061462547313560191 0.074932504409479392 0 0.070986075588172964 0.072484272426051044 0 0.056977752686981027 0.067224200641272464 0 0.078985793294952034 0.091179467748513224 0 0.068126958259626891 0.083098615562310921 0 0.066840611021134019 0.097179197880620335 0 0.066840611021134019 0.097179197880620335 0 0.071143367884081807 0.1110998659159038 0 0.05187254364311706 0.1131381607445713 0 0.066840611021134019 0.097179197880620335 0 0.082080053169093017 0.101813698143877 0 0.071143367884081807 0.1110998659159038 0 0.078985793294952034 0.091179467748513224 0 0.066840611021134019 0.097179197880620335 0 0.082080053169093017 0.101813698143877 0 0.088083285902572001 0.091517754260662901 0 0.078985793294952034 0.091179467748513224 0 0.082080053169093017 0.101813698143877 0 0.082080053169093017 0.101813698143877 0 0.092533088805133792 0.108087392131529 0 0.08277583177313716 0.11582055467023609 0 0.093976664335049767 0.097669897293584954 0 0.082080053169093017 0.101813698143877 0 0.092533088805133792 0.108087392131529 0 0.093976664335049767 0.097669897293584954 0 0.088083285902572001 0.091517754260662901 0 0.082080053169093017 0.101813698143877 0 0.08277583177313716 0.11582055467023609 0 0.088161193400792981 0.12894397324184961 0 0.072147799813927813 0.12754771814021421 0 0.095101003301700029 0.12008882466627049 0 0.08277583177313716 0.11582055467023609 0 0.088161193400792981 0.12894397324184961 0 0.095101003301700029 0.12008882466627049 0 0.092533088805133792 0.108087392131529 0 0.08277583177313716 0.11582055467023609 0 0.082080053169093017 0.101813698143877 0 0.08277583177313716 0.11582055467023609 0 0.071143367884081807 0.1110998659159038 0 0.08277583177313716 0.11582055467023609 0 0.071143367884081807 0.1110998659159038 0 0.072147799813927813 0.12754771814021421 0 0.071143367884081807 0.1110998659159038 0 0.05187254364311706 0.1131381607445713 0 0.072147799813927813 0.12754771814021421 0 0.05187254364311706 0.1131381607445713 0 0.072147799813927813 0.12754771814021421 0 0.05187254364311706 0.1131381607445713 0 0.05017281878973405 0.12769214728720851 0 0.072147799813927813 0.12754771814021421 0 0.066840611021134019 0.097179197880620335 0 0.05187254364311706 0.1131381607445713 0 0.049862122865967383 0.090913609455625016 0 0.05187254364311706 0.1131381607445713 0 0.031597287472304392 0.098728603348931077 0 0.049862122865967383 0.090913609455625016 0 0.05187254364311706 0.1131381607445713 0 0.031597287472304392 0.098728603348931077 0 0.031597287472304392 0.098728603348931077 0 0.049862122865967383 0.090913609455625016 0 0.05187254364311706 0.1131381607445713 0 0.03362760941764812 0.1178372469539659 0 0.05017281878973405 0.12769214728720851 0 0.05187254364311706 0.1131381607445713 0 0.031597287472304392 0.098728603348931077 0 0.03362760941764812 0.1178372469539659 0 0.056977752686981027 0.067224200641272464 0 0.061462547313560191 0.074932504409479392 0 0.051656776874273197 0.07664045226248746 0 0.068126958259626891 0.083098615562310921 0 0.049862122865967383 0.090913609455625016 0 0.039780386198183172 0.083748552603151671 0 0.068126958259626891 0.083098615562310921 0 0.066840611021134019 0.097179197880620335 0 0.049862122865967383 0.090913609455625016 0 0.068126958259626891 0.083098615562310921 0 0.061462547313560191 0.074932504409479392 0 0.051656776874273197 0.07664045226248746 0 0.068126958259626891 0.083098615562310921 0 0.051656776874273197 0.07664045226248746 0 0.039780386198183172 0.083748552603151671 0 0.068126958259626891 0.083098615562310921 0 0.049862122865967383 0.090913609455625016 0 0.068126958259626891 0.083098615562310921 0 0.039780386198183172 0.083748552603151671 0 0.051656776874273197 0.07664045226248746 0 0.039780386198183172 0.083748552603151671 0 0.031936239913014808 0.074198388096224963 0 0.031597287472304392 0.098728603348931077 0 0.049862122865967383 0.090913609455625016 0 0.039780386198183172 0.083748552603151671 0 0.034489177732907862 0.058779826576634872 0 0.056977752686981027 0.067224200641272464 0 0.031936239913014808 0.074198388096224963 0 0.056977752686981027 0.067224200641272464 0 0.051656776874273197 0.07664045226248746 0 0.031936239913014808 0.074198388096224963 0 0.034489177732907862 0.058779826576634872 0 0.056977752686981027 0.067224200641272464 0 0.056977752686981027 0.067224200641272464 0 0.031936239913014808 0.074198388096224963 0 0.031936239913014808 0.074198388096224963 0 0.016908585288792091 0.070018080807413105 0 0.0068947271390474262 0.081172575551173715 0 0.031936239913014808 0.074198388096224963 0 0.0068947271390474262 0.081172575551173715 0 0.012498064330148211 0.061864564466470567 0 0.016908585288792091 0.070018080807413105 0 0.025805121988156279 0.065262591583926804 0 0.031936239913014808 0.074198388096224963 0 0.016908585288792091 0.070018080807413105 0 0.025805121988156279 0.065262591583926804 0 0.034489177732907862 0.058779826576634872 0 0.031936239913014808 0.074198388096224963 0 0.025805121988156279 0.065262591583926804 0 0.039780386198183172 0.083748552603151671 0 0.01143381413673941 0.084398489643994767 0 0.031936239913014808 0.074198388096224963 0 0.0068947271390474262 0.081172575551173715 0 0.01143381413673941 0.084398489643994767 0 0.039780386198183172 0.083748552603151671 0 0.031936239913014808 0.074198388096224963 0 0.01143381413673941 0.084398489643994767 0 0.031597287472304392 0.098728603348931077 0 0.039780386198183172 0.083748552603151671 0 0.01143381413673941 0.084398489643994767 0 0.031597287472304392 0.098728603348931077 0 0.01143381413673941 0.084398489643994767 0 -0.0061345752928342809 0.084801301913973365 0 0.01143381413673941 0.084398489643994767 0 -0.0061345752928342809 0.084801301913973365 0 0.0068947271390474262 0.081172575551173715 0 0.01143381413673941 0.084398489643994767 0 -7.6700219940714371e-05 0.095538716507578794 0 -0.0061345752928342809 0.084801301913973365 0 0.01143381413673941 0.084398489643994767 0 -0.0061345752928342809 0.084801301913973365 0 0.0068947271390474262 0.081172575551173715 0 0.0068947271390474262 0.081172575551173715 0 0.01143381413673941 0.084398489643994767 0 0.016908585288792091 0.070018080807413105 0 0.0068947271390474262 0.081172575551173715 0 0.0046500417895332172 0.067209172902438011 0 -0.0084219324823134947 0.070287076297094325 0 0.0068947271390474262 0.081172575551173715 0 0.0046500417895332172 0.067209172902438011 0 0.012498064330148211 0.061864564466470567 0 0.016908585288792091 0.070018080807413105 0 0.0046500417895332172 0.067209172902438011 0 0.020374455392718899 0.1189562709871814 0 0.0096921142713058961 0.1125323670673917 0 0.019435158557195829 0.131394094213829 0 0.018053783382500171 0.11156864391392 0 0.020374455392718899 0.1189562709871814 0 0.02516937327537851 0.1095970322515526 0 0.018053783382500171 0.11156864391392 0 0.020374455392718899 0.1189562709871814 0 0.0096921142713058961 0.1125323670673917 0 0.03362760941764812 0.1178372469539659 0 0.020374455392718899 0.1189562709871814 0 0.027555749754072319 0.12545937483733419 0 0.03362760941764812 0.1178372469539659 0 0.020374455392718899 0.1189562709871814 0 0.02516937327537851 0.1095970322515526 0 0.031597287472304392 0.098728603348931077 0 0.02516937327537851 0.1095970322515526 0 0.017364834390288891 0.104818257677901 0 0.031597287472304392 0.098728603348931077 0 0.01143381413673941 0.084398489643994767 0 0.017364834390288891 0.104818257677901 0 0.031597287472304392 0.098728603348931077 0 0.017364834390288891 0.104818257677901 0 0.031597287472304392 0.098728603348931077 0 0.03362760941764812 0.1178372469539659 0 0.02516937327537851 0.1095970322515526 0 0.018053783382500171 0.11156864391392 0 0.02516937327537851 0.1095970322515526 0 0.017364834390288891 0.104818257677901 0 0.01143381413673941 0.084398489643994767 0 0.017364834390288891 0.104818257677901 0 0.0068942148593057039 0.1017115207403928 0 0.017364834390288891 0.104818257677901 0 0.0068942148593057039 0.1017115207403928 0 0.0031323813082702861 0.1109079120068638 0 0.017364834390288891 0.104818257677901 0 0.0031323813082702861 0.1109079120068638 0 -7.6700219940714371e-05 0.095538716507578794 0 0.01143381413673941 0.084398489643994767 0 0.0068942148593057039 0.1017115207403928 0 -1.082451211425074e-05 0.110129527180838 0 0.0068942148593057039 0.1017115207403928 0 0.0031323813082702861 0.1109079120068638 0 -1.082451211425074e-05 0.110129527180838 0 -7.6700219940714371e-05 0.095538716507578794 0 0.0068942148593057039 0.1017115207403928 0 -1.082451211425074e-05 0.110129527180838 0 0.0031323813082702861 0.1109079120068638 0 0.0013847876652264049 0.1116556566951655 0 0.0031323813082702861 0.1109079120068638 0 0.0096921142713058961 0.1125323670673917 0 0.0013847876652264049 0.1116556566951655 0 0.0089631825004011737 0.12739947559840609 0 0.019435158557195829 0.131394094213829 0 0.0013847876652264049 0.1116556566951655 0 0.0096921142713058961 0.1125323670673917 0 0.019435158557195829 0.131394094213829 0 -1.082451211425074e-05 0.110129527180838 0 0.0013847876652264049 0.1116556566951655 0 0.0031323813082702861 0.1109079120068638 0 0.0013847876652264049 0.1116556566951655 0 0.0011377236739010311 0.12124401978785319 0 0.0089631825004011737 0.12739947559840609 0 0.0013847876652264049 0.1116556566951655 0 0.019435158557195829 0.131394094213829 0 -1.082451211425074e-05 0.110129527180838 0 0.0013847876652264049 0.1116556566951655 0 0.0013847876652264049 0.1116556566951655 0 0.0031323813082702861 0.1109079120068638 0 0.0031323813082702861 0.1109079120068638 0 0.0096921142713058961 0.1125323670673917 0 0.018053783382500171 0.11156864391392 0 0.017364834390288891 0.104818257677901 0 0.0096921142713058961 0.1125323670673917 0 0.017364834390288891 0.104818257677901 0 0.0031323813082702861 0.1109079120068638 0 0.0096921142713058961 0.1125323670673917 0 -0.0021765999405103219 0.1261647660836111 0 0.0011377236739010311 0.12124401978785319 0 0.0089631825004011737 0.12739947559840609 0 -0.00050582028833272958 0.13475683345702161 0 -0.0021765999405103219 0.1261647660836111 0 0.0089631825004011737 0.12739947559840609 0 -0.00050582028833272958 0.13475683345702161 0 0.0075764544325840778 0.13793477874368321 0 0.0034110226586233209 0.14730426193922841 0 -0.00050582028833272958 0.13475683345702161 0 0.0075764544325840778 0.13793477874368321 0 0.0089631825004011737 0.12739947559840609 0 0.0075764544325840778 0.13793477874368321 0 0.019435158557195829 0.131394094213829 0 0.013316202585078081 0.14403864839958369 0 0.0075764544325840778 0.13793477874368321 0 0.0089631825004011737 0.12739947559840609 0 0.019435158557195829 0.131394094213829 0 0.019435158557195829 0.131394094213829 0 0.036785775648726447 0.13364988719436069 0 0.037485529449164147 0.1511325317324935 0 0.019435158557195829 0.131394094213829 0 0.027555749754072319 0.12545937483733419 0 0.036785775648726447 0.13364988719436069 0 0.020374455392718899 0.1189562709871814 0 0.019435158557195829 0.131394094213829 0 0.027555749754072319 0.12545937483733419 0 0.019435158557195829 0.131394094213829 0 0.02346975254983805 0.14272684429549201 0 0.013316202585078081 0.14403864839958369 0 0.02346975254983805 0.14272684429549201 0 0.026268058323938009 0.16640698942823509 0 0.019435158557195829 0.131394094213829 0 0.02346975254983805 0.14272684429549201 0 0.037485529449164147 0.1511325317324935 0 0.019435158557195829 0.131394094213829 0 0.037485529449164147 0.1511325317324935 0 0.02346975254983805 0.14272684429549201 0 0.026268058323938009 0.16640698942823509 0 0.037485529449164147 0.1511325317324935 0 0.02346975254983805 0.14272684429549201 0 0.012379566589688419 0.15684988960345511 0 0.026268058323938009 0.16640698942823509 0 0.02346975254983805 0.14272684429549201 0 0.013316202585078081 0.14403864839958369 0 0.012379566589688419 0.15684988960345511 0 0.013316202585078081 0.14403864839958369 0 0.0034110226586233209 0.14730426193922841 0 0.012379566589688419 0.15684988960345511 0 0.0075764544325840778 0.13793477874368321 0 0.013316202585078081 0.14403864839958369 0 0.0034110226586233209 0.14730426193922841 0 -0.0030800709361894218 0.16855854748872559 0 0.014171313402420459 0.16795532872544319 0 0.012379566589688419 0.15684988960345511 0 -0.0030800709361894218 0.16855854748872559 0 0.0034110226586233209 0.14730426193922841 0 0.012379566589688419 0.15684988960345511 0 -0.0030800709361894218 0.16855854748872559 0 0.014171313402420459 0.16795532872544319 0 0.01291409546683887 0.1801998975354919 0 -0.0030800709361894218 0.16855854748872559 0 0.01291409546683887 0.1801998975354919 0 0.0022543291610422288 0.19737710509633699 0 0.01291409546683887 0.1801998975354919 0 0.026268058323938009 0.16640698942823509 0 0.02906636409803796 0.1900871345609782 0 0.026268058323938009 0.16640698942823509 0 0.02906636409803796 0.1900871345609782 0 0.014171313402420459 0.16795532872544319 0 0.012379566589688419 0.15684988960345511 0 0.026268058323938009 0.16640698942823509 0 0.014171313402420459 0.16795532872544319 0 0.01291409546683887 0.1801998975354919 0 0.026268058323938009 0.16640698942823509 0 0.055535900341132483 0.17087096925115799 0 0.037485529449164147 0.1511325317324935 0 0.039398819970999407 0.17686072638101161 0 0.055535900341132483 0.17087096925115799 0 0.037485529449164147 0.1511325317324935 0 0.026268058323938009 0.16640698942823509 0 0.039398819970999407 0.17686072638101161 0 0.037485529449164147 0.1511325317324935 0 0.039398819970999407 0.17686072638101161 0 0.051999156321395137 0.1864946249474313 0 0.04026278197947359 0.1936223219899533 0 0.026268058323938009 0.16640698942823509 0 0.039398819970999407 0.17686072638101161 0 0.02906636409803796 0.1900871345609782 0 0.039398819970999407 0.17686072638101161 0 0.02906636409803796 0.1900871345609782 0 0.04026278197947359 0.1936223219899533 0 0.051999156321395137 0.1864946249474313 0 0.055535900341132483 0.17087096925115799 0 0.069621571889774192 0.19156097313915099 0 0.039398819970999407 0.17686072638101161 0 0.051999156321395137 0.1864946249474313 0 0.055535900341132483 0.17087096925115799 0 0.055535900341132483 0.17087096925115799 0 0.054257347200349602 0.14273318715532859 0 0.072875447700767482 0.14799299783675979 0 0.055535900341132483 0.17087096925115799 0 0.054257347200349602 0.14273318715532859 0 0.037485529449164147 0.1511325317324935 0 0.054257347200349602 0.14273318715532859 0 0.05017281878973405 0.12769214728720851 0 0.036785775648726447 0.13364988719436069 0 0.054257347200349602 0.14273318715532859 0 0.05017281878973405 0.12769214728720851 0 0.072147799813927813 0.12754771814021421 0 0.03362760941764812 0.1178372469539659 0 0.05017281878973405 0.12769214728720851 0 0.036785775648726447 0.13364988719436069 0 0.03362760941764812 0.1178372469539659 0 0.027555749754072319 0.12545937483733419 0 0.036785775648726447 0.13364988719436069 0 0.054257347200349602 0.14273318715532859 0 0.036785775648726447 0.13364988719436069 0 0.037485529449164147 0.1511325317324935 0 0.01783618429578343 0.24178475361634291 0 0.035454524191713091 0.24414575801434821 0 0.011661289615996171 0.25874742390333422 0 0.027384570021857971 0.2365899907842372 0 0.01783618429578343 0.24178475361634291 0 0.035454524191713091 0.24414575801434821 0 0.027384570021857971 0.2365899907842372 0 0.01783618429578343 0.24178475361634291 0 0.02258797456800762 0.23147293265222321 0 0.01783618429578343 0.24178475361634291 0 0.015550651078635149 0.2335243620383515 0 0.02258797456800762 0.23147293265222321 0 0.01783618429578343 0.24178475361634291 0 0.0094796647212243238 0.2453179539612251 0 0.011661289615996171 0.25874742390333422 0 0.0094796647212243238 0.2453179539612251 0 0.00025641157241185561 0.2444175911446678 0 0.011661289615996171 0.25874742390333422 0 0.0094796647212243238 0.2453179539612251 0 0.00025641157241185561 0.2444175911446678 0 0.0081647734007057673 0.2363220471805553 0 -0.0046373257720508836 0.23526814971484741 0 0.00025641157241185561 0.2444175911446678 0 0.0081647734007057673 0.2363220471805553 0 0.01783618429578343 0.24178475361634291 0 0.0081647734007057673 0.2363220471805553 0 0.015550651078635149 0.2335243620383515 0 0.01783618429578343 0.24178475361634291 0 0.0094796647212243238 0.2453179539612251 0 0.0081647734007057673 0.2363220471805553 0 -0.0046373257720508836 0.23526814971484741 0 0.0081647734007057673 0.2363220471805553 0 0.01361367205004378 0.22451771470428461 0 0.0075887292582739307 0.2261956627039487 0 0.01361367205004378 0.22451771470428461 0 0.01593860613082735 0.2075971882153021 0 0.0081647734007057673 0.2363220471805553 0 0.015550651078635149 0.2335243620383515 0 0.01361367205004378 0.22451771470428461 0 -0.0046373257720508836 0.23526814971484741 0 0.0075887292582739307 0.2261956627039487 0 0.01361367205004378 0.22451771470428461 0 -0.0046373257720508836 0.23526814971484741 0 0.01361367205004378 0.22451771470428461 0 0.01361367205004378 0.22451771470428461 0 0.031864669872138138 0.2137672796937212 0 0.01361367205004378 0.22451771470428461 0 0.02258797456800762 0.23147293265222321 0 0.031864669872138138 0.2137672796937212 0 0.02258797456800762 0.23147293265222321 0 0.031864669872138138 0.2137672796937212 0 0.03365959703192626 0.2289565188540347 0 0.015550651078635149 0.2335243620383515 0 0.01361367205004378 0.22451771470428461 0 0.02258797456800762 0.23147293265222321 0 0.027384570021857971 0.2365899907842372 0 0.02258797456800762 0.23147293265222321 0 0.03365959703192626 0.2289565188540347 0 0.01593860613082735 0.2075971882153021 0 0.02906636409803796 0.1900871345609782 0 0.031864669872138138 0.2137672796937212 0 0.01361367205004378 0.22451771470428461 0 0.01593860613082735 0.2075971882153021 0 0.031864669872138138 0.2137672796937212 0 0.0075887292582739307 0.2261956627039487 0 0.0022543291610422288 0.19737710509633699 0 -0.0058843016075920407 0.2201006000927504 0 0.0075887292582739307 0.2261956627039487 0 0.0022543291610422288 0.19737710509633699 0 0.0075887292582739307 0.2261956627039487 0 0.01593860613082735 0.2075971882153021 0 0.0022543291610422288 0.19737710509633699 0 0.01593860613082735 0.2075971882153021 0 0.0022543291610422288 0.19737710509633699 0 0.01546913876039528 0.19364124211059969 0 0.01291409546683887 0.1801998975354919 0 0.0022543291610422288 0.19737710509633699 0 0.01546913876039528 0.19364124211059969 0 0.02906636409803796 0.1900871345609782 0 0.031864669872138138 0.2137672796937212 0 0.01291409546683887 0.1801998975354919 0 0.01546913876039528 0.19364124211059969 0 0.02906636409803796 0.1900871345609782 0 0.01593860613082735 0.2075971882153021 0 0.01546913876039528 0.19364124211059969 0 0.02906636409803796 0.1900871345609782 0 0.02906636409803796 0.1900871345609782 0 0.037420948035081732 0.20148285125642071 0 0.031864669872138138 0.2137672796937212 0 0.02906636409803796 0.1900871345609782 0 0.037420948035081732 0.20148285125642071 0 0.04026278197947359 0.1936223219899533 0 0.037420948035081732 0.20148285125642071 0 0.04026278197947359 0.1936223219899533 0 0.048454354553734043 0.2039954124920664 0 0.04026278197947359 0.1936223219899533 0 0.048454354553734043 0.2039954124920664 0 0.04026278197947359 0.1936223219899533 0 0.049157872168549797 0.19527133048227391 0 0.048454354553734043 0.2039954124920664 0 0.057119436671306451 0.19889139554602331 0 0.058220829842292827 0.21636282194079859 0 0.069621571889774192 0.19156097313915099 0 0.051999156321395137 0.1864946249474313 0 0.057119436671306451 0.19889139554602331 0 0.069621571889774192 0.19156097313915099 0 0.051999156321395137 0.1864946249474313 0 0.049157872168549797 0.19527133048227391 0 0.057119436671306451 0.19889139554602331 0 0.051999156321395137 0.1864946249474313 0 0.04026278197947359 0.1936223219899533 0 0.049157872168549797 0.19527133048227391 0 0.057119436671306451 0.19889139554602331 0 0.048454354553734043 0.2039954124920664 0 0.049157872168549797 0.19527133048227391 0 0.057119436671306451 0.19889139554602331 0 0.048454354553734043 0.2039954124920664 0 0.048454354553734043 0.2039954124920664 0 0.058220829842292827 0.21636282194079859 0 0.057119436671306451 0.19889139554602331 0 0.048454354553734043 0.2039954124920664 0 0.058220829842292827 0.21636282194079859 0 0.048454354553734043 0.2039954124920664 0 0.058220829842292827 0.21636282194079859 0 0.044315358942415728 0.21973669970948989 0 0.037420948035081732 0.20148285125642071 0 0.048454354553734043 0.2039954124920664 0 0.031864669872138138 0.2137672796937212 0 0.048454354553734043 0.2039954124920664 0 0.031864669872138138 0.2137672796937212 0 0.048454354553734043 0.2039954124920664 0 0.031864669872138138 0.2137672796937212 0 0.044315358942415728 0.21973669970948989 0 0.03365959703192626 0.2289565188540347 0 0.044315358942415728 0.21973669970948989 0 0.049377343411986969 0.23560146556682859 0 0.031864669872138138 0.2137672796937212 0 0.03365959703192626 0.2289565188540347 0 0.031864669872138138 0.2137672796937212 0 0.03365959703192626 0.2289565188540347 0 0.044315358942415728 0.21973669970948989 0 0.058220829842292827 0.21636282194079859 0 0.049377343411986969 0.23560146556682859 0 0.058220829842292827 0.21636282194079859 0 0.044315358942415728 0.21973669970948989 0 0.049377343411986969 0.23560146556682859 0 0.049377343411986969 0.23560146556682859 0 0.065567355998735782 0.2256658196260499 0 0.058220829842292827 0.21636282194079859 0 0.049377343411986969 0.23560146556682859 0 0.065567355998735782 0.2256658196260499 0 0.058220829842292827 0.21636282194079859 0 0.065567355998735782 0.2256658196260499 0 0.049377343411986969 0.23560146556682859 0 0.064467597566433915 0.24364588173666449 0 0.054093566260952693 0.25342043896232558 0 0.049377343411986969 0.23560146556682859 0 0.064467597566433915 0.24364588173666449 0 0.065567355998735782 0.2256658196260499 0 0.049377343411986969 0.23560146556682859 0 0.037498582635510092 0.26144322459462349 0 0.03365959703192626 0.2289565188540347 0 0.049377343411986969 0.23560146556682859 0 0.035454524191713091 0.24414575801434821 0 0.049377343411986969 0.23560146556682859 0 0.035454524191713091 0.24414575801434821 0 0.037498582635510092 0.26144322459462349 0 0.049377343411986969 0.23560146556682859 0 0.035454524191713091 0.24414575801434821 0 0.027384570021857971 0.2365899907842372 0 0.03365959703192626 0.2289565188540347 0 0.035454524191713091 0.24414575801434821 0 0.03365959703192626 0.2289565188540347 0 0.035454524191713091 0.24414575801434821 0 0.080862117712585391 0.24503376711448999 0 0.098809015733575423 0.24200510429684871 0 0.090776082056322371 0.25758794379302458 0 0.080862117712585391 0.24503376711448999 0 0.091568685080925791 0.22603856045458179 0 0.098809015733575423 0.24200510429684871 0 0.080862117712585391 0.24503376711448999 0 0.091568685080925791 0.22603856045458179 0 0.080862117712585391 0.24503376711448999 0 0.065567355998735782 0.2256658196260499 0 0.080862117712585391 0.24503376711448999 0 0.064467597566433915 0.24364588173666449 0 0.065567355998735782 0.2256658196260499 0 0.080862117712585391 0.24503376711448999 0 0.065567355998735782 0.2256658196260499 0 0.07906191899845634 0.23055695588978781 0 0.058220829842292827 0.21636282194079859 0 0.065567355998735782 0.2256658196260499 0 0.067365109638606452 0.21734988967453231 0 0.065567355998735782 0.2256658196260499 0 0.074877830650976335 0.2199520760949914 0 0.067365109638606452 0.21734988967453231 0 0.065567355998735782 0.2256658196260499 0 0.074877830650976335 0.2199520760949914 0 0.065567355998735782 0.2256658196260499 0 0.074877830650976335 0.2199520760949914 0 0.07906191899845634 0.23055695588978781 0 0.074877830650976335 0.2199520760949914 0 0.091568685080925791 0.22603856045458179 0 0.07906191899845634 0.23055695588978781 0 0.080862117712585391 0.24503376711448999 0 0.091568685080925791 0.22603856045458179 0 0.07906191899845634 0.23055695588978781 0 0.074877830650976335 0.2199520760949914 0 0.091568685080925791 0.22603856045458179 0 0.085529516108492326 0.21217108991568129 0 0.091568685080925791 0.22603856045458179 0 0.085529516108492326 0.21217108991568129 0 0.1022752524492662 0.20704335379467359 0 0.085529516108492326 0.21217108991568129 0 0.085600305056942549 0.19834392947819851 0 0.1022752524492662 0.20704335379467359 0 0.085529516108492326 0.21217108991568129 0 0.070794422062420287 0.20741884103628949 0 0.085600305056942549 0.19834392947819851 0 0.058220829842292827 0.21636282194079859 0 0.069621571889774192 0.19156097313915099 0 0.058220829842292827 0.21636282194079859 0 0.070794422062420287 0.20741884103628949 0 0.069621571889774192 0.19156097313915099 0 0.074877830650976335 0.2199520760949914 0 0.067365109638606452 0.21734988967453231 0 0.070794422062420287 0.20741884103628949 0 0.074877830650976335 0.2199520760949914 0 0.085529516108492326 0.21217108991568129 0 0.070794422062420287 0.20741884103628949 0 0.058220829842292827 0.21636282194079859 0 0.067365109638606452 0.21734988967453231 0 0.070794422062420287 0.20741884103628949 0 0.070794422062420287 0.20741884103628949 0 0.069621571889774192 0.19156097313915099 0 0.085600305056942549 0.19834392947819851 0 0.069621571889774192 0.19156097313915099 0 0.085600305056942549 0.19834392947819851 0 0.083860213430752603 0.18308486178259489 0 0.085600305056942549 0.19834392947819851 0 0.1022752524492662 0.20704335379467359 0 0.098891789409547237 0.18088254872055939 0 0.1022752524492662 0.20704335379467359 0 0.098891789409547237 0.18088254872055939 0 0.1205306985272637 0.18687481413799781 0 0.12022877654462311 0.21226719799488411 0 0.1022752524492662 0.20704335379467359 0 0.1205306985272637 0.18687481413799781 0 0.12022877654462311 0.21226719799488411 0 0.1205306985272637 0.18687481413799781 0 0.13414938928777109 0.20287579408897721 0 0.12022877654462311 0.21226719799488411 0 0.1022752524492662 0.20704335379467359 0 0.1079056287771081 0.22825516921155001 0 0.091568685080925791 0.22603856045458179 0 0.1022752524492662 0.20704335379467359 0 0.091568685080925791 0.22603856045458179 0 0.1079056287771081 0.22825516921155001 0 0.098809015733575423 0.24200510429684871 0 0.091568685080925791 0.22603856045458179 0 0.1022752524492662 0.20704335379467359 0 0.1079056287771081 0.22825516921155001 0 0.12022877654462311 0.21226719799488411 0 0.1079056287771081 0.22825516921155001 0 0.1243699455848702 0.22911269808414619 0 0.1243699455848702 0.22911269808414619 0 0.1137515467441851 0.25117427422785621 0 0.1079056287771081 0.22825516921155001 0 0.1243699455848702 0.22911269808414619 0 0.1137515467441851 0.25117427422785621 0 0.1243699455848702 0.22911269808414619 0 0.1137515467441851 0.25117427422785621 0 0.12718964802754559 0.25558260565864382 0 0.098809015733575423 0.24200510429684871 0 0.1137515467441851 0.25117427422785621 0 0.10210513609367131 0.25381268124961281 0 0.1079056287771081 0.22825516921155001 0 0.098809015733575423 0.24200510429684871 0 0.1137515467441851 0.25117427422785621 0 0.092423055984738711 0.14195727553585691 0 0.072875447700767482 0.14799299783675979 0 0.081022313937257145 0.16675912433750431 0 0.092423055984738711 0.14195727553585691 0 0.081022313937257145 0.16675912433750431 0 0.092423055984738711 0.14195727553585691 0 0.088161193400792981 0.12894397324184961 0 0.09441750539849128 0.1301322900914077 0 0.092423055984738711 0.14195727553585691 0 0.072147799813927813 0.12754771814021421 0 0.072875447700767482 0.14799299783675979 0 0.092423055984738711 0.14195727553585691 0 0.072147799813927813 0.12754771814021421 0 0.092423055984738711 0.14195727553585691 0 0.088161193400792981 0.12894397324184961 0 0.072147799813927813 0.12754771814021421 0 0.095101003301700029 0.12008882466627049 0 0.088161193400792981 0.12894397324184961 0 0.09441750539849128 0.1301322900914077 0 0.054257347200349602 0.14273318715532859 0 0.072147799813927813 0.12754771814021421 0 0.072875447700767482 0.14799299783675979 0 0.055535900341132483 0.17087096925115799 0 0.072875447700767482 0.14799299783675979 0 0.081022313937257145 0.16675912433750431 0 0.055535900341132483 0.17087096925115799 0 0.069621571889774192 0.19156097313915099 0 0.081022313937257145 0.16675912433750431 0 0.069621571889774192 0.19156097313915099 0 0.081022313937257145 0.16675912433750431 0 0.083860213430752603 0.18308486178259489 0 0.081022313937257145 0.16675912433750431 0 0.098891789409547237 0.18088254872055939 0 0.085600305056942549 0.19834392947819851 0 0.083860213430752603 0.18308486178259489 0 0.098891789409547237 0.18088254872055939 0 0.069621571889774192 0.19156097313915099 0 0.083860213430752603 0.18308486178259489 0 0.081022313937257145 0.16675912433750431 0 0.092423055984738711 0.14195727553585691 0 0.081022313937257145 0.16675912433750431 0 0.098083559531837589 0.16209481327236819 0 0.081022313937257145 0.16675912433750431 0 0.098083559531837589 0.16209481327236819 0 0.098891789409547237 0.18088254872055939 0 0.098083559531837589 0.16209481327236819 0 0.1099586013361382 0.16949655603654329 0 0.1082366717322604 0.1531959598625493 0 0.098083559531837589 0.16209481327236819 0 0.098891789409547237 0.18088254872055939 0 0.1099586013361382 0.16949655603654329 0 0.098891789409547237 0.18088254872055939 0 0.1205306985272637 0.18687481413799781 0 0.1099586013361382 0.16949655603654329 0 0.1205306985272637 0.18687481413799781 0 0.1099586013361382 0.16949655603654329 0 0.12405028747978231 0.16443464418924139 0 0.12405028747978231 0.16443464418924139 0 0.1082366717322604 0.1531959598625493 0 0.1099586013361382 0.16949655603654329 0 0.12405028747978231 0.16443464418924139 0 0.1082366717322604 0.1531959598625493 0 0.12002201067468771 0.14513915617819181 0 0.1082366717322604 0.1531959598625493 0 0.10347231066602421 0.139095618418002 0 0.12405028747978231 0.16443464418924139 0 0.12002201067468771 0.14513915617819181 0 0.1082366717322604 0.1531959598625493 0 0.092423055984738711 0.14195727553585691 0 0.1082366717322604 0.1531959598625493 0 0.10347231066602421 0.139095618418002 0 0.092423055984738711 0.14195727553585691 0 0.1082366717322604 0.1531959598625493 0 0.092423055984738711 0.14195727553585691 0 0.098083559531837589 0.16209481327236819 0 0.1082366717322604 0.1531959598625493 0 0.095101003301700029 0.12008882466627049 0 0.1013540510112672 0.1282313823213678 0 0.09441750539849128 0.1301322900914077 0 0.1013540510112672 0.1282313823213678 0 0.09441750539849128 0.1301322900914077 0 0.097640554842201299 0.13438223239335911 0 0.092423055984738711 0.14195727553585691 0 0.097640554842201299 0.13438223239335911 0 0.10347231066602421 0.139095618418002 0 0.1013540510112672 0.1282313823213678 0 0.097640554842201299 0.13438223239335911 0 0.10347231066602421 0.139095618418002 0 0.092423055984738711 0.14195727553585691 0 0.09441750539849128 0.1301322900914077 0 0.097640554842201299 0.13438223239335911 0 0.1013540510112672 0.1282313823213678 0 0.10347231066602421 0.139095618418002 0 0.1132217939704926 0.13092571048270699 0 0.10703356195214619 0.1188867754661791 0 0.1013540510112672 0.1282313823213678 0 0.1132217939704926 0.13092571048270699 0 0.12002201067468771 0.14513915617819181 0 0.10347231066602421 0.139095618418002 0 0.1132217939704926 0.13092571048270699 0 0.12002201067468771 0.14513915617819181 0 0.1132217939704926 0.13092571048270699 0 0.12745153169982679 0.130372701635767 0 0.12040158611293281 0.11615033297019051 0 0.1132217939704926 0.13092571048270699 0 0.12745153169982679 0.130372701635767 0 0.12002201067468771 0.14513915617819181 0 0.12745153169982679 0.130372701635767 0 0.1348035788590792 0.14209794290752639 0 0.13992988079229421 0.1303042364976838 0 0.14455724954113819 0.13884523735587079 0 0.1348035788590792 0.14209794290752639 0 0.12745153169982679 0.130372701635767 0 0.13992988079229421 0.1303042364976838 0 0.1348035788590792 0.14209794290752639 0 0.12745153169982679 0.130372701635767 0 0.13992988079229421 0.1303042364976838 0 0.1366968141427829 0.11764552692584521 0 0.13992988079229421 0.1303042364976838 0 0.15148596212982901 0.13207909711640509 0 0.15182239859644039 0.1211205803980515 0 0.13992988079229421 0.1303042364976838 0 0.14455724954113819 0.13884523735587079 0 0.15148596212982901 0.13207909711640509 0 0.14455724954113819 0.13884523735587079 0 0.15148596212982901 0.13207909711640509 0 0.1534800781112832 0.14079351900422329 0 0.14506676597553089 0.14871240868595401 0 0.14719477647642121 0.15970626143221031 0 0.1575600577396912 0.15218709437043759 0 0.1534800781112832 0.14079351900422329 0 0.14506676597553089 0.14871240868595401 0 0.1575600577396912 0.15218709437043759 0 0.14455724954113819 0.13884523735587079 0 0.1534800781112832 0.14079351900422329 0 0.14506676597553089 0.14871240868595401 0 0.14455724954113819 0.13884523735587079 0 0.14506676597553089 0.14871240868595401 0 0.1348035788590792 0.14209794290752639 0 0.14506676597553089 0.14871240868595401 0 0.13930517654461119 0.16000532210282181 0 0.14719477647642121 0.15970626143221031 0 0.12405028747978231 0.16443464418924139 0 0.12002201067468771 0.14513915617819181 0 0.13102042843477749 0.15310672572639719 0 0.14506676597553089 0.14871240868595401 0 0.13102042843477749 0.15310672572639719 0 0.13930517654461119 0.16000532210282181 0 0.14506676597553089 0.14871240868595401 0 0.1348035788590792 0.14209794290752639 0 0.13102042843477749 0.15310672572639719 0 0.12002201067468771 0.14513915617819181 0 0.1348035788590792 0.14209794290752639 0 0.13102042843477749 0.15310672572639719 0 0.12405028747978231 0.16443464418924139 0 0.13930517654461119 0.16000532210282181 0 0.14684710564585141 0.17792022056962761 0 0.12405028747978231 0.16443464418924139 0 0.13102042843477749 0.15310672572639719 0 0.13930517654461119 0.16000532210282181 0 0.1205306985272637 0.18687481413799781 0 0.12405028747978231 0.16443464418924139 0 0.14684710564585141 0.17792022056962761 0 0.14684710564585141 0.17792022056962761 0 0.1575600577396912 0.15218709437043759 0 0.14684710564585141 0.17792022056962761 0 0.14719477647642121 0.15970626143221031 0 0.1575600577396912 0.15218709437043759 0 0.14684710564585141 0.17792022056962761 0 0.16213331159102179 0.1572462135503408 0 0.1575600577396912 0.15218709437043759 0 0.13930517654461119 0.16000532210282181 0 0.14684710564585141 0.17792022056962761 0 0.14719477647642121 0.15970626143221031 0 0.14684710564585141 0.17792022056962761 0 0.16213331159102179 0.1572462135503408 0 0.16148739797411901 0.17275688646178591 0 0.16213331159102179 0.1572462135503408 0 0.1679500871828008 0.16396714838247639 0 0.16148739797411901 0.17275688646178591 0 0.1679500871828008 0.16396714838247639 0 0.16148739797411901 0.17275688646178591 0 0.17590304706145521 0.16699604972072801 0 0.16213331159102179 0.1572462135503408 0 0.1679500871828008 0.16396714838247639 0 0.17227659210460719 0.1588694437970509 0 0.14684710564585141 0.17792022056962761 0 0.16148739797411901 0.17275688646178591 0 0.16388738760419899 0.1910840885877173 0 0.16148739797411901 0.17275688646178591 0 0.17068203103025431 0.1807238815478994 0 0.16388738760419899 0.1910840885877173 0 0.16148739797411901 0.17275688646178591 0 0.17068203103025431 0.1807238815478994 0 0.17590304706145521 0.16699604972072801 0 0.17068203103025431 0.1807238815478994 0 0.17590304706145521 0.16699604972072801 0 0.1814502914812437 0.19205850142136641 0 0.17590304706145521 0.16699604972072801 0 0.1814502914812437 0.19205850142136641 0 0.17590304706145521 0.16699604972072801 0 0.18395944280905219 0.17062255357358341 0 0.1814502914812437 0.19205850142136641 0 0.1679500871828008 0.16396714838247639 0 0.17227659210460719 0.1588694437970509 0 0.17590304706145521 0.16699604972072801 0 0.17227659210460719 0.1588694437970509 0 0.1840525749420126 0.1596536335745162 0 0.1786016205448224 0.1522911616028324 0 0.17227659210460719 0.1588694437970509 0 0.17590304706145521 0.16699604972072801 0 0.1840525749420126 0.1596536335745162 0 0.17590304706145521 0.16699604972072801 0 0.18395944280905219 0.17062255357358341 0 0.1840525749420126 0.1596536335745162 0 0.1840525749420126 0.1596536335745162 0 0.1786016205448224 0.1522911616028324 0 0.1916027819747167 0.15052124605587111 0 0.17227659210460719 0.1588694437970509 0 0.1786016205448224 0.1522911616028324 0 0.17026179811834671 0.1505457432548391 0 0.1786016205448224 0.1522911616028324 0 0.17736252623210841 0.1397596215504403 0 0.17026179811834671 0.1505457432548391 0 0.1786016205448224 0.1522911616028324 0 0.17736252623210841 0.1397596215504403 0 0.1916027819747167 0.15052124605587111 0 0.17736252623210841 0.1397596215504403 0 0.19032697245153071 0.13807398665283979 0 0.1916027819747167 0.15052124605587111 0 0.18050059203257809 0.12859200875656049 0 0.17736252623210841 0.1397596215504403 0 0.19032697245153071 0.13807398665283979 0 0.18050059203257809 0.12859200875656049 0 0.18964223472784081 0.12555075723795039 0 0.19032697245153071 0.13807398665283979 0 0.18050059203257809 0.12859200875656049 0 0.17736252623210841 0.1397596215504403 0 0.16827300983353069 0.12645396817124741 0 0.16827300983353069 0.12645396817124741 0 0.1575600577396912 0.15218709437043759 0 0.165203160712276 0.14185009086079409 0 0.15148596212982901 0.13207909711640509 0 0.1534800781112832 0.14079351900422329 0 0.16827300983353069 0.12645396817124741 0 0.16827300983353069 0.12645396817124741 0 0.1575600577396912 0.15218709437043759 0 0.16827300983353069 0.12645396817124741 0 0.165203160712276 0.14185009086079409 0 0.17736252623210841 0.1397596215504403 0 0.16827300983353069 0.12645396817124741 0 0.165203160712276 0.14185009086079409 0 0.15148596212982901 0.13207909711640509 0 0.16827300983353069 0.12645396817124741 0 0.15182239859644039 0.1211205803980515 0 0.1534800781112832 0.14079351900422329 0 0.16827300983353069 0.12645396817124741 0 0.1575600577396912 0.15218709437043759 0 0.16213331159102179 0.1572462135503408 0 0.165203160712276 0.14185009086079409 0 0.16213331159102179 0.1572462135503408 0 0.1575600577396912 0.15218709437043759 0 0.165203160712276 0.14185009086079409 0 0.16213331159102179 0.1572462135503408 0 0.17227659210460719 0.1588694437970509 0 0.17026179811834671 0.1505457432548391 0 0.16213331159102179 0.1572462135503408 0 0.17026179811834671 0.1505457432548391 0 0.165203160712276 0.14185009086079409 0 0.17736252623210841 0.1397596215504403 0 0.17026179811834671 0.1505457432548391 0 0.165203160712276 0.14185009086079409 0 0.14801427478578871 0.23599749252927571 0 0.16383438546809029 0.24146820258321719 0 0.15481407958858009 0.25103647706010379 0 0.14801427478578871 0.23599749252927571 0 0.15481407958858009 0.25103647706010379 0 0.1418495157944793 0.2515769229553817 0 0.1243699455848702 0.22911269808414619 0 0.14801427478578871 0.23599749252927571 0 0.1418495157944793 0.2515769229553817 0 0.1243699455848702 0.22911269808414619 0 0.1418495157944793 0.2515769229553817 0 0.12718964802754559 0.25558260565864382 0 0.1243699455848702 0.22911269808414619 0 0.14801427478578871 0.23599749252927571 0 0.14329354322360771 0.2198214941484031 0 0.12022877654462311 0.21226719799488411 0 0.1243699455848702 0.22911269808414619 0 0.14329354322360771 0.2198214941484031 0 0.14801427478578871 0.23599749252927571 0 0.14329354322360771 0.2198214941484031 0 0.16082008441067919 0.2262850279191074 0 0.14329354322360771 0.2198214941484031 0 0.14976149899803631 0.20029779820705149 0 0.160630069228752 0.20978739364053239 0 0.14329354322360771 0.2198214941484031 0 0.160630069228752 0.20978739364053239 0 0.16082008441067919 0.2262850279191074 0 0.14329354322360771 0.2198214941484031 0 0.13414938928777109 0.20287579408897721 0 0.14976149899803631 0.20029779820705149 0 0.12022877654462311 0.21226719799488411 0 0.14329354322360771 0.2198214941484031 0 0.13414938928777109 0.20287579408897721 0 0.1205306985272637 0.18687481413799781 0 0.14684710564585141 0.17792022056962761 0 0.13414938928777109 0.20287579408897721 0 0.14684710564585141 0.17792022056962761 0 0.13414938928777109 0.20287579408897721 0 0.14976149899803631 0.20029779820705149 0 0.14684710564585141 0.17792022056962761 0 0.14976149899803631 0.20029779820705149 0 0.16388738760419899 0.1910840885877173 0 0.16388738760419899 0.1910840885877173 0 0.1731151442158195 0.20575265005994769 0 0.160630069228752 0.20978739364053239 0 0.14976149899803631 0.20029779820705149 0 0.16388738760419899 0.1910840885877173 0 0.160630069228752 0.20978739364053239 0 0.17068203103025431 0.1807238815478994 0 0.16388738760419899 0.1910840885877173 0 0.1814502914812437 0.19205850142136641 0 0.16388738760419899 0.1910840885877173 0 0.1814502914812437 0.19205850142136641 0 0.1731151442158195 0.20575265005994769 0 0.1814502914812437 0.19205850142136641 0 0.18699753590103221 0.21712095312200469 0 0.1814502914812437 0.19205850142136641 0 0.1731151442158195 0.20575265005994769 0 0.18699753590103221 0.21712095312200469 0 0.1731151442158195 0.20575265005994769 0 0.18699753590103221 0.21712095312200469 0 0.17261043686387051 0.21871231352811779 0 0.17261043686387051 0.21871231352811779 0 0.160630069228752 0.20978739364053239 0 0.16082008441067919 0.2262850279191074 0 0.1731151442158195 0.20575265005994769 0 0.17261043686387051 0.21871231352811779 0 0.160630069228752 0.20978739364053239 0 0.16082008441067919 0.2262850279191074 0 0.17653779689396609 0.231923271085098 0 0.16383438546809029 0.24146820258321719 0 0.17261043686387051 0.21871231352811779 0 0.16082008441067919 0.2262850279191074 0 0.17653779689396609 0.231923271085098 0 0.18699753590103221 0.21712095312200469 0 0.17653779689396609 0.231923271085098 0 0.19254478032082081 0.24218340482264311 0 0.18699753590103221 0.21712095312200469 0 0.17261043686387051 0.21871231352811779 0 0.17653779689396609 0.231923271085098 0 0.17653779689396609 0.231923271085098 0 0.17921879444206859 0.24620261007394251 0 0.16383438546809029 0.24146820258321719 0 0.17653779689396609 0.231923271085098 0 0.17921879444206859 0.24620261007394251 0 0.19254478032082081 0.24218340482264311 0 0.17921879444206859 0.24620261007394251 0 0.16383438546809029 0.24146820258321719 0 0.1672854776820657 0.2555343649315398 0 0.14801427478578871 0.23599749252927571 0 0.16082008441067919 0.2262850279191074 0 0.16383438546809029 0.24146820258321719 0 0.16383438546809029 0.24146820258321719 0 0.15481407958858009 0.25103647706010379 0 0.1672854776820657 0.2555343649315398 0 0.20403877458388289 0.23662596154920609 0 0.22017669001879811 0.22289400125659051 0 0.21945357865146661 0.24681227366183089 0 0.20403877458388289 0.23662596154920609 0 0.21945357865146661 0.24681227366183089 0 0.2070283745445218 0.26444400257720568 0 0.20403877458388289 0.23662596154920609 0 0.19254478032082081 0.24218340482264311 0 0.1933037249596386 0.25517305367437881 0 0.17921879444206859 0.24620261007394251 0 0.19254478032082081 0.24218340482264311 0 0.1933037249596386 0.25517305367437881 0 0.20403877458388289 0.23662596154920609 0 0.2010491746232439 0.20880792052120639 0 0.18699753590103221 0.21712095312200469 0 0.19254478032082081 0.24218340482264311 0 0.18699753590103221 0.21712095312200469 0 0.20403877458388289 0.23662596154920609 0 0.19254478032082081 0.24218340482264311 0 0.18699753590103221 0.21712095312200469 0 0.20403877458388289 0.23662596154920609 0 0.2010491746232439 0.20880792052120639 0 0.20403877458388289 0.23662596154920609 0 0.2010491746232439 0.20880792052120639 0 0.22017669001879811 0.22289400125659051 0 0.2010491746232439 0.20880792052120639 0 0.2181541425378041 0.19576470121401809 0 0.22017669001879811 0.22289400125659051 0 0.1814502914812437 0.19205850142136641 0 0.18699753590103221 0.21712095312200469 0 0.2010491746232439 0.20880792052120639 0 0.2010491746232439 0.20880792052120639 0 0.19805957466260499 0.1809898794932068 0 0.1814502914812437 0.19205850142136641 0 0.2010491746232439 0.20880792052120639 0 0.19805957466260499 0.1809898794932068 0 0.2181541425378041 0.19576470121401809 0 0.19805957466260499 0.1809898794932068 0 0.2010491746232439 0.20880792052120639 0 0.2181541425378041 0.19576470121401809 0 0.19805957466260499 0.1809898794932068 0 0.2181541425378041 0.19576470121401809 0 0.2347743025617276 0.1880413998335238 0 0.23824871041300311 0.2105395229348295 0 0.2347743025617276 0.1880413998335238 0 0.23824871041300311 0.2105395229348295 0 0.25646399019725108 0.1864920119192599 0 0.23824871041300311 0.2105395229348295 0 0.25834327828820208 0.2253143446556409 0 0.2181541425378041 0.19576470121401809 0 0.23824871041300311 0.2105395229348295 0 0.22017669001879811 0.22289400125659051 0 0.2181541425378041 0.19576470121401809 0 0.23824871041300311 0.2105395229348295 0 0.23824871041300311 0.2105395229348295 0 0.22017669001879811 0.22289400125659051 0 0.2401157593033883 0.23881362765845221 0 0.23824871041300311 0.2105395229348295 0 0.2401157593033883 0.23881362765845221 0 0.25834327828820208 0.2253143446556409 0 0.2401157593033883 0.23881362765845221 0 0.21945357865146661 0.24681227366183089 0 0.22990438441804159 0.26204899895721889 0 0.22017669001879811 0.22289400125659051 0 0.2401157593033883 0.23881362765845221 0 0.21945357865146661 0.24681227366183089 0 0.20718617751128099 0.14760081102070499 0 0.2262426795328791 0.15226500907701929 0 0.2196563330940802 0.13732385444478579 0 0.20718617751128099 0.14760081102070499 0 0.2032234525727267 0.13137829695988881 0 0.2196563330940802 0.13732385444478579 0 0.2032234525727267 0.13137829695988881 0 0.2196563330940802 0.13732385444478579 0 0.21520134844079261 0.12237479250710839 0 0.20718617751128099 0.14760081102070499 0 0.2032234525727267 0.13137829695988881 0 0.19032697245153071 0.13807398665283979 0 0.2032234525727267 0.13137829695988881 0 0.18964223472784081 0.12555075723795039 0 0.19032697245153071 0.13807398665283979 0 0.20718617751128099 0.14760081102070499 0 0.19032697245153071 0.13807398665283979 0 0.1916027819747167 0.15052124605587111 0 0.20718617751128099 0.14760081102070499 0 0.1916027819747167 0.15052124605587111 0 0.19607507484357331 0.16252423254622131 0 0.1840525749420126 0.1596536335745162 0 0.1916027819747167 0.15052124605587111 0 0.19607507484357331 0.16252423254622131 0 0.19607507484357331 0.16252423254622131 0 0.19805957466260499 0.1809898794932068 0 0.18395944280905219 0.17062255357358341 0 0.19607507484357331 0.16252423254622131 0 0.19805957466260499 0.1809898794932068 0 0.18395944280905219 0.17062255357358341 0 0.1840525749420126 0.1596536335745162 0 0.19607507484357331 0.16252423254622131 0 0.18395944280905219 0.17062255357358341 0 0.1814502914812437 0.19205850142136641 0 0.19805957466260499 0.1809898794932068 0 0.18395944280905219 0.17062255357358341 0 0.19805957466260499 0.1809898794932068 0 0.2181541425378041 0.19576470121401809 0 0.19805957466260499 0.1809898794932068 0 0.21734789794420581 0.17163095188774541 0 0.19607507484357331 0.16252423254622131 0 0.19805957466260499 0.1809898794932068 0 0.21734789794420581 0.17163095188774541 0 0.20718617751128099 0.14760081102070499 0 0.19607507484357331 0.16252423254622131 0 0.21734789794420581 0.17163095188774541 0 0.20718617751128099 0.14760081102070499 0 0.21734789794420581 0.17163095188774541 0 0.2262426795328791 0.15226500907701929 0 0.21734789794420581 0.17163095188774541 0 0.23928830390227551 0.169378686490951 0 0.2262426795328791 0.15226500907701929 0 0.2181541425378041 0.19576470121401809 0 0.2347743025617276 0.1880413998335238 0 0.21734789794420581 0.17163095188774541 0 0.2347743025617276 0.1880413998335238 0 0.21734789794420581 0.17163095188774541 0 0.23928830390227551 0.169378686490951 0 0.2347743025617276 0.1880413998335238 0 0.23928830390227551 0.169378686490951 0 0.25646399019725108 0.1864920119192599 0 0.23928830390227551 0.169378686490951 0 0.24388579456450971 0.14740220618073119 0 0.25785548438671752 0.16088044369486229 0 0.23928830390227551 0.169378686490951 0 0.24388579456450971 0.14740220618073119 0 0.2262426795328791 0.15226500907701929 0 0.24388579456450971 0.14740220618073119 0 0.2262426795328791 0.15226500907701929 0 0.23475463197675239 0.13177553726517521 0 0.2196563330940802 0.13732385444478579 0 0.23475463197675239 0.13177553726517521 0 0.21520134844079261 0.12237479250710839 0 0.2262426795328791 0.15226500907701929 0 0.2196563330940802 0.13732385444478579 0 0.23475463197675239 0.13177553726517521 0 0.24388579456450971 0.14740220618073119 0 0.23475463197675239 0.13177553726517521 0 0.25348707159790929 0.12593482401944561 0 0.23475463197675239 0.13177553726517521 0 0.2341146536305283 0.1072641601525247 0 0.25348707159790929 0.12593482401944561 0 0.2341146536305283 0.1072641601525247 0 0.25939176971171429 0.1084857991624279 0 0.25348707159790929 0.12593482401944561 0 0.2341146536305283 0.1072641601525247 0 0.25302795882026369 0.092153527797940851 0 0.25939176971171429 0.1084857991624279 0 0.2341146536305283 0.1072641601525247 0 0.25302795882026369 0.092153527797940851 0 0.23247131737539881 0.094650767261970289 0 0.2341146536305283 0.1072641601525247 0 0.25302795882026369 0.092153527797940851 0 0.2341146536305283 0.1072641601525247 0 0.22022931834119919 0.093924246029182382 0 0.21210671368395609 0.1053563123410067 0 0.23247131737539881 0.094650767261970289 0 0.2341146536305283 0.1072641601525247 0 0.22022931834119919 0.093924246029182382 0 0.23475463197675239 0.13177553726517521 0 0.2341146536305283 0.1072641601525247 0 0.21520134844079261 0.12237479250710839 0 0.2341146536305283 0.1072641601525247 0 0.21520134844079261 0.12237479250710839 0 0.21210671368395609 0.1053563123410067 0 0.2341146536305283 0.1072641601525247 0 0.21520134844079261 0.12237479250710839 0 0.21520134844079261 0.12237479250710839 0 0.21210671368395609 0.1053563123410067 0 0.19604841727192041 0.1141738987279943 0 0.2032234525727267 0.13137829695988881 0 0.21520134844079261 0.12237479250710839 0 0.19604841727192041 0.1141738987279943 0 0.22022931834119919 0.093924246029182382 0 0.21210671368395609 0.1053563123410067 0 0.20666669741376331 0.093195236340673629 0 0.21210671368395609 0.1053563123410067 0 0.2001649080373899 0.10161374641635471 0 0.20666669741376331 0.093195236340673629 0 0.2001649080373899 0.10161374641635471 0 0.19085132685763551 0.10285449078708821 0 0.19604841727192041 0.1141738987279943 0 0.21210671368395609 0.1053563123410067 0 0.2001649080373899 0.10161374641635471 0 0.19604841727192041 0.1141738987279943 0 0.2001649080373899 0.10161374641635471 0 0.19560509350431121 0.092873108852744593 0 0.20666669741376331 0.093195236340673629 0 0.2001649080373899 0.10161374641635471 0 0.19085132685763551 0.10285449078708821 0 0.19560509350431121 0.092873108852744593 0 0.19085132685763551 0.10285449078708821 0 0.19560509350431121 0.092873108852744593 0 0.1871013614185244 0.094198206320541517 0 0.19085132685763551 0.10285449078708821 0 0.18539081529472121 0.10120446892657541 0 0.1871013614185244 0.094198206320541517 0 0.19085132685763551 0.10285449078708821 0 0.19604841727192041 0.1141738987279943 0 0.18536166644038479 0.10741837498015749 0 0.18964223472784081 0.12555075723795039 0 0.19604841727192041 0.1141738987279943 0 0.18016879353041679 0.11641980824415871 0 0.2032234525727267 0.13137829695988881 0 0.18964223472784081 0.12555075723795039 0 0.19604841727192041 0.1141738987279943 0 0.18954275914373159 0.075362808756910621 0 0.20017763379883199 0.049817229049742111 0 0.19967045435088071 0.069071003246295948 0 0.20880319706415121 0.069453933263755527 0 0.20017763379883199 0.049817229049742111 0 0.19967045435088071 0.069071003246295948 0 0.18954275914373159 0.075362808756910621 0 0.20017763379883199 0.049817229049742111 0 0.19967045435088071 0.069071003246295948 0 0.18954275914373159 0.075362808756910621 0 0.20015822739680819 0.081650041914775567 0 0.19967045435088071 0.069071003246295948 0 0.20015822739680819 0.081650041914775567 0 0.20880319706415121 0.069453933263755527 0 0.18954275914373159 0.075362808756910621 0 0.1931018603658439 0.086021041461243064 0 0.1871013614185244 0.094198206320541517 0 0.18954275914373159 0.075362808756910621 0 0.1931018603658439 0.086021041461243064 0 0.20015822739680819 0.081650041914775567 0 0.1931018603658439 0.086021041461243064 0 0.19560509350431121 0.092873108852744593 0 0.1871013614185244 0.094198206320541517 0 0.1931018603658439 0.086021041461243064 0 0.19560509350431121 0.092873108852744593 0 0.20015822739680819 0.081650041914775567 0 0.19560509350431121 0.092873108852744593 0 0.20015822739680819 0.081650041914775567 0 0.20666669741376331 0.093195236340673629 0 0.20015822739680819 0.081650041914775567 0 0.21173592351891571 0.083753962489978004 0 0.20880319706415121 0.069453933263755527 0 0.20015822739680819 0.081650041914775567 0 0.20666669741376331 0.093195236340673629 0 0.21173592351891571 0.083753962489978004 0 0.22022931834119919 0.093924246029182382 0 0.20666669741376331 0.093195236340673629 0 0.21173592351891571 0.083753962489978004 0 0.21173592351891571 0.083753962489978004 0 0.21858534869578311 0.074764840884803008 0 0.20880319706415121 0.069453933263755527 0 0.21858534869578311 0.074764840884803008 0 0.20880319706415121 0.069453933263755527 0 0.22064904639089969 0.065801300973049398 0 0.20880319706415121 0.069453933263755527 0 0.22064904639089969 0.065801300973049398 0 0.21355587161432821 0.055610984381535632 0 0.22064904639089969 0.065801300973049398 0 0.2256977405676949 0.071784215245341065 0 0.23166677829029109 0.06749811244737372 0 0.21858534869578311 0.074764840884803008 0 0.22064904639089969 0.065801300973049398 0 0.2256977405676949 0.071784215245341065 0 0.21858534869578311 0.074764840884803008 0 0.2256977405676949 0.071784215245341065 0 0.23342898704026649 0.078030978840413767 0 0.2256977405676949 0.071784215245341065 0 0.23342898704026649 0.078030978840413767 0 0.23166677829029109 0.06749811244737372 0 0.21173592351891571 0.083753962489978004 0 0.23342898704026649 0.078030978840413767 0 0.22709237756599279 0.083124048700918218 0 0.21173592351891571 0.083753962489978004 0 0.21858534869578311 0.074764840884803008 0 0.23342898704026649 0.078030978840413767 0 0.21173592351891571 0.083753962489978004 0 0.23342898704026649 0.078030978840413767 0 0.22022931834119919 0.093924246029182382 0 0.21173592351891571 0.083753962489978004 0 0.22709237756599279 0.083124048700918218 0 0.23247131737539881 0.094650767261970289 0 0.22022931834119919 0.093924246029182382 0 0.22709237756599279 0.083124048700918218 0 0.23247131737539881 0.094650767261970289 0 0.22709237756599279 0.083124048700918218 0 0.25302795882026369 0.092153527797940851 0 0.22709237756599279 0.083124048700918218 0 0.2446615065673213 0.081966399054467023 0 0.25302795882026369 0.092153527797940851 0 0.23342898704026649 0.078030978840413767 0 0.22709237756599279 0.083124048700918218 0 0.2446615065673213 0.081966399054467023 0 0.22709237756599279 0.083124048700918218 0 0.25302795882026369 0.092153527797940851 0 0.23342898704026649 0.078030978840413767 0 0.2446615065673213 0.081966399054467023 0 0.25512205056161769 0.072307995190851598 0 0.23342898704026649 0.078030978840413767 0 0.25512205056161769 0.072307995190851598 0 0.23342898704026649 0.078030978840413767 0 0.24074481272855949 0.070320033720290914 0 0.25512205056161769 0.072307995190851598 0 0.23166677829029109 0.06749811244737372 0 0.24074481272855949 0.070320033720290914 0 0.239705816490802 0.058657581660733343 0 0.23342898704026649 0.078030978840413767 0 0.23166677829029109 0.06749811244737372 0 0.24074481272855949 0.070320033720290914 0 0.24074481272855949 0.070320033720290914 0 0.2472584135904651 0.063122559571126363 0 0.239705816490802 0.058657581660733343 0 0.24074481272855949 0.070320033720290914 0 0.2472584135904651 0.063122559571126363 0 0.25512205056161769 0.072307995190851598 0 0.239705816490802 0.058657581660733343 0 0.2387604871699851 0.04146759110178614 0 0.25346097458088152 0.051204627712629597 0 0.239705816490802 0.058657581660733343 0 0.2387604871699851 0.04146759110178614 0 0.2266913204748654 0.052700467220299772 0 0.2472584135904651 0.063122559571126363 0 0.239705816490802 0.058657581660733343 0 0.25346097458088152 0.051204627712629597 0 0.2387604871699851 0.04146759110178614 0 0.23482482520010531 0.02410411923028 0 0.25179989860014479 0.03010126023440764 0 0.2387604871699851 0.04146759110178614 0 0.25179989860014479 0.03010126023440764 0 0.25346097458088152 0.051204627712629597 0 0.2387604871699851 0.04146759110178614 0 0.22584830947939069 0.035937664928926777 0 0.23482482520010531 0.02410411923028 0 0.2387604871699851 0.04146759110178614 0 0.22584830947939069 0.035937664928926777 0 0.2266913204748654 0.052700467220299772 0 0.22584830947939069 0.035937664928926777 0 0.2266913204748654 0.052700467220299772 0 0.21543889074778899 0.043339356798032649 0 0.22064904639089969 0.065801300973049398 0 0.23166677829029109 0.06749811244737372 0 0.2266913204748654 0.052700467220299772 0 0.22064904639089969 0.065801300973049398 0 0.2266913204748654 0.052700467220299772 0 0.21355587161432821 0.055610984381535632 0 0.23166677829029109 0.06749811244737372 0 0.239705816490802 0.058657581660733343 0 0.2266913204748654 0.052700467220299772 0 0.23220158809230651 0.0098313796889910911 0 0.25013882261941017 0.0089978927561854966 0 0.23737886222130061 -0.0060324654932160521 0 0.23482482520010531 0.02410411923028 0 0.23220158809230651 0.0098313796889910911 0 0.25013882261941017 0.0089978927561854966 0 0.23482482520010531 0.02410411923028 0 0.25179989860014479 0.03010126023440764 0 0.25013882261941017 0.0089978927561854966 0 0.23482482520010531 0.02410411923028 0 0.25013882261941017 0.0089978927561854966 0 0.22584830947939069 0.035937664928926777 0 0.23482482520010531 0.02410411923028 0 0.21081250845393229 0.02427164934257359 0 0.23482482520010531 0.02410411923028 0 0.23220158809230651 0.0098313796889910911 0 0.21081250845393229 0.02427164934257359 0 0.23220158809230651 0.0098313796889910911 0 0.21081250845393229 0.02427164934257359 0 0.22144738310903259 -0.001273930364594923 0 0.23220158809230651 0.0098313796889910911 0 0.23737886222130061 -0.0060324654932160521 0 0.22144738310903259 -0.001273930364594923 0 0.20476540551253661 0.0056324796363614749 0 0.21081250845393229 0.02427164934257359 0 0.22144738310903259 -0.001273930364594923 0 0.21081250845393229 0.02427164934257359 0 0.22144738310903259 -0.001273930364594923 0 0.20476540551253661 0.0056324796363614749 0 0.21081250845393229 0.02427164934257359 0 0.19946299363178979 0.01851168956420074 0 0.21081250845393229 0.02427164934257359 0 0.19928051085510051 0.028035596739745771 0 0.19946299363178979 0.01851168956420074 0 0.18971760422206141 0.03041771956039389 0 0.1910819940596116 0.0040222601577129102 0 0.185081011348223 0.016945059997003291 0 0.18971760422206141 0.03041771956039389 0 0.1910819940596116 0.0040222601577129102 0 0.18971760422206141 0.03041771956039389 0 0.19946299363178979 0.01851168956420074 0 0.1910819940596116 0.0040222601577129102 0 0.21081250845393229 0.02427164934257359 0 0.19928051085510051 0.028035596739745771 0 0.19766829434288749 0.03787107473110609 0 0.19928051085510051 0.028035596739745771 0 0.18971760422206141 0.03041771956039389 0 0.19946299363178979 0.01851168956420074 0 0.20476540551253661 0.0056324796363614749 0 0.19946299363178979 0.01851168956420074 0 0.1910819940596116 0.0040222601577129102 0 0.1910819940596116 0.0040222601577129102 0 0.18642616045439289 0.0083000730202181204 0 0.185081011348223 0.016945059997003291 0 0.1910819940596116 0.0040222601577129102 0 0.18682137011678149 0.0045120501424063247 0 0.18642616045439289 0.0083000730202181204 0 0.1910819940596116 0.0040222601577129102 0 0.18548413704857691 0.002143183228761612 0 0.18682137011678149 0.0045120501424063247 0 0.20476540551253661 0.0056324796363614749 0 0.1910819940596116 0.0040222601577129102 0 0.1993406012716871 -0.002825546469031011 0 0.20880319706415121 0.069453933263755527 0 0.21355587161432821 0.055610984381535632 0 0.20017763379883199 0.049817229049742111 0 0.21355587161432821 0.055610984381535632 0 0.21543889074778899 0.043339356798032649 0 0.20017763379883199 0.049817229049742111 0 0.2266913204748654 0.052700467220299772 0 0.21355587161432821 0.055610984381535632 0 0.21543889074778899 0.043339356798032649 0 0.22584830947939069 0.035937664928926777 0 0.21081250845393229 0.02427164934257359 0 0.21543889074778899 0.043339356798032649 0 0.21081250845393229 0.02427164934257359 0 0.20017763379883199 0.049817229049742111 0 0.21081250845393229 0.02427164934257359 0 0.21543889074778899 0.043339356798032649 0 0.20017763379883199 0.049817229049742111 0 0.18971760422206141 0.03041771956039389 0 0.18835321438451119 0.056813178963075091 0 0.21081250845393229 0.02427164934257359 0 0.19766829434288749 0.03787107473110609 0 0.20017763379883199 0.049817229049742111 0 0.18971760422206141 0.03041771956039389 0 0.19766829434288749 0.03787107473110609 0 0.18835321438451119 0.056813178963075091 0 0.19928051085510051 0.028035596739745771 0 0.18971760422206141 0.03041771956039389 0 0.19766829434288749 0.03787107473110609 0 0.19766829434288749 0.03787107473110609 0 0.18835321438451119 0.056813178963075091 0 0.20017763379883199 0.049817229049742111 0 0.18954275914373159 0.075362808756910621 0 0.18835321438451119 0.056813178963075091 0 0.20017763379883199 0.049817229049742111 0 0.183654433179579 0.049311974665431531 0 0.17852729206422929 0.075025972500703558 0 0.183654433179579 0.049311974665431531 0 0.17490184129669831 0.058138762719699463 0 0.18377152613468309 0.040539358821736447 0 0.183654433179579 0.049311974665431531 0 0.17490184129669831 0.058138762719699463 0 0.17852729206422929 0.075025972500703558 0 0.18835321438451119 0.056813178963075091 0 0.183654433179579 0.049311974665431531 0 0.18377152613468309 0.040539358821736447 0 0.18835321438451119 0.056813178963075091 0 0.183654433179579 0.049311974665431531 0 0.17852729206422929 0.075025972500703558 0 0.18971760422206141 0.03041771956039389 0 0.18835321438451119 0.056813178963075091 0 0.18377152613468309 0.040539358821736447 0 0.17490184129669831 0.058138762719699463 0 0.17913652066114069 0.029893943333412661 0 0.17490184129669831 0.058138762719699463 0 0.1698071243142926 0.043677331446491843 0 0.17913652066114069 0.029893943333412661 0 0.17490184129669831 0.058138762719699463 0 0.18377152613468309 0.040539358821736447 0 0.17913652066114069 0.029893943333412661 0 0.18971760422206141 0.03041771956039389 0 0.18377152613468309 0.040539358821736447 0 0.17913652066114069 0.029893943333412661 0 0.1698071243142926 0.043677331446491843 0 0.16889180592520589 0.034446874281427203 0 0.17913652066114069 0.029893943333412661 0 0.1698071243142926 0.043677331446491843 0 0.16148975498332749 0.043170127919026913 0 0.16461569870509071 0.052736948978892979 0 0.1698071243142926 0.043677331446491843 0 0.16889180592520589 0.034446874281427203 0 0.16148975498332749 0.043170127919026913 0 0.16889180592520589 0.034446874281427203 0 0.15817427390997671 0.034846895002600742 0 0.16148975498332749 0.043170127919026913 0 0.16889180592520589 0.034446874281427203 0 0.15817427390997671 0.034846895002600742 0 0.16422084513484569 0.02755722515789099 0 0.15817427390997671 0.034846895002600742 0 0.16148975498332749 0.043170127919026913 0 0.15310836590049359 0.041642704763825908 0 0.16148975498332749 0.043170127919026913 0 0.16461569870509071 0.052736948978892979 0 0.1533521138775549 0.049611256313174742 0 0.16461569870509071 0.052736948978892979 0 0.1560359016916871 0.057483049648105612 0 0.1533521138775549 0.049611256313174742 0 0.16303747342029401 0.061228573391210572 0 0.1560359016916871 0.057483049648105612 0 0.15361337597158881 0.067967096980768804 0 0.16303747342029401 0.061228573391210572 0 0.16461569870509071 0.052736948978892979 0 0.1560359016916871 0.057483049648105612 0 0.17490184129669831 0.058138762719699463 0 0.16303747342029401 0.061228573391210572 0 0.16461569870509071 0.052736948978892979 0 0.17490184129669831 0.058138762719699463 0 0.1698071243142926 0.043677331446491843 0 0.16461569870509071 0.052736948978892979 0 0.1833712000255828 0.0016491239471258491 0 0.17141324293004559 0.021167917315331242 0 0.16999004135086579 0.01150855348057651 0 0.1833712000255828 0.0016491239471258491 0 0.16999004135086579 0.01150855348057651 0 0.16991303744259839 0.0038327364357373379 0 0.1833712000255828 0.0016491239471258491 0 0.18548413704857691 0.002143183228761612 0 0.1833712000255828 0.0016491239471258491 0 0.18548413704857691 0.002143183228761612 0 0.18682137011678149 0.0045120501424063247 0 0.1833712000255828 0.0016491239471258491 0 0.18682137011678149 0.0045120501424063247 0 0.18642616045439289 0.0083000730202181204 0 0.1833712000255828 0.0016491239471258491 0 0.18642616045439289 0.0083000730202181204 0 0.185081011348223 0.016945059997003291 0 0.1833712000255828 0.0016491239471258491 0 0.185081011348223 0.016945059997003291 0 0.17913652066114069 0.029893943333412661 0 0.1833712000255828 0.0016491239471258491 0 0.17913652066114069 0.029893943333412661 0 0.17141324293004559 0.021167917315331242 0 0.1833712000255828 0.0016491239471258491 0 0.17913652066114069 0.029893943333412661 0 0.18971760422206141 0.03041771956039389 0 0.185081011348223 0.016945059997003291 0 0.17913652066114069 0.029893943333412661 0 0.16889180592520589 0.034446874281427203 0 0.17913652066114069 0.029893943333412661 0 0.17141324293004559 0.021167917315331242 0 0.16889180592520589 0.034446874281427203 0 0.16422084513484569 0.02755722515789099 0 0.17141324293004559 0.021167917315331242 0 0.16422084513484569 0.02755722515789099 0 0.15915526807925229 0.017925991191586589 0 0.1554591374130225 0.02725510119486731 0 0.15817427390997671 0.034846895002600742 0 0.16422084513484569 0.02755722515789099 0 0.1554591374130225 0.02725510119486731 0 0.16422084513484569 0.02755722515789099 0 0.15915526807925229 0.017925991191586589 0 0.17141324293004559 0.021167917315331242 0 0.15915526807925229 0.017925991191586589 0 0.17141324293004559 0.021167917315331242 0 0.16999004135086579 0.01150855348057651 0 0.1833712000255828 0.0016491239471258491 0 0.16991303744259839 0.0038327364357373379 0 0.15955581840028041 -0.0039195277493322116 0 0.15915526807925229 0.017925991191586589 0 0.16999004135086579 0.01150855348057651 0 0.16224831898233949 0.0064226172459366567 0 0.15915526807925229 0.017925991191586589 0 0.16224831898233949 0.0064226172459366567 0 0.15194517986349629 0.0092607234429129912 0 0.16224831898233949 0.0064226172459366567 0 0.16991303744259839 0.0038327364357373379 0 0.15955581840028041 -0.0039195277493322116 0 0.16224831898233949 0.0064226172459366567 0 0.15194517986349629 0.0092607234429129912 0 0.15955581840028041 -0.0039195277493322116 0 0.16999004135086579 0.01150855348057651 0 0.16224831898233949 0.0064226172459366567 0 0.16991303744259839 0.0038327364357373379 0 0.15194517986349629 0.0092607234429129912 0 0.14433454132671161 0.0224409746351578 0 0.146690628686408 -0.006927741585778832 0 0.14433454132671161 0.0224409746351578 0 0.146690628686408 -0.006927741585778832 0 0.14433454132671161 0.0224409746351578 0 0.13839024662732391 0.011626281454458339 0 0.146690628686408 -0.006927741585778832 0 0.15194517986349629 0.0092607234429129912 0 0.15955581840028041 -0.0039195277493322116 0 0.15194517986349629 0.0092607234429129912 0 0.14433454132671161 0.0224409746351578 0 0.14433454132671161 0.0224409746351578 0 0.14250899347804741 0.02560249374982498 0 0.13793526906988501 0.021289488034053471 0 0.15915526807925229 0.017925991191586589 0 0.15194517986349629 0.0092607234429129912 0 0.14433454132671161 0.0224409746351578 0 0.15915526807925229 0.017925991191586589 0 0.14433454132671161 0.0224409746351578 0 0.1554591374130225 0.02725510119486731 0 0.14433454132671161 0.0224409746351578 0 0.1554591374130225 0.02725510119486731 0 0.1501005772008801 0.034343131876497492 0 0.14433454132671161 0.0224409746351578 0 0.14250899347804741 0.02560249374982498 0 0.14250899347804741 0.02560249374982498 0 0.13551379715440959 0.02865535976725743 0 0.13641686769434741 0.038763696747575398 0 0.14250899347804741 0.02560249374982498 0 0.13551379715440959 0.02865535976725743 0 0.13793526906988501 0.021289488034053471 0 0.1289287667629318 0.018122330563568521 0 0.13793526906988501 0.021289488034053471 0 0.13839024662732391 0.011626281454458339 0 0.13551379715440959 0.02865535976725743 0 0.1289287667629318 0.018122330563568521 0 0.13793526906988501 0.021289488034053471 0 0.14433454132671161 0.0224409746351578 0 0.13793526906988501 0.021289488034053471 0 0.13839024662732391 0.011626281454458339 0 0.1289287667629318 0.018122330563568521 0 0.13583143345913551 0.0034449281708086028 0 0.12920223123400901 -0.011016980871291051 0 0.1289287667629318 0.018122330563568521 0 0.12920223123400901 -0.011016980871291051 0 0.13839024662732391 0.011626281454458339 0 0.13583143345913551 0.0034449281708086028 0 0.146690628686408 -0.006927741585778832 0 0.1289287667629318 0.018122330563568521 0 0.13839024662732391 0.011626281454458339 0 0.13583143345913551 0.0034449281708086028 0 0.1424251095307289 0.046242112707829672 0 0.14051567773474691 0.070043250780501554 0 0.14873293371928631 0.058513194052372298 0 0.1424251095307289 0.046242112707829672 0 0.14051567773474691 0.070043250780501554 0 0.14873293371928631 0.058513194052372298 0 0.1533521138775549 0.049611256313174742 0 0.1424251095307289 0.046242112707829672 0 0.1560359016916871 0.057483049648105612 0 0.14873293371928631 0.058513194052372298 0 0.15361337597158881 0.067967096980768804 0 0.1560359016916871 0.057483049648105612 0 0.14873293371928631 0.058513194052372298 0 0.1533521138775549 0.049611256313174742 0 0.16148975498332749 0.043170127919026913 0 0.1533521138775549 0.049611256313174742 0 0.15310836590049359 0.041642704763825908 0 0.15310836590049359 0.041642704763825908 0 0.1501005772008801 0.034343131876497492 0 0.1424251095307289 0.046242112707829672 0 0.1533521138775549 0.049611256313174742 0 0.15310836590049359 0.041642704763825908 0 0.1424251095307289 0.046242112707829672 0 0.14433454132671161 0.0224409746351578 0 0.1424251095307289 0.046242112707829672 0 0.14433454132671161 0.0224409746351578 0 0.14250899347804741 0.02560249374982498 0 0.1424251095307289 0.046242112707829672 0 0.14433454132671161 0.0224409746351578 0 0.1501005772008801 0.034343131876497492 0 0.1424251095307289 0.046242112707829672 0 0.15817427390997671 0.034846895002600742 0 0.1554591374130225 0.02725510119486731 0 0.1501005772008801 0.034343131876497492 0 0.15817427390997671 0.034846895002600742 0 0.15310836590049359 0.041642704763825908 0 0.1501005772008801 0.034343131876497492 0 0.1424251095307289 0.046242112707829672 0 0.13298113601669731 0.046056875514536848 0 0.13641686769434741 0.038763696747575398 0 0.13551379715440959 0.02865535976725743 0 0.1289287667629318 0.018122330563568521 0 0.12865530229185401 0.047261641998428097 0 0.12189417177048111 0.032221846461315033 0 0.1289287667629318 0.018122330563568521 0 0.12865530229185401 0.047261641998428097 0 0.13551379715440959 0.02865535976725743 0 0.13641686769434741 0.038763696747575398 0 0.12865530229185401 0.047261641998428097 0 0.1289287667629318 0.018122330563568521 0 0.12865530229185401 0.047261641998428097 0 0.14250899347804741 0.02560249374982498 0 0.1424251095307289 0.046242112707829672 0 0.13641686769434741 0.038763696747575398 0 0.13298113601669731 0.046056875514536848 0 0.13641686769434741 0.038763696747575398 0 0.12865530229185401 0.047261641998428097 0 0.13298113601669731 0.046056875514536848 0 0.12865530229185401 0.047261641998428097 0 0.1424251095307289 0.046242112707829672 0 0.13691706695364031 0.053705514186401591 0 0.14051567773474691 0.070043250780501554 0 0.12865530229185401 0.047261641998428097 0 0.12845573216069869 0.068527059703126225 0 0.13298113601669731 0.046056875514536848 0 0.12865530229185401 0.047261641998428097 0 0.13249241493350289 0.054305144351836587 0 0.1192351758823044 0.059345832468055401 0 0.12865530229185401 0.047261641998428097 0 0.12845573216069869 0.068527059703126225 0 0.12865530229185401 0.047261641998428097 0 0.13249241493350289 0.054305144351836587 0 0.12845573216069869 0.068527059703126225 0 0.13691706695364031 0.053705514186401591 0 0.1347346779367235 0.060069073136077053 0 0.14051567773474691 0.070043250780501554 0 0.1424251095307289 0.046242112707829672 0 0.13298113601669731 0.046056875514536848 0 0.13691706695364031 0.053705514186401591 0 0.13298113601669731 0.046056875514536848 0 0.13249241493350289 0.054305144351836587 0 0.13691706695364031 0.053705514186401591 0 0.13249241493350289 0.054305144351836587 0 0.13691706695364031 0.053705514186401591 0 0.1347346779367235 0.060069073136077053 0 0.13249241493350289 0.054305144351836587 0 0.1347346779367235 0.060069073136077053 0 0.12845573216069869 0.068527059703126225 0 0.1159794291640585 0.069980700851869776 0 0.12845573216069869 0.068527059703126225 0 0.13348551527237121 0.081600058803962566 0 0.12845573216069869 0.068527059703126225 0 0.14051567773474691 0.070043250780501554 0 0.13348551527237121 0.081600058803962566 0 0.1347346779367235 0.060069073136077053 0 0.12845573216069869 0.068527059703126225 0 0.14051567773474691 0.070043250780501554 0 0.14873293371928631 0.058513194052372298 0 0.14051567773474691 0.070043250780501554 0 0.15361337597158881 0.067967096980768804 0 0.14051567773474691 0.070043250780501554 0 0.15361337597158881 0.067967096980768804 0 0.14760441433233429 0.080058235188205928 0 0.15361337597158881 0.067967096980768804 0 0.15493391543693949 0.07942665582179978 0 0.14760441433233429 0.080058235188205928 0 0.14051567773474691 0.070043250780501554 0 0.14760441433233429 0.080058235188205928 0 0.13860624593876489 0.09384438885317338 0 0.15035285657963129 0.089009783504786055 0 0.15639831583404429 0.096425237189588009 0 0.16037499996069171 0.08748881657406507 0 0.15035285657963129 0.089009783504786055 0 0.15493391543693949 0.07942665582179978 0 0.16037499996069171 0.08748881657406507 0 0.15035285657963129 0.089009783504786055 0 0.15493391543693949 0.07942665582179978 0 0.14760441433233429 0.080058235188205928 0 0.15035285657963129 0.089009783504786055 0 0.14760441433233429 0.080058235188205928 0 0.13860624593876489 0.09384438885317338 0 0.13348551527237121 0.081600058803962566 0 0.12668381814980131 0.092166051232884558 0 0.13860624593876489 0.09384438885317338 0 0.14051567773474691 0.070043250780501554 0 0.13348551527237121 0.081600058803962566 0 0.13860624593876489 0.09384438885317338 0 0.14051567773474691 0.070043250780501554 0 0.13860624593876489 0.09384438885317338 0 0.12823199110065181 0.1041393684752147 0 0.13860624593876489 0.09384438885317338 0 0.1366968141427829 0.11764552692584521 0 0.13860624593876489 0.09384438885317338 0 0.1366968141427829 0.11764552692584521 0 0.12668381814980131 0.092166051232884558 0 0.12823199110065181 0.1041393684752147 0 0.13860624593876489 0.09384438885317338 0 0.12040158611293281 0.11615033297019051 0 0.12823199110065181 0.1041393684752147 0 0.1366968141427829 0.11764552692584521 0 0.12040158611293281 0.11615033297019051 0 0.12745153169982679 0.130372701635767 0 0.1366968141427829 0.11764552692584521 0 0.13992988079229421 0.1303042364976838 0 0.1366968141427829 0.11764552692584521 0 0.15182239859644039 0.1211205803980515 0 0.1366968141427829 0.11764552692584521 0 0.15182239859644039 0.1211205803980515 0 0.14763074729309189 0.1082343153177565 0 0.15182239859644039 0.1211205803980515 0 0.14763074729309189 0.1082343153177565 0 0.16161990921666469 0.11175924747933259 0 0.13860624593876489 0.09384438885317338 0 0.1366968141427829 0.11764552692584521 0 0.14763074729309189 0.1082343153177565 0 0.15035285657963129 0.089009783504786055 0 0.13860624593876489 0.09384438885317338 0 0.1497424345860576 0.098545714796757028 0 0.13860624593876489 0.09384438885317338 0 0.14763074729309189 0.1082343153177565 0 0.1497424345860576 0.098545714796757028 0 0.14763074729309189 0.1082343153177565 0 0.15566088779103859 0.1033360566260913 0 0.16161990921666469 0.11175924747933259 0 0.14763074729309189 0.1082343153177565 0 0.15566088779103859 0.1033360566260913 0 0.1497424345860576 0.098545714796757028 0 0.15035285657963129 0.089009783504786055 0 0.1497424345860576 0.098545714796757028 0 0.15639831583404429 0.096425237189588009 0 0.15566088779103859 0.1033360566260913 0 0.1497424345860576 0.098545714796757028 0 0.15639831583404429 0.096425237189588009 0 0.15639831583404429 0.096425237189588009 0 0.1629130320253345 0.10171576834702251 0 0.16550205414239369 0.094545083880804598 0 0.15566088779103859 0.1033360566260913 0 0.15639831583404429 0.096425237189588009 0 0.1629130320253345 0.10171576834702251 0 0.15566088779103859 0.1033360566260913 0 0.1629130320253345 0.10171576834702251 0 0.16161990921666469 0.11175924747933259 0 0.1629130320253345 0.10171576834702251 0 0.16161990921666469 0.11175924747933259 0 0.17340015094887981 0.1007399703359754 0 0.16550205414239369 0.094545083880804598 0 0.17340015094887981 0.1007399703359754 0 0.17066716193225601 0.086383582105986095 0 0.1629130320253345 0.10171576834702251 0 0.16550205414239369 0.094545083880804598 0 0.17340015094887981 0.1007399703359754 0 0.16827300983353069 0.12645396817124741 0 0.15182239859644039 0.1211205803980515 0 0.16161990921666469 0.11175924747933259 0 0.16827300983353069 0.12645396817124741 0 0.17340015094887981 0.1007399703359754 0 0.16827300983353069 0.12645396817124741 0 0.16161990921666469 0.11175924747933259 0 0.17340015094887981 0.1007399703359754 0 0.19604841727192041 0.1141738987279943 0 0.18016879353041679 0.11641980824415871 0 0.18536166644038479 0.10741837498015749 0 0.16827300983353069 0.12645396817124741 0 0.17890788448863129 0.1009083884640791 0 0.16827300983353069 0.12645396817124741 0 0.18016879353041679 0.11641980824415871 0 0.17890788448863129 0.1009083884640791 0 0.18050059203257809 0.12859200875656049 0 0.16827300983353069 0.12645396817124741 0 0.18016879353041679 0.11641980824415871 0 0.18050059203257809 0.12859200875656049 0 0.18964223472784081 0.12555075723795039 0 0.18016879353041679 0.11641980824415871 0 0.16827300983353069 0.12645396817124741 0 0.17340015094887981 0.1007399703359754 0 0.17890788448863129 0.1009083884640791 0 0.17890788448863129 0.1009083884640791 0 0.18536166644038479 0.10741837498015749 0 0.18539081529472121 0.10120446892657541 0 0.18016879353041679 0.11641980824415871 0 0.17890788448863129 0.1009083884640791 0 0.18536166644038479 0.10741837498015749 0 0.19085132685763551 0.10285449078708821 0 0.18536166644038479 0.10741837498015749 0 0.18539081529472121 0.10120446892657541 0 0.17890788448863129 0.1009083884640791 0 0.18539081529472121 0.10120446892657541 0 0.1871013614185244 0.094198206320541517 0 0.18954275914373159 0.075362808756910621 0 0.17890788448863129 0.1009083884640791 0 0.17852729206422929 0.075025972500703558 0 0.18954275914373159 0.075362808756910621 0 0.17890788448863129 0.1009083884640791 0 0.17340015094887981 0.1007399703359754 0 0.17852729206422929 0.075025972500703558 0 0.17066716193225601 0.086383582105986095 0 0.17340015094887981 0.1007399703359754 0 0.17890788448863129 0.1009083884640791 0 0.17852729206422929 0.075025972500703558 0 0.17340015094887981 0.1007399703359754 0 0.17852729206422929 0.075025972500703558 0 0.18954275914373159 0.075362808756910621 0 0.17890788448863129 0.1009083884640791 0 0.1871013614185244 0.094198206320541517 0 0.17490184129669831 0.058138762719699463 0 0.17852729206422929 0.075025972500703558 0 0.17066716193225601 0.086383582105986095 0 0.18954275914373159 0.075362808756910621 0 0.18835321438451119 0.056813178963075091 0 0.17852729206422929 0.075025972500703558 0 0.17490184129669831 0.058138762719699463 0 0.17066716193225601 0.086383582105986095 0 0.17490184129669831 0.058138762719699463 0 0.16602054943640479 0.069817008628585989 0 0.17066716193225601 0.086383582105986095 0 0.17490184129669831 0.058138762719699463 0 0.16303747342029401 0.061228573391210572 0 0.16602054943640479 0.069817008628585989 0 0.16303747342029401 0.061228573391210572 0 0.15361337597158881 0.067967096980768804 0 0.16602054943640479 0.069817008628585989 0 0.15361337597158881 0.067967096980768804 0 0.15493391543693949 0.07942665582179978 0 0.16602054943640479 0.069817008628585989 0 0.15493391543693949 0.07942665582179978 0 0.16602054943640479 0.069817008628585989 0 0.162999156691573 0.080779015782609223 0 0.16602054943640479 0.069817008628585989 0 0.162999156691573 0.080779015782609223 0 0.17066716193225601 0.086383582105986095 0 0.15493391543693949 0.07942665582179978 0 0.162999156691573 0.080779015782609223 0 0.16037499996069171 0.08748881657406507 0 0.15639831583404429 0.096425237189588009 0 0.16550205414239369 0.094545083880804598 0 0.16037499996069171 0.08748881657406507 0 0.16550205414239369 0.094545083880804598 0 0.16037499996069171 0.08748881657406507 0 0.17066716193225601 0.086383582105986095 0 0.162999156691573 0.080779015782609223 0 0.16037499996069171 0.08748881657406507 0 0.17066716193225601 0.086383582105986095 0 0.1111123295738545 0.47941836190168918 0 0.10556035351165501 0.45588007529594982 0 0.083523134419591027 0.47292482516466777 0 0.09451991941561172 0.5 0 0.1111123295738545 0.47941836190168918 0 0.083523134419591027 0.47292482516466777 0 0.1240470859470971 0.5 0 0.1111123295738545 0.47941836190168918 0 0.13214926376350999 0.48336432913479449 0 0.09451991941561172 0.5 0 0.1240470859470971 0.5 0 0.1111123295738545 0.47941836190168918 0 0.1111123295738545 0.47941836190168918 0 0.12632469758704451 0.46411131233231723 0 0.13214926376350999 0.48336432913479449 0 0.1111123295738545 0.47941836190168918 0 0.10556035351165501 0.45588007529594982 0 0.12632469758704451 0.46411131233231723 0 0.11974777278743449 0.44895406130012061 0 0.10556035351165501 0.45588007529594982 0 0.12632469758704451 0.46411131233231723 0 0.11974777278743449 0.44895406130012061 0 0.1134145579030726 0.43632988175335941 0 0.13261224599870369 0.43342361536898111 0 0.11974777278743449 0.44895406130012061 0 0.10556035351165501 0.45588007529594982 0 0.1134145579030726 0.43632988175335941 0 0.094216869807441414 0.43923614813773743 0 0.1134145579030726 0.43632988175335941 0 0.094216869807441414 0.43923614813773743 0 0.10556035351165501 0.45588007529594982 0 0.1134145579030726 0.43632988175335941 0 0.10556035351165501 0.45588007529594982 0 0.080752999463478609 0.45193549904858399 0 0.083523134419591027 0.47292482516466777 0 0.094216869807441414 0.43923614813773743 0 0.10556035351165501 0.45588007529594982 0 0.080752999463478609 0.45193549904858399 0 0.094216869807441414 0.43923614813773743 0 0.080752999463478609 0.45193549904858399 0 0.080869389377988293 0.43330624479115187 0 0.080752999463478609 0.45193549904858399 0 0.060574666833884822 0.44571360754527872 0 0.080869389377988293 0.43330624479115187 0 0.080752999463478609 0.45193549904858399 0 0.083523134419591027 0.47292482516466777 0 0.06082014277805263 0.46705549375216981 0 0.080752999463478609 0.45193549904858399 0 0.06082014277805263 0.46705549375216981 0 0.060574666833884822 0.44571360754527872 0 0.083523134419591027 0.47292482516466777 0 0.06499275288412637 0.5 0 0.06082014277805263 0.46705549375216981 0 0.09451991941561172 0.5 0 0.083523134419591027 0.47292482516466777 0 0.06499275288412637 0.5 0 0.06499275288412637 0.5 0 0.047372162229678917 0.48574331238318319 0 0.06082014277805263 0.46705549375216981 0 0.06499275288412637 0.5 0 0.047372162229678917 0.48574331238318319 0 0.035465586352641028 0.4999999999999995 0 0.047372162229678917 0.48574331238318319 0 0.041133851580951092 0.46450293168498091 0 0.06082014277805263 0.46705549375216981 0 0.033064182090763741 0.47769432693993191 0 0.021284879092441051 0.4657448918878957 0 0.041133851580951092 0.46450293168498091 0 0.047372162229678917 0.48574331238318319 0 0.033064182090763741 0.47769432693993191 0 0.041133851580951092 0.46450293168498091 0 0.047372162229678917 0.48574331238318319 0 0.033064182090763741 0.47769432693993191 0 0.033223173525939967 0.48897609928625241 0 0.047372162229678917 0.48574331238318319 0 0.033223173525939967 0.48897609928625241 0 0.035465586352641028 0.4999999999999995 0 0.033223173525939967 0.48897609928625241 0 0.035465586352641028 0.4999999999999995 0 0.025731831586421089 0.49889683691335551 0 0.033223173525939967 0.48897609928625241 0 0.025731831586421089 0.49889683691335551 0 0.02448210537019475 0.48254602019479431 0 0.025731831586421089 0.49889683691335551 0 0.01072809518367372 0.47979409234836867 0 0.025731831586421089 0.49889683691335551 0 0.02448210537019475 0.48254602019479431 0 0.01072809518367372 0.47979409234836867 0 0.033064182090763741 0.47769432693993191 0 0.02448210537019475 0.48254602019479431 0 0.021284879092441051 0.4657448918878957 0 0.033064182090763741 0.47769432693993191 0 0.033223173525939967 0.48897609928625241 0 0.02448210537019475 0.48254602019479431 0 0.02448210537019475 0.48254602019479431 0 0.01072809518367372 0.47979409234836867 0 0.021284879092441051 0.4657448918878957 0 -0.0042756412190714538 0.46069134778337989 0 0.01072809518367372 0.47979409234836867 0 -0.0042756412190714538 0.46069134778337989 0 -0.0029301951384713282 0.48100999381006943 0 0.01072809518367372 0.47979409234836867 0 -0.0029301951384713282 0.48100999381006943 0 0.01072809518367372 0.47979409234836867 0 0.0053809422579363239 0.48889054700706142 0 -0.0021105431770298551 0.5 0 -0.002499422334772967 0.4956972825827205 0 0.025731831586421089 0.49889683691335551 0 0.025731831586421089 0.49889683691335551 0 0.01072809518367372 0.47979409234836867 0 0.0053809422579363239 0.48889054700706142 0 -0.002499422334772967 0.4956972825827205 0 0.025731831586421089 0.49889683691335551 0 -0.002499422334772967 0.4956972825827205 0 0.025731831586421089 0.49889683691335551 0 0.0053809422579363239 0.48889054700706142 0 -0.002499422334772967 0.4956972825827205 0 -0.0028711584709379318 0.48851997124698332 0 0.0053809422579363239 0.48889054700706142 0 0.01483961516826666 0.44931202106531781 0 0.022940542347081289 0.43578892757361581 0 0.0025756332403864819 0.43738836999124497 0 -0.0042756412190714538 0.46069134778337989 0 0.01483961516826666 0.44931202106531781 0 0.0025756332403864819 0.43738836999124497 0 -0.0042756412190714538 0.46069134778337989 0 0.01483961516826666 0.44931202106531781 0 0.021284879092441051 0.4657448918878957 0 -0.0042756412190714538 0.46069134778337989 0 0.01072809518367372 0.47979409234836867 0 0.021284879092441051 0.4657448918878957 0 0.01483961516826666 0.44931202106531781 0 0.021284879092441051 0.4657448918878957 0 0.032223110298876818 0.44914791204121879 0 0.01483961516826666 0.44931202106531781 0 0.032223110298876818 0.44914791204121879 0 0.022940542347081289 0.43578892757361581 0 0.032223110298876818 0.44914791204121879 0 0.044659240477665223 0.43306926936729873 0 0.022940542347081289 0.43578892757361581 0 0.032223110298876818 0.44914791204121879 0 0.047882202393886117 0.45189784287818929 0 0.044659240477665223 0.43306926936729873 0 0.021284879092441051 0.4657448918878957 0 0.032223110298876818 0.44914791204121879 0 0.041133851580951092 0.46450293168498091 0 0.032223110298876818 0.44914791204121879 0 0.041133851580951092 0.46450293168498091 0 0.047882202393886117 0.45189784287818929 0 0.06082014277805263 0.46705549375216981 0 0.047882202393886117 0.45189784287818929 0 0.060574666833884822 0.44571360754527872 0 0.041133851580951092 0.46450293168498091 0 0.06082014277805263 0.46705549375216981 0 0.047882202393886117 0.45189784287818929 0 0.047882202393886117 0.45189784287818929 0 0.060574666833884822 0.44571360754527872 0 0.044659240477665223 0.43306926936729873 0 0.047548745382579659 0.41062256946056852 0 0.044659240477665223 0.43306926936729873 0 0.064552504898480745 0.42408524072472559 0 0.060574666833884822 0.44571360754527872 0 0.044659240477665223 0.43306926936729873 0 0.064552504898480745 0.42408524072472559 0 0.047548745382579659 0.41062256946056852 0 0.068530342963069507 0.40245687390417151 0 0.064552504898480745 0.42408524072472559 0 0.047548745382579659 0.41062256946056852 0 0.03080521292362132 0.41847588957881349 0 0.034671489822653681 0.40285663497605378 0 0.047548745382579659 0.41062256946056852 0 0.044659240477665223 0.43306926936729873 0 0.03080521292362132 0.41847588957881349 0 0.044659240477665223 0.43306926936729873 0 0.022940542347081289 0.43578892757361581 0 0.03080521292362132 0.41847588957881349 0 0.022940542347081289 0.43578892757361581 0 0.03080521292362132 0.41847588957881349 0 0.01433283267395713 0.42332406255859711 0 0.03080521292362132 0.41847588957881349 0 0.021245522966792722 0.40740188321591791 0 0.01433283267395713 0.42332406255859711 0 0.03080521292362132 0.41847588957881349 0 0.021245522966792722 0.40740188321591791 0 0.034671489822653681 0.40285663497605378 0 0.021245522966792722 0.40740188321591791 0 0.0089783265455466513 0.41023540447158491 0 0.01433283267395713 0.42332406255859711 0 0.0089783265455466513 0.41023540447158491 0 0.0011925257591587661 0.42375005210502698 0 0.01433283267395713 0.42332406255859711 0 -0.003777400094790911 0.4116962097838372 0 0.0089783265455466513 0.41023540447158491 0 0.0033036961006330588 0.39871841338897179 0 -0.003777400094790911 0.4116962097838372 0 0.0089783265455466513 0.41023540447158491 0 0.0011925257591587661 0.42375005210502698 0 0.022940542347081289 0.43578892757361581 0 0.0025756332403864819 0.43738836999124497 0 0.01433283267395713 0.42332406255859711 0 0.0011925257591587661 0.42375005210502698 0 0.0025756332403864819 0.43738836999124497 0 0.01433283267395713 0.42332406255859711 0 -0.0030870451113787709 0.3789815244911342 0 0.014699428071416391 0.37706725532928143 0 0.0033020970124285859 0.38577120654020591 0 0.01035287087041988 0.38860407357664412 0 0.014699428071416391 0.37706725532928143 0 0.0033020970124285859 0.38577120654020591 0 -0.00084953658338491472 0.39375157802182609 0 0.0033020970124285859 0.38577120654020591 0 0.0040272818500241524 0.39171131788191188 0 0.01035287087041988 0.38860407357664412 0 0.0033020970124285859 0.38577120654020591 0 0.0040272818500241524 0.39171131788191188 0 0.0033036961006330588 0.39871841338897179 0 0.015007802241270031 0.40094560314456612 0 0.026503663352107701 0.38742671150178998 0 0.01035287087041988 0.38860407357664412 0 0.0033036961006330588 0.39871841338897179 0 0.026503663352107701 0.38742671150178998 0 0.0033036961006330588 0.39871841338897179 0 0.026503663352107701 0.38742671150178998 0 0.01035287087041988 0.38860407357664412 0 0.0040272818500241524 0.39171131788191188 0 0.0033036961006330588 0.39871841338897179 0 -0.00084953658338491472 0.39375157802182609 0 0.0040272818500241524 0.39171131788191188 0 0.0033036961006330588 0.39871841338897179 0 0.021245522966792722 0.40740188321591791 0 0.0089783265455466513 0.41023540447158491 0 0.015007802241270031 0.40094560314456612 0 0.0089783265455466513 0.41023540447158491 0 0.0033036961006330588 0.39871841338897179 0 0.015007802241270031 0.40094560314456612 0 0.021245522966792722 0.40740188321591791 0 0.015007802241270031 0.40094560314456612 0 0.026503663352107701 0.38742671150178998 0 0.021245522966792722 0.40740188321591791 0 0.026503663352107701 0.38742671150178998 0 0.034671489822653681 0.40285663497605378 0 0.014699428071416391 0.37706725532928143 0 0.041614885517242538 0.3897620646167273 0 0.025940202773624639 0.36616717999871617 0 0.01035287087041988 0.38860407357664412 0 0.014699428071416391 0.37706725532928143 0 0.026503663352107701 0.38742671150178998 0 0.014699428071416391 0.37706725532928143 0 0.026503663352107701 0.38742671150178998 0 0.041614885517242538 0.3897620646167273 0 0.014699428071416391 0.37706725532928143 0 0.041614885517242538 0.3897620646167273 0 0.041614885517242538 0.3897620646167273 0 0.056351655618854621 0.37800146033903209 0 0.041900994186122593 0.36731255149190162 0 0.047548745382579659 0.41062256946056852 0 0.041614885517242538 0.3897620646167273 0 0.034671489822653681 0.40285663497605378 0 0.026503663352107701 0.38742671150178998 0 0.041614885517242538 0.3897620646167273 0 0.034671489822653681 0.40285663497605378 0 0.041614885517242538 0.3897620646167273 0 0.068530342963069507 0.40245687390417151 0 0.047548745382579659 0.41062256946056852 0 0.041614885517242538 0.3897620646167273 0 0.068530342963069507 0.40245687390417151 0 0.041614885517242538 0.3897620646167273 0 0.056351655618854621 0.37800146033903209 0 0.068530342963069507 0.40245687390417151 0 0.068530342963069507 0.40245687390417151 0 0.073585084457786373 0.37497314996787501 0 0.056351655618854621 0.37800146033903209 0 0.068530342963069507 0.40245687390417151 0 0.073585084457786373 0.37497314996787501 0 0.084804201475354016 0.39475559297773433 0 0.094381287123832827 0.38270176898704189 0 0.073585084457786373 0.37497314996787501 0 0.084804201475354016 0.39475559297773433 0 0.068530342963069507 0.40245687390417151 0 0.088984767605191237 0.41210430495522687 0 0.084804201475354016 0.39475559297773433 0 0.088984767605191237 0.41210430495522687 0 0.098539525226890121 0.40154186707435602 0 0.084804201475354016 0.39475559297773433 0 0.094381287123832827 0.38270176898704189 0 0.098539525226890121 0.40154186707435602 0 0.084804201475354016 0.39475559297773433 0 0.068530342963069507 0.40245687390417151 0 0.073585084457786373 0.37497314996787501 0 0.068530342963069507 0.40245687390417151 0 0.064552504898480745 0.42408524072472559 0 0.088984767605191237 0.41210430495522687 0 0.068530342963069507 0.40245687390417151 0 0.064552504898480745 0.42408524072472559 0 0.060574666833884822 0.44571360754527872 0 0.064552504898480745 0.42408524072472559 0 0.080869389377988293 0.43330624479115187 0 0.060574666833884822 0.44571360754527872 0 0.064552504898480745 0.42408524072472559 0 0.064552504898480745 0.42408524072472559 0 0.080869389377988293 0.43330624479115187 0 0.088984767605191237 0.41210430495522687 0 0.080869389377988293 0.43330624479115187 0 0.088984767605191237 0.41210430495522687 0 0.09613452765945299 0.42676266833535909 0 0.094216869807441414 0.43923614813773743 0 0.080869389377988293 0.43330624479115187 0 0.09613452765945299 0.42676266833535909 0 0.068530342963069507 0.40245687390417151 0 0.088984767605191237 0.41210430495522687 0 0.088984767605191237 0.41210430495522687 0 0.1094391922473139 0.42175173600628069 0 0.088984767605191237 0.41210430495522687 0 0.1094391922473139 0.42175173600628069 0 0.098539525226890121 0.40154186707435602 0 0.11156242568035971 0.40730923657662382 0 0.1094391922473139 0.42175173600628069 0 0.098539525226890121 0.40154186707435602 0 0.088984767605191237 0.41210430495522687 0 0.09613452765945299 0.42676266833535909 0 0.1094391922473139 0.42175173600628069 0 0.094216869807441414 0.43923614813773743 0 0.1057965004548608 0.43042420991142211 0 0.1134145579030726 0.43632988175335941 0 0.094216869807441414 0.43923614813773743 0 0.09613452765945299 0.42676266833535909 0 0.1057965004548608 0.43042420991142211 0 0.09613452765945299 0.42676266833535909 0 0.1057965004548608 0.43042420991142211 0 0.1094391922473139 0.42175173600628069 0 0.11521179792895379 0.41877953531139778 0 0.13261224599870369 0.43342361536898111 0 0.1134145579030726 0.43632988175335941 0 0.1157773546570231 0.42804061532437371 0 0.13261224599870369 0.43342361536898111 0 0.1157773546570231 0.42804061532437371 0 0.11521179792895379 0.41877953531139778 0 0.13261224599870369 0.43342361536898111 0 0.1134145579030726 0.43632988175335941 0 0.13261224599870369 0.43342361536898111 0 0.1057965004548608 0.43042420991142211 0 0.1134145579030726 0.43632988175335941 0 0.1157773546570231 0.42804061532437371 0 0.1057965004548608 0.43042420991142211 0 0.1157773546570231 0.42804061532437371 0 0.1094391922473139 0.42175173600628069 0 0.1157773546570231 0.42804061532437371 0 0.1094391922473139 0.42175173600628069 0 0.11521179792895379 0.41877953531139778 0 0.11156242568035971 0.40730923657662382 0 0.11521179792895379 0.41877953531139778 0 0.1228898439220637 0.40691519272192928 0 0.11156242568035971 0.40730923657662382 0 0.1094391922473139 0.42175173600628069 0 0.11521179792895379 0.41877953531139778 0 0.11521179792895379 0.41877953531139778 0 0.1228898439220637 0.40691519272192928 0 0.129314527259901 0.41740981665680182 0 0.11156242568035971 0.40730923657662382 0 0.1247297054174472 0.38520863310462528 0 0.1090815428742849 0.38951390538494091 0 0.11156242568035971 0.40730923657662382 0 0.1247297054174472 0.38520863310462528 0 0.11156242568035971 0.40730923657662382 0 0.1228898439220637 0.40691519272192928 0 0.1247297054174472 0.38520863310462528 0 0.1247297054174472 0.38520863310462528 0 0.1090815428742849 0.38951390538494091 0 0.1131658906259668 0.36631446309347909 0 0.094381287123832827 0.38270176898704189 0 0.1090815428742849 0.38951390538494091 0 0.1131658906259668 0.36631446309347909 0 0.094381287123832827 0.38270176898704189 0 0.1090815428742849 0.38951390538494091 0 0.098539525226890121 0.40154186707435602 0 0.11156242568035971 0.40730923657662382 0 0.1090815428742849 0.38951390538494091 0 0.098539525226890121 0.40154186707435602 0 0.098909993450840672 0.34624934879642272 0 0.11918016094918781 0.34500927156126932 0 0.098909993450840672 0.34624934879642272 0 0.1131658906259668 0.36631446309347909 0 0.091736416322184086 0.36354563137527918 0 0.094381287123832827 0.38270176898704189 0 0.1131658906259668 0.36631446309347909 0 0.091736416322184086 0.36354563137527918 0 0.1131658906259668 0.36631446309347909 0 0.11918016094918781 0.34500927156126932 0 0.12742334129430599 0.35455023965337268 0 0.098909993450840672 0.34624934879642272 0 0.1131658906259668 0.36631446309347909 0 0.11918016094918781 0.34500927156126932 0 0.11918016094918781 0.34500927156126932 0 0.1147112468982535 0.32652523458634369 0 0.1288282240471722 0.33604888861534032 0 0.098909993450840672 0.34624934879642272 0 0.11918016094918781 0.34500927156126932 0 0.1147112468982535 0.32652523458634369 0 0.1147112468982535 0.32652523458634369 0 0.10584709048571821 0.30809800730864001 0 0.1195930652599816 0.31171018065156819 0 0.1147112468982535 0.32652523458634369 0 0.1195930652599816 0.31171018065156819 0 0.1299364969442578 0.3155292477514271 0 0.1147112468982535 0.32652523458634369 0 0.097514003092492807 0.32384704020201283 0 0.10584709048571821 0.30809800730864001 0 0.097514003092492807 0.32384704020201283 0 0.0856491542582795 0.30956189753625252 0 0.10584709048571821 0.30809800730864001 0 0.098909993450840672 0.34624934879642272 0 0.1147112468982535 0.32652523458634369 0 0.097514003092492807 0.32384704020201283 0 0.098909993450840672 0.34624934879642272 0 0.097514003092492807 0.32384704020201283 0 0.08188119913353295 0.32986537823895062 0 0.098909993450840672 0.34624934879642272 0 0.08188119913353295 0.32986537823895062 0 0.078639825952493692 0.34748942603157668 0 0.08188119913353295 0.32986537823895062 0 0.078639825952493692 0.34748942603157668 0 0.08188119913353295 0.32986537823895062 0 0.0733280112972651 0.32167845366298969 0 0.0856491542582795 0.30956189753625252 0 0.097514003092492807 0.32384704020201283 0 0.08188119913353295 0.32986537823895062 0 0.0856491542582795 0.30956189753625252 0 0.0733280112972651 0.32167845366298969 0 0.063685819022353457 0.33311532431462099 0 0.062095872774894548 0.31417121456213498 0 0.0733280112972651 0.32167845366298969 0 0.062095872774894548 0.31417121456213498 0 0.0856491542582795 0.30956189753625252 0 0.063685819022353457 0.33311532431462099 0 0.078639825952493692 0.34748942603157668 0 0.053161874557908523 0.3490481022253149 0 0.08188119913353295 0.32986537823895062 0 0.063685819022353457 0.33311532431462099 0 0.078639825952493692 0.34748942603157668 0 0.08188119913353295 0.32986537823895062 0 0.0733280112972651 0.32167845366298969 0 0.063685819022353457 0.33311532431462099 0 0.078639825952493692 0.34748942603157668 0 0.053161874557908523 0.3490481022253149 0 0.078639825952493692 0.34748942603157668 0 0.064793698970490463 0.36095112213129171 0 0.053161874557908523 0.3490481022253149 0 0.098909993450840672 0.34624934879642272 0 0.078639825952493692 0.34748942603157668 0 0.098909993450840672 0.34624934879642272 0 0.078639825952493692 0.34748942603157668 0 0.091736416322184086 0.36354563137527918 0 0.094381287123832827 0.38270176898704189 0 0.091736416322184086 0.36354563137527918 0 0.073585084457786373 0.37497314996787501 0 0.078639825952493692 0.34748942603157668 0 0.091736416322184086 0.36354563137527918 0 0.073585084457786373 0.37497314996787501 0 0.078639825952493692 0.34748942603157668 0 0.073585084457786373 0.37497314996787501 0 0.078639825952493692 0.34748942603157668 0 0.073585084457786373 0.37497314996787501 0 0.064793698970490463 0.36095112213129171 0 0.056351655618854621 0.37800146033903209 0 0.073585084457786373 0.37497314996787501 0 0.064793698970490463 0.36095112213129171 0 0.054052055833344048 0.36382830904688512 0 0.053161874557908523 0.3490481022253149 0 0.041900994186122593 0.36731255149190162 0 0.056351655618854621 0.37800146033903209 0 0.064793698970490463 0.36095112213129171 0 0.054052055833344048 0.36382830904688512 0 0.056351655618854621 0.37800146033903209 0 0.054052055833344048 0.36382830904688512 0 0.041900994186122593 0.36731255149190162 0 0.064793698970490463 0.36095112213129171 0 0.054052055833344048 0.36382830904688512 0 0.053161874557908523 0.3490481022253149 0 0.053161874557908523 0.3490481022253149 0 0.027683923163323378 0.35060677841905358 0 0.042798785962312763 0.33618576160742319 0 0.053161874557908523 0.3490481022253149 0 0.027683923163323378 0.35060677841905358 0 0.053161874557908523 0.3490481022253149 0 0.041900994186122593 0.36731255149190162 0 0.027683923163323378 0.35060677841905358 0 0.041900994186122593 0.36731255149190162 0 0.025940202773624639 0.36616717999871617 0 0.027683923163323378 0.35060677841905358 0 0.041614885517242538 0.3897620646167273 0 0.041900994186122593 0.36731255149190162 0 0.025940202773624639 0.36616717999871617 0 0.025940202773624639 0.36616717999871617 0 0.027683923163323378 0.35060677841905358 0 0.01166269928053857 0.3620758228803358 0 0.014699428071416391 0.37706725532928143 0 0.025940202773624639 0.36616717999871617 0 0.01166269928053857 0.3620758228803358 0 0.027683923163323378 0.35060677841905358 0 0.0022059717687382412 0.35216545461279242 0 0.019343963357532881 0.33801932881917401 0 0.027683923163323378 0.35060677841905358 0 0.0022059717687382412 0.35216545461279242 0 0.027683923163323378 0.35060677841905358 0 0.0022059717687382412 0.35216545461279242 0 0.01166269928053857 0.3620758228803358 0 -0.0122160293744098 0.3643724460418355 0 0.014699428071416391 0.37706725532928143 0 0.01166269928053857 0.3620758228803358 0 -0.0122160293744098 0.3643724460418355 0 0.0022059717687382412 0.35216545461279242 0 0.01166269928053857 0.3620758228803358 0 -0.0122160293744098 0.3643724460418355 0 0.014699428071416391 0.37706725532928143 0 0.0061718291126791414 0.31870090922115207 0 0.02069865894230476 0.32019722051207228 0 0.0120170887078055 0.30430150888123408 0 0.0061718291126791414 0.31870090922115207 0 0.007341404746538307 0.33252062683342892 0 0.02069865894230476 0.32019722051207228 0 -0.0053979344195426472 0.32335139104964439 0 0.0061718291126791414 0.31870090922115207 0 0.007341404746538307 0.33252062683342892 0 0.0022059717687382412 0.35216545461279242 0 0.007341404746538307 0.33252062683342892 0 0.019343963357532881 0.33801932881917401 0 -0.0055079606727005907 0.33639864939169839 0 0.0022059717687382412 0.35216545461279242 0 0.007341404746538307 0.33252062683342892 0 0.007341404746538307 0.33252062683342892 0 0.019343963357532881 0.33801932881917401 0 0.02069865894230476 0.32019722051207228 0 0.027683923163323378 0.35060677841905358 0 0.019343963357532881 0.33801932881917401 0 0.030334882897343551 0.32953407078143382 0 0.019343963357532881 0.33801932881917401 0 0.030334882897343551 0.32953407078143382 0 0.02069865894230476 0.32019722051207228 0 0.030334882897343551 0.32953407078143382 0 0.02069865894230476 0.32019722051207228 0 0.035934889251549723 0.3173958509631099 0 0.02069865894230476 0.32019722051207228 0 0.035934889251549723 0.3173958509631099 0 0.02719291443336103 0.30612882638624428 0 0.030334882897343551 0.32953407078143382 0 0.035934889251549723 0.3173958509631099 0 0.042798785962312763 0.33618576160742319 0 0.035934889251549723 0.3173958509631099 0 0.042798785962312763 0.33618576160742319 0 0.048320815105440153 0.31434921092588192 0 0.035934889251549723 0.3173958509631099 0 0.048320815105440153 0.31434921092588192 0 0.042915848691079693 0.30872709393980258 0 0.027683923163323378 0.35060677841905358 0 0.030334882897343551 0.32953407078143382 0 0.042798785962312763 0.33618576160742319 0 0.063685819022353457 0.33311532431462099 0 0.053161874557908523 0.3490481022253149 0 0.042798785962312763 0.33618576160742319 0 0.042798785962312763 0.33618576160742319 0 0.048320815105440153 0.31434921092588192 0 0.062095872774894548 0.31417121456213498 0 0.063685819022353457 0.33311532431462099 0 0.042798785962312763 0.33618576160742319 0 0.062095872774894548 0.31417121456213498 0 0.042798785962312763 0.33618576160742319 0 0.062095872774894548 0.31417121456213498 0 0.062095872774894548 0.31417121456213498 0 0.05586975319101227 0.30489851039826221 0 0.063709553683790082 0.29685822143524532 0 0.048320815105440153 0.31434921092588192 0 0.062095872774894548 0.31417121456213498 0 0.05586975319101227 0.30489851039826221 0 0.05586975319101227 0.30489851039826221 0 0.05271919102031996 0.29423192316081942 0 0.063709553683790082 0.29685822143524532 0 0.048116148152967393 0.30455168626188728 0 0.05271919102031996 0.29423192316081942 0 0.041629651196203703 0.29640162834589873 0 0.05586975319101227 0.30489851039826221 0 0.048116148152967393 0.30455168626188728 0 0.05271919102031996 0.29423192316081942 0 0.048320815105440153 0.31434921092588192 0 0.05586975319101227 0.30489851039826221 0 0.048116148152967393 0.30455168626188728 0 0.05271919102031996 0.29423192316081942 0 0.061362479925632082 0.27962932298348031 0 0.063709553683790082 0.29685822143524532 0 0.05271919102031996 0.29423192316081942 0 0.048790350603857738 0.282894371455017 0 0.041629651196203703 0.29640162834589873 0 0.05271919102031996 0.29423192316081942 0 0.048790350603857738 0.282894371455017 0 0.061362479925632082 0.27962932298348031 0 0.041629651196203703 0.29640162834589873 0 0.028824772770952651 0.28031274378021431 0 0.038860583846413617 0.2729689079719308 0 0.041629651196203703 0.29640162834589873 0 0.033957189491579248 0.29980685492630399 0 0.02371639451852171 0.29142581207969581 0 0.041629651196203703 0.29640162834589873 0 0.02371639451852171 0.29142581207969581 0 0.028824772770952651 0.28031274378021431 0 0.041629651196203703 0.29640162834589873 0 0.038860583846413617 0.2729689079719308 0 0.048790350603857738 0.282894371455017 0 0.041629651196203703 0.29640162834589873 0 0.038860583846413617 0.2729689079719308 0 0.041629651196203703 0.29640162834589873 0 0.028824772770952651 0.28031274378021431 0 0.048320815105440153 0.31434921092588192 0 0.048116148152967393 0.30455168626188728 0 0.042915848691079693 0.30872709393980258 0 0.042915848691079693 0.30872709393980258 0 0.042212034130599062 0.30132993623025672 0 0.036442575199633752 0.30667771248914349 0 0.048116148152967393 0.30455168626188728 0 0.042915848691079693 0.30872709393980258 0 0.042212034130599062 0.30132993623025672 0 0.048116148152967393 0.30455168626188728 0 0.041629651196203703 0.29640162834589873 0 0.042212034130599062 0.30132993623025672 0 0.048116148152967393 0.30455168626188728 0 0.041629651196203703 0.29640162834589873 0 0.041629651196203703 0.29640162834589873 0 0.042212034130599062 0.30132993623025672 0 0.033957189491579248 0.29980685492630399 0 0.041629651196203703 0.29640162834589873 0 0.042212034130599062 0.30132993623025672 0 0.042212034130599062 0.30132993623025672 0 0.033957189491579248 0.29980685492630399 0 0.036442575199633752 0.30667771248914349 0 0.033957189491579248 0.29980685492630399 0 0.036442575199633752 0.30667771248914349 0 0.02719291443336103 0.30612882638624428 0 0.035934889251549723 0.3173958509631099 0 0.042915848691079693 0.30872709393980258 0 0.036442575199633752 0.30667771248914349 0 0.035934889251549723 0.3173958509631099 0 0.036442575199633752 0.30667771248914349 0 0.02719291443336103 0.30612882638624428 0 0.02069865894230476 0.32019722051207228 0 0.02719291443336103 0.30612882638624428 0 0.0120170887078055 0.30430150888123408 0 0.02719291443336103 0.30612882638624428 0 0.02371639451852171 0.29142581207969581 0 0.0120170887078055 0.30430150888123408 0 0.033957189491579248 0.29980685492630399 0 0.02719291443336103 0.30612882638624428 0 0.02371639451852171 0.29142581207969581 0 0.02371639451852171 0.29142581207969581 0 0.028824772770952651 0.28031274378021431 0 0.02371639451852171 0.29142581207969581 0 0.016891954680153729 0.2835029435933577 0 0.028824772770952651 0.28031274378021431 0 0.02371639451852171 0.29142581207969581 0 0.016891954680153729 0.2835029435933577 0 0.009661625441741116 0.29072284786418501 0 0.02371639451852171 0.29142581207969581 0 0.009661625441741116 0.29072284786418501 0 0.0120170887078055 0.30430150888123408 0 -0.0025599095403403649 0.27977633556201248 0 0.016891954680153729 0.2835029435933577 0 0.009661625441741116 0.29072284786418501 0 -0.0025599095403403649 0.27977633556201248 0 -0.0031481986628824482 0.29516697200486008 0 0.009661625441741116 0.29072284786418501 0 -0.0031481986628824482 0.29516697200486008 0 0.009661625441741116 0.29072284786418501 0 0.0120170887078055 0.30430150888123408 0 -0.0057695730947078683 0.31035600288349219 0 -0.0031481986628824482 0.29516697200486008 0 0.0120170887078055 0.30430150888123408 0 -0.0057695730947078683 0.31035600288349219 0 0.0061718291126791414 0.31870090922115207 0 0.0120170887078055 0.30430150888123408 0 -0.0091377098372894087 0.271511558173339 0 -0.001027734196442548 0.25671378483192281 0 0.011661289615996171 0.25874742390333422 0 -0.0091377098372894087 0.271511558173339 0 0.011661289615996171 0.25874742390333422 0 -0.001027734196442548 0.25671378483192281 0 0.00025641157241185561 0.2444175911446678 0 0.011661289615996171 0.25874742390333422 0 0.00025641157241185561 0.2444175911446678 0 0.011661289615996171 0.25874742390333422 0 -0.0025599095403403649 0.27977633556201248 0 0.011661289615996171 0.25874742390333422 0 0.02481689020989393 0.27527697868068018 0 -0.0025599095403403649 0.27977633556201248 0 0.02481689020989393 0.27527697868068018 0 -0.0025599095403403649 0.27977633556201248 0 0.016891954680153729 0.2835029435933577 0 0.02481689020989393 0.27527697868068018 0 0.011661289615996171 0.25874742390333422 0 0.02481689020989393 0.27527697868068018 0 0.011661289615996171 0.25874742390333422 0 0.02481689020989393 0.27527697868068018 0 0.026488720852369339 0.26407991716819879 0 0.016891954680153729 0.2835029435933577 0 0.02481689020989393 0.27527697868068018 0 0.028824772770952651 0.28031274378021431 0 0.02481689020989393 0.27527697868068018 0 0.028824772770952651 0.28031274378021431 0 0.02481689020989393 0.27527697868068018 0 0.028824772770952651 0.28031274378021431 0 0.031656272748717157 0.27415293119628092 0 0.02481689020989393 0.27527697868068018 0 0.031656272748717157 0.27415293119628092 0 0.028824772770952651 0.28031274378021431 0 0.031656272748717157 0.27415293119628092 0 0.02481689020989393 0.27527697868068018 0 0.026488720852369339 0.26407991716819879 0 0.031656272748717157 0.27415293119628092 0 0.035454524191713091 0.24414575801434821 0 0.011661289615996171 0.25874742390333422 0 0.035454524191713091 0.24414575801434821 0 0.011661289615996171 0.25874742390333422 0 0.026488720852369339 0.26407991716819879 0 0.035454524191713091 0.24414575801434821 0 0.037498582635510092 0.26144322459462349 0 0.035454524191713091 0.24414575801434821 0 0.026488720852369339 0.26407991716819879 0 0.037498582635510092 0.26144322459462349 0 0.037498582635510092 0.26144322459462349 0 0.054093566260952693 0.25342043896232558 0 0.047453756852806839 0.26485721988985661 0 0.028824772770952651 0.28031274378021431 0 0.031656272748717157 0.27415293119628092 0 0.038860583846413617 0.2729689079719308 0 0.031656272748717157 0.27415293119628092 0 0.038860583846413617 0.2729689079719308 0 0.026488720852369339 0.26407991716819879 0 0.037498582635510092 0.26144322459462349 0 0.031656272748717157 0.27415293119628092 0 0.037498582635510092 0.26144322459462349 0 0.038860583846413617 0.2729689079719308 0 0.037498582635510092 0.26144322459462349 0 0.031656272748717157 0.27415293119628092 0 0.038860583846413617 0.2729689079719308 0 0.037498582635510092 0.26144322459462349 0 0.031656272748717157 0.27415293119628092 0 0.038860583846413617 0.2729689079719308 0 0.049379847030720479 0.2712400748129557 0 0.038860583846413617 0.2729689079719308 0 0.049379847030720479 0.2712400748129557 0 0.047453756852806839 0.26485721988985661 0 0.037498582635510092 0.26144322459462349 0 0.038860583846413617 0.2729689079719308 0 0.047453756852806839 0.26485721988985661 0 0.048790350603857738 0.282894371455017 0 0.038860583846413617 0.2729689079719308 0 0.049379847030720479 0.2712400748129557 0 0.048790350603857738 0.282894371455017 0 0.049379847030720479 0.2712400748129557 0 0.061362479925632082 0.27962932298348031 0 0.049379847030720479 0.2712400748129557 0 0.047453756852806839 0.26485721988985661 0 0.057436204490437411 0.26521345310744782 0 0.049379847030720479 0.2712400748129557 0 0.061362479925632082 0.27962932298348031 0 0.057436204490437411 0.26521345310744782 0 0.054093566260952693 0.25342043896232558 0 0.057436204490437411 0.26521345310744782 0 0.071112298819108716 0.26233154504898509 0 0.049377343411986969 0.23560146556682859 0 0.037498582635510092 0.26144322459462349 0 0.054093566260952693 0.25342043896232558 0 0.054093566260952693 0.25342043896232558 0 0.047453756852806839 0.26485721988985661 0 0.057436204490437411 0.26521345310744782 0 0.080862117712585391 0.24503376711448999 0 0.064467597566433915 0.24364588173666449 0 0.071112298819108716 0.26233154504898509 0 0.080862117712585391 0.24503376711448999 0 0.071112298819108716 0.26233154504898509 0 0.064467597566433915 0.24364588173666449 0 0.054093566260952693 0.25342043896232558 0 0.071112298819108716 0.26233154504898509 0 0.071112298819108716 0.26233154504898509 0 0.090776082056322371 0.25758794379302458 0 0.090913074972433686 0.26767135116398688 0 0.080862117712585391 0.24503376711448999 0 0.071112298819108716 0.26233154504898509 0 0.090776082056322371 0.25758794379302458 0 0.080862117712585391 0.24503376711448999 0 0.090776082056322371 0.25758794379302458 0 0.071112298819108716 0.26233154504898509 0 0.083669614392841513 0.27468748614699118 0 0.090913074972433686 0.26767135116398688 0 0.083669614392841513 0.27468748614699118 0 0.081392959587476277 0.29215666751684688 0 0.10069004640005901 0.27014212047155961 0 0.083669614392841513 0.27468748614699118 0 0.090913074972433686 0.26767135116398688 0 0.10069004640005901 0.27014212047155961 0 0.081392959587476277 0.29215666751684688 0 0.10069004640005901 0.27014212047155961 0 0.061362479925632082 0.27962932298348031 0 0.057436204490437411 0.26521345310744782 0 0.071112298819108716 0.26233154504898509 0 0.071112298819108716 0.26233154504898509 0 0.083669614392841513 0.27468748614699118 0 0.073647179591255635 0.28226426380262643 0 0.061362479925632082 0.27962932298348031 0 0.071112298819108716 0.26233154504898509 0 0.073647179591255635 0.28226426380262643 0 0.061362479925632082 0.27962932298348031 0 0.071112298819108716 0.26233154504898509 0 0.061362479925632082 0.27962932298348031 0 0.073647179591255635 0.28226426380262643 0 0.063709553683790082 0.29685822143524532 0 0.073647179591255635 0.28226426380262643 0 0.063709553683790082 0.29685822143524532 0 0.081392959587476277 0.29215666751684688 0 0.062095872774894548 0.31417121456213498 0 0.0856491542582795 0.30956189753625252 0 0.081392959587476277 0.29215666751684688 0 0.062095872774894548 0.31417121456213498 0 0.063709553683790082 0.29685822143524532 0 0.081392959587476277 0.29215666751684688 0 0.062095872774894548 0.31417121456213498 0 0.081392959587476277 0.29215666751684688 0 0.0856491542582795 0.30956189753625252 0 0.094391151080889787 0.29139887395390929 0 0.0856491542582795 0.30956189753625252 0 0.081392959587476277 0.29215666751684688 0 0.094391151080889787 0.29139887395390929 0 0.081392959587476277 0.29215666751684688 0 0.094391151080889787 0.29139887395390929 0 0.10069004640005901 0.27014212047155961 0 0.083669614392841513 0.27468748614699118 0 0.073647179591255635 0.28226426380262643 0 0.081392959587476277 0.29215666751684688 0 0.094391151080889787 0.29139887395390929 0 0.1176930649748079 0.29167325492542262 0 0.10313314790350191 0.27323585037156711 0 0.094391151080889787 0.29139887395390929 0 0.10313314790350191 0.27323585037156711 0 0.094391151080889787 0.29139887395390929 0 0.10584709048571821 0.30809800730864001 0 0.1176930649748079 0.29167325492542262 0 0.0856491542582795 0.30956189753625252 0 0.094391151080889787 0.29139887395390929 0 0.10584709048571821 0.30809800730864001 0 0.10584709048571821 0.30809800730864001 0 0.1195930652599816 0.31171018065156819 0 0.1176930649748079 0.29167325492542262 0 0.1195930652599816 0.31171018065156819 0 0.1176930649748079 0.29167325492542262 0 0.12974915841235521 0.30536775529459992 0 0.1176930649748079 0.29167325492542262 0 0.10313314790350191 0.27323585037156711 0 0.1176930649748079 0.29167325492542262 0 0.1169989002309786 0.26632339413953648 0 0.10313314790350191 0.27323585037156711 0 0.1176930649748079 0.29167325492542262 0 0.1169989002309786 0.26632339413953648 0 0.13126077828829941 0.27237649029314048 0 0.1169989002309786 0.26632339413953648 0 0.1137515467441851 0.25117427422785621 0 0.10313314790350191 0.27323585037156711 0 0.1169989002309786 0.26632339413953648 0 0.1137515467441851 0.25117427422785621 0 0.12718964802754559 0.25558260565864382 0 0.1137515467441851 0.25117427422785621 0 0.1048079617360797 0.26544431080869002 0 0.10313314790350191 0.27323585037156711 0 0.1137515467441851 0.25117427422785621 0 0.10313314790350191 0.27323585037156711 0 0.1137515467441851 0.25117427422785621 0 0.1048079617360797 0.26544431080869002 0 0.10210513609367131 0.25381268124961281 0 0.098809015733575423 0.24200510429684871 0 0.090776082056322371 0.25758794379302458 0 0.10210513609367131 0.25381268124961281 0 0.090776082056322371 0.25758794379302458 0 0.10069004640005901 0.27014212047155961 0 0.090776082056322371 0.25758794379302458 0 0.1048079617360797 0.26544431080869002 0 0.10210513609367131 0.25381268124961281 0 0.090776082056322371 0.25758794379302458 0 0.1048079617360797 0.26544431080869002 0 0.10069004640005901 0.27014212047155961 0 0.090776082056322371 0.25758794379302458 0 0.090913074972433686 0.26767135116398688 0 0.10069004640005901 0.27014212047155961 0 0.094391151080889787 0.29139887395390929 0 0.10069004640005901 0.27014212047155961 0 0.10313314790350191 0.27323585037156711 0 0.1048079617360797 0.26544431080869002 0 0.10069004640005901 0.27014212047155961 0 0.1048079617360797 0.26544431080869002 0 0.10069004640005901 0.27014212047155961 0 0.10313314790350191 0.27323585037156711 0 0.10069004640005901 0.27014212047155961 0 0.10313314790350191 0.27323585037156711 0 0.14962014980845609 0.27771125425602161 0 0.13126077828829941 0.27237649029314048 0 0.15651664370704019 0.26973232772116201 0 0.13126077828829941 0.27237649029314048 0 0.15651664370704019 0.26973232772116201 0 0.14962014980845609 0.27771125425602161 0 0.13126077828829941 0.27237649029314048 0 0.1446418538431487 0.28437950898046249 0 0.14962014980845609 0.27771125425602161 0 0.15651664370704019 0.26973232772116201 0 0.15977801975636591 0.27751426825490022 0 0.14962014980845609 0.27771125425602161 0 0.1529786449732487 0.28437960379492211 0 0.15977801975636591 0.27751426825490022 0 0.15481407958858009 0.25103647706010379 0 0.1418495157944793 0.2515769229553817 0 0.15651664370704019 0.26973232772116201 0 0.1418495157944793 0.2515769229553817 0 0.13126077828829941 0.27237649029314048 0 0.15651664370704019 0.26973232772116201 0 0.1418495157944793 0.2515769229553817 0 0.12718964802754559 0.25558260565864382 0 0.13126077828829941 0.27237649029314048 0 0.1169989002309786 0.26632339413953648 0 0.12718964802754559 0.25558260565864382 0 0.13126077828829941 0.27237649029314048 0 0.13126077828829941 0.27237649029314048 0 0.1342569466104358 0.29090253376245029 0 0.1446418538431487 0.28437950898046249 0 0.1176930649748079 0.29167325492542262 0 0.13126077828829941 0.27237649029314048 0 0.1342569466104358 0.29090253376245029 0 0.1176930649748079 0.29167325492542262 0 0.1342569466104358 0.29090253376245029 0 0.12974915841235521 0.30536775529459992 0 0.1342569466104358 0.29090253376245029 0 0.14064085259960149 0.29969960648212179 0 0.14363911433645729 0.29274414526863363 0 0.1195930652599816 0.31171018065156819 0 0.12974915841235521 0.30536775529459992 0 0.1299364969442578 0.3155292477514271 0 0.1342569466104358 0.29090253376245029 0 0.12974915841235521 0.30536775529459992 0 0.14064085259960149 0.29969960648212179 0 0.12974915841235521 0.30536775529459992 0 0.13942191368915119 0.30954309562509758 0 0.14064085259960149 0.29969960648212179 0 0.12974915841235521 0.30536775529459992 0 0.13942191368915119 0.30954309562509758 0 0.1299364969442578 0.3155292477514271 0 0.13942191368915119 0.30954309562509758 0 0.1476315805820638 0.31076993252545099 0 0.1424058115620862 0.3146815482591569 0 0.13942191368915119 0.30954309562509758 0 0.1476315805820638 0.31076993252545099 0 0.14740731170961749 0.30402850749171673 0 0.13942191368915119 0.30954309562509758 0 0.14740731170961749 0.30402850749171673 0 0.14064085259960149 0.29969960648212179 0 0.14740731170961749 0.30402850749171673 0 0.14064085259960149 0.29969960648212179 0 0.14746336632120999 0.2974742896786996 0 0.14740731170961749 0.30402850749171673 0 0.1549788326618449 0.29930924950952043 0 0.15430732440383341 0.30737487112941009 0 0.14740731170961749 0.30402850749171673 0 0.14746336632120999 0.2974742896786996 0 0.1549788326618449 0.29930924950952043 0 0.1476315805820638 0.31076993252545099 0 0.14740731170961749 0.30402850749171673 0 0.15430732440383341 0.30737487112941009 0 0.15430732440383341 0.30737487112941009 0 0.15443375722183861 0.31227907950472572 0 0.1597398413956479 0.31038409312554432 0 0.1476315805820638 0.31076993252545099 0 0.15430732440383341 0.30737487112941009 0 0.15443375722183861 0.31227907950472572 0 0.1446418538431487 0.28437950898046249 0 0.14363911433645729 0.29274414526863363 0 0.15119255230789039 0.29126478743943413 0 0.1342569466104358 0.29090253376245029 0 0.1446418538431487 0.28437950898046249 0 0.14363911433645729 0.29274414526863363 0 0.14064085259960149 0.29969960648212179 0 0.14746336632120999 0.2974742896786996 0 0.14363911433645729 0.29274414526863363 0 0.14746336632120999 0.2974742896786996 0 0.14363911433645729 0.29274414526863363 0 0.15119255230789039 0.29126478743943413 0 0.1549788326618449 0.29930924950952043 0 0.15119255230789039 0.29126478743943413 0 0.15966064915038219 0.29102820004379198 0 0.14746336632120999 0.2974742896786996 0 0.1549788326618449 0.29930924950952043 0 0.15119255230789039 0.29126478743943413 0 0.15119255230789039 0.29126478743943413 0 0.1529786449732487 0.28437960379492211 0 0.15966064915038219 0.29102820004379198 0 0.1446418538431487 0.28437950898046249 0 0.15119255230789039 0.29126478743943413 0 0.1529786449732487 0.28437960379492211 0 0.14962014980845609 0.27771125425602161 0 0.1446418538431487 0.28437950898046249 0 0.1529786449732487 0.28437960379492211 0 0.15966064915038219 0.29102820004379198 0 0.17350535807389991 0.29397327564960613 0 0.15977801975636591 0.27751426825490022 0 0.1529786449732487 0.28437960379492211 0 0.15966064915038219 0.29102820004379198 0 0.15977801975636591 0.27751426825490022 0 0.17350535807389991 0.29397327564960613 0 0.15977801975636591 0.27751426825490022 0 0.17350535807389991 0.29397327564960613 0 0.17417078306615 0.27946426674534602 0 0.15977801975636591 0.27751426825490022 0 0.1549788326618449 0.29930924950952043 0 0.15966064915038219 0.29102820004379198 0 0.16272537025969711 0.29772193666458602 0 0.15966064915038219 0.29102820004379198 0 0.16272537025969711 0.29772193666458602 0 0.17350535807389991 0.29397327564960613 0 0.15430732440383341 0.30737487112941009 0 0.1597398413956479 0.31038409312554432 0 0.16375142828228731 0.30542669747303691 0 0.1597398413956479 0.31038409312554432 0 0.16375142828228731 0.30542669747303691 0 0.16415194972360811 0.31029608892480831 0 0.1597398413956479 0.31038409312554432 0 0.16415194972360811 0.31029608892480831 0 0.1630588798937069 0.31579660022499012 0 0.1549788326618449 0.29930924950952043 0 0.16375142828228731 0.30542669747303691 0 0.16272537025969711 0.29772193666458602 0 0.1549788326618449 0.29930924950952043 0 0.15430732440383341 0.30737487112941009 0 0.16375142828228731 0.30542669747303691 0 0.16375142828228731 0.30542669747303691 0 0.16272537025969711 0.29772193666458602 0 0.17350535807389991 0.29397327564960613 0 0.16375142828228731 0.30542669747303691 0 0.17309742486995119 0.30518602634041198 0 0.17350535807389991 0.29397327564960613 0 0.16375142828228731 0.30542669747303691 0 0.17005764932279041 0.30957696487566189 0 0.17309742486995119 0.30518602634041198 0 0.16375142828228731 0.30542669747303691 0 0.17005764932279041 0.30957696487566189 0 0.16415194972360811 0.31029608892480831 0 0.17005764932279041 0.30957696487566189 0 0.16415194972360811 0.31029608892480831 0 0.1630588798937069 0.31579660022499012 0 0.17005764932279041 0.30957696487566189 0 0.17309742486995119 0.30518602634041198 0 0.1872326963914335 0.31043228304431231 0 0.17309742486995119 0.30518602634041198 0 0.1872326963914335 0.31043228304431231 0 0.17350535807389991 0.29397327564960613 0 0.17005764932279041 0.30957696487566189 0 0.1872326963914335 0.31043228304431231 0 0.1630588798937069 0.31579660022499012 0 0.1872326963914335 0.31043228304431231 0 0.17350535807389991 0.29397327564960613 0 0.18803892235312319 0.29814459695664952 0 0.1872326963914335 0.31043228304431231 0 0.17350535807389991 0.29397327564960613 0 0.17417078306615 0.27946426674534602 0 0.19359522819674871 0.27735111005657331 0 0.18779348376615551 0.28805031791208419 0 0.17350535807389991 0.29397327564960613 0 0.17417078306615 0.27946426674534602 0 0.18779348376615551 0.28805031791208419 0 0.17350535807389991 0.29397327564960613 0 0.18779348376615551 0.28805031791208419 0 0.18803892235312319 0.29814459695664952 0 0.181772509125781 0.2670881651491836 0 0.17417078306615 0.27946426674534602 0 0.19359522819674871 0.27735111005657331 0 0.17417078306615 0.27946426674534602 0 0.15651664370704019 0.26973232772116201 0 0.15977801975636591 0.27751426825490022 0 0.181772509125781 0.2670881651491836 0 0.17417078306615 0.27946426674534602 0 0.15651664370704019 0.26973232772116201 0 0.181772509125781 0.2670881651491836 0 0.15651664370704019 0.26973232772116201 0 0.15481407958858009 0.25103647706010379 0 0.15651664370704019 0.26973232772116201 0 0.1672854776820657 0.2555343649315398 0 0.181772509125781 0.2670881651491836 0 0.15651664370704019 0.26973232772116201 0 0.1672854776820657 0.2555343649315398 0 0.17921879444206859 0.24620261007394251 0 0.181772509125781 0.2670881651491836 0 0.1933037249596386 0.25517305367437881 0 0.17921879444206859 0.24620261007394251 0 0.181772509125781 0.2670881651491836 0 0.1672854776820657 0.2555343649315398 0 0.181772509125781 0.2670881651491836 0 0.1933037249596386 0.25517305367437881 0 0.2070283745445218 0.26444400257720568 0 0.20403877458388289 0.23662596154920609 0 0.1933037249596386 0.25517305367437881 0 0.2070283745445218 0.26444400257720568 0 0.181772509125781 0.2670881651491836 0 0.19359522819674871 0.27735111005657331 0 0.2070283745445218 0.26444400257720568 0 0.181772509125781 0.2670881651491836 0 0.2070283745445218 0.26444400257720568 0 0.19359522819674871 0.27735111005657331 0 0.2085971794816775 0.27904163459530279 0 0.2070283745445218 0.26444400257720568 0 0.19359522819674871 0.27735111005657331 0 0.2085971794816775 0.27904163459530279 0 0.20010576763579829 0.28627564093242219 0 0.2085971794816775 0.27904163459530279 0 0.2070283745445218 0.26444400257720568 0 0.22360080421530701 0.27635221148547662 0 0.2085971794816775 0.27904163459530279 0 0.2070283745445218 0.26444400257720568 0 0.2070283745445218 0.26444400257720568 0 0.22990438441804159 0.26204899895721889 0 0.20403877458388289 0.23662596154920609 0 0.2070283745445218 0.26444400257720568 0 0.21945357865146661 0.24681227366183089 0 0.2070283745445218 0.26444400257720568 0 0.22990438441804159 0.26204899895721889 0 0.22990438441804159 0.26204899895721889 0 0.22360080421530701 0.27635221148547662 0 0.24173100121513549 0.27464899452781971 0 0.22360080421530701 0.27635221148547662 0 0.24173100121513549 0.27464899452781971 0 0.23424214355546641 0.28510354441836672 0 0.2070283745445218 0.26444400257720568 0 0.22990438441804159 0.26204899895721889 0 0.22360080421530701 0.27635221148547662 0 0.22990438441804159 0.26204899895721889 0 0.24173100121513549 0.27464899452781971 0 0.25278039429156129 0.2596539953372326 0 0.22990438441804159 0.26204899895721889 0 0.25278039429156129 0.2596539953372326 0 0.2401157593033883 0.23881362765845221 0 0.22990438441804159 0.26204899895721889 0 0.25278039429156129 0.2596539953372326 0 0.23716555557236491 0.29935187733304403 0 0.23333532149436409 0.31287140501749527 0 0.25612915922623758 0.31145123864081892 0 0.23333532149436409 0.31287140501749527 0 0.25612915922623758 0.31145123864081892 0 0.23716555557236491 0.29935187733304403 0 0.26213198516283043 0.29381167447740941 0 0.23716555557236491 0.29935187733304403 0 0.24738217271278659 0.28639169012474208 0 0.26213198516283043 0.29381167447740941 0 0.24173100121513549 0.27464899452781971 0 0.24738217271278659 0.28639169012474208 0 0.23424214355546641 0.28510354441836672 0 0.23716555557236491 0.29935187733304403 0 0.24738217271278659 0.28639169012474208 0 0.23424214355546641 0.28510354441836672 0 0.23716555557236491 0.29935187733304403 0 0.2213311840617381 0.28877294862075098 0 0.2199746769962368 0.29640513736510737 0 0.23716555557236491 0.29935187733304403 0 0.23424214355546641 0.28510354441836672 0 0.2213311840617381 0.28877294862075098 0 0.22360080421530701 0.27635221148547662 0 0.23424214355546641 0.28510354441836672 0 0.2213311840617381 0.28877294862075098 0 0.21730677095285719 0.30992905020003281 0 0.21054148376249071 0.31429157139417202 0 0.23333532149436409 0.31287140501749527 0 0.23716555557236491 0.29935187733304403 0 0.21730677095285719 0.30992905020003281 0 0.2121991259818993 0.30489208018867858 0 0.23716555557236491 0.29935187733304403 0 0.21730677095285719 0.30992905020003281 0 0.23333532149436409 0.31287140501749527 0 0.23716555557236491 0.29935187733304403 0 0.2199746769962368 0.29640513736510737 0 0.2121991259818993 0.30489208018867858 0 0.23716555557236491 0.29935187733304403 0 0.2121991259818993 0.30489208018867858 0 0.21730677095285719 0.30992905020003281 0 0.21233690406039221 0.30999304461462768 0 0.21054148376249071 0.31429157139417202 0 0.21233690406039221 0.30999304461462768 0 0.2121991259818993 0.30489208018867858 0 0.20930023554432189 0.31085947667562758 0 0.21730677095285719 0.30992905020003281 0 0.21233690406039221 0.30999304461462768 0 0.2121991259818993 0.30489208018867858 0 0.2199746769962368 0.29640513736510737 0 0.2121991259818993 0.30489208018867858 0 0.2092028423689449 0.29260364331795591 0 0.2121991259818993 0.30489208018867858 0 0.20326333406253341 0.29896499124016379 0 0.2092028423689449 0.29260364331795591 0 0.2121991259818993 0.30489208018867858 0 0.20326333406253341 0.29896499124016379 0 0.19669879252972591 0.30205904767003122 0 0.21233690406039221 0.30999304461462768 0 0.20930023554432189 0.31085947667562758 0 0.21054148376249071 0.31429157139417202 0 0.2085971794816775 0.27904163459530279 0 0.2213311840617381 0.28877294862075098 0 0.2092028423689449 0.29260364331795591 0 0.2085971794816775 0.27904163459530279 0 0.22360080421530701 0.27635221148547662 0 0.2213311840617381 0.28877294862075098 0 0.2213311840617381 0.28877294862075098 0 0.2199746769962368 0.29640513736510737 0 0.2092028423689449 0.29260364331795591 0 0.20326333406253341 0.29896499124016379 0 0.2092028423689449 0.29260364331795591 0 0.19714526687948641 0.29474910064762783 0 0.2085971794816775 0.27904163459530279 0 0.2092028423689449 0.29260364331795591 0 0.20010576763579829 0.28627564093242219 0 0.2092028423689449 0.29260364331795591 0 0.20010576763579829 0.28627564093242219 0 0.19714526687948641 0.29474910064762783 0 0.19714526687948641 0.29474910064762783 0 0.18779348376615551 0.28805031791208419 0 0.18803892235312319 0.29814459695664952 0 0.20010576763579829 0.28627564093242219 0 0.19714526687948641 0.29474910064762783 0 0.18779348376615551 0.28805031791208419 0 0.19359522819674871 0.27735111005657331 0 0.20010576763579829 0.28627564093242219 0 0.18779348376615551 0.28805031791208419 0 0.1872326963914335 0.31043228304431231 0 0.2121991259818993 0.30489208018867858 0 0.19669879252972591 0.30205904767003122 0 0.1872326963914335 0.31043228304431231 0 0.20930023554432189 0.31085947667562758 0 0.19144385952641549 0.3154814457862567 0 0.1872326963914335 0.31043228304431231 0 0.2121991259818993 0.30489208018867858 0 0.20930023554432189 0.31085947667562758 0 0.1872326963914335 0.31043228304431231 0 0.2121991259818993 0.30489208018867858 0 0.20326333406253341 0.29896499124016379 0 0.19714526687948641 0.29474910064762783 0 0.19669879252972591 0.30205904767003122 0 0.1872326963914335 0.31043228304431231 0 0.19669879252972591 0.30205904767003122 0 0.18803892235312319 0.29814459695664952 0 0.19714526687948641 0.29474910064762783 0 0.19669879252972591 0.30205904767003122 0 0.18803892235312319 0.29814459695664952 0 0.1872326963914335 0.31043228304431231 0 0.19144385952641549 0.3154814457862567 0 0.19144385952641549 0.3154814457862567 0 0.21054148376249071 0.31429157139417202 0 0.19144385952641549 0.3154814457862567 0 0.2022351828483058 0.32842018643977428 0 0.21054148376249071 0.31429157139417202 0 0.19144385952641549 0.3154814457862567 0 0.19075359344307069 0.32566989246027961 0 0.18354136316867081 0.32144887626596608 0 0.19144385952641549 0.3154814457862567 0 0.19075359344307069 0.32566989246027961 0 0.2022351828483058 0.32842018643977428 0 0.19144385952641549 0.3154814457862567 0 0.2022351828483058 0.32842018643977428 0 0.19265643511501379 0.33456139332220691 0 0.19349362460181499 0.34668045009836163 0 0.1833069522254393 0.33778136174824058 0 0.19075359344307069 0.32566989246027961 0 0.19265643511501379 0.33456139332220691 0 0.2022351828483058 0.32842018643977428 0 0.19075359344307069 0.32566989246027961 0 0.19265643511501379 0.33456139332220691 0 0.18389112655694781 0.3284375604871938 0 0.19265643511501379 0.33456139332220691 0 0.2022351828483058 0.32842018643977428 0 0.20134240025670849 0.34080297339426352 0 0.19265643511501379 0.33456139332220691 0 0.20134240025670849 0.34080297339426352 0 0.19349362460181499 0.34668045009836163 0 0.2130265061701965 0.34135892709329158 0 0.21054148376249071 0.31429157139417202 0 0.22056851542531719 0.34201666449720008 0 0.21054148376249071 0.31429157139417202 0 0.22056851542531719 0.34201666449720008 0 0.2022351828483058 0.32842018643977428 0 0.20134240025670849 0.34080297339426352 0 0.2130265061701965 0.34135892709329158 0 0.2022351828483058 0.32842018643977428 0 0.2130265061701965 0.34135892709329158 0 0.21054148376249071 0.31429157139417202 0 0.22268567174581511 0.32557524561588891 0 0.22056851542531719 0.34201666449720008 0 0.2022351828483058 0.32842018643977428 0 0.2130265061701965 0.34135892709329158 0 0.21054148376249071 0.31429157139417202 0 0.20930023554432189 0.31085947667562758 0 0.19144385952641549 0.3154814457862567 0 0.21054148376249071 0.31429157139417202 0 0.20930023554432189 0.31085947667562758 0 0.21054148376249071 0.31429157139417202 0 0.21054148376249071 0.31429157139417202 0 0.23333532149436409 0.31287140501749527 0 0.22268567174581511 0.32557524561588891 0 0.21054148376249071 0.31429157139417202 0 0.23333532149436409 0.31287140501749527 0 0.23333532149436409 0.31287140501749527 0 0.23421484231943501 0.32573098639729042 0 0.22268567174581511 0.32557524561588891 0 0.22268567174581511 0.32557524561588891 0 0.22056851542531719 0.34201666449720008 0 0.22782182098320691 0.33441689487780418 0 0.22056851542531719 0.34201666449720008 0 0.22828553898158219 0.34104701705458901 0 0.22782182098320691 0.33441689487780418 0 0.22828553898158219 0.34104701705458901 0 0.2336430411395776 0.33797062760499741 0 0.22782182098320691 0.33441689487780418 0 0.23421484231943501 0.32573098639729042 0 0.2336430411395776 0.33797062760499741 0 0.22782182098320691 0.33441689487780418 0 0.23421484231943501 0.32573098639729042 0 0.22268567174581511 0.32557524561588891 0 0.22782182098320691 0.33441689487780418 0 0.23421484231943501 0.32573098639729042 0 0.2336430411395776 0.33797062760499741 0 0.2475914548315612 0.33813087229625288 0 0.2336430411395776 0.33797062760499741 0 0.2475914548315612 0.33813087229625288 0 0.2343880381513482 0.35269443869728168 0 0.23421484231943501 0.32573098639729042 0 0.2475914548315612 0.33813087229625288 0 0.24790645703937389 0.32296368355870397 0 0.23333532149436409 0.31287140501749527 0 0.24790645703937389 0.32296368355870397 0 0.25612915922623758 0.31145123864081892 0 0.23333532149436409 0.31287140501749527 0 0.23421484231943501 0.32573098639729042 0 0.24790645703937389 0.32296368355870397 0 0.2343880381513482 0.35269443869728168 0 0.23059554708814539 0.36974175760022759 0 0.25675949056265018 0.36481540513121419 0 0.23059554708814539 0.36974175760022759 0 0.24611831047954921 0.37857245326899941 0 0.25675949056265018 0.36481540513121419 0 0.23059554708814539 0.36974175760022759 0 0.25675949056265018 0.36481540513121419 0 0.2475914548315612 0.33813087229625288 0 0.2343880381513482 0.35269443869728168 0 0.25675949056265018 0.36481540513121419 0 0.22056851542531719 0.34201666449720008 0 0.2343880381513482 0.35269443869728168 0 0.23059554708814539 0.36974175760022759 0 0.22056851542531719 0.34201666449720008 0 0.23059554708814539 0.36974175760022759 0 0.22056851542531719 0.34201666449720008 0 0.23059554708814539 0.36974175760022759 0 0.21629382148490031 0.35342528687703412 0 0.22056851542531719 0.34201666449720008 0 0.22828553898158219 0.34104701705458901 0 0.2343880381513482 0.35269443869728168 0 0.22828553898158219 0.34104701705458901 0 0.2336430411395776 0.33797062760499741 0 0.2343880381513482 0.35269443869728168 0 0.23059554708814539 0.36974175760022759 0 0.21224620097319369 0.36178520555454607 0 0.21629382148490031 0.35342528687703412 0 0.23059554708814539 0.36974175760022759 0 0.21224620097319369 0.36178520555454607 0 0.20498243612151459 0.37456439500473532 0 0.23059554708814539 0.36974175760022759 0 0.20498243612151459 0.37456439500473532 0 0.21224620097319369 0.36178520555454607 0 0.203770131341034 0.36296011514984378 0 0.20498243612151459 0.37456439500473532 0 0.2130265061701965 0.34135892709329158 0 0.22056851542531719 0.34201666449720008 0 0.21629382148490031 0.35342528687703412 0 0.2130265061701965 0.34135892709329158 0 0.21629382148490031 0.35342528687703412 0 0.2050323377676487 0.35222387963990481 0 0.21224620097319369 0.36178520555454607 0 0.21629382148490031 0.35342528687703412 0 0.2050323377676487 0.35222387963990481 0 0.21224620097319369 0.36178520555454607 0 0.203770131341034 0.36296011514984378 0 0.2050323377676487 0.35222387963990481 0 0.20134240025670849 0.34080297339426352 0 0.2130265061701965 0.34135892709329158 0 0.2050323377676487 0.35222387963990481 0 0.2050323377676487 0.35222387963990481 0 0.19349362460181499 0.34668045009836163 0 0.1928195505017789 0.36326698040018929 0 0.19349362460181499 0.34668045009836163 0 0.1928195505017789 0.36326698040018929 0 0.18648019476545641 0.35432898119176021 0 0.20134240025670849 0.34080297339426352 0 0.2050323377676487 0.35222387963990481 0 0.19349362460181499 0.34668045009836163 0 0.20498243612151459 0.37456439500473532 0 0.1928195505017789 0.36326698040018929 0 0.19104119868183281 0.37480778511555912 0 0.203770131341034 0.36296011514984378 0 0.2050323377676487 0.35222387963990481 0 0.1928195505017789 0.36326698040018929 0 0.203770131341034 0.36296011514984378 0 0.20498243612151459 0.37456439500473532 0 0.1928195505017789 0.36326698040018929 0 0.1928195505017789 0.36326698040018929 0 0.19104119868183281 0.37480778511555912 0 0.17939713577776861 0.37393113937181388 0 0.17939713577776861 0.37393113937181388 0 0.1652307003346965 0.35746928276622097 0 0.1769600674574287 0.35836349583186872 0 0.1928195505017789 0.36326698040018929 0 0.17939713577776861 0.37393113937181388 0 0.1769600674574287 0.35836349583186872 0 0.17939713577776861 0.37393113937181388 0 0.1652307003346965 0.35746928276622097 0 0.17939713577776861 0.37393113937181388 0 0.1769600674574287 0.35836349583186872 0 0.17939713577776861 0.37393113937181388 0 0.1655032831331037 0.37262698187430537 0 0.1652307003346965 0.35746928276622097 0 0.1655032831331037 0.37262698187430537 0 0.1570286366890285 0.36757920739739169 0 0.1652307003346965 0.35746928276622097 0 0.1570286366890285 0.36757920739739169 0 0.1652307003346965 0.35746928276622097 0 0.15148705683937791 0.35992587332907899 0 0.1655032831331037 0.37262698187430537 0 0.1570286366890285 0.36757920739739169 0 0.15686601537402869 0.37960041679045931 0 0.1652307003346965 0.35746928276622097 0 0.15106426489162381 0.34100742616062868 0 0.1652307003346965 0.35746928276622097 0 0.16482982456368231 0.34392770080521989 0 0.15106426489162381 0.34100742616062868 0 0.1652307003346965 0.35746928276622097 0 0.17199883886694081 0.34905075544248543 0 0.1769600674574287 0.35836349583186872 0 0.1652307003346965 0.35746928276622097 0 0.16482982456368231 0.34392770080521989 0 0.17199883886694081 0.34905075544248543 0 0.17199883886694081 0.34905075544248543 0 0.18082170727627961 0.3474969162142888 0 0.17215189470261699 0.33799638159482831 0 0.1928195505017789 0.36326698040018929 0 0.1769600674574287 0.35836349583186872 0 0.18648019476545641 0.35432898119176021 0 0.17199883886694081 0.34905075544248543 0 0.1769600674574287 0.35836349583186872 0 0.18082170727627961 0.3474969162142888 0 0.1769600674574287 0.35836349583186872 0 0.18648019476545641 0.35432898119176021 0 0.18082170727627961 0.3474969162142888 0 0.19349362460181499 0.34668045009836163 0 0.18082170727627961 0.3474969162142888 0 0.1833069522254393 0.33778136174824058 0 0.19349362460181499 0.34668045009836163 0 0.18648019476545641 0.35432898119176021 0 0.18082170727627961 0.3474969162142888 0 0.1833069522254393 0.33778136174824058 0 0.18389112655694781 0.3284375604871938 0 0.1774924204336949 0.33082797583791379 0 0.19265643511501379 0.33456139332220691 0 0.1833069522254393 0.33778136174824058 0 0.18389112655694781 0.3284375604871938 0 0.1833069522254393 0.33778136174824058 0 0.1774924204336949 0.33082797583791379 0 0.17215189470261699 0.33799638159482831 0 0.1774924204336949 0.33082797583791379 0 0.17215189470261699 0.33799638159482831 0 0.17086508768233841 0.32663356788829412 0 0.18082170727627961 0.3474969162142888 0 0.1833069522254393 0.33778136174824058 0 0.17215189470261699 0.33799638159482831 0 0.19144385952641549 0.3154814457862567 0 0.17478859029291119 0.31651914964455929 0 0.1872326963914335 0.31043228304431231 0 0.17478859029291119 0.31651914964455929 0 0.1630588798937069 0.31579660022499012 0 0.1872326963914335 0.31043228304431231 0 0.1630588798937069 0.31579660022499012 0 0.1872326963914335 0.31043228304431231 0 0.19144385952641549 0.3154814457862567 0 0.17478859029291119 0.31651914964455929 0 0.19144385952641549 0.3154814457862567 0 0.18354136316867081 0.32144887626596608 0 0.17478859029291119 0.31651914964455929 0 0.19075359344307069 0.32566989246027961 0 0.18389112655694781 0.3284375604871938 0 0.18354136316867081 0.32144887626596608 0 0.18389112655694781 0.3284375604871938 0 0.18354136316867081 0.32144887626596608 0 0.17724704100113209 0.32329100747101219 0 0.18354136316867081 0.32144887626596608 0 0.17724704100113209 0.32329100747101219 0 0.17478859029291119 0.31651914964455929 0 0.17724704100113209 0.32329100747101219 0 0.17478859029291119 0.31651914964455929 0 0.17086508768233841 0.32663356788829412 0 0.18389112655694781 0.3284375604871938 0 0.1774924204336949 0.33082797583791379 0 0.17724704100113209 0.32329100747101219 0 0.1774924204336949 0.33082797583791379 0 0.17724704100113209 0.32329100747101219 0 0.17086508768233841 0.32663356788829412 0 0.1651054774830607 0.31743997123101469 0 0.17086508768233841 0.32663356788829412 0 0.16433035960667439 0.33360985334707949 0 0.17478859029291119 0.31651914964455929 0 0.15799220493196309 0.31692092627208918 0 0.1630588798937069 0.31579660022499012 0 0.1651054774830607 0.31743997123101469 0 0.15106426489162381 0.34100742616062868 0 0.15318794528826671 0.32550924879167992 0 0.17478859029291119 0.31651914964455929 0 0.15799220493196309 0.31692092627208918 0 0.17478859029291119 0.31651914964455929 0 0.1651054774830607 0.31743997123101469 0 0.15799220493196309 0.31692092627208918 0 0.17478859029291119 0.31651914964455929 0 0.1651054774830607 0.31743997123101469 0 0.17086508768233841 0.32663356788829412 0 0.15799220493196309 0.31692092627208918 0 0.1630588798937069 0.31579660022499012 0 0.1487270618639826 0.31572078167173079 0 0.1651054774830607 0.31743997123101469 0 0.15799220493196309 0.31692092627208918 0 0.15318794528826671 0.32550924879167992 0 0.15443375722183861 0.31227907950472572 0 0.1597398413956479 0.31038409312554432 0 0.1630588798937069 0.31579660022499012 0 0.15799220493196309 0.31692092627208918 0 0.1630588798937069 0.31579660022499012 0 0.1651054774830607 0.31743997123101469 0 0.15106426489162381 0.34100742616062868 0 0.1651054774830607 0.31743997123101469 0 0.16433035960667439 0.33360985334707949 0 0.15106426489162381 0.34100742616062868 0 0.16482982456368231 0.34392770080521989 0 0.17215189470261699 0.33799638159482831 0 0.16433035960667439 0.33360985334707949 0 0.16482982456368231 0.34392770080521989 0 0.17199883886694081 0.34905075544248543 0 0.17215189470261699 0.33799638159482831 0 0.17215189470261699 0.33799638159482831 0 0.17086508768233841 0.32663356788829412 0 0.16433035960667439 0.33360985334707949 0 0.16482982456368231 0.34392770080521989 0 0.16433035960667439 0.33360985334707949 0 0.15106426489162381 0.34100742616062868 0 0.15106426489162381 0.34100742616062868 0 0.15318794528826671 0.32550924879167992 0 0.14667770048963591 0.32576107902703749 0 0.15106426489162381 0.34100742616062868 0 0.1377610211220191 0.32554862622436209 0 0.13799817407076781 0.33531833734444738 0 0.15106426489162381 0.34100742616062868 0 0.14667770048963591 0.32576107902703749 0 0.1377610211220191 0.32554862622436209 0 0.15106426489162381 0.34100742616062868 0 0.1377610211220191 0.32554862622436209 0 0.15106426489162381 0.34100742616062868 0 0.13799817407076781 0.33531833734444738 0 0.13945032844753491 0.34376919432611591 0 0.15799220493196309 0.31692092627208918 0 0.1388850633959802 0.32116091740566688 0 0.15799220493196309 0.31692092627208918 0 0.1487270618639826 0.31572078167173079 0 0.1388850633959802 0.32116091740566688 0 0.15799220493196309 0.31692092627208918 0 0.14667770048963591 0.32576107902703749 0 0.1388850633959802 0.32116091740566688 0 0.15443375722183861 0.31227907950472572 0 0.1630588798937069 0.31579660022499012 0 0.1487270618639826 0.31572078167173079 0 0.1476315805820638 0.31076993252545099 0 0.15443375722183861 0.31227907950472572 0 0.1487270618639826 0.31572078167173079 0 0.15799220493196309 0.31692092627208918 0 0.15318794528826671 0.32550924879167992 0 0.14667770048963591 0.32576107902703749 0 0.14667770048963591 0.32576107902703749 0 0.1388850633959802 0.32116091740566688 0 0.1377610211220191 0.32554862622436209 0 0.1487270618639826 0.31572078167173079 0 0.1424058115620862 0.3146815482591569 0 0.1388850633959802 0.32116091740566688 0 0.1476315805820638 0.31076993252545099 0 0.1487270618639826 0.31572078167173079 0 0.1424058115620862 0.3146815482591569 0 0.1147112468982535 0.32652523458634369 0 0.1388850633959802 0.32116091740566688 0 0.1299364969442578 0.3155292477514271 0 0.1147112468982535 0.32652523458634369 0 0.1388850633959802 0.32116091740566688 0 0.1147112468982535 0.32652523458634369 0 0.1388850633959802 0.32116091740566688 0 0.13163674590683849 0.32892040083523222 0 0.13942191368915119 0.30954309562509758 0 0.13754527091887331 0.31559255225416732 0 0.1299364969442578 0.3155292477514271 0 0.13754527091887331 0.31559255225416732 0 0.1388850633959802 0.32116091740566688 0 0.1299364969442578 0.3155292477514271 0 0.13942191368915119 0.30954309562509758 0 0.1424058115620862 0.3146815482591569 0 0.13754527091887331 0.31559255225416732 0 0.1424058115620862 0.3146815482591569 0 0.13754527091887331 0.31559255225416732 0 0.1388850633959802 0.32116091740566688 0 0.1388850633959802 0.32116091740566688 0 0.1377610211220191 0.32554862622436209 0 0.13163674590683849 0.32892040083523222 0 0.1147112468982535 0.32652523458634369 0 0.13163674590683849 0.32892040083523222 0 0.1288282240471722 0.33604888861534032 0 0.11918016094918781 0.34500927156126932 0 0.1288282240471722 0.33604888861534032 0 0.13945032844753491 0.34376919432611591 0 0.13799817407076781 0.33531833734444738 0 0.1288282240471722 0.33604888861534032 0 0.13945032844753491 0.34376919432611591 0 0.13799817407076781 0.33531833734444738 0 0.13163674590683849 0.32892040083523222 0 0.1288282240471722 0.33604888861534032 0 0.1377610211220191 0.32554862622436209 0 0.13799817407076781 0.33531833734444738 0 0.13163674590683849 0.32892040083523222 0 0.12742334129430599 0.35455023965337268 0 0.13945032844753491 0.34376919432611591 0 0.13789698515453469 0.36310802963262651 0 0.11918016094918781 0.34500927156126932 0 0.12742334129430599 0.35455023965337268 0 0.13945032844753491 0.34376919432611591 0 0.11918016094918781 0.34500927156126932 0 0.13945032844753491 0.34376919432611591 0 0.1131658906259668 0.36631446309347909 0 0.12742334129430599 0.35455023965337268 0 0.13789698515453469 0.36310802963262651 0 0.1247297054174472 0.38520863310462528 0 0.13789698515453469 0.36310802963262651 0 0.1247297054174472 0.38520863310462528 0 0.1131658906259668 0.36631446309347909 0 0.13789698515453469 0.36310802963262651 0 0.13789698515453469 0.36310802963262651 0 0.14907622742384771 0.37108684414977161 0 0.15148705683937791 0.35992587332907899 0 0.13789698515453469 0.36310802963262651 0 0.14907622742384771 0.37108684414977161 0 0.14210244306226891 0.38522069359930089 0 0.1570286366890285 0.36757920739739169 0 0.14907622742384771 0.37108684414977161 0 0.15686601537402869 0.37960041679045931 0 0.1570286366890285 0.36757920739739169 0 0.14907622742384771 0.37108684414977161 0 0.15148705683937791 0.35992587332907899 0 0.15106426489162381 0.34100742616062868 0 0.13789698515453469 0.36310802963262651 0 0.15148705683937791 0.35992587332907899 0 0.1652307003346965 0.35746928276622097 0 0.15106426489162381 0.34100742616062868 0 0.15148705683937791 0.35992587332907899 0 0.15106426489162381 0.34100742616062868 0 0.13945032844753491 0.34376919432611591 0 0.13789698515453469 0.36310802963262651 0 0.15106426489162381 0.34100742616062868 0 0.13789698515453469 0.36310802963262651 0 0.1467584990137763 0.4040651221175422 0 0.14210244306226891 0.38522069359930089 0 0.15731897431520189 0.39612755452260012 0 0.1467584990137763 0.4040651221175422 0 0.15781461516856951 0.4143744250802458 0 0.15731897431520189 0.39612755452260012 0 0.1467584990137763 0.4040651221175422 0 0.14210244306226891 0.38522069359930089 0 0.1336307633236567 0.40586874196019762 0 0.14210244306226891 0.38522069359930089 0 0.15731897431520189 0.39612755452260012 0 0.15686601537402869 0.37960041679045931 0 0.14907622742384771 0.37108684414977161 0 0.14210244306226891 0.38522069359930089 0 0.15686601537402869 0.37960041679045931 0 0.1247297054174472 0.38520863310462528 0 0.13789698515453469 0.36310802963262651 0 0.14210244306226891 0.38522069359930089 0 0.1228898439220637 0.40691519272192928 0 0.1247297054174472 0.38520863310462528 0 0.1336307633236567 0.40586874196019762 0 0.1247297054174472 0.38520863310462528 0 0.14210244306226891 0.38522069359930089 0 0.1336307633236567 0.40586874196019762 0 0.1228898439220637 0.40691519272192928 0 0.1336307633236567 0.40586874196019762 0 0.129314527259901 0.41740981665680182 0 0.1336307633236567 0.40586874196019762 0 0.129314527259901 0.41740981665680182 0 0.14292569919918449 0.41873419542536661 0 0.11521179792895379 0.41877953531139778 0 0.129314527259901 0.41740981665680182 0 0.13261224599870369 0.43342361536898111 0 0.129314527259901 0.41740981665680182 0 0.13261224599870369 0.43342361536898111 0 0.14292569919918449 0.41873419542536661 0 0.13261224599870369 0.43342361536898111 0 0.1600120266902785 0.42927566478417228 0 0.15160308296811731 0.4387225207964085 0 0.13261224599870369 0.43342361536898111 0 0.14292569919918449 0.41873419542536661 0 0.1600120266902785 0.42927566478417228 0 0.13261224599870369 0.43342361536898111 0 0.1600120266902785 0.42927566478417228 0 0.14292569919918449 0.41873419542536661 0 0.15781461516856951 0.4143744250802458 0 0.1600120266902785 0.42927566478417228 0 0.1467584990137763 0.4040651221175422 0 0.1336307633236567 0.40586874196019762 0 0.14292569919918449 0.41873419542536661 0 0.1467584990137763 0.4040651221175422 0 0.14292569919918449 0.41873419542536661 0 0.15781461516856951 0.4143744250802458 0 0.15781461516856951 0.4143744250802458 0 0.17179982933974219 0.41430799974539018 0 0.1600120266902785 0.42927566478417228 0 0.15781461516856951 0.4143744250802458 0 0.17179982933974219 0.41430799974539018 0 0.17044706356683259 0.40143331444801927 0 0.1600120266902785 0.42927566478417228 0 0.17503484776745171 0.43736500595028199 0 0.1610682553715472 0.44523332029320928 0 0.1600120266902785 0.42927566478417228 0 0.18741180738185331 0.42512771419936329 0 0.17503484776745171 0.43736500595028199 0 0.17179982933974219 0.41430799974539018 0 0.1600120266902785 0.42927566478417228 0 0.18741180738185331 0.42512771419936329 0 0.1600120266902785 0.42927566478417228 0 0.18741180738185331 0.42512771419936329 0 0.18741180738185331 0.42512771419936329 0 0.1834044715798108 0.39952942678558862 0 0.17179982933974219 0.41430799974539018 0 0.18741180738185331 0.42512771419936329 0 0.1834044715798108 0.39952942678558862 0 0.1834044715798108 0.39952942678558862 0 0.17044706356683259 0.40143331444801927 0 0.1691524968530663 0.38674680150727397 0 0.17179982933974219 0.41430799974539018 0 0.1834044715798108 0.39952942678558862 0 0.17044706356683259 0.40143331444801927 0 0.15781461516856951 0.4143744250802458 0 0.17044706356683259 0.40143331444801927 0 0.15731897431520189 0.39612755452260012 0 0.17044706356683259 0.40143331444801927 0 0.15731897431520189 0.39612755452260012 0 0.1691524968530663 0.38674680150727397 0 0.15731897431520189 0.39612755452260012 0 0.15686601537402869 0.37960041679045931 0 0.1691524968530663 0.38674680150727397 0 0.1655032831331037 0.37262698187430537 0 0.15686601537402869 0.37960041679045931 0 0.1691524968530663 0.38674680150727397 0 0.17939713577776861 0.37393113937181388 0 0.1655032831331037 0.37262698187430537 0 0.1691524968530663 0.38674680150727397 0 0.17939713577776861 0.37393113937181388 0 0.1834044715798108 0.39952942678558862 0 0.17939713577776861 0.37393113937181388 0 0.1834044715798108 0.39952942678558862 0 0.1691524968530663 0.38674680150727397 0 0.17939713577776861 0.37393113937181388 0 0.1834044715798108 0.39952942678558862 0 0.1901724835992161 0.38645244237883059 0 0.19104119868183281 0.37480778511555912 0 0.17939713577776861 0.37393113937181388 0 0.1901724835992161 0.38645244237883059 0 0.17939713577776861 0.37393113937181388 0 0.1901724835992161 0.38645244237883059 0 0.19104119868183281 0.37480778511555912 0 0.1901724835992161 0.38645244237883059 0 0.2028491065072541 0.38674456173947408 0 0.20498243612151459 0.37456439500473532 0 0.19104119868183281 0.37480778511555912 0 0.2028491065072541 0.38674456173947408 0 0.1834044715798108 0.39952942678558862 0 0.19220900513016029 0.40108133854833922 0 0.19387298137629341 0.41106243063064152 0 0.1834044715798108 0.39952942678558862 0 0.1901724835992161 0.38645244237883059 0 0.19220900513016029 0.40108133854833922 0 0.1901724835992161 0.38645244237883059 0 0.19220900513016029 0.40108133854833922 0 0.20094783142066339 0.39897374538584751 0 0.1901724835992161 0.38645244237883059 0 0.20094783142066339 0.39897374538584751 0 0.1901724835992161 0.38645244237883059 0 0.2028491065072541 0.38674456173947408 0 0.20094783142066339 0.39897374538584751 0 0.19220900513016029 0.40108133854833922 0 0.20094783142066339 0.39897374538584751 0 0.19387298137629341 0.41106243063064152 0 0.20094783142066339 0.39897374538584751 0 0.21016325052823301 0.39721964898946371 0 0.2078485520747263 0.41014338877823542 0 0.21016325052823301 0.39721964898946371 0 0.2141890610284948 0.40553009844347759 0 0.2078485520747263 0.41014338877823542 0 0.2028491065072541 0.38674456173947408 0 0.20094783142066339 0.39897374538584751 0 0.21016325052823301 0.39721964898946371 0 0.21016325052823301 0.39721964898946371 0 0.2141890610284948 0.40553009844347759 0 0.2220221878649894 0.40569146725154381 0 0.23059554708814539 0.36974175760022759 0 0.20498243612151459 0.37456439500473532 0 0.21443738195578049 0.38322126339138579 0 0.20498243612151459 0.37456439500473532 0 0.2028491065072541 0.38674456173947408 0 0.21443738195578049 0.38322126339138579 0 0.2028491065072541 0.38674456173947408 0 0.21016325052823301 0.39721964898946371 0 0.21443738195578049 0.38322126339138579 0 0.21016325052823301 0.39721964898946371 0 0.21443738195578049 0.38322126339138579 0 0.22359656953375509 0.38783595362302831 0 0.23059554708814539 0.36974175760022759 0 0.2304380275340889 0.3923765501978374 0 0.2397198677343686 0.39497082318264393 0 0.23059554708814539 0.36974175760022759 0 0.21443738195578049 0.38322126339138579 0 0.22359656953375509 0.38783595362302831 0 0.23059554708814539 0.36974175760022759 0 0.22359656953375509 0.38783595362302831 0 0.2304380275340889 0.3923765501978374 0 0.21016325052823301 0.39721964898946371 0 0.2220221878649894 0.40569146725154381 0 0.2356750239717936 0.40059184318073632 0 0.21016325052823301 0.39721964898946371 0 0.2304380275340889 0.3923765501978374 0 0.2356750239717936 0.40059184318073632 0 0.21016325052823301 0.39721964898946371 0 0.22359656953375509 0.38783595362302831 0 0.2304380275340889 0.3923765501978374 0 0.21016325052823301 0.39721964898946371 0 0.2356750239717936 0.40059184318073632 0 0.2397198677343686 0.39497082318264393 0 0.2356750239717936 0.40059184318073632 0 0.26118679741535422 0.40396403737200881 0 0.2304380275340889 0.3923765501978374 0 0.2397198677343686 0.39497082318264393 0 0.2356750239717936 0.40059184318073632 0 0.2356750239717936 0.40059184318073632 0 0.26118679741535422 0.40396403737200881 0 0.2356750239717936 0.40059184318073632 0 0.24872671936029961 0.41395586974232651 0 0.26118679741535422 0.40396403737200881 0 0.23059554708814539 0.36974175760022759 0 0.2397198677343686 0.39497082318264393 0 0.24611831047954921 0.37857245326899941 0 0.23059554708814539 0.36974175760022759 0 0.2397198677343686 0.39497082318264393 0 0.2397198677343686 0.39497082318264393 0 0.24611831047954921 0.37857245326899941 0 0.25739833653303279 0.38476182716191198 0 0.2458931291187357 0.42842891397166061 0 0.22900627925181369 0.42712611286733898 0 0.23229541718022281 0.44128409449633571 0 0.2458931291187357 0.42842891397166061 0 0.23304897312092379 0.41438697922597317 0 0.22900627925181369 0.42712611286733898 0 0.2356750239717936 0.40059184318073632 0 0.24872671936029961 0.41395586974232651 0 0.23304897312092379 0.41438697922597317 0 0.2458931291187357 0.42842891397166061 0 0.24872671936029961 0.41395586974232651 0 0.23304897312092379 0.41438697922597317 0 0.23304897312092379 0.41438697922597317 0 0.2202462971076263 0.42015702328789167 0 0.22900627925181369 0.42712611286733898 0 0.2220221878649894 0.40569146725154381 0 0.2356750239717936 0.40059184318073632 0 0.23304897312092379 0.41438697922597317 0 0.2220221878649894 0.40569146725154381 0 0.23304897312092379 0.41438697922597317 0 0.2202462971076263 0.42015702328789167 0 0.2141890610284948 0.40553009844347759 0 0.2220221878649894 0.40569146725154381 0 0.2202462971076263 0.42015702328789167 0 0.2202462971076263 0.42015702328789167 0 0.22900627925181369 0.42712611286733898 0 0.21766218757026989 0.43242616987388049 0 0.22900627925181369 0.42712611286733898 0 0.21766218757026989 0.43242616987388049 0 0.23229541718022281 0.44128409449633571 0 0.21766218757026989 0.43242616987388049 0 0.20382905224473979 0.42264236874362748 0 0.20364688667653461 0.43876319301034361 0 0.2202462971076263 0.42015702328789167 0 0.21766218757026989 0.43242616987388049 0 0.20382905224473979 0.42264236874362748 0 0.2202462971076263 0.42015702328789167 0 0.20382905224473979 0.42264236874362748 0 0.2078485520747263 0.41014338877823542 0 0.2202462971076263 0.42015702328789167 0 0.20382905224473979 0.42264236874362748 0 0.2141890610284948 0.40553009844347759 0 0.2202462971076263 0.42015702328789167 0 0.2078485520747263 0.41014338877823542 0 0.18741180738185331 0.42512771419936329 0 0.20382905224473979 0.42264236874362748 0 0.19387298137629341 0.41106243063064152 0 0.18741180738185331 0.42512771419936329 0 0.1834044715798108 0.39952942678558862 0 0.19387298137629341 0.41106243063064152 0 0.20094783142066339 0.39897374538584751 0 0.2078485520747263 0.41014338877823542 0 0.19387298137629341 0.41106243063064152 0 0.20382905224473979 0.42264236874362748 0 0.2078485520747263 0.41014338877823542 0 0.19387298137629341 0.41106243063064152 0 0.18741180738185331 0.42512771419936329 0 0.20382905224473979 0.42264236874362748 0 0.18741180738185331 0.42512771419936329 0 0.20382905224473979 0.42264236874362748 0 0.20364688667653461 0.43876319301034361 0 0.19159965863202549 0.45187910845322282 0 0.20854402910834671 0.45697218647326809 0 0.20364688667653461 0.43876319301034361 0 0.18741180738185331 0.42512771419936329 0 0.19159965863202549 0.45187910845322282 0 0.18741180738185331 0.42512771419936329 0 0.19159965863202549 0.45187910845322282 0 0.20364688667653461 0.43876319301034361 0 0.19159965863202549 0.45187910845322282 0 0.19680380751962001 0.46689534575580172 0 0.20854402910834671 0.45697218647326809 0 0.20854402910834671 0.45697218647326809 0 0.22558124675700519 0.45702494273067168 0 0.21679623311627519 0.468852562891719 0 0.19680380751962001 0.46689534575580172 0 0.20854402910834671 0.45697218647326809 0 0.21679623311627519 0.468852562891719 0 0.20854402910834671 0.45697218647326809 0 0.2169491929606826 0.44458422683774562 0 0.22558124675700519 0.45702494273067168 0 0.20854402910834671 0.45697218647326809 0 0.20364688667653461 0.43876319301034361 0 0.2169491929606826 0.44458422683774562 0 0.21766218757026989 0.43242616987388049 0 0.20364688667653461 0.43876319301034361 0 0.2169491929606826 0.44458422683774562 0 0.21766218757026989 0.43242616987388049 0 0.2169491929606826 0.44458422683774562 0 0.23229541718022281 0.44128409449633571 0 0.2169491929606826 0.44458422683774562 0 0.23229541718022281 0.44128409449633571 0 0.22558124675700519 0.45702494273067168 0 0.23229541718022281 0.44128409449633571 0 0.22558124675700519 0.45702494273067168 0 0.24320822895626851 0.45758955396141882 0 0.22558124675700519 0.45702494273067168 0 0.24320822895626851 0.45758955396141882 0 0.2306300763700323 0.47541304393170991 0 0.22558124675700519 0.45702494273067168 0 0.2306300763700323 0.47541304393170991 0 0.21679623311627519 0.468852562891719 0 0.23229541718022281 0.44128409449633571 0 0.24320822895626851 0.45758955396141882 0 0.24755242086081769 0.44361776020681548 0 0.2458931291187357 0.42842891397166061 0 0.23229541718022281 0.44128409449633571 0 0.24755242086081769 0.44361776020681548 0 0.24320822895626851 0.45758955396141882 0 0.2306300763700323 0.47541304393170991 0 0.25484251403106117 0.47708638967063932 0 0.2364298638234667 0.5 0 0.2306300763700323 0.47541304393170991 0 0.25484251403106117 0.47708638967063932 0 0.2306300763700323 0.47541304393170991 0 0.21679623311627519 0.468852562891719 0 0.21589310955363791 0.47912957901903003 0 0.2306300763700323 0.47541304393170991 0 0.21994239089475481 0.48959771855491979 0 0.21589310955363791 0.47912957901903003 0 0.2364298638234667 0.5 0 0.2306300763700323 0.47541304393170991 0 0.21994239089475481 0.48959771855491979 0 0.2364298638234667 0.5 0 0.21994239089475481 0.48959771855491979 0 0.20976564141676721 0.5 0 0.21994239089475481 0.48959771855491979 0 0.20976564141676721 0.5 0 0.2096448729773592 0.49825366756070949 0 0.21994239089475481 0.48959771855491979 0 0.21130006171033261 0.48729056407690918 0 0.2096448729773592 0.49825366756070949 0 0.21994239089475481 0.48959771855491979 0 0.21130006171033261 0.48729056407690918 0 0.21589310955363791 0.47912957901903003 0 0.21130006171033261 0.48729056407690918 0 0.204094061620158 0.48640667610472982 0 0.2096448729773592 0.49825366756070949 0 0.20976564141676721 0.5 0 0.2096448729773592 0.49825366756070949 0 0.19789004403173491 0.49479334332717861 0 0.19680380751962001 0.46689534575580172 0 0.21679623311627519 0.468852562891719 0 0.20638306907019449 0.47916276703329558 0 0.21679623311627519 0.468852562891719 0 0.21589310955363791 0.47912957901903003 0 0.20638306907019449 0.47916276703329558 0 0.21130006171033261 0.48729056407690918 0 0.21589310955363791 0.47912957901903003 0 0.20638306907019449 0.47916276703329558 0 0.21130006171033261 0.48729056407690918 0 0.204094061620158 0.48640667610472982 0 0.20638306907019449 0.47916276703329558 0 0.19680380751962001 0.46689534575580172 0 0.20638306907019449 0.47916276703329558 0 0.1890482427227457 0.48091970574800491 0 0.204094061620158 0.48640667610472982 0 0.20638306907019449 0.47916276703329558 0 0.1890482427227457 0.48091970574800491 0 0.2096448729773592 0.49825366756070949 0 0.1890482427227457 0.48091970574800491 0 0.20976564141676721 0.5 0 0.19789004403173491 0.49479334332717861 0 0.1831014190100676 0.50000000000000355 0 0.204094061620158 0.48640667610472982 0 0.2096448729773592 0.49825366756070949 0 0.1890482427227457 0.48091970574800491 0 0.1890482427227457 0.48091970574800491 0 0.19789004403173491 0.49479334332717861 0 0.1831014190100676 0.50000000000000355 0 0.2096448729773592 0.49825366756070949 0 0.1890482427227457 0.48091970574800491 0 0.19789004403173491 0.49479334332717861 0 0.1831014190100676 0.50000000000000355 0 0.17577651573909969 0.48179287196765191 0 0.1890482427227457 0.48091970574800491 0 0.1831014190100676 0.50000000000000355 0 0.17577651573909969 0.48179287196765191 0 0.1831014190100676 0.50000000000000355 0 0.17577651573909969 0.48179287196765191 0 0.15357425247858231 0.5 0 0.16066227390535121 0.47684992854747899 0 0.17577651573909969 0.48179287196765191 0 0.15357425247858231 0.5 0 0.16066227390535121 0.47684992854747899 0 0.17577651573909969 0.48179287196765191 0 0.16845161246813259 0.46358574393529989 0 0.19680380751962001 0.46689534575580172 0 0.1890482427227457 0.48091970574800491 0 0.16845161246813259 0.46358574393529989 0 0.1890482427227457 0.48091970574800491 0 0.17577651573909969 0.48179287196765191 0 0.16845161246813259 0.46358574393529989 0 0.17577651573909969 0.48179287196765191 0 0.16845161246813259 0.46358574393529989 0 0.1890482427227457 0.48091970574800491 0 0.16845161246813259 0.46358574393529989 0 0.19159965863202549 0.45187910845322282 0 0.17412107707704089 0.44981428021806102 0 0.16845161246813259 0.46358574393529989 0 0.19159965863202549 0.45187910845322282 0 0.19680380751962001 0.46689534575580172 0 0.16845161246813259 0.46358574393529989 0 0.18741180738185331 0.42512771419936329 0 0.17503484776745171 0.43736500595028199 0 0.19159965863202549 0.45187910845322282 0 0.17503484776745171 0.43736500595028199 0 0.19159965863202549 0.45187910845322282 0 0.17412107707704089 0.44981428021806102 0 0.1600120266902785 0.42927566478417228 0 0.1610682553715472 0.44523332029320928 0 0.15160308296811731 0.4387225207964085 0 0.17412107707704089 0.44981428021806102 0 0.1610682553715472 0.44523332029320928 0 0.16845161246813259 0.46358574393529989 0 0.1610682553715472 0.44523332029320928 0 0.16845161246813259 0.46358574393529989 0 0.1505319292334181 0.44850467965214058 0 0.17503484776745171 0.43736500595028199 0 0.17412107707704089 0.44981428021806102 0 0.1610682553715472 0.44523332029320928 0 0.16845161246813259 0.46358574393529989 0 0.1505319292334181 0.44850467965214058 0 0.16845161246813259 0.46358574393529989 0 0.15367538487188531 0.46414630256470002 0 0.1505319292334181 0.44850467965214058 0 0.1610682553715472 0.44523332029320928 0 0.16845161246813259 0.46358574393529989 0 0.16066227390535121 0.47684992854747899 0 0.16845161246813259 0.46358574393529989 0 0.15367538487188531 0.46414630256470002 0 0.15367538487188531 0.46414630256470002 0 0.14304315552155331 0.45849918924861433 0 0.1505319292334181 0.44850467965214058 0 0.15367538487188531 0.46414630256470002 0 0.14304315552155331 0.45849918924861433 0 0.14568795323097131 0.47329197143996599 0 0.13261224599870369 0.43342361536898111 0 0.1505319292334181 0.44850467965214058 0 0.13261224599870369 0.43342361536898111 0 0.15160308296811731 0.4387225207964085 0 0.1505319292334181 0.44850467965214058 0 0.14304315552155331 0.45849918924861433 0 0.1505319292334181 0.44850467965214058 0 0.13326097764480141 0.45124752558027631 0 0.1610682553715472 0.44523332029320928 0 0.15160308296811731 0.4387225207964085 0 0.1505319292334181 0.44850467965214058 0 0.13261224599870369 0.43342361536898111 0 0.1505319292334181 0.44850467965214058 0 0.13326097764480141 0.45124752558027631 0 0.11974777278743449 0.44895406130012061 0 0.13261224599870369 0.43342361536898111 0 0.13326097764480141 0.45124752558027631 0 0.14304315552155331 0.45849918924861433 0 0.13326097764480141 0.45124752558027631 0 0.12632469758704451 0.46411131233231723 0 0.14304315552155331 0.45849918924861433 0 0.12632469758704451 0.46411131233231723 0 0.14568795323097131 0.47329197143996599 0 0.11974777278743449 0.44895406130012061 0 0.13326097764480141 0.45124752558027631 0 0.12632469758704451 0.46411131233231723 0 0.12632469758704451 0.46411131233231723 0 0.13214926376350999 0.48336432913479449 0 0.14568795323097131 0.47329197143996599 0 0.1240470859470971 0.5 0 0.13214926376350999 0.48336432913479449 0 0.15357425247858231 0.5 0 0.13214926376350999 0.48336432913479449 0 0.15357425247858231 0.5 0 0.14568795323097131 0.47329197143996599 0 0.16066227390535121 0.47684992854747899 0 0.15357425247858231 0.5 0 0.14568795323097131 0.47329197143996599 0 0.16066227390535121 0.47684992854747899 0 0.15367538487188531 0.46414630256470002 0 0.14568795323097131 0.47329197143996599 0 0.34504010890232772 0.5 0 0.36256070577383859 0.47915797926255538 0 0.38298511342434882 0.5 0 0.36256070577383859 0.47915797926255538 0 0.35413176018000542 0.45994263904701521 0 0.3354476787506937 0.47405689331235229 0 0.34504010890232772 0.5 0 0.36256070577383859 0.47915797926255538 0 0.3354476787506937 0.47405689331235229 0 0.36256070577383859 0.47915797926255538 0 0.37342051237663287 0.45418948423974731 0 0.38006529077378431 0.4755482296866595 0 0.36256070577383859 0.47915797926255538 0 0.37342051237663287 0.45418948423974731 0 0.35413176018000542 0.45994263904701521 0 0.37342051237663287 0.45418948423974731 0 0.35598065458449768 0.441620675398672 0 0.36615664956642607 0.42097129660082833 0 0.37342051237663287 0.45418948423974731 0 0.35598065458449768 0.441620675398672 0 0.35413176018000542 0.45994263904701521 0 0.35598065458449768 0.441620675398672 0 0.33834454578258649 0.44517897453121907 0 0.34682799176021661 0.42667323497235632 0 0.35598065458449768 0.441620675398672 0 0.35413176018000542 0.45994263904701521 0 0.33834454578258649 0.44517897453121907 0 0.35413176018000542 0.45994263904701521 0 0.33834454578258649 0.44517897453121907 0 0.3354476787506937 0.47405689331235229 0 0.33834454578258649 0.44517897453121907 0 0.32094602374112258 0.4546421420317287 0 0.3354476787506937 0.47405689331235229 0 0.33834454578258649 0.44517897453121907 0 0.32094602374112258 0.4546421420317287 0 0.32376712044880313 0.43717772584442932 0 0.32094602374112258 0.4546421420317287 0 0.31032140384582718 0.43824403078107987 0 0.32376712044880313 0.43717772584442932 0 0.32094602374112258 0.4546421420317287 0 0.3354476787506937 0.47405689331235229 0 0.30929478317765269 0.47845625365888222 0 0.3354476787506937 0.47405689331235229 0 0.3164225310435651 0.49999999999999978 0 0.30929478317765269 0.47845625365888222 0 0.34504010890232772 0.5 0 0.3354476787506937 0.47405689331235229 0 0.3164225310435651 0.49999999999999978 0 0.3164225310435651 0.49999999999999978 0 0.30929478317765269 0.47845625365888222 0 0.3164225310435651 0.49999999999999978 0 0.30929478317765269 0.47845625365888222 0 0.28975830863686558 0.5 0 0.30929478317765269 0.47845625365888222 0 0.28833754709404869 0.47454142531413129 0 0.30216703531174022 0.45691250731776462 0 0.30929478317765269 0.47845625365888222 0 0.28833754709404869 0.47454142531413129 0 0.28975830863686558 0.5 0 0.28833754709404869 0.47454142531413129 0 0.28975830863686558 0.5 0 0.27260042690577008 0.48390941227199707 0 0.28975830863686558 0.5 0 0.27260042690577008 0.48390941227199707 0 0.26309408623016622 0.5 0 0.27260042690577008 0.48390941227199707 0 0.25484251403106117 0.47708638967063932 0 0.27291414087561711 0.46472587010208832 0 0.28833754709404869 0.47454142531413129 0 0.27260042690577008 0.48390941227199707 0 0.27291414087561711 0.46472587010208832 0 0.2364298638234667 0.5 0 0.25484251403106117 0.47708638967063932 0 0.26309408623016622 0.5 0 0.27260042690577008 0.48390941227199707 0 0.25484251403106117 0.47708638967063932 0 0.26309408623016622 0.5 0 0.24320822895626851 0.45758955396141882 0 0.24755242086081769 0.44361776020681548 0 0.25940836708777681 0.45575443252263509 0 0.24755242086081769 0.44361776020681548 0 0.26088555885966452 0.43854596935185158 0 0.25940836708777681 0.45575443252263509 0 0.26088555885966452 0.43854596935185158 0 0.25940836708777681 0.45575443252263509 0 0.27209365277259068 0.44685637240964932 0 0.24320822895626851 0.45758955396141882 0 0.25484251403106117 0.47708638967063932 0 0.25940836708777681 0.45575443252263509 0 0.25484251403106117 0.47708638967063932 0 0.25940836708777681 0.45575443252263509 0 0.27291414087561711 0.46472587010208832 0 0.27291414087561711 0.46472587010208832 0 0.27209365277259068 0.44685637240964932 0 0.28578392392805041 0.45282071921369332 0 0.25940836708777681 0.45575443252263509 0 0.27291414087561711 0.46472587010208832 0 0.27209365277259068 0.44685637240964932 0 0.27209365277259068 0.44685637240964932 0 0.28578392392805041 0.45282071921369332 0 0.28263323785930672 0.43483347550832741 0 0.26088555885966452 0.43854596935185158 0 0.27209365277259068 0.44685637240964932 0 0.27070194944736459 0.43450608974135091 0 0.27209365277259068 0.44685637240964932 0 0.28263323785930672 0.43483347550832741 0 0.27070194944736459 0.43450608974135091 0 0.28578392392805041 0.45282071921369332 0 0.29503928744582769 0.43536876097664701 0 0.28263323785930672 0.43483347550832741 0 0.28578392392805041 0.45282071921369332 0 0.30216703531174022 0.45691250731776462 0 0.29503928744582769 0.43536876097664701 0 0.28833754709404869 0.47454142531413129 0 0.27291414087561711 0.46472587010208832 0 0.28578392392805041 0.45282071921369332 0 0.28833754709404869 0.47454142531413129 0 0.28578392392805041 0.45282071921369332 0 0.30216703531174022 0.45691250731776462 0 0.30929478317765269 0.47845625365888222 0 0.30216703531174022 0.45691250731776462 0 0.32094602374112258 0.4546421420317287 0 0.30929478317765269 0.47845625365888222 0 0.30216703531174022 0.45691250731776462 0 0.30216703531174022 0.45691250731776462 0 0.29503928744582769 0.43536876097664701 0 0.30216703531174022 0.45691250731776462 0 0.31032140384582718 0.43824403078107987 0 0.29503928744582769 0.43536876097664701 0 0.32094602374112258 0.4546421420317287 0 0.30216703531174022 0.45691250731776462 0 0.31032140384582718 0.43824403078107987 0 0.31032140384582718 0.43824403078107987 0 0.30385125876953301 0.42415456392463152 0 0.31896066535466971 0.427970444499439 0 0.31032140384582718 0.43824403078107987 0 0.30385125876953301 0.42415456392463152 0 0.29503928744582769 0.43536876097664701 0 0.31221034430247568 0.41070842575455391 0 0.28669857085891493 0.40733623156328141 0 0.30385125876953301 0.42415456392463152 0 0.31221034430247568 0.41070842575455391 0 0.28669857085891493 0.40733623156328141 0 0.28669857085891493 0.40733623156328141 0 0.28935918726603221 0.42177873245385622 0 0.26782967317469042 0.42240757496125342 0 0.30385125876953301 0.42415456392463152 0 0.28669857085891493 0.40733623156328141 0 0.28935918726603221 0.42177873245385622 0 0.30385125876953301 0.42415456392463152 0 0.29503928744582769 0.43536876097664701 0 0.28263323785930672 0.43483347550832741 0 0.30385125876953301 0.42415456392463152 0 0.28263323785930672 0.43483347550832741 0 0.30385125876953301 0.42415456392463152 0 0.28935918726603221 0.42177873245385622 0 0.28263323785930672 0.43483347550832741 0 0.28263323785930672 0.43483347550832741 0 0.27070194944736459 0.43450608974135091 0 0.26782967317469042 0.42240757496125342 0 0.26088555885966452 0.43854596935185158 0 0.27070194944736459 0.43450608974135091 0 0.26782967317469042 0.42240757496125342 0 0.28935918726603221 0.42177873245385622 0 0.28263323785930672 0.43483347550832741 0 0.26782967317469042 0.42240757496125342 0 0.28669857085891493 0.40733623156328141 0 0.26782967317469042 0.42240757496125342 0 0.26118679741535422 0.40396403737200881 0 0.2458931291187357 0.42842891397166061 0 0.24872671936029961 0.41395586974232651 0 0.26782967317469042 0.42240757496125342 0 0.24872671936029961 0.41395586974232651 0 0.26782967317469042 0.42240757496125342 0 0.26118679741535422 0.40396403737200881 0 0.2458931291187357 0.42842891397166061 0 0.26088555885966452 0.43854596935185158 0 0.26782967317469042 0.42240757496125342 0 0.2458931291187357 0.42842891397166061 0 0.24755242086081769 0.44361776020681548 0 0.26088555885966452 0.43854596935185158 0 0.24611831047954921 0.37857245326899941 0 0.25739833653303279 0.38476182716191198 0 0.25675949056265018 0.36481540513121419 0 0.25739833653303279 0.38476182716191198 0 0.271435419175656 0.37662009811089692 0 0.25675949056265018 0.36481540513121419 0 0.2397198677343686 0.39497082318264393 0 0.25739833653303279 0.38476182716191198 0 0.26118679741535422 0.40396403737200881 0 0.25739833653303279 0.38476182716191198 0 0.26118679741535422 0.40396403737200881 0 0.27284372518191907 0.39104266772437629 0 0.28669857085891493 0.40733623156328141 0 0.26118679741535422 0.40396403737200881 0 0.28669857085891493 0.40733623156328141 0 0.26118679741535422 0.40396403737200881 0 0.27284372518191907 0.39104266772437629 0 0.27284372518191907 0.39104266772437629 0 0.271435419175656 0.37662009811089692 0 0.28749950192663742 0.38253114441378261 0 0.25739833653303279 0.38476182716191198 0 0.27284372518191907 0.39104266772437629 0 0.271435419175656 0.37662009811089692 0 0.28669857085891493 0.40733623156328141 0 0.27284372518191907 0.39104266772437629 0 0.28749950192663742 0.38253114441378261 0 0.28669857085891493 0.40733623156328141 0 0.28749950192663742 0.38253114441378261 0 0.30385511825626332 0.3918247588853972 0 0.31221034430247568 0.41070842575455391 0 0.30385511825626332 0.3918247588853972 0 0.31887998168169529 0.39749401613975749 0 0.31221034430247568 0.41070842575455391 0 0.28669857085891493 0.40733623156328141 0 0.30385511825626332 0.3918247588853972 0 0.30385511825626332 0.3918247588853972 0 0.30224033662119298 0.37784400861768952 0 0.31630015063874578 0.37536740062008012 0 0.28749950192663742 0.38253114441378261 0 0.30385511825626332 0.3918247588853972 0 0.30224033662119298 0.37784400861768952 0 0.31630015063874578 0.37536740062008012 0 0.3312937256143661 0.38908207068866191 0 0.33254262151634362 0.3744518719731218 0 0.31630015063874578 0.37536740062008012 0 0.3312937256143661 0.38908207068866191 0 0.31887998168169529 0.39749401613975749 0 0.30385511825626332 0.3918247588853972 0 0.31630015063874578 0.37536740062008012 0 0.31887998168169529 0.39749401613975749 0 0.31630015063874578 0.37536740062008012 0 0.3312937256143661 0.38908207068866191 0 0.34338548006844122 0.39091595409234919 0 0.35232896398270758 0.37501288924442761 0 0.33254262151634362 0.3744518719731218 0 0.3312937256143661 0.38908207068866191 0 0.34338548006844122 0.39091595409234919 0 0.33254262151634362 0.3744518719731218 0 0.3312937256143661 0.38908207068866191 0 0.33038257189145193 0.40071211998164941 0 0.34628730058998719 0.4027967407572427 0 0.33038257189145193 0.40071211998164941 0 0.32506927967975929 0.41347565234093547 0 0.34628730058998719 0.4027967407572427 0 0.3312937256143661 0.38908207068866191 0 0.34628730058998719 0.4027967407572427 0 0.3312937256143661 0.38908207068866191 0 0.34338548006844122 0.39091595409234919 0 0.34628730058998719 0.4027967407572427 0 0.33038257189145193 0.40071211998164941 0 0.31887998168169529 0.39749401613975749 0 0.32506927967975929 0.41347565234093547 0 0.3312937256143661 0.38908207068866191 0 0.33038257189145193 0.40071211998164941 0 0.31887998168169529 0.39749401613975749 0 0.30385125876953301 0.42415456392463152 0 0.32506927967975929 0.41347565234093547 0 0.30385125876953301 0.42415456392463152 0 0.31221034430247568 0.41070842575455391 0 0.32506927967975929 0.41347565234093547 0 0.31221034430247568 0.41070842575455391 0 0.31887998168169529 0.39749401613975749 0 0.32506927967975929 0.41347565234093547 0 0.30385125876953301 0.42415456392463152 0 0.32506927967975929 0.41347565234093547 0 0.31896066535466971 0.427970444499439 0 0.31032140384582718 0.43824403078107987 0 0.31896066535466971 0.427970444499439 0 0.32376712044880313 0.43717772584442932 0 0.32506927967975929 0.41347565234093547 0 0.31896066535466971 0.427970444499439 0 0.33179426402942541 0.42680024960611829 0 0.31896066535466971 0.427970444499439 0 0.32376712044880313 0.43717772584442932 0 0.33179426402942541 0.42680024960611829 0 0.33834454578258649 0.44517897453121907 0 0.33179426402942541 0.42680024960611829 0 0.34682799176021661 0.42667323497235632 0 0.33834454578258649 0.44517897453121907 0 0.32376712044880313 0.43717772584442932 0 0.33179426402942541 0.42680024960611829 0 0.33179426402942541 0.42680024960611829 0 0.33990053177696589 0.41681397240214779 0 0.34682799176021661 0.42667323497235632 0 0.32506927967975929 0.41347565234093547 0 0.33990053177696589 0.41681397240214779 0 0.34628730058998719 0.4027967407572427 0 0.32506927967975929 0.41347565234093547 0 0.34628730058998719 0.4027967407572427 0 0.32506927967975929 0.41347565234093547 0 0.33179426402942541 0.42680024960611829 0 0.33990053177696589 0.41681397240214779 0 0.34979311842339889 0.41681381118314381 0 0.34682799176021661 0.42667323497235632 0 0.36615664956642607 0.42097129660082833 0 0.33990053177696589 0.41681397240214779 0 0.34979311842339889 0.41681381118314381 0 0.34628730058998719 0.4027967407572427 0 0.34979311842339889 0.41681381118314381 0 0.36615664956642607 0.42097129660082833 0 0.34628730058998719 0.4027967407572427 0 0.36615664956642607 0.42097129660082833 0 0.34628730058998719 0.4027967407572427 0 0.35119865491492192 0.40032488351786261 0 0.36615664956642607 0.42097129660082833 0 0.34628730058998719 0.4027967407572427 0 0.33990053177696589 0.41681397240214779 0 0.34979311842339889 0.41681381118314381 0 0.34682799176021661 0.42667323497235632 0 0.35598065458449768 0.441620675398672 0 0.34682799176021661 0.42667323497235632 0 0.36615664956642607 0.42097129660082833 0 0.36615664956642607 0.42097129660082833 0 0.36759863371521428 0.40354925676342052 0 0.35119865491492192 0.40032488351786261 0 0.36615664956642607 0.42097129660082833 0 0.36759863371521428 0.40354925676342052 0 0.38551277727525829 0.41312145031594122 0 0.36759863371521428 0.40354925676342052 0 0.36839807329920171 0.38655608180881118 0 0.35572659650772809 0.38861638604327148 0 0.36839807329920171 0.38655608180881118 0 0.35232896398270758 0.37501288924442761 0 0.37615097045554019 0.36929213309043618 0 0.36839807329920171 0.38655608180881118 0 0.35232896398270758 0.37501288924442761 0 0.35572659650772809 0.38861638604327148 0 0.34338548006844122 0.39091595409234919 0 0.35232896398270758 0.37501288924442761 0 0.35572659650772809 0.38861638604327148 0 0.36759863371521428 0.40354925676342052 0 0.35572659650772809 0.38861638604327148 0 0.35119865491492192 0.40032488351786261 0 0.34338548006844122 0.39091595409234919 0 0.35572659650772809 0.38861638604327148 0 0.35119865491492192 0.40032488351786261 0 0.34338548006844122 0.39091595409234919 0 0.34628730058998719 0.4027967407572427 0 0.35119865491492192 0.40032488351786261 0 0.34628730058998719 0.4027967407572427 0 0.35119865491492192 0.40032488351786261 0 0.35232896398270758 0.37501288924442761 0 0.3611442793721879 0.34735332184701773 0 0.33426216186304353 0.35753297877136958 0 0.35232896398270758 0.37501288924442761 0 0.3611442793721879 0.34735332184701773 0 0.37615097045554019 0.36929213309043618 0 0.3611442793721879 0.34735332184701773 0 0.38326992983864189 0.35263193291368089 0 0.37615097045554019 0.36929213309043618 0 0.3611442793721879 0.34735332184701773 0 0.37615097045554019 0.36929213309043618 0 0.3611442793721879 0.34735332184701773 0 0.36519297470899131 0.32967207916316071 0 0.38077080922692091 0.33603226727092628 0 0.36519297470899131 0.32967207916316071 0 0.36169712507556062 0.31567705983405853 0 0.38003082919349052 0.31478687680632272 0 0.34613758828883562 0.32541451060359922 0 0.34071991447033978 0.30205371521946761 0 0.35140865641426811 0.31026430792204118 0 0.36519297470899131 0.32967207916316071 0 0.36169712507556062 0.31567705983405853 0 0.34613758828883562 0.32541451060359922 0 0.36169712507556062 0.31567705983405853 0 0.34613758828883562 0.32541451060359922 0 0.35140865641426811 0.31026430792204118 0 0.3611442793721879 0.34735332184701773 0 0.36519297470899131 0.32967207916316071 0 0.34613758828883562 0.32541451060359922 0 0.3611442793721879 0.34735332184701773 0 0.34613758828883562 0.32541451060359922 0 0.33466373996100379 0.33906669506012332 0 0.3611442793721879 0.34735332184701773 0 0.34613758828883562 0.32541451060359922 0 0.34613758828883562 0.32541451060359922 0 0.33466373996100379 0.33906669506012332 0 0.32758213486793508 0.32192005366347792 0 0.34613758828883562 0.32541451060359922 0 0.32758213486793508 0.32192005366347792 0 0.34071991447033978 0.30205371521946761 0 0.32758213486793508 0.32192005366347792 0 0.31106777368561461 0.31371240534265299 0 0.32577338761264402 0.30792443112082107 0 0.32758213486793508 0.32192005366347792 0 0.31444435526553038 0.34178639210748812 0 0.31106777368561461 0.31371240534265299 0 0.33466373996100379 0.33906669506012332 0 0.32758213486793508 0.32192005366347792 0 0.31444435526553038 0.34178639210748812 0 0.32758213486793508 0.32192005366347792 0 0.31444435526553038 0.34178639210748812 0 0.31444435526553038 0.34178639210748812 0 0.31768524693075728 0.3587999384218426 0 0.33426216186304353 0.35753297877136958 0 0.33466373996100379 0.33906669506012332 0 0.31444435526553038 0.34178639210748812 0 0.33426216186304353 0.35753297877136958 0 0.3611442793721879 0.34735332184701773 0 0.33466373996100379 0.33906669506012332 0 0.33426216186304353 0.35753297877136958 0 0.31768524693075728 0.3587999384218426 0 0.33426216186304353 0.35753297877136958 0 0.33254262151634362 0.3744518719731218 0 0.35232896398270758 0.37501288924442761 0 0.33426216186304353 0.35753297877136958 0 0.33254262151634362 0.3744518719731218 0 0.31630015063874578 0.37536740062008012 0 0.31768524693075728 0.3587999384218426 0 0.33254262151634362 0.3744518719731218 0 0.28749950192663742 0.38253114441378261 0 0.30224033662119298 0.37784400861768952 0 0.30130657566312558 0.36165273055149832 0 0.31630015063874578 0.37536740062008012 0 0.31768524693075728 0.3587999384218426 0 0.30130657566312558 0.36165273055149832 0 0.30224033662119298 0.37784400861768952 0 0.31630015063874578 0.37536740062008012 0 0.30130657566312558 0.36165273055149832 0 0.31630015063874578 0.37536740062008012 0 0.30130657566312558 0.36165273055149832 0 0.31444435526553038 0.34178639210748812 0 0.30130657566312558 0.36165273055149832 0 0.29844550479506848 0.34500474284755089 0 0.31444435526553038 0.34178639210748812 0 0.31768524693075728 0.3587999384218426 0 0.30130657566312558 0.36165273055149832 0 0.31444435526553038 0.34178639210748812 0 0.30130657566312558 0.36165273055149832 0 0.30130657566312558 0.36165273055149832 0 0.28209916419838449 0.34408365102651872 0 0.28292343403715497 0.35988905266220089 0 0.30130657566312558 0.36165273055149832 0 0.29844550479506848 0.34500474284755089 0 0.28209916419838449 0.34408365102651872 0 0.30130657566312558 0.36165273055149832 0 0.28209916419838449 0.34408365102651872 0 0.28749950192663742 0.38253114441378261 0 0.30130657566312558 0.36165273055149832 0 0.28292343403715497 0.35988905266220089 0 0.28749950192663742 0.38253114441378261 0 0.30130657566312558 0.36165273055149832 0 0.28292343403715497 0.35988905266220089 0 0.25675949056265018 0.36481540513121419 0 0.271435419175656 0.37662009811089692 0 0.28292343403715497 0.35988905266220089 0 0.25675949056265018 0.36481540513121419 0 0.271435419175656 0.37662009811089692 0 0.28749950192663742 0.38253114441378261 0 0.28292343403715497 0.35988905266220089 0 0.28292343403715497 0.35988905266220089 0 0.26727892668129521 0.34963613927010201 0 0.25675949056265018 0.36481540513121419 0 0.28209916419838449 0.34408365102651872 0 0.28292343403715497 0.35988905266220089 0 0.26727892668129521 0.34963613927010201 0 0.2475914548315612 0.33813087229625288 0 0.26727892668129521 0.34963613927010201 0 0.25675949056265018 0.36481540513121419 0 0.24790645703937389 0.32296368355870397 0 0.2646745969823846 0.32166213626110879 0 0.25612915922623758 0.31145123864081892 0 0.24790645703937389 0.32296368355870397 0 0.2646745969823846 0.32166213626110879 0 0.26551519645924998 0.33505105273450142 0 0.2646745969823846 0.32166213626110879 0 0.26922048735959508 0.30932157524630438 0 0.25612915922623758 0.31145123864081892 0 0.2475914548315612 0.33813087229625288 0 0.26727892668129521 0.34963613927010201 0 0.26551519645924998 0.33505105273450142 0 0.2475914548315612 0.33813087229625288 0 0.24790645703937389 0.32296368355870397 0 0.26551519645924998 0.33505105273450142 0 0.2646745969823846 0.32166213626110879 0 0.26551519645924998 0.33505105273450142 0 0.27816192021316039 0.33164806889721188 0 0.28209916419838449 0.34408365102651872 0 0.26727892668129521 0.34963613927010201 0 0.26551519645924998 0.33505105273450142 0 0.28209916419838449 0.34408365102651872 0 0.26551519645924998 0.33505105273450142 0 0.27816192021316039 0.33164806889721188 0 0.2646745969823846 0.32166213626110879 0 0.27816192021316039 0.33164806889721188 0 0.2774266328334779 0.31903021403279219 0 0.2646745969823846 0.32166213626110879 0 0.2774266328334779 0.31903021403279219 0 0.26922048735959508 0.30932157524630438 0 0.27816192021316039 0.33164806889721188 0 0.29092524574301409 0.31763598528239922 0 0.29593192405323399 0.33249619770469901 0 0.27816192021316039 0.33164806889721188 0 0.2774266328334779 0.31903021403279219 0 0.29092524574301409 0.31763598528239922 0 0.29844550479506848 0.34500474284755089 0 0.28209916419838449 0.34408365102651872 0 0.29593192405323399 0.33249619770469901 0 0.28209916419838449 0.34408365102651872 0 0.27816192021316039 0.33164806889721188 0 0.29593192405323399 0.33249619770469901 0 0.31444435526553038 0.34178639210748812 0 0.29844550479506848 0.34500474284755089 0 0.29593192405323399 0.33249619770469901 0 0.31444435526553038 0.34178639210748812 0 0.29593192405323399 0.33249619770469901 0 0.31106777368561461 0.31371240534265299 0 0.29092524574301409 0.31763598528239922 0 0.29593192405323399 0.33249619770469901 0 0.31106777368561461 0.31371240534265299 0 0.31106777368561461 0.31371240534265299 0 0.30344042662222781 0.29601579765877989 0 0.29596252178929372 0.30529180463724798 0 0.29092524574301409 0.31763598528239922 0 0.31106777368561461 0.31371240534265299 0 0.29596252178929372 0.30529180463724798 0 0.31106777368561461 0.31371240534265299 0 0.30344042662222781 0.29601579765877989 0 0.31932974931472469 0.29678033397199038 0 0.30989350443799413 0.28599975288758062 0 0.30344042662222781 0.29601579765877989 0 0.31932974931472469 0.29678033397199038 0 0.30344042662222781 0.29601579765877989 0 0.29769383733673987 0.28566213016763542 0 0.29029701867292063 0.29183837492954728 0 0.30989350443799413 0.28599975288758062 0 0.30344042662222781 0.29601579765877989 0 0.29769383733673987 0.28566213016763542 0 0.30989350443799413 0.28599975288758062 0 0.29769383733673987 0.28566213016763542 0 0.30033391345438898 0.27808426046821622 0 0.29029701867292063 0.29183837492954728 0 0.27955865045892808 0.30083378932916588 0 0.27627011162793302 0.28425486920211768 0 0.29769383733673987 0.28566213016763542 0 0.29029701867292063 0.29183837492954728 0 0.28885656420240119 0.27897185858233742 0 0.29029701867292063 0.29183837492954728 0 0.27627011162793302 0.28425486920211768 0 0.28885656420240119 0.27897185858233742 0 0.29092524574301409 0.31763598528239922 0 0.29596252178929372 0.30529180463724798 0 0.27955865045892808 0.30083378932916588 0 0.2774266328334779 0.31903021403279219 0 0.29092524574301409 0.31763598528239922 0 0.27955865045892808 0.30083378932916588 0 0.29029701867292063 0.29183837492954728 0 0.29596252178929372 0.30529180463724798 0 0.27955865045892808 0.30083378932916588 0 0.30344042662222781 0.29601579765877989 0 0.29029701867292063 0.29183837492954728 0 0.29596252178929372 0.30529180463724798 0 0.2774266328334779 0.31903021403279219 0 0.27955865045892808 0.30083378932916588 0 0.26922048735959508 0.30932157524630438 0 0.27955865045892808 0.30083378932916588 0 0.26922048735959508 0.30932157524630438 0 0.26213198516283043 0.29381167447740941 0 0.27955865045892808 0.30083378932916588 0 0.27627011162793302 0.28425486920211768 0 0.26213198516283043 0.29381167447740941 0 0.27627011162793302 0.28425486920211768 0 0.26213198516283043 0.29381167447740941 0 0.26286962004287451 0.27498921465087578 0 0.24738217271278659 0.28639169012474208 0 0.26213198516283043 0.29381167447740941 0 0.26286962004287451 0.27498921465087578 0 0.23716555557236491 0.29935187733304403 0 0.26213198516283043 0.29381167447740941 0 0.25612915922623758 0.31145123864081892 0 0.26922048735959508 0.30932157524630438 0 0.26213198516283043 0.29381167447740941 0 0.25612915922623758 0.31145123864081892 0 0.25278039429156129 0.2596539953372326 0 0.26286962004287451 0.27498921465087578 0 0.27565640416508119 0.25725899171724631 0 0.25278039429156129 0.2596539953372326 0 0.27565640416508119 0.25725899171724631 0 0.26106673644232692 0.24422602514900491 0 0.25278039429156129 0.2596539953372326 0 0.27565640416508119 0.25725899171724631 0 0.24173100121513549 0.27464899452781971 0 0.25278039429156129 0.2596539953372326 0 0.26286962004287451 0.27498921465087578 0 0.24173100121513549 0.27464899452781971 0 0.24738217271278659 0.28639169012474208 0 0.26286962004287451 0.27498921465087578 0 0.26286962004287451 0.27498921465087578 0 0.27914659508751177 0.27246672305575709 0 0.27565640416508119 0.25725899171724631 0 0.27627011162793302 0.28425486920211768 0 0.26286962004287451 0.27498921465087578 0 0.27914659508751177 0.27246672305575709 0 0.27565640416508119 0.25725899171724631 0 0.29853241403860131 0.25486398809726252 0 0.27914659508751177 0.27246672305575709 0 0.27565640416508119 0.25725899171724631 0 0.29208027539926867 0.2668586811262082 0 0.27565640416508119 0.25725899171724631 0 0.29208027539926867 0.2668586811262082 0 0.29853241403860131 0.25486398809726252 0 0.27565640416508119 0.25725899171724631 0 0.29853241403860131 0.25486398809726252 0 0.27843784616340123 0.24008916637645239 0 0.27627011162793302 0.28425486920211768 0 0.27914659508751177 0.27246672305575709 0 0.28885656420240119 0.27897185858233742 0 0.27914659508751177 0.27246672305575709 0 0.28885656420240119 0.27897185858233742 0 0.29208027539926867 0.2668586811262082 0 0.28885656420240119 0.27897185858233742 0 0.29208027539926867 0.2668586811262082 0 0.30033391345438898 0.27808426046821622 0 0.29769383733673987 0.28566213016763542 0 0.28885656420240119 0.27897185858233742 0 0.30033391345438898 0.27808426046821622 0 0.29208027539926867 0.2668586811262082 0 0.30033391345438898 0.27808426046821622 0 0.31310472092522518 0.27394784819098278 0 0.29208027539926867 0.2668586811262082 0 0.30446918025008762 0.26543630113553501 0 0.31310472092522518 0.27394784819098278 0 0.29208027539926867 0.2668586811262082 0 0.31310472092522518 0.27394784819098278 0 0.30446918025008762 0.26543630113553501 0 0.31633079024489119 0.26795050167651019 0 0.31310472092522518 0.27394784819098278 0 0.30989350443799413 0.28599975288758062 0 0.30033391345438898 0.27808426046821622 0 0.31310472092522518 0.27394784819098278 0 0.29853241403860131 0.25486398809726252 0 0.31633079024489119 0.26795050167651019 0 0.29853241403860131 0.25486398809726252 0 0.32296140252594913 0.25230639539716571 0 0.29853241403860131 0.25486398809726252 0 0.30446918025008762 0.26543630113553501 0 0.31633079024489119 0.26795050167651019 0 0.29208027539926867 0.2668586811262082 0 0.29853241403860131 0.25486398809726252 0 0.30446918025008762 0.26543630113553501 0 0.29853241403860131 0.25486398809726252 0 0.32296140252594913 0.25230639539716571 0 0.31633079024489119 0.26795050167651019 0 0.32296140252594913 0.25230639539716571 0 0.33195606211597428 0.26534591564521393 0 0.31633079024489119 0.26795050167651019 0 0.32296140252594913 0.25230639539716571 0 0.347390391013297 0.24974880269707131 0 0.32296140252594913 0.25230639539716571 0 0.33195606211597428 0.26534591564521393 0 0.347390391013297 0.24974880269707131 0 0.33195606211597428 0.26534591564521393 0 0.34604231276362413 0.26576374628939098 0 0.347390391013297 0.24974880269707131 0 0.33195606211597428 0.26534591564521393 0 0.33412916645118179 0.28103701525575708 0 0.34604231276362413 0.26576374628939098 0 0.33412916645118179 0.28103701525575708 0 0.31633079024489119 0.26795050167651019 0 0.33195606211597428 0.26534591564521393 0 0.33412916645118179 0.28103701525575708 0 0.31633079024489119 0.26795050167651019 0 0.30989350443799413 0.28599975288758062 0 0.33412916645118179 0.28103701525575708 0 0.31310472092522518 0.27394784819098278 0 0.33412916645118179 0.28103701525575708 0 0.31310472092522518 0.27394784819098278 0 0.33412916645118179 0.28103701525575708 0 0.31633079024489119 0.26795050167651019 0 0.31310472092522518 0.27394784819098278 0 0.30989350443799413 0.28599975288758062 0 0.33412916645118179 0.28103701525575708 0 0.31932974931472469 0.29678033397199038 0 0.31106777368561461 0.31371240534265299 0 0.31932974931472469 0.29678033397199038 0 0.32577338761264402 0.30792443112082107 0 0.32758213486793508 0.32192005366347792 0 0.34071991447033978 0.30205371521946761 0 0.32758213486793508 0.32192005366347792 0 0.32577338761264402 0.30792443112082107 0 0.34071991447033978 0.30205371521946761 0 0.31932974931472469 0.29678033397199038 0 0.32577338761264402 0.30792443112082107 0 0.34071991447033978 0.30205371521946761 0 0.33412916645118179 0.28103701525575708 0 0.31932974931472469 0.29678033397199038 0 0.34071991447033978 0.30205371521946761 0 0.33412916645118179 0.28103701525575708 0 0.34071991447033978 0.30205371521946761 0 0.35707999782233629 0.29791194603103971 0 0.33412916645118179 0.28103701525575708 0 0.35707999782233629 0.29791194603103971 0 0.33412916645118179 0.28103701525575708 0 0.35707999782233629 0.29791194603103971 0 0.36082857071103919 0.29003970391617451 0 0.33412916645118179 0.28103701525575708 0 0.36082857071103919 0.29003970391617451 0 0.33412916645118179 0.28103701525575708 0 0.36082857071103919 0.29003970391617451 0 0.35370544842670387 0.2761229970840543 0 0.36169712507556062 0.31567705983405853 0 0.35140865641426811 0.31026430792204118 0 0.35707999782233629 0.29791194603103971 0 0.34071991447033978 0.30205371521946761 0 0.35140865641426811 0.31026430792204118 0 0.35707999782233629 0.29791194603103971 0 0.35707999782233629 0.29791194603103971 0 0.37179269715087931 0.30037429274819122 0 0.38003082919349052 0.31478687680632272 0 0.36169712507556062 0.31567705983405853 0 0.35707999782233629 0.29791194603103971 0 0.38003082919349052 0.31478687680632272 0 0.35707999782233629 0.29791194603103971 0 0.38003082919349052 0.31478687680632272 0 0.36082857071103919 0.29003970391617451 0 0.38752797497089669 0.2990423925765916 0 0.36082857071103919 0.29003970391617451 0 0.36692798190963638 0.27809434954513651 0 0.37751179937216228 0.28430352778255108 0 0.37179269715087931 0.30037429274819122 0 0.36082857071103919 0.29003970391617451 0 0.38752797497089669 0.2990423925765916 0 0.36082857071103919 0.29003970391617451 0 0.36692798190963638 0.27809434954513651 0 0.35370544842670387 0.2761229970840543 0 0.35707999782233629 0.29791194603103971 0 0.37179269715087931 0.30037429274819122 0 0.36082857071103919 0.29003970391617451 0 0.36692798190963638 0.27809434954513651 0 0.36042765390056519 0.2650458801795556 0 0.38067046535175142 0.269428627920627 0 0.36692798190963638 0.27809434954513651 0 0.36042765390056519 0.2650458801795556 0 0.35370544842670387 0.2761229970840543 0 0.36042765390056519 0.2650458801795556 0 0.37181937950064509 0.24719120999697691 0 0.347390391013297 0.24974880269707131 0 0.36042765390056519 0.2650458801795556 0 0.38067046535175142 0.269428627920627 0 0.37181937950064509 0.24719120999697691 0 0.36042765390056519 0.2650458801795556 0 0.34604231276362413 0.26576374628939098 0 0.347390391013297 0.24974880269707131 0 0.33412916645118179 0.28103701525575708 0 0.34604231276362413 0.26576374628939098 0 0.35370544842670387 0.2761229970840543 0 0.36042765390056519 0.2650458801795556 0 0.34604231276362413 0.26576374628939098 0 0.35370544842670387 0.2761229970840543 0 0.39157686821198412 0.2831770884399637 0 0.40646379953155432 0.28697689263961529 0 0.40696965026752441 0.26653165691878528 0 0.38067046535175142 0.269428627920627 0 0.39157686821198412 0.2831770884399637 0 0.40696965026752441 0.26653165691878528 0 0.39088336126802231 0.25374328238468657 0 0.40696965026752441 0.26653165691878528 0 0.40054307806476108 0.23604992417298781 0 0.39088336126802231 0.25374328238468657 0 0.38067046535175142 0.269428627920627 0 0.40696965026752441 0.26653165691878528 0 0.39088336126802231 0.25374328238468657 0 0.38067046535175142 0.269428627920627 0 0.37181937950064509 0.24719120999697691 0 0.38067046535175142 0.269428627920627 0 0.37751179937216228 0.28430352778255108 0 0.39157686821198412 0.2831770884399637 0 0.36692798190963638 0.27809434954513651 0 0.38067046535175142 0.269428627920627 0 0.37751179937216228 0.28430352778255108 0 0.36082857071103919 0.29003970391617451 0 0.37751179937216228 0.28430352778255108 0 0.38752797497089669 0.2990423925765916 0 0.37751179937216228 0.28430352778255108 0 0.38752797497089669 0.2990423925765916 0 0.39157686821198412 0.2831770884399637 0 0.38752797497089669 0.2990423925765916 0 0.3976226071436984 0.32279747807504527 0 0.38003082919349052 0.31478687680632272 0 0.37179269715087931 0.30037429274819122 0 0.38752797497089669 0.2990423925765916 0 0.38003082919349052 0.31478687680632272 0 0.38752797497089669 0.2990423925765916 0 0.41422737923075409 0.30804508123700869 0 0.3976226071436984 0.32279747807504527 0 0.38752797497089669 0.2990423925765916 0 0.41422737923075409 0.30804508123700869 0 0.38752797497089669 0.2990423925765916 0 0.40646379953155432 0.28697689263961529 0 0.41422737923075409 0.30804508123700869 0 0.38752797497089669 0.2990423925765916 0 0.39157686821198412 0.2831770884399637 0 0.40646379953155432 0.28697689263961529 0 0.40646379953155432 0.28697689263961529 0 0.41422737923075409 0.30804508123700869 0 0.42937893988880921 0.28363572883809929 0 0.41422737923075409 0.30804508123700869 0 0.44323012588674188 0.2975500916084492 0 0.44092678349061148 0.31704776989742572 0 0.41422737923075409 0.30804508123700869 0 0.42937893988880921 0.28363572883809929 0 0.44323012588674188 0.2975500916084492 0 0.42937893988880921 0.28363572883809929 0 0.40696965026752441 0.26653165691878528 0 0.43210506283459282 0.26554838320923668 0 0.40646379953155432 0.28697689263961529 0 0.42937893988880921 0.28363572883809929 0 0.40696965026752441 0.26653165691878528 0 0.40696965026752441 0.26653165691878528 0 0.40054307806476108 0.23604992417298781 0 0.42335149364163471 0.24854294937449151 0 0.40696965026752441 0.26653165691878528 0 0.43210506283459282 0.26554838320923668 0 0.42335149364163471 0.24854294937449151 0 0.43210506283459282 0.26554838320923668 0 0.44661520794732379 0.25441108070724161 0 0.42335149364163471 0.24854294937449151 0 0.43210506283459282 0.26554838320923668 0 0.44661520794732379 0.25441108070724161 0 0.45730778855674908 0.27690032335719439 0 0.45248644877947652 0.2539345999487283 0 0.44661520794732379 0.25441108070724161 0 0.45730778855674908 0.27690032335719439 0 0.44661520794732379 0.25441108070724161 0 0.45730778855674908 0.27690032335719439 0 0.42937893988880921 0.28363572883809929 0 0.43210506283459282 0.26554838320923668 0 0.45730778855674908 0.27690032335719439 0 0.45730778855674908 0.27690032335719439 0 0.46659172044347591 0.26123945048915381 0 0.47640750016680572 0.27372824540925073 0 0.45730778855674908 0.27690032335719439 0 0.47640750016680572 0.27372824540925073 0 0.46889072177594743 0.28614059628558919 0 0.45248644877947652 0.2539345999487283 0 0.46659172044347591 0.26123945048915381 0 0.46567358957809929 0.23813192659710949 0 0.45248644877947652 0.2539345999487283 0 0.45730778855674908 0.27690032335719439 0 0.46659172044347591 0.26123945048915381 0 0.45248644877947652 0.2539345999487283 0 0.45730778855674908 0.27690032335719439 0 0.48002185953086918 0.25275706319391539 0 0.47640750016680572 0.27372824540925073 0 0.46659172044347591 0.26123945048915381 0 0.48002185953086918 0.25275706319391539 0 0.47640750016680572 0.27372824540925073 0 0.46659172044347591 0.26123945048915381 0 0.48002185953086918 0.25275706319391539 0 0.46567358957809929 0.23813192659710949 0 0.48002185953086918 0.25275706319391539 0 0.47640750016680572 0.27372824540925073 0 0.48949523163425879 0.26518684455079161 0 0.47640750016680572 0.27372824540925073 0 0.48949523163425879 0.26518684455079161 0 0.48678206641314209 0.28631334655000779 0 0.5 0.27675810572540721 0 0.48949523163425879 0.26518684455079161 0 0.48678206641314209 0.28631334655000779 0 0.48002185953086918 0.25275706319391539 0 0.48949523163425879 0.26518684455079161 0 0.49999999999999972 0.24951941274945821 0 0.5 0.27675810572540721 0 0.48949523163425879 0.26518684455079161 0 0.49999999999999972 0.24951941274945821 0 0.5 0.3039967987013561 0 0.48678206641314209 0.28631334655000779 0 0.48308821232159421 0.30049132527288341 0 0.5 0.3039967987013561 0 0.48308821232159421 0.30049132527288341 0 0.48562796994639063 0.31335141830193391 0 0.5 0.27675810572540721 0 0.5 0.3039967987013561 0 0.48678206641314209 0.28631334655000779 0 0.47640750016680572 0.27372824540925073 0 0.47279314080274237 0.29469942762458601 0 0.47640750016680572 0.27372824540925073 0 0.48678206641314209 0.28631334655000779 0 0.47279314080274237 0.29469942762458601 0 0.48678206641314209 0.28631334655000779 0 0.47279314080274237 0.29469942762458601 0 0.48308821232159421 0.30049132527288341 0 0.47640750016680572 0.27372824540925073 0 0.46889072177594743 0.28614059628558919 0 0.47279314080274237 0.29469942762458601 0 0.46889072177594743 0.28614059628558919 0 0.47279314080274237 0.29469942762458601 0 0.47023788444569597 0.30409563518653282 0 0.47279314080274237 0.29469942762458601 0 0.47023788444569597 0.30409563518653282 0 0.48308821232159421 0.30049132527288341 0 0.47023788444569597 0.30409563518653282 0 0.48308821232159421 0.30049132527288341 0 0.48562796994639063 0.31335141830193391 0 0.47023788444569597 0.30409563518653282 0 0.46246698815360998 0.30147539095751719 0 0.46762618775046988 0.32605045855784032 0 0.45730778855674908 0.27690032335719439 0 0.46889072177594743 0.28614059628558919 0 0.47023788444569597 0.30409563518653282 0 0.45730778855674908 0.27690032335719439 0 0.47023788444569597 0.30409563518653282 0 0.46246698815360998 0.30147539095751719 0 0.45730778855674908 0.27690032335719439 0 0.47023788444569597 0.30409563518653282 0 0.45730778855674908 0.27690032335719439 0 0.46246698815360998 0.30147539095751719 0 0.45730778855674908 0.27690032335719439 0 0.46246698815360998 0.30147539095751719 0 0.44323012588674188 0.2975500916084492 0 0.42937893988880921 0.28363572883809929 0 0.45730778855674908 0.27690032335719439 0 0.44323012588674188 0.2975500916084492 0 0.46246698815360998 0.30147539095751719 0 0.44323012588674188 0.2975500916084492 0 0.44092678349061148 0.31704776989742572 0 0.44092678349061148 0.31704776989742572 0 0.44915877544875732 0.3432615285469286 0 0.46762618775046988 0.32605045855784032 0 0.44092678349061148 0.31704776989742572 0 0.44915877544875732 0.3432615285469286 0 0.42288745062300909 0.33486390640135499 0 0.44915877544875732 0.3432615285469286 0 0.46762618775046988 0.32605045855784032 0 0.47380509903419432 0.35548276867553108 0 0.46246698815360998 0.30147539095751719 0 0.46762618775046988 0.32605045855784032 0 0.44092678349061148 0.31704776989742572 0 0.46762618775046988 0.32605045855784032 0 0.46246698815360998 0.30147539095751719 0 0.44092678349061148 0.31704776989742572 0 0.46762618775046988 0.32605045855784032 0 0.47023788444569597 0.30409563518653282 0 0.4831679803346407 0.33129094701587197 0 0.48562796994639063 0.31335141830193391 0 0.47023788444569597 0.30409563518653282 0 0.46762618775046988 0.32605045855784032 0 0.4831679803346407 0.33129094701587197 0 0.47023788444569597 0.30409563518653282 0 0.4831679803346407 0.33129094701587197 0 0.46762618775046988 0.32605045855784032 0 0.47905823211129062 0.34048015554932243 0 0.47380509903419432 0.35548276867553108 0 0.46762618775046988 0.32605045855784032 0 0.4831679803346407 0.33129094701587197 0 0.46762618775046988 0.32605045855784032 0 0.47380509903419432 0.35548276867553108 0 0.46762618775046988 0.32605045855784032 0 0.47905823211129062 0.34048015554932243 0 0.4831679803346407 0.33129094701587197 0 0.4831679803346407 0.33129094701587197 0 0.49163366132585601 0.3490964479480454 0 0.4831679803346407 0.33129094701587197 0 0.49495365652589729 0.33526492232894428 0 0.49156614847962982 0.32584784102868292 0 0.4831679803346407 0.33129094701587197 0 0.49495365652589729 0.33526492232894428 0 0.4831679803346407 0.33129094701587197 0 0.49136265537632651 0.34649632495580168 0 0.49163366132585601 0.3490964479480454 0 0.47905823211129062 0.34048015554932243 0 0.4831679803346407 0.33129094701587197 0 0.49163366132585601 0.3490964479480454 0 0.49495365652589729 0.33526492232894428 0 0.5 0.33123549167730498 0 0.5 0.35847418465325398 0 0.4831679803346407 0.33129094701587197 0 0.49495365652589729 0.33526492232894428 0 0.49136265537632651 0.34649632495580168 0 0.49495365652589729 0.33526492232894428 0 0.5 0.33123549167730498 0 0.49156614847962982 0.32584784102868292 0 0.5 0.3039967987013561 0 0.5 0.33123549167730498 0 0.49156614847962982 0.32584784102868292 0 0.4831679803346407 0.33129094701587197 0 0.48562796994639063 0.31335141830193391 0 0.49156614847962982 0.32584784102868292 0 0.5 0.3039967987013561 0 0.48562796994639063 0.31335141830193391 0 0.49156614847962982 0.32584784102868292 0 0.49390139669419331 0.37085387018088889 0 0.5 0.35847418465325398 0 0.5 0.38571287762920309 0 0.49390139669419331 0.37085387018088889 0 0.49620570072896242 0.35871262081570471 0 0.49163366132585601 0.3490964479480454 0 0.49390139669419331 0.37085387018088889 0 0.49163366132585601 0.3490964479480454 0 0.49390139669419331 0.37085387018088889 0 0.5 0.35847418465325398 0 0.49620570072896242 0.35871262081570471 0 0.5 0.35847418465325398 0 0.49620570072896242 0.35871262081570471 0 0.49163366132585601 0.3490964479480454 0 0.49495365652589729 0.33526492232894428 0 0.5 0.35847418465325398 0 0.49136265537632651 0.34649632495580168 0 0.49390139669419331 0.37085387018088889 0 0.49163366132585601 0.3490964479480454 0 0.47380509903419432 0.35548276867553108 0 0.49620570072896242 0.35871262081570471 0 0.49163366132585601 0.3490964479480454 0 0.5 0.35847418465325398 0 0.49136265537632651 0.34649632495580168 0 0.49163366132585601 0.3490964479480454 0 0.49136265537632651 0.34649632495580168 0 0.49163366132585601 0.3490964479480454 0 0.47905823211129062 0.34048015554932243 0 0.49163366132585601 0.3490964479480454 0 0.47380509903419432 0.35548276867553108 0 0.49390139669419331 0.37085387018088889 0 0.47380509903419432 0.35548276867553108 0 0.47071763317658172 0.37549164060828472 0 0.47380509903419432 0.35548276867553108 0 0.45324731093216558 0.36757083478245428 0 0.47071763317658172 0.37549164060828472 0 0.44915877544875732 0.3432615285469286 0 0.47380509903419432 0.35548276867553108 0 0.45324731093216558 0.36757083478245428 0 0.44915877544875732 0.3432615285469286 0 0.45324731093216558 0.36757083478245428 0 0.43424107358860031 0.36063080366022948 0 0.45324731093216558 0.36757083478245428 0 0.43424107358860031 0.36063080366022948 0 0.4401278672882204 0.37654239077451829 0 0.43424107358860031 0.36063080366022948 0 0.42087006193521842 0.38560694765927522 0 0.4401278672882204 0.37654239077451829 0 0.43424107358860031 0.36063080366022948 0 0.41525643525707773 0.35831672001617693 0 0.42087006193521842 0.38560694765927522 0 0.41525643525707773 0.35831672001617693 0 0.39799239052144109 0.36646759820195729 0 0.42087006193521842 0.38560694765927522 0 0.41525643525707773 0.35831672001617693 0 0.42288745062300909 0.33486390640135499 0 0.40029119961711951 0.34401434415806742 0 0.44915877544875732 0.3432615285469286 0 0.43424107358860031 0.36063080366022948 0 0.42288745062300909 0.33486390640135499 0 0.43424107358860031 0.36063080366022948 0 0.41525643525707773 0.35831672001617693 0 0.42288745062300909 0.33486390640135499 0 0.41422737923075409 0.30804508123700869 0 0.44092678349061148 0.31704776989742572 0 0.41422737923075409 0.30804508123700869 0 0.44092678349061148 0.31704776989742572 0 0.42288745062300909 0.33486390640135499 0 0.41422737923075409 0.30804508123700869 0 0.42288745062300909 0.33486390640135499 0 0.3976226071436984 0.32279747807504527 0 0.42288745062300909 0.33486390640135499 0 0.3976226071436984 0.32279747807504527 0 0.40029119961711951 0.34401434415806742 0 0.3976226071436984 0.32279747807504527 0 0.38077080922692091 0.33603226727092628 0 0.40029119961711951 0.34401434415806742 0 0.3976226071436984 0.32279747807504527 0 0.38003082919349052 0.31478687680632272 0 0.38077080922692091 0.33603226727092628 0 0.36519297470899131 0.32967207916316071 0 0.38003082919349052 0.31478687680632272 0 0.38077080922692091 0.33603226727092628 0 0.38077080922692091 0.33603226727092628 0 0.38326992983864189 0.35263193291368089 0 0.40029119961711951 0.34401434415806742 0 0.3611442793721879 0.34735332184701773 0 0.38077080922692091 0.33603226727092628 0 0.38326992983864189 0.35263193291368089 0 0.38326992983864189 0.35263193291368089 0 0.37615097045554019 0.36929213309043618 0 0.39799239052144109 0.36646759820195729 0 0.38326992983864189 0.35263193291368089 0 0.39799239052144109 0.36646759820195729 0 0.40029119961711951 0.34401434415806742 0 0.41525643525707773 0.35831672001617693 0 0.39799239052144109 0.36646759820195729 0 0.40029119961711951 0.34401434415806742 0 0.39115766153889248 0.39123094433385491 0 0.40616435262224487 0.41316975557727348 0 0.42087006193521842 0.38560694765927522 0 0.39115766153889248 0.39123094433385491 0 0.38551277727525829 0.41312145031594122 0 0.40616435262224487 0.41316975557727348 0 0.39115766153889248 0.39123094433385491 0 0.40616435262224487 0.41316975557727348 0 0.39799239052144109 0.36646759820195729 0 0.39115766153889248 0.39123094433385491 0 0.42087006193521842 0.38560694765927522 0 0.36839807329920171 0.38655608180881118 0 0.37615097045554019 0.36929213309043618 0 0.39115766153889248 0.39123094433385491 0 0.37615097045554019 0.36929213309043618 0 0.39115766153889248 0.39123094433385491 0 0.37615097045554019 0.36929213309043618 0 0.39799239052144109 0.36646759820195729 0 0.39115766153889248 0.39123094433385491 0 0.36759863371521428 0.40354925676342052 0 0.39115766153889248 0.39123094433385491 0 0.38551277727525829 0.41312145031594122 0 0.36759863371521428 0.40354925676342052 0 0.36839807329920171 0.38655608180881118 0 0.39115766153889248 0.39123094433385491 0 0.37342051237663287 0.45418948423974731 0 0.36615664956642607 0.42097129660082833 0 0.39648658893351391 0.43668599830432908 0 0.36615664956642607 0.42097129660082833 0 0.38551277727525829 0.41312145031594122 0 0.39648658893351391 0.43668599830432908 0 0.38551277727525829 0.41312145031594122 0 0.39648658893351391 0.43668599830432908 0 0.40616435262224487 0.41316975557727348 0 0.40616435262224487 0.41316975557727348 0 0.42117104370559733 0.43510856682069221 0 0.43032714242251069 0.41044289117745603 0 0.40616435262224487 0.41316975557727348 0 0.42117104370559733 0.43510856682069221 0 0.39648658893351391 0.43668599830432908 0 0.40616435262224487 0.41316975557727348 0 0.42117104370559733 0.43510856682069221 0 0.42117104370559733 0.43510856682069221 0 0.43489165889204873 0.42642116424114601 0 0.44004120715458511 0.43888971417727207 0 0.42117104370559733 0.43510856682069221 0 0.43489165889204873 0.42642116424114601 0 0.43032714242251069 0.41044289117745603 0 0.43032714242251069 0.41044289117745603 0 0.42087006193521842 0.38560694765927522 0 0.45215302269689739 0.39236097699611422 0 0.40616435262224487 0.41316975557727348 0 0.43032714242251069 0.41044289117745603 0 0.42087006193521842 0.38560694765927522 0 0.42087006193521842 0.38560694765927522 0 0.4401278672882204 0.37654239077451829 0 0.45215302269689739 0.39236097699611422 0 0.45324731093216558 0.36757083478245428 0 0.4401278672882204 0.37654239077451829 0 0.45215302269689739 0.39236097699611422 0 0.43032714242251069 0.41044289117745603 0 0.45215302269689739 0.39236097699611422 0 0.4558912522362113 0.40993822865563451 0 0.45215302269689739 0.39236097699611422 0 0.47842110080755967 0.3911496182369274 0 0.47159850934353692 0.40640626747446612 0 0.45215302269689739 0.39236097699611422 0 0.47159850934353692 0.40640626747446612 0 0.4558912522362113 0.40993822865563451 0 0.45215302269689739 0.39236097699611422 0 0.47071763317658172 0.37549164060828472 0 0.47842110080755967 0.3911496182369274 0 0.45324731093216558 0.36757083478245428 0 0.45215302269689739 0.39236097699611422 0 0.47071763317658172 0.37549164060828472 0 0.49390139669419331 0.37085387018088889 0 0.47071763317658172 0.37549164060828472 0 0.47842110080755967 0.3911496182369274 0 0.47842110080755967 0.3911496182369274 0 0.48544306177321772 0.40490078508347882 0 0.47159850934353692 0.40640626747446612 0 0.4961691320625301 0.39261129241373238 0 0.49843686743086701 0.41436871464657588 0 0.4961691320625301 0.39261129241373238 0 0.48544306177321772 0.40490078508347882 0 0.49843686743086701 0.41436871464657588 0 0.47842110080755967 0.3911496182369274 0 0.4961691320625301 0.39261129241373238 0 0.48544306177321772 0.40490078508347882 0 0.4961691320625301 0.39261129241373238 0 0.5 0.38571287762920309 0 0.50000000000000044 0.41295157060515231 0 0.49390139669419331 0.37085387018088889 0 0.4961691320625301 0.39261129241373238 0 0.5 0.38571287762920309 0 0.49390139669419331 0.37085387018088889 0 0.4961691320625301 0.39261129241373238 0 0.49390139669419331 0.37085387018088889 0 0.47842110080755967 0.3911496182369274 0 0.4961691320625301 0.39261129241373238 0 0.49843686743086701 0.41436871464657588 0 0.47855541719037492 0.43239333987640688 0 0.5 0.4293659386557791 0 0.49843686743086701 0.41436871464657588 0 0.47855541719037492 0.43239333987640688 0 0.5 0.4293659386557791 0 0.49843686743086701 0.41436871464657588 0 0.49843686743086701 0.41436871464657588 0 0.48017191676833931 0.41588570180687179 0 0.47855541719037492 0.43239333987640688 0 0.4961691320625301 0.39261129241373238 0 0.49843686743086701 0.41436871464657588 0 0.50000000000000044 0.41295157060515231 0 0.48544306177321772 0.40490078508347882 0 0.49843686743086701 0.41436871464657588 0 0.48017191676833931 0.41588570180687179 0 0.5 0.4293659386557791 0 0.49843686743086701 0.41436871464657588 0 0.50000000000000044 0.41295157060515231 0 0.49843686743086701 0.41436871464657588 0 0.50000000000000044 0.41295157060515231 0 0.48544306177321772 0.40490078508347882 0 0.48017191676833931 0.41588570180687179 0 0.47159850934353692 0.40640626747446612 0 0.48017191676833931 0.41588570180687179 0 0.47159850934353692 0.40640626747446612 0 0.46682572810369999 0.42135940195343152 0 0.48017191676833931 0.41588570180687179 0 0.47855541719037492 0.43239333987640688 0 0.46682572810369999 0.42135940195343152 0 0.46682572810369999 0.42135940195343152 0 0.44929163143644679 0.42545349665417359 0 0.45867396694988261 0.45041796510623788 0 0.47855541719037492 0.43239333987640688 0 0.46682572810369999 0.42135940195343152 0 0.45867396694988261 0.45041796510623788 0 0.4558912522362113 0.40993822865563451 0 0.46682572810369999 0.42135940195343152 0 0.44929163143644679 0.42545349665417359 0 0.47159850934353692 0.40640626747446612 0 0.4558912522362113 0.40993822865563451 0 0.46682572810369999 0.42135940195343152 0 0.43489165889204873 0.42642116424114601 0 0.43032714242251069 0.41044289117745603 0 0.44929163143644679 0.42545349665417359 0 0.43032714242251069 0.41044289117745603 0 0.4558912522362113 0.40993822865563451 0 0.44929163143644679 0.42545349665417359 0 0.43489165889204873 0.42642116424114601 0 0.44929163143644679 0.42545349665417359 0 0.44004120715458511 0.43888971417727207 0 0.5 0.4293659386557791 0 0.47855541719037492 0.43239333987640688 0 0.5 0.5 0 0.44929163143644679 0.42545349665417359 0 0.44004120715458511 0.43888971417727207 0 0.45867396694988261 0.45041796510623788 0 0.47855541719037492 0.43239333987640688 0 0.45867396694988261 0.45041796510623788 0 0.5 0.5 0 0.43879251670939018 0.46844259033606878 0 0.5 0.5 0 0.43329479753548789 0.5 0 0.44004120715458511 0.43888971417727207 0 0.45867396694988261 0.45041796510623788 0 0.43617773478894972 0.45704737806411078 0 0.43879251670939018 0.46844259033606878 0 0.45867396694988261 0.45041796510623788 0 0.43879251670939018 0.46844259033606878 0 0.45867396694988261 0.45041796510623788 0 0.43617773478894972 0.45704737806411078 0 0.47855541719037492 0.43239333987640688 0 0.45867396694988261 0.45041796510623788 0 0.43879251670939018 0.46844259033606878 0 0.45867396694988261 0.45041796510623788 0 0.5 0.5 0 0.43329479753548789 0.5 0 0.42279518380582942 0.46746932234832062 0 0.40129483152031681 0.46884545524433541 0 0.43879251670939018 0.46844259033606878 0 0.43329479753548789 0.5 0 0.42279518380582942 0.46746932234832062 0 0.43617773478894972 0.45704737806411078 0 0.42279518380582942 0.46746932234832062 0 0.41558507655084143 0.45303134415635771 0 0.43879251670939018 0.46844259033606878 0 0.43617773478894972 0.45704737806411078 0 0.42279518380582942 0.46746932234832062 0 0.42117104370559733 0.43510856682069221 0 0.43617773478894972 0.45704737806411078 0 0.41558507655084143 0.45303134415635771 0 0.42117104370559733 0.43510856682069221 0 0.44004120715458511 0.43888971417727207 0 0.43617773478894972 0.45704737806411078 0 0.42117104370559733 0.43510856682069221 0 0.43617773478894972 0.45704737806411078 0 0.39648658893351391 0.43668599830432908 0 0.42117104370559733 0.43510856682069221 0 0.41558507655084143 0.45303134415635771 0 0.42279518380582942 0.46746932234832062 0 0.41558507655084143 0.45303134415635771 0 0.40129483152031681 0.46884545524433541 0 0.39648658893351391 0.43668599830432908 0 0.41558507655084143 0.45303134415635771 0 0.40129483152031681 0.46884545524433541 0 0.37342051237663287 0.45418948423974731 0 0.39648658893351391 0.43668599830432908 0 0.40129483152031681 0.46884545524433541 0 0.37342051237663287 0.45418948423974731 0 0.38006529077378431 0.4755482296866595 0 0.40129483152031681 0.46884545524433541 0 0.38006529077378431 0.4755482296866595 0 0.38298511342434882 0.5 0 0.40129483152031681 0.46884545524433541 0 0.43329479753548789 0.5 0 0.38298511342434882 0.5 0 0.40129483152031681 0.46884545524433541 0 0.36256070577383859 0.47915797926255538 0 0.38006529077378431 0.4755482296866595 0 0.38298511342434882 0.5 0 0.33275686673950239 0.0864304087042745 0 0.34130464123462961 0.098558663258328419 0 0.3457708450758884 0.08020431249469348 0 0.33275686673950239 0.0864304087042745 0 0.33221960376761528 0.073326618173757255 0 0.3457708450758884 0.08020431249469348 0 0.34357789365412378 0.066473202630649028 0 0.33221960376761528 0.073326618173757255 0 0.3457708450758884 0.08020431249469348 0 0.34357789365412378 0.066473202630649028 0 0.33221960376761528 0.073326618173757255 0 0.33417585684375278 0.062439343737540932 0 0.33221960376761528 0.073326618173757255 0 0.32369245849688938 0.068407355848665238 0 0.33417585684375278 0.062439343737540932 0 0.33221960376761528 0.073326618173757255 0 0.32369245849688938 0.068407355848665238 0 0.31868473134930669 0.081481537594805545 0 0.32264650139463619 0.055429210213765873 0 0.31233076645890478 0.070765637083780808 0 0.30536360308285349 0.066392781667853271 0 0.32369245849688938 0.068407355848665238 0 0.32264650139463619 0.055429210213765873 0 0.31233076645890478 0.070765637083780808 0 0.32369245849688938 0.068407355848665238 0 0.31868473134930669 0.081481537594805545 0 0.31233076645890478 0.070765637083780808 0 0.31868473134930669 0.081481537594805545 0 0.30648500440214549 0.082061581799168837 0 0.31233076645890478 0.070765637083780808 0 0.33275686673950239 0.0864304087042745 0 0.31868473134930669 0.081481537594805545 0 0.32580451227007162 0.098580911999787774 0 0.31868473134930669 0.081481537594805545 0 0.32580451227007162 0.098580911999787774 0 0.30762384370934698 0.095059745740094556 0 0.33275686673950239 0.0864304087042745 0 0.33221960376761528 0.073326618173757255 0 0.31868473134930669 0.081481537594805545 0 0.32580451227007162 0.098580911999787774 0 0.31791046823838481 0.11474238967111609 0 0.30762384370934698 0.095059745740094556 0 0.32580451227007162 0.098580911999787774 0 0.31791046823838481 0.11474238967111609 0 0.33887053653481802 0.11510837205050541 0 0.31791046823838481 0.11474238967111609 0 0.33887053653481802 0.11510837205050541 0 0.33423299803893819 0.14370822028654251 0 0.32580451227007162 0.098580911999787774 0 0.33887053653481802 0.11510837205050541 0 0.34130464123462961 0.098558663258328419 0 0.33275686673950239 0.0864304087042745 0 0.32580451227007162 0.098580911999787774 0 0.34130464123462961 0.098558663258328419 0 0.35623692662541762 0.12715524005246989 0 0.38912416285099122 0.13349265038640351 0 0.37824085521189721 0.1106022598183974 0 0.34130464123462961 0.098558663258328419 0 0.358952848073122 0.10709499340885439 0 0.36840817910976509 0.089921617152553729 0 0.33887053653481802 0.11510837205050541 0 0.34130464123462961 0.098558663258328419 0 0.358952848073122 0.10709499340885439 0 0.33887053653481802 0.11510837205050541 0 0.358952848073122 0.10709499340885439 0 0.35623692662541762 0.12715524005246989 0 0.358952848073122 0.10709499340885439 0 0.35623692662541762 0.12715524005246989 0 0.37824085521189721 0.1106022598183974 0 0.35623692662541762 0.12715524005246989 0 0.37824085521189721 0.1106022598183974 0 0.36840817910976509 0.089921617152553729 0 0.37824085521189721 0.1106022598183974 0 0.358952848073122 0.10709499340885439 0 0.36840817910976509 0.089921617152553729 0 0.37824085521189721 0.1106022598183974 0 0.36840817910976509 0.089921617152553729 0 0.37086601142707187 0.074810538278927668 0 0.38430280584342719 0.086146619157544985 0 0.36840817910976509 0.089921617152553729 0 0.35857550300763208 0.069240974486710502 0 0.34130464123462961 0.098558663258328419 0 0.36840817910976509 0.089921617152553729 0 0.3457708450758884 0.08020431249469348 0 0.36840817910976509 0.089921617152553729 0 0.3457708450758884 0.08020431249469348 0 0.35857550300763208 0.069240974486710502 0 0.34357789365412378 0.066473202630649028 0 0.3457708450758884 0.08020431249469348 0 0.35857550300763208 0.069240974486710502 0 0.35857550300763208 0.069240974486710502 0 0.37086601142707187 0.074810538278927668 0 0.3589470621700207 0.049888574974063619 0 0.37086601142707187 0.074810538278927668 0 0.37043533947645629 0.059011991527621779 0 0.37753157964184553 0.064609903736175672 0 0.36840817910976509 0.089921617152553729 0 0.35857550300763208 0.069240974486710502 0 0.37086601142707187 0.074810538278927668 0 0.37086601142707187 0.074810538278927668 0 0.37043533947645629 0.059011991527621779 0 0.3589470621700207 0.049888574974063619 0 0.37086601142707187 0.074810538278927668 0 0.3589470621700207 0.049888574974063619 0 0.37043533947645629 0.059011991527621779 0 0.36854124276009531 0.049690466380760502 0 0.3589470621700207 0.049888574974063619 0 0.36854124276009531 0.049690466380760502 0 0.36507829311698481 0.041237955055992273 0 0.3589470621700207 0.049888574974063619 0 0.36854124276009531 0.049690466380760502 0 0.37487198330074573 0.045301063530604549 0 0.37866268644438661 0.053744281833198827 0 0.37043533947645629 0.059011991527621779 0 0.36854124276009531 0.049690466380760502 0 0.37866268644438661 0.053744281833198827 0 0.37487198330074573 0.045301063530604549 0 0.36507829311698481 0.041237955055992273 0 0.37634882752855142 0.033677009705413173 0 0.36854124276009531 0.049690466380760502 0 0.37487198330074573 0.045301063530604549 0 0.36507829311698481 0.041237955055992273 0 0.36507829311698481 0.041237955055992273 0 0.3668714797140632 0.030787610577458869 0 0.37634882752855142 0.033677009705413173 0 0.36219358768074689 0.032905013201504241 0 0.36507829311698481 0.041237955055992273 0 0.3668714797140632 0.030787610577458869 0 0.36219358768074689 0.032905013201504241 0 0.36507829311698481 0.041237955055992273 0 0.35733835772454919 0.034697544328122887 0 0.36507829311698481 0.041237955055992273 0 0.35733835772454919 0.034697544328122887 0 0.3589470621700207 0.049888574974063619 0 0.35733835772454919 0.034697544328122887 0 0.3589470621700207 0.049888574974063619 0 0.34702811291296948 0.02496661166919956 0 0.34874282690549863 0.048560331820867483 0 0.35317227993127709 0.047394444532695049 0 0.34702811291296948 0.02496661166919956 0 0.3589470621700207 0.049888574974063619 0 0.35317227993127709 0.047394444532695049 0 0.34702811291296948 0.02496661166919956 0 0.3589470621700207 0.049888574974063619 0 0.34702811291296948 0.02496661166919956 0 0.34874282690549863 0.048560331820867483 0 0.34702811291296948 0.02496661166919956 0 0.33834365575413983 0.026688204602565269 0 0.35857550300763208 0.069240974486710502 0 0.34874282690549863 0.048560331820867483 0 0.3589470621700207 0.049888574974063619 0 0.34357789365412378 0.066473202630649028 0 0.35857550300763208 0.069240974486710502 0 0.34874282690549863 0.048560331820867483 0 0.35857550300763208 0.069240974486710502 0 0.34874282690549863 0.048560331820867483 0 0.34874282690549863 0.048560331820867483 0 0.35317227993127709 0.047394444532695049 0 0.34874282690549863 0.048560331820867483 0 0.3589470621700207 0.049888574974063619 0 0.35317227993127709 0.047394444532695049 0 0.374195934327619 0.0085389824845100992 0 0.36024463275474272 0.01184038765579047 0 0.35622924714907211 -0.0062804673930274843 0 0.374195934327619 0.0085389824845100992 0 0.36024463275474272 0.01184038765579047 0 0.37090587529055918 0.020912351321849029 0 0.36024463275474272 0.01184038765579047 0 0.37090587529055918 0.020912351321849029 0 0.35948622016739029 0.024896942844442951 0 0.37090587529055918 0.020912351321849029 0 0.3668714797140632 0.030787610577458869 0 0.37634882752855142 0.033677009705413173 0 0.37090587529055918 0.020912351321849029 0 0.35948622016739029 0.024896942844442951 0 0.3668714797140632 0.030787610577458869 0 0.36219358768074689 0.032905013201504241 0 0.35733835772454919 0.034697544328122887 0 0.35948622016739029 0.024896942844442951 0 0.36219358768074689 0.032905013201504241 0 0.35948622016739029 0.024896942844442951 0 0.3668714797140632 0.030787610577458869 0 0.35733835772454919 0.034697544328122887 0 0.35948622016739029 0.024896942844442951 0 0.34702811291296948 0.02496661166919956 0 0.34702811291296948 0.02496661166919956 0 0.35365444156125592 0.017864024509515981 0 0.34785880040992101 0.0097521558686309226 0 0.35948622016739029 0.024896942844442951 0 0.34702811291296948 0.02496661166919956 0 0.35365444156125592 0.017864024509515981 0 0.36024463275474272 0.01184038765579047 0 0.35948622016739029 0.024896942844442951 0 0.35365444156125592 0.017864024509515981 0 0.34785880040992101 0.0097521558686309226 0 0.33510916365591842 4.4648364335381739e-05 0 0.35622924714907211 -0.0062804673930274843 0 0.36024463275474272 0.01184038765579047 0 0.34785880040992101 0.0097521558686309226 0 0.35622924714907211 -0.0062804673930274843 0 0.36024463275474272 0.01184038765579047 0 0.35365444156125592 0.017864024509515981 0 0.34785880040992101 0.0097521558686309226 0 0.33510916365591842 4.4648364335381739e-05 0 0.33630390842046148 0.016647267265437051 0 0.3279444846027797 0.0048160773842635934 0 0.33510916365591842 4.4648364335381739e-05 0 0.33630390842046148 0.016647267265437051 0 0.34702811291296948 0.02496661166919956 0 0.33510916365591842 4.4648364335381739e-05 0 0.33630390842046148 0.016647267265437051 0 0.34702811291296948 0.02496661166919956 0 0.34785880040992101 0.0097521558686309226 0 0.33510916365591842 4.4648364335381739e-05 0 0.34702811291296948 0.02496661166919956 0 0.33510916365591842 4.4648364335381739e-05 0 0.33630390842046148 0.016647267265437051 0 0.33834365575413983 0.026688204602565269 0 0.3279444846027797 0.0048160773842635934 0 0.33834365575413983 0.026688204602565269 0 0.32189527133088741 0.024919336349438551 0 0.3279444846027797 0.0048160773842635934 0 0.33834365575413983 0.026688204602565269 0 0.3279444846027797 0.0048160773842635934 0 0.33834365575413983 0.026688204602565269 0 0.32189527133088741 0.024919336349438551 0 0.32547124035629399 0.040656774429943483 0 0.34702811291296948 0.02496661166919956 0 0.33630390842046148 0.016647267265437051 0 0.33834365575413983 0.026688204602565269 0 0.32189527133088741 0.024919336349438551 0 0.31269555501170587 0.0342539737936772 0 0.3083554126693433 0.025314457283031881 0 0.32189527133088741 0.024919336349438551 0 0.31547229938209198 0.013032433649298091 0 0.3083554126693433 0.025314457283031881 0 0.32189527133088741 0.024919336349438551 0 0.31547229938209198 0.013032433649298091 0 0.3279444846027797 0.0048160773842635934 0 0.32189527133088741 0.024919336349438551 0 0.3279444846027797 0.0048160773842635934 0 0.31547229938209198 0.013032433649298091 0 0.31889181602604338 0.0036246011320214609 0 0.31060481768337661 0.0053207849576982769 0 0.31889181602604338 0.0036246011320214609 0 0.31060481768337661 0.0053207849576982769 0 0.31470163537401052 -0.0031951629764111061 0 0.31547229938209198 0.013032433649298091 0 0.31889181602604338 0.0036246011320214609 0 0.3279444846027797 0.0048160773842635934 0 0.34874282690549863 0.048560331820867483 0 0.32547124035629399 0.040656774429943483 0 0.32264650139463619 0.055429210213765873 0 0.34874282690549863 0.048560331820867483 0 0.32264650139463619 0.055429210213765873 0 0.34874282690549863 0.048560331820867483 0 0.33417585684375278 0.062439343737540932 0 0.32264650139463619 0.055429210213765873 0 0.34357789365412378 0.066473202630649028 0 0.34874282690549863 0.048560331820867483 0 0.33417585684375278 0.062439343737540932 0 0.34874282690549863 0.048560331820867483 0 0.33834365575413983 0.026688204602565269 0 0.34874282690549863 0.048560331820867483 0 0.33834365575413983 0.026688204602565269 0 0.32547124035629399 0.040656774429943483 0 0.32547124035629399 0.040656774429943483 0 0.31269555501170587 0.0342539737936772 0 0.31079826246439363 0.050203556472376433 0 0.32189527133088741 0.024919336349438551 0 0.32547124035629399 0.040656774429943483 0 0.31269555501170587 0.0342539737936772 0 0.32547124035629399 0.040656774429943483 0 0.32264650139463619 0.055429210213765873 0 0.31079826246439363 0.050203556472376433 0 0.32369245849688938 0.068407355848665238 0 0.33417585684375278 0.062439343737540932 0 0.32264650139463619 0.055429210213765873 0 0.32264650139463619 0.055429210213765873 0 0.2965501758837738 0.062298088606664158 0 0.32264650139463619 0.055429210213765873 0 0.2965501758837738 0.062298088606664158 0 0.30536360308285349 0.066392781667853271 0 0.32264650139463619 0.055429210213765873 0 0.30156216925356238 0.053762700651376227 0 0.31079826246439363 0.050203556472376433 0 0.32264650139463619 0.055429210213765873 0 0.30156216925356238 0.053762700651376227 0 0.2965501758837738 0.062298088606664158 0 0.30156216925356238 0.053762700651376227 0 0.2965501758837738 0.062298088606664158 0 0.29436234387282989 0.055584209079358571 0 0.30156216925356238 0.053762700651376227 0 0.31079826246439363 0.050203556472376433 0 0.29565091495803159 0.04779323286579637 0 0.30156216925356238 0.053762700651376227 0 0.29436234387282989 0.055584209079358571 0 0.29565091495803159 0.04779323286579637 0 0.31079826246439363 0.050203556472376433 0 0.29695758823761131 0.03017574443359566 0 0.31079826246439363 0.050203556472376433 0 0.29527294143500687 0.040104617012451327 0 0.29695758823761131 0.03017574443359566 0 0.31269555501170587 0.0342539737936772 0 0.31079826246439363 0.050203556472376433 0 0.29695758823761131 0.03017574443359566 0 0.31079826246439363 0.050203556472376433 0 0.29527294143500687 0.040104617012451327 0 0.29565091495803159 0.04779323286579637 0 0.28688676637920751 0.037166652034169738 0 0.29695758823761131 0.03017574443359566 0 0.27894473760708671 0.02782757172793621 0 0.29527294143500687 0.040104617012451327 0 0.28748055692444141 0.044925119914723352 0 0.29565091495803159 0.04779323286579637 0 0.29527294143500687 0.040104617012451327 0 0.28688676637920751 0.037166652034169738 0 0.28748055692444141 0.044925119914723352 0 0.29527294143500687 0.040104617012451327 0 0.28688676637920751 0.037166652034169738 0 0.29695758823761131 0.03017574443359566 0 0.28688676637920751 0.037166652034169738 0 0.28748055692444141 0.044925119914723352 0 0.27761382899220088 0.044171443244783878 0 0.28748055692444141 0.044925119914723352 0 0.28646982582054997 0.053547990853095043 0 0.27761382899220088 0.044171443244783878 0 0.28646982582054997 0.053547990853095043 0 0.28284349912619972 0.05935378864638266 0 0.28895365987716209 0.063382665360844373 0 0.28646982582054997 0.053547990853095043 0 0.28284349912619972 0.05935378864638266 0 0.27832820970829142 0.057397872129792547 0 0.28284349912619972 0.05935378864638266 0 0.27762230109879538 0.063086626241798727 0 0.28895365987716209 0.063382665360844373 0 0.28646982582054997 0.053547990853095043 0 0.29436234387282989 0.055584209079358571 0 0.28895365987716209 0.063382665360844373 0 0.2965501758837738 0.062298088606664158 0 0.29436234387282989 0.055584209079358571 0 0.28895365987716209 0.063382665360844373 0 0.28646982582054997 0.053547990853095043 0 0.29436234387282989 0.055584209079358571 0 0.29565091495803159 0.04779323286579637 0 0.28748055692444141 0.044925119914723352 0 0.28646982582054997 0.053547990853095043 0 0.29565091495803159 0.04779323286579637 0 0.29767935603157969 0.0021227027615089138 0 0.3030510118942612 0.0050632426930448766 0 0.29449723780491538 0.0078738331221446245 0 0.29767935603157969 0.0021227027615089138 0 0.3030510118942612 0.0050632426930448766 0 0.30316731419432169 6.4355149645006771e-05 0 0.3030510118942612 0.0050632426930448766 0 0.31060481768337661 0.0053207849576982769 0 0.30800954781403878 -0.0098675874605419402 0 0.3030510118942612 0.0050632426930448766 0 0.31060481768337661 0.0053207849576982769 0 0.30827700308609218 0.0093653268123639055 0 0.31547229938209198 0.013032433649298091 0 0.30827700308609218 0.0093653268123639055 0 0.30651053305219123 0.014500932509940979 0 0.3030510118942612 0.0050632426930448766 0 0.30827700308609218 0.0093653268123639055 0 0.30651053305219123 0.014500932509940979 0 0.31547229938209198 0.013032433649298091 0 0.31060481768337661 0.0053207849576982769 0 0.30827700308609218 0.0093653268123639055 0 0.3030510118942612 0.0050632426930448766 0 0.29809247597448402 0.019994072846631839 0 0.3030510118942612 0.0050632426930448766 0 0.29809247597448402 0.019994072846631839 0 0.29449723780491538 0.0078738331221446245 0 0.3030510118942612 0.0050632426930448766 0 0.30651053305219123 0.014500932509940979 0 0.29809247597448402 0.019994072846631839 0 0.31269555501170587 0.0342539737936772 0 0.3083554126693433 0.025314457283031881 0 0.29695758823761131 0.03017574443359566 0 0.30651053305219123 0.014500932509940979 0 0.29809247597448402 0.019994072846631839 0 0.3083554126693433 0.025314457283031881 0 0.31547229938209198 0.013032433649298091 0 0.30651053305219123 0.014500932509940979 0 0.3083554126693433 0.025314457283031881 0 0.29809247597448402 0.019994072846631839 0 0.3083554126693433 0.025314457283031881 0 0.29695758823761131 0.03017574443359566 0 0.29695758823761131 0.03017574443359566 0 0.28311691401082889 0.01014793239481486 0 0.29809247597448402 0.019994072846631839 0 0.29695758823761131 0.03017574443359566 0 0.28311691401082889 0.01014793239481486 0 0.29695758823761131 0.03017574443359566 0 0.28311691401082889 0.01014793239481486 0 0.27894473760708671 0.02782757172793621 0 0.29809247597448402 0.019994072846631839 0 0.29449723780491538 0.0078738331221446245 0 0.28311691401082889 0.01014793239481486 0 0.28311691401082889 0.01014793239481486 0 0.29053149248006732 0.0017260991138315729 0 0.28208761330809262 -0.0038888485574515362 0 0.29449723780491538 0.0078738331221446245 0 0.28311691401082889 0.01014793239481486 0 0.29053149248006732 0.0017260991138315729 0 0.29767935603157969 0.0021227027615089138 0 0.29449723780491538 0.0078738331221446245 0 0.29053149248006732 0.0017260991138315729 0 0.28311691401082889 0.01014793239481486 0 0.26651676854606382 0.016925277152754319 0 0.26927623978404541 -0.0098798796439652017 0 0.28311691401082889 0.01014793239481486 0 0.26927623978404541 -0.0098798796439652017 0 0.28311691401082889 0.01014793239481486 0 0.26651676854606382 0.016925277152754319 0 0.27894473760708671 0.02782757172793621 0 0.26651676854606382 0.016925277152754319 0 0.27894473760708671 0.02782757172793621 0 0.2677628801248691 0.032900562303219923 0 0.26651676854606382 0.016925277152754319 0 0.25179989860014479 0.03010126023440764 0 0.25013882261941017 0.0089978927561854966 0 0.25179989860014479 0.03010126023440764 0 0.25013882261941017 0.0089978927561854966 0 0.26651676854606382 0.016925277152754319 0 0.25179989860014479 0.03010126023440764 0 0.2677628801248691 0.032900562303219923 0 0.26651676854606382 0.016925277152754319 0 0.25013882261941017 0.0089978927561854966 0 0.26927623978404541 -0.0098798796439652017 0 0.27165242307971271 0.052545558275307817 0 0.26467729315968153 0.044630037558943937 0 0.26530380820184202 0.056673377068818503 0 0.27165242307971271 0.052545558275307817 0 0.27761382899220088 0.044171443244783878 0 0.26467729315968153 0.044630037558943937 0 0.26530380820184202 0.056673377068818503 0 0.26249904923012352 0.06597947965527802 0 0.26909192424490269 0.062886823036658199 0 0.27233897533654777 0.059855061374200193 0 0.26530380820184202 0.056673377068818503 0 0.26909192424490269 0.062886823036658199 0 0.27233897533654777 0.059855061374200193 0 0.27277276397490879 0.063418460232126009 0 0.26909192424490269 0.062886823036658199 0 0.27165242307971271 0.052545558275307817 0 0.27233897533654777 0.059855061374200193 0 0.26530380820184202 0.056673377068818503 0 0.27165242307971271 0.052545558275307817 0 0.27233897533654777 0.059855061374200193 0 0.27832820970829142 0.057397872129792547 0 0.27233897533654777 0.059855061374200193 0 0.27832820970829142 0.057397872129792547 0 0.27762230109879538 0.063086626241798727 0 0.27233897533654777 0.059855061374200193 0 0.27277276397490879 0.063418460232126009 0 0.27762230109879538 0.063086626241798727 0 0.28284349912619972 0.05935378864638266 0 0.27832820970829142 0.057397872129792547 0 0.27762230109879538 0.063086626241798727 0 0.28646982582054997 0.053547990853095043 0 0.27832820970829142 0.057397872129792547 0 0.27761382899220088 0.044171443244783878 0 0.27165242307971271 0.052545558275307817 0 0.27832820970829142 0.057397872129792547 0 0.27761382899220088 0.044171443244783878 0 0.28688676637920751 0.037166652034169738 0 0.27894473760708671 0.02782757172793621 0 0.27761382899220088 0.044171443244783878 0 0.27894473760708671 0.02782757172793621 0 0.27761382899220088 0.044171443244783878 0 0.2677628801248691 0.032900562303219923 0 0.27761382899220088 0.044171443244783878 0 0.2677628801248691 0.032900562303219923 0 0.26467729315968153 0.044630037558943937 0 0.25179989860014479 0.03010126023440764 0 0.2677628801248691 0.032900562303219923 0 0.26467729315968153 0.044630037558943937 0 0.25179989860014479 0.03010126023440764 0 0.26467729315968153 0.044630037558943937 0 0.25346097458088152 0.051204627712629597 0 0.25179989860014479 0.03010126023440764 0 0.25346097458088152 0.051204627712629597 0 0.2472584135904651 0.063122559571126363 0 0.25346097458088152 0.051204627712629597 0 0.25512205056161769 0.072307995190851598 0 0.25346097458088152 0.051204627712629597 0 0.25512205056161769 0.072307995190851598 0 0.26467729315968153 0.044630037558943937 0 0.25346097458088152 0.051204627712629597 0 0.26530380820184202 0.056673377068818503 0 0.25346097458088152 0.051204627712629597 0 0.26530380820184202 0.056673377068818503 0 0.26249904923012352 0.06597947965527802 0 0.25346097458088152 0.051204627712629597 0 0.25512205056161769 0.072307995190851598 0 0.26249904923012352 0.06597947965527802 0 0.25512205056161769 0.072307995190851598 0 0.27203785521938972 0.067845330275846952 0 0.25512205056161769 0.072307995190851598 0 0.26249904923012352 0.06597947965527802 0 0.27203785521938972 0.067845330275846952 0 0.25512205056161769 0.072307995190851598 0 0.2557577753379518 0.080384647749532051 0 0.25512205056161769 0.072307995190851598 0 0.26256888438509068 0.077025234513509108 0 0.27045385037291131 0.069166966999562471 0 0.25512205056161769 0.072307995190851598 0 0.26256888438509068 0.077025234513509108 0 0.2557577753379518 0.080384647749532051 0 0.26256888438509068 0.077025234513509108 0 0.25302795882026369 0.092153527797940851 0 0.2760161804160185 0.073787273907655257 0 0.25302795882026369 0.092153527797940851 0 0.2760161804160185 0.073787273907655257 0 0.25302795882026369 0.092153527797940851 0 0.26892864563843399 0.086788862425636812 0 0.27465546195963758 0.099683148422332224 0 0.2446615065673213 0.081966399054467023 0 0.25302795882026369 0.092153527797940851 0 0.2557577753379518 0.080384647749532051 0 0.2446615065673213 0.081966399054467023 0 0.25512205056161769 0.072307995190851598 0 0.2557577753379518 0.080384647749532051 0 0.26256888438509068 0.077025234513509108 0 0.25302795882026369 0.092153527797940851 0 0.2557577753379518 0.080384647749532051 0 0.27610697866818429 0.083291745550694685 0 0.28453335058340129 0.085058039942490837 0 0.27465546195963758 0.099683148422332224 0 0.25302795882026369 0.092153527797940851 0 0.26892864563843399 0.086788862425636812 0 0.2760161804160185 0.073787273907655257 0 0.26892864563843399 0.086788862425636812 0 0.27610697866818429 0.083291745550694685 0 0.27465546195963758 0.099683148422332224 0 0.26892864563843399 0.086788862425636812 0 0.27610697866818429 0.083291745550694685 0 0.2760161804160185 0.073787273907655257 0 0.27610697866818429 0.083291745550694685 0 0.28135579604196143 0.078654589623589205 0 0.28453335058340129 0.085058039942490837 0 0.27610697866818429 0.083291745550694685 0 0.2760161804160185 0.073787273907655257 0 0.28135579604196143 0.078654589623589205 0 0.25512205056161769 0.072307995190851598 0 0.27045385037291131 0.069166966999562471 0 0.27203785521938972 0.067845330275846952 0 0.27045385037291131 0.069166966999562471 0 0.2760161804160185 0.073787273907655257 0 0.28876667450024152 0.072481299093516055 0 0.27203785521938972 0.067845330275846952 0 0.28895365987716209 0.063382665360844373 0 0.27045385037291131 0.069166966999562471 0 0.27203785521938972 0.067845330275846952 0 0.28895365987716209 0.063382665360844373 0 0.27203785521938972 0.067845330275846952 0 0.27762230109879538 0.063086626241798727 0 0.28895365987716209 0.063382665360844373 0 0.26249904923012352 0.06597947965527802 0 0.27203785521938972 0.067845330275846952 0 0.26909192424490269 0.062886823036658199 0 0.27203785521938972 0.067845330275846952 0 0.27277276397490879 0.063418460232126009 0 0.26909192424490269 0.062886823036658199 0 0.26256888438509068 0.077025234513509108 0 0.27045385037291131 0.069166966999562471 0 0.2760161804160185 0.073787273907655257 0 0.27203785521938972 0.067845330275846952 0 0.27277276397490879 0.063418460232126009 0 0.27762230109879538 0.063086626241798727 0 0.2965501758837738 0.062298088606664158 0 0.27045385037291131 0.069166966999562471 0 0.28876667450024152 0.072481299093516055 0 0.2965501758837738 0.062298088606664158 0 0.27045385037291131 0.069166966999562471 0 0.28895365987716209 0.063382665360844373 0 0.2965501758837738 0.062298088606664158 0 0.27045385037291131 0.069166966999562471 0 0.2965501758837738 0.062298088606664158 0 0.28876667450024152 0.072481299093516055 0 0.2977778506104008 0.068892742580247746 0 0.28876667450024152 0.072481299093516055 0 0.29663485307973742 0.08557755598005326 0 0.30043094897473438 0.074398800952957506 0 0.28876667450024152 0.072481299093516055 0 0.2977778506104008 0.068892742580247746 0 0.30043094897473438 0.074398800952957506 0 0.2760161804160185 0.073787273907655257 0 0.28876667450024152 0.072481299093516055 0 0.28135579604196143 0.078654589623589205 0 0.28876667450024152 0.072481299093516055 0 0.28135579604196143 0.078654589623589205 0 0.28453335058340129 0.085058039942490837 0 0.28453335058340129 0.085058039942490837 0 0.29663485307973742 0.08557755598005326 0 0.29628296509901109 0.10721276904672419 0 0.28876667450024152 0.072481299093516055 0 0.28453335058340129 0.085058039942490837 0 0.29663485307973742 0.08557755598005326 0 0.29663485307973742 0.08557755598005326 0 0.30648500440214549 0.082061581799168837 0 0.30043094897473438 0.074398800952957506 0 0.29663485307973742 0.08557755598005326 0 0.30648500440214549 0.082061581799168837 0 0.30762384370934698 0.095059745740094556 0 0.31868473134930669 0.081481537594805545 0 0.30648500440214549 0.082061581799168837 0 0.30762384370934698 0.095059745740094556 0 0.30648500440214549 0.082061581799168837 0 0.31233076645890478 0.070765637083780808 0 0.30043094897473438 0.074398800952957506 0 0.31233076645890478 0.070765637083780808 0 0.30536360308285349 0.066392781667853271 0 0.30043094897473438 0.074398800952957506 0 0.2965501758837738 0.062298088606664158 0 0.30536360308285349 0.066392781667853271 0 0.2977778506104008 0.068892742580247746 0 0.30536360308285349 0.066392781667853271 0 0.2977778506104008 0.068892742580247746 0 0.30043094897473438 0.074398800952957506 0 0.31791046823838481 0.11474238967111609 0 0.29628296509901109 0.10721276904672419 0 0.29664788852543389 0.12479595050376539 0 0.31791046823838481 0.11474238967111609 0 0.29628296509901109 0.10721276904672419 0 0.31791046823838481 0.11474238967111609 0 0.30762384370934698 0.095059745740094556 0 0.29628296509901109 0.10721276904672419 0 0.29663485307973742 0.08557755598005326 0 0.30762384370934698 0.095059745740094556 0 0.29628296509901109 0.10721276904672419 0 0.29628296509901109 0.10721276904672419 0 0.27682821228465149 0.1211010751974221 0 0.27465546195963758 0.099683148422332224 0 0.28453335058340129 0.085058039942490837 0 0.29628296509901109 0.10721276904672419 0 0.27465546195963758 0.099683148422332224 0 0.29628296509901109 0.10721276904672419 0 0.27465546195963758 0.099683148422332224 0 0.29628296509901109 0.10721276904672419 0 0.29664788852543389 0.12479595050376539 0 0.27682821228465149 0.1211010751974221 0 0.27682821228465149 0.1211010751974221 0 0.27465546195963758 0.099683148422332224 0 0.25939176971171429 0.1084857991624279 0 0.25302795882026369 0.092153527797940851 0 0.27465546195963758 0.099683148422332224 0 0.25939176971171429 0.1084857991624279 0 0.25302795882026369 0.092153527797940851 0 0.27465546195963758 0.099683148422332224 0 0.27682821228465149 0.1211010751974221 0 0.25939176971171429 0.1084857991624279 0 0.25348707159790929 0.12593482401944561 0 0.24388579456450971 0.14740220618073119 0 0.25348707159790929 0.12593482401944561 0 0.26793021031488601 0.14213473307911059 0 0.27682821228465149 0.1211010751974221 0 0.25348707159790929 0.12593482401944561 0 0.26793021031488601 0.14213473307911059 0 0.27682821228465149 0.1211010751974221 0 0.26793021031488601 0.14213473307911059 0 0.28909933672882238 0.14031861170780149 0 0.26793021031488601 0.14213473307911059 0 0.28325705090165598 0.16615258890660631 0 0.28909933672882238 0.14031861170780149 0 0.24388579456450971 0.14740220618073119 0 0.26793021031488601 0.14213473307911059 0 0.25785548438671752 0.16088044369486229 0 0.23928830390227551 0.169378686490951 0 0.25785548438671752 0.16088044369486229 0 0.25646399019725108 0.1864920119192599 0 0.25646399019725108 0.1864920119192599 0 0.28325705090165598 0.16615258890660631 0 0.28586151795199682 0.1932643501839458 0 0.25785548438671752 0.16088044369486229 0 0.25646399019725108 0.1864920119192599 0 0.28325705090165598 0.16615258890660631 0 0.26793021031488601 0.14213473307911059 0 0.25785548438671752 0.16088044369486229 0 0.28325705090165598 0.16615258890660631 0 0.28325705090165598 0.16615258890660631 0 0.30740604445643499 0.1837057596333263 0 0.28586151795199682 0.1932643501839458 0 0.28325705090165598 0.16615258890660631 0 0.30740604445643499 0.1837057596333263 0 0.31222906945245887 0.1602612005206151 0 0.31222906945245887 0.1602612005206151 0 0.31002395219680762 0.13676527453796811 0 0.28909933672882238 0.14031861170780149 0 0.29664788852543389 0.12479595050376539 0 0.31002395219680762 0.13676527453796811 0 0.28909933672882238 0.14031861170780149 0 0.31791046823838481 0.11474238967111609 0 0.29664788852543389 0.12479595050376539 0 0.31002395219680762 0.13676527453796811 0 0.29664788852543389 0.12479595050376539 0 0.27682821228465149 0.1211010751974221 0 0.28909933672882238 0.14031861170780149 0 0.28325705090165598 0.16615258890660631 0 0.31222906945245887 0.1602612005206151 0 0.28909933672882238 0.14031861170780149 0 0.27565640416508119 0.25725899171724631 0 0.27843784616340123 0.24008916637645239 0 0.26106673644232692 0.24422602514900491 0 0.27843784616340123 0.24008916637645239 0 0.26106673644232692 0.24422602514900491 0 0.25834327828820208 0.2253143446556409 0 0.2401157593033883 0.23881362765845221 0 0.25278039429156129 0.2596539953372326 0 0.26106673644232692 0.24422602514900491 0 0.2401157593033883 0.23881362765845221 0 0.26106673644232692 0.24422602514900491 0 0.25834327828820208 0.2253143446556409 0 0.27843784616340123 0.24008916637645239 0 0.25834327828820208 0.2253143446556409 0 0.28533159313117801 0.219687856964109 0 0.27843784616340123 0.24008916637645239 0 0.25834327828820208 0.2253143446556409 0 0.26569157883170719 0.20664025301942701 0 0.28586151795199682 0.1932643501839458 0 0.28533159313117801 0.219687856964109 0 0.25834327828820208 0.2253143446556409 0 0.26569157883170719 0.20664025301942701 0 0.28533159313117801 0.219687856964109 0 0.23824871041300311 0.2105395229348295 0 0.25834327828820208 0.2253143446556409 0 0.26569157883170719 0.20664025301942701 0 0.23824871041300311 0.2105395229348295 0 0.25646399019725108 0.1864920119192599 0 0.26569157883170719 0.20664025301942701 0 0.25646399019725108 0.1864920119192599 0 0.26569157883170719 0.20664025301942701 0 0.28586151795199682 0.1932643501839458 0 0.30740604445643499 0.1837057596333263 0 0.28586151795199682 0.1932643501839458 0 0.30562267960028527 0.20731974167680489 0 0.30562267960028527 0.20731974167680489 0 0.28533159313117801 0.219687856964109 0 0.30758309039443787 0.2275850894795951 0 0.30562267960028527 0.20731974167680489 0 0.30758309039443787 0.2275850894795951 0 0.32243345915466243 0.21994847202951959 0 0.28586151795199682 0.1932643501839458 0 0.30562267960028527 0.20731974167680489 0 0.28533159313117801 0.219687856964109 0 0.28533159313117801 0.219687856964109 0 0.30758309039443787 0.2275850894795951 0 0.29505926936258797 0.2382570835185002 0 0.27843784616340123 0.24008916637645239 0 0.28533159313117801 0.219687856964109 0 0.29505926936258797 0.2382570835185002 0 0.30758309039443787 0.2275850894795951 0 0.30906255546776001 0.24275769113914589 0 0.29505926936258797 0.2382570835185002 0 0.29853241403860131 0.25486398809726252 0 0.30906255546776001 0.24275769113914589 0 0.29505926936258797 0.2382570835185002 0 0.29853241403860131 0.25486398809726252 0 0.32296140252594913 0.25230639539716571 0 0.30906255546776001 0.24275769113914589 0 0.29853241403860131 0.25486398809726252 0 0.27843784616340123 0.24008916637645239 0 0.29853241403860131 0.25486398809726252 0 0.27843784616340123 0.24008916637645239 0 0.29505926936258797 0.2382570835185002 0 0.32480408832410312 0.23707928596677169 0 0.33939363138851297 0.23012926505813261 0 0.347390391013297 0.24974880269707131 0 0.32296140252594913 0.25230639539716571 0 0.32480408832410312 0.23707928596677169 0 0.347390391013297 0.24974880269707131 0 0.32296140252594913 0.25230639539716571 0 0.30906255546776001 0.24275769113914589 0 0.32480408832410312 0.23707928596677169 0 0.30758309039443787 0.2275850894795951 0 0.30906255546776001 0.24275769113914589 0 0.32480408832410312 0.23707928596677169 0 0.30758309039443787 0.2275850894795951 0 0.32480408832410312 0.23707928596677169 0 0.32243345915466243 0.21994847202951959 0 0.32243345915466243 0.21994847202951959 0 0.33939363138851297 0.23012926505813261 0 0.3380023851595792 0.2134481275021578 0 0.33939363138851297 0.23012926505813261 0 0.3380023851595792 0.2134481275021578 0 0.351970339454311 0.21973152267478899 0 0.32480408832410312 0.23707928596677169 0 0.32243345915466243 0.21994847202951959 0 0.33939363138851297 0.23012926505813261 0 0.32243345915466243 0.21994847202951959 0 0.3380023851595792 0.2134481275021578 0 0.3267520955993829 0.2002905696538291 0 0.3380023851595792 0.2134481275021578 0 0.3267520955993829 0.2002905696538291 0 0.34946240020102642 0.19714080809451859 0 0.30562267960028527 0.20731974167680489 0 0.32243345915466243 0.21994847202951959 0 0.3267520955993829 0.2002905696538291 0 0.30740604445643499 0.1837057596333263 0 0.30562267960028527 0.20731974167680489 0 0.3267520955993829 0.2002905696538291 0 0.3267520955993829 0.2002905696538291 0 0.34946240020102642 0.19714080809451859 0 0.33133570724931521 0.17586556489275471 0 0.34946240020102642 0.19714080809451859 0 0.36596334842984207 0.20519870177391811 0 0.36787069675891659 0.1828535841523288 0 0.36596334842984207 0.20519870177391811 0 0.36787069675891659 0.1828535841523288 0 0.38037824868620079 0.19642072932734711 0 0.36596334842984207 0.20519870177391811 0 0.351970339454311 0.21973152267478899 0 0.36865801375724111 0.22567712536022 0 0.36596334842984207 0.20519870177391811 0 0.36865801375724111 0.22567712536022 0 0.38127384220201471 0.21377913273515339 0 0.3380023851595792 0.2134481275021578 0 0.34946240020102642 0.19714080809451859 0 0.351970339454311 0.21973152267478899 0 0.34946240020102642 0.19714080809451859 0 0.36596334842984207 0.20519870177391811 0 0.351970339454311 0.21973152267478899 0 0.351970339454311 0.21973152267478899 0 0.36865801375724111 0.22567712536022 0 0.35618565885700643 0.23498013785581751 0 0.33939363138851297 0.23012926505813261 0 0.351970339454311 0.21973152267478899 0 0.35618565885700643 0.23498013785581751 0 0.36865801375724111 0.22567712536022 0 0.37181937950064509 0.24719120999697691 0 0.38388724451411449 0.2319706653787165 0 0.36865801375724111 0.22567712536022 0 0.37181937950064509 0.24719120999697691 0 0.35618565885700643 0.23498013785581751 0 0.37181937950064509 0.24719120999697691 0 0.347390391013297 0.24974880269707131 0 0.37181937950064509 0.24719120999697691 0 0.347390391013297 0.24974880269707131 0 0.35618565885700643 0.23498013785581751 0 0.33939363138851297 0.23012926505813261 0 0.347390391013297 0.24974880269707131 0 0.35618565885700643 0.23498013785581751 0 0.33887053653481802 0.11510837205050541 0 0.33423299803893819 0.14370822028654251 0 0.35623692662541762 0.12715524005246989 0 0.31791046823838481 0.11474238967111609 0 0.31002395219680762 0.13676527453796811 0 0.33423299803893819 0.14370822028654251 0 0.31222906945245887 0.1602612005206151 0 0.31002395219680762 0.13676527453796811 0 0.33423299803893819 0.14370822028654251 0 0.31222906945245887 0.1602612005206151 0 0.33423299803893819 0.14370822028654251 0 0.33423299803893819 0.14370822028654251 0 0.33133570724931521 0.17586556489275471 0 0.35485207457553952 0.1695839094624606 0 0.31222906945245887 0.1602612005206151 0 0.33423299803893819 0.14370822028654251 0 0.33133570724931521 0.17586556489275471 0 0.30740604445643499 0.1837057596333263 0 0.31222906945245887 0.1602612005206151 0 0.33133570724931521 0.17586556489275471 0 0.30740604445643499 0.1837057596333263 0 0.3267520955993829 0.2002905696538291 0 0.33133570724931521 0.17586556489275471 0 0.34946240020102642 0.19714080809451859 0 0.35485207457553952 0.1695839094624606 0 0.36787069675891659 0.1828535841523288 0 0.34946240020102642 0.19714080809451859 0 0.33133570724931521 0.17586556489275471 0 0.35485207457553952 0.1695839094624606 0 0.35485207457553952 0.1695839094624606 0 0.36787069675891659 0.1828535841523288 0 0.37701118559040647 0.16820503728481309 0 0.35485207457553952 0.1695839094624606 0 0.36871429263680922 0.14954748274338031 0 0.37701118559040647 0.16820503728481309 0 0.33423299803893819 0.14370822028654251 0 0.36871429263680922 0.14954748274338031 0 0.35623692662541762 0.12715524005246989 0 0.36871429263680922 0.14954748274338031 0 0.35623692662541762 0.12715524005246989 0 0.38912416285099122 0.13349265038640351 0 0.33423299803893819 0.14370822028654251 0 0.35485207457553952 0.1695839094624606 0 0.36871429263680922 0.14954748274338031 0 0.33423299803893819 0.14370822028654251 0 0.35623692662541762 0.12715524005246989 0 0.36871429263680922 0.14954748274338031 0 0.38912416285099122 0.13349265038640351 0 0.40000747049008428 0.15638304095441011 0 0.40460747492949661 0.13497532011555219 0 0.41494454602174319 0.1233530903948843 0 0.39543304537231222 0.1180307480392543 0 0.38912416285099122 0.13349265038640351 0 0.40460747492949661 0.13497532011555219 0 0.39543304537231222 0.1180307480392543 0 0.38912416285099122 0.13349265038640351 0 0.40460747492949661 0.13497532011555219 0 0.40000747049008428 0.15638304095441011 0 0.38912416285099122 0.13349265038640351 0 0.40000747049008428 0.15638304095441011 0 0.36871429263680922 0.14954748274338031 0 0.37701118559040647 0.16820503728481309 0 0.40000747049008428 0.15638304095441011 0 0.37701118559040647 0.16820503728481309 0 0.38938073744404611 0.18106350783737371 0 0.40000747049008428 0.15638304095441011 0 0.36787069675891659 0.1828535841523288 0 0.38938073744404611 0.18106350783737371 0 0.38037824868620079 0.19642072932734711 0 0.36787069675891659 0.1828535841523288 0 0.37701118559040647 0.16820503728481309 0 0.38938073744404611 0.18106350783737371 0 0.36787069675891659 0.1828535841523288 0 0.38938073744404611 0.18106350783737371 0 0.38938073744404611 0.18106350783737371 0 0.4108907781291754 0.1792734315224177 0 0.38938073744404611 0.18106350783737371 0 0.4108907781291754 0.1792734315224177 0 0.40464535948581681 0.19079320987558929 0 0.38938073744404611 0.18106350783737371 0 0.40000747049008428 0.15638304095441011 0 0.4108907781291754 0.1792734315224177 0 0.40000747049008428 0.15638304095441011 0 0.4108907781291754 0.1792734315224177 0 0.40000747049008428 0.15638304095441011 0 0.41677762135860918 0.15987504109790879 0 0.4108907781291754 0.1792734315224177 0 0.41677762135860918 0.15987504109790879 0 0.4108907781291754 0.1792734315224177 0 0.42453808024338752 0.17083167877073541 0 0.4108907781291754 0.1792734315224177 0 0.42870863011701699 0.18738048732626331 0 0.41806041242882491 0.19435301346487649 0 0.4108907781291754 0.1792734315224177 0 0.41806041242882491 0.19435301346487649 0 0.4108907781291754 0.1792734315224177 0 0.42870863011701699 0.18738048732626331 0 0.43782780897081702 0.1770317183796733 0 0.4108907781291754 0.1792734315224177 0 0.42453808024338752 0.17083167877073541 0 0.43782780897081702 0.1770317183796733 0 0.4108907781291754 0.1792734315224177 0 0.43782780897081702 0.1770317183796733 0 0.42453808024338752 0.17083167877073541 0 0.43388747716604242 0.1685815387544741 0 0.43782780897081702 0.1770317183796733 0 0.42870863011701699 0.18738048732626331 0 0.4408614798708973 0.18543062918176101 0 0.43782780897081702 0.1770317183796733 0 0.41677762135860918 0.15987504109790879 0 0.42453808024338752 0.17083167877073541 0 0.43005325563685498 0.16120492810240569 0 0.41677762135860918 0.15987504109790879 0 0.43005325563685498 0.16120492810240569 0 0.42915969095937978 0.14771060459493179 0 0.42453808024338752 0.17083167877073541 0 0.43388747716604242 0.1685815387544741 0 0.43005325563685498 0.16120492810240569 0 0.43388747716604242 0.1685815387544741 0 0.43005325563685498 0.16120492810240569 0 0.44313076381311028 0.16525782976508191 0 0.43005325563685498 0.16120492810240569 0 0.42915969095937978 0.14771060459493179 0 0.44080796094049912 0.15236414254462891 0 0.42915969095937978 0.14771060459493179 0 0.43855033727846021 0.1404262119987949 0 0.44080796094049912 0.15236414254462891 0 0.42915969095937978 0.14771060459493179 0 0.43015587934393912 0.12976474789886161 0 0.41737880243124548 0.14254782372466959 0 0.42915969095937978 0.14771060459493179 0 0.43015587934393912 0.12976474789886161 0 0.43855033727846021 0.1404262119987949 0 0.43015587934393912 0.12976474789886161 0 0.41737880243124548 0.14254782372466959 0 0.41494454602174319 0.1233530903948843 0 0.40460747492949661 0.13497532011555219 0 0.41737880243124548 0.14254782372466959 0 0.41494454602174319 0.1233530903948843 0 0.40460747492949661 0.13497532011555219 0 0.40000747049008428 0.15638304095441011 0 0.41737880243124548 0.14254782372466959 0 0.41677762135860918 0.15987504109790879 0 0.42915969095937978 0.14771060459493179 0 0.41737880243124548 0.14254782372466959 0 0.40000747049008428 0.15638304095441011 0 0.41677762135860918 0.15987504109790879 0 0.41737880243124548 0.14254782372466959 0 0.39088336126802231 0.25374328238468657 0 0.40054307806476108 0.23604992417298781 0 0.38388724451411449 0.2319706653787165 0 0.39088336126802231 0.25374328238468657 0 0.37181937950064509 0.24719120999697691 0 0.38388724451411449 0.2319706653787165 0 0.38388724451411449 0.2319706653787165 0 0.39844834409159152 0.21598560178807999 0 0.38127384220201471 0.21377913273515339 0 0.36865801375724111 0.22567712536022 0 0.38388724451411449 0.2319706653787165 0 0.38127384220201471 0.21377913273515339 0 0.40054307806476108 0.23604992417298781 0 0.39844834409159152 0.21598560178807999 0 0.41012804049637069 0.22193327915966801 0 0.40054307806476108 0.23604992417298781 0 0.38388724451411449 0.2319706653787165 0 0.39844834409159152 0.21598560178807999 0 0.39844834409159152 0.21598560178807999 0 0.38127384220201471 0.21377913273515339 0 0.39555370502758491 0.19937273736464431 0 0.39844834409159152 0.21598560178807999 0 0.39555370502758491 0.19937273736464431 0 0.40657729993266728 0.2019519186098766 0 0.38127384220201471 0.21377913273515339 0 0.38037824868620079 0.19642072932734711 0 0.39555370502758491 0.19937273736464431 0 0.36596334842984207 0.20519870177391811 0 0.38127384220201471 0.21377913273515339 0 0.38037824868620079 0.19642072932734711 0 0.38938073744404611 0.18106350783737371 0 0.38037824868620079 0.19642072932734711 0 0.39555370502758491 0.19937273736464431 0 0.38938073744404611 0.18106350783737371 0 0.39555370502758491 0.19937273736464431 0 0.40464535948581681 0.19079320987558929 0 0.39555370502758491 0.19937273736464431 0 0.40464535948581681 0.19079320987558929 0 0.40657729993266728 0.2019519186098766 0 0.40657729993266728 0.2019519186098766 0 0.41806041242882491 0.19435301346487649 0 0.41479674639612663 0.2102793102668136 0 0.4108907781291754 0.1792734315224177 0 0.40464535948581681 0.19079320987558929 0 0.41806041242882491 0.19435301346487649 0 0.40464535948581681 0.19079320987558929 0 0.40657729993266728 0.2019519186098766 0 0.41806041242882491 0.19435301346487649 0 0.41806041242882491 0.19435301346487649 0 0.42523004672847198 0.20943259540733641 0 0.42870863011701699 0.18738048732626331 0 0.41806041242882491 0.19435301346487649 0 0.43018017047600732 0.1972307643039691 0 0.42870863011701699 0.18738048732626331 0 0.43510218157250752 0.1919088940471238 0 0.43018017047600732 0.1972307643039691 0 0.42870863011701699 0.18738048732626331 0 0.43510218157250752 0.1919088940471238 0 0.4408614798708973 0.18543062918176101 0 0.43510218157250752 0.1919088940471238 0 0.43018017047600732 0.1972307643039691 0 0.44065844582610858 0.19759369537650179 0 0.41806041242882491 0.19435301346487649 0 0.43018017047600732 0.1972307643039691 0 0.42523004672847198 0.20943259540733641 0 0.43018017047600732 0.1972307643039691 0 0.42523004672847198 0.20943259540733641 0 0.44284376922493041 0.2080031531317966 0 0.42523004672847198 0.20943259540733641 0 0.43592262733789788 0.23192183805728889 0 0.44284376922493041 0.2080031531317966 0 0.42523004672847198 0.20943259540733641 0 0.44284376922493041 0.2080031531317966 0 0.41479674639612663 0.2102793102668136 0 0.41012804049637069 0.22193327915966801 0 0.42080603992505677 0.2209845565041911 0 0.39844834409159152 0.21598560178807999 0 0.41479674639612663 0.2102793102668136 0 0.41012804049637069 0.22193327915966801 0 0.42523004672847198 0.20943259540733641 0 0.41479674639612663 0.2102793102668136 0 0.42080603992505677 0.2209845565041911 0 0.41806041242882491 0.19435301346487649 0 0.42523004672847198 0.20943259540733641 0 0.41479674639612663 0.2102793102668136 0 0.39844834409159152 0.21598560178807999 0 0.40657729993266728 0.2019519186098766 0 0.41479674639612663 0.2102793102668136 0 0.42523004672847198 0.20943259540733641 0 0.41479674639612663 0.2102793102668136 0 0.40054307806476108 0.23604992417298781 0 0.41012804049637069 0.22193327915966801 0 0.4179527386664168 0.23135575962984881 0 0.41012804049637069 0.22193327915966801 0 0.4179527386664168 0.23135575962984881 0 0.42080603992505677 0.2209845565041911 0 0.42523004672847198 0.20943259540733641 0 0.42080603992505677 0.2209845565041911 0 0.43592262733789788 0.23192183805728889 0 0.42523004672847198 0.20943259540733641 0 0.43592262733789788 0.23192183805728889 0 0.4179527386664168 0.23135575962984881 0 0.42080603992505677 0.2209845565041911 0 0.43592262733789788 0.23192183805728889 0 0.4179527386664168 0.23135575962984881 0 0.43592262733789788 0.23192183805728889 0 0.42335149364163471 0.24854294937449151 0 0.44661520794732379 0.25441108070724161 0 0.43592262733789788 0.23192183805728889 0 0.42335149364163471 0.24854294937449151 0 0.40054307806476108 0.23604992417298781 0 0.4179527386664168 0.23135575962984881 0 0.42335149364163471 0.24854294937449151 0 0.45248644877947652 0.2539345999487283 0 0.46567358957809929 0.23813192659710949 0 0.44766510900220441 0.2309688765402623 0 0.45248644877947652 0.2539345999487283 0 0.44661520794732379 0.25441108070724161 0 0.44766510900220441 0.2309688765402623 0 0.44661520794732379 0.25441108070724161 0 0.43592262733789788 0.23192183805728889 0 0.44661520794732379 0.25441108070724161 0 0.43592262733789788 0.23192183805728889 0 0.44766510900220441 0.2309688765402623 0 0.45248644877947652 0.2539345999487283 0 0.44766510900220441 0.2309688765402623 0 0.44766510900220441 0.2309688765402623 0 0.45771335013182379 0.220573441371058 0 0.44284376922493041 0.2080031531317966 0 0.43592262733789788 0.23192183805728889 0 0.44766510900220441 0.2309688765402623 0 0.44284376922493041 0.2080031531317966 0 0.44766510900220441 0.2309688765402623 0 0.44284376922493041 0.2080031531317966 0 0.46567358957809929 0.23813192659710949 0 0.45771335013182379 0.220573441371058 0 0.4720068339162713 0.21918304385490081 0 0.46567358957809929 0.23813192659710949 0 0.44766510900220441 0.2309688765402623 0 0.45771335013182379 0.220573441371058 0 0.45771335013182379 0.220573441371058 0 0.46037744893761351 0.20658020673122029 0 0.44284376922493041 0.2080031531317966 0 0.46037744893761351 0.20658020673122029 0 0.4720068339162713 0.21918304385490081 0 0.45771335013182379 0.220573441371058 0 0.46037744893761351 0.20658020673122029 0 0.4720068339162713 0.21918304385490081 0 0.46037744893761351 0.20658020673122029 0 0.44284376922493041 0.2080031531317966 0 0.46037744893761351 0.20658020673122029 0 0.44284376922493041 0.2080031531317966 0 0.44065844582610858 0.19759369537650179 0 0.46037744893761351 0.20658020673122029 0 0.4408614798708973 0.18543062918176101 0 0.46037744893761351 0.20658020673122029 0 0.44065844582610858 0.19759369537650179 0 0.4408614798708973 0.18543062918176101 0 0.43018017047600732 0.1972307643039691 0 0.44284376922493041 0.2080031531317966 0 0.44065844582610858 0.19759369537650179 0 0.44284376922493041 0.2080031531317966 0 0.44065844582610858 0.19759369537650179 0 0.43510218157250752 0.1919088940471238 0 0.44065844582610858 0.19759369537650179 0 0.4408614798708973 0.18543062918176101 0 0.46037744893761351 0.20658020673122029 0 0.45986028636432069 0.1896409518498926 0 0.4408614798708973 0.18543062918176101 0 0.46037744893761351 0.20658020673122029 0 0.45986028636432069 0.1896409518498926 0 0.47343737683631359 0.1917629662496606 0 0.47343737683631359 0.1917629662496606 0 0.49094362947717002 0.18938693184085009 0 0.48837194655694183 0.20430831228144641 0 0.46037744893761351 0.20658020673122029 0 0.47343737683631359 0.1917629662496606 0 0.48837194655694183 0.20430831228144641 0 0.49454200846431012 0.1998933074772079 0 0.49999999999999861 0.20336463719078479 0 0.5 0.18118982256534449 0 0.49094362947717002 0.18938693184085009 0 0.49454200846431012 0.1998933074772079 0 0.5 0.18118982256534449 0 0.49094362947717002 0.18938693184085009 0 0.49454200846431012 0.1998933074772079 0 0.49454200846431012 0.1998933074772079 0 0.48837194655694183 0.20430831228144641 0 0.49999999999999861 0.20336463719078479 0 0.49094362947717002 0.18938693184085009 0 0.49454200846431012 0.1998933074772079 0 0.48837194655694183 0.20430831228144641 0 0.49094362947717002 0.18938693184085009 0 0.48837194655694183 0.20430831228144641 0 0.48837194655694183 0.20430831228144641 0 0.49999999999999861 0.20336463719078479 0 0.5 0.22644202497012139 0 0.48837194655694183 0.20430831228144641 0 0.4836362188949308 0.23178588097857969 0 0.48837194655694183 0.20430831228144641 0 0.49999999999999861 0.20336463719078479 0 0.48837194655694183 0.20430831228144641 0 0.4720068339162713 0.21918304385490081 0 0.4836362188949308 0.23178588097857969 0 0.46037744893761351 0.20658020673122029 0 0.48837194655694183 0.20430831228144641 0 0.46037744893761351 0.20658020673122029 0 0.48837194655694183 0.20430831228144641 0 0.4720068339162713 0.21918304385490081 0 0.46567358957809929 0.23813192659710949 0 0.4720068339162713 0.21918304385490081 0 0.4836362188949308 0.23178588097857969 0 0.4720068339162713 0.21918304385490081 0 0.4836362188949308 0.23178588097857969 0 0.48837194655694183 0.20430831228144641 0 0.4836362188949308 0.23178588097857969 0 0.5 0.22644202497012139 0 0.4836362188949308 0.23178588097857969 0 0.49999999999999972 0.24951941274945821 0 0.48002185953086918 0.25275706319391539 0 0.4836362188949308 0.23178588097857969 0 0.49999999999999972 0.24951941274945821 0 0.4836362188949308 0.23178588097857969 0 0.5 0.22644202497012139 0 0.49999999999999972 0.24951941274945821 0 0.48002185953086918 0.25275706319391539 0 0.46567358957809929 0.23813192659710949 0 0.4836362188949308 0.23178588097857969 0 0.48002185953086918 0.25275706319391539 0 0.4836362188949308 0.23178588097857969 0 0.4606542806548829 0.14635512566865561 0 0.45780589394643589 0.13464078348168429 0 0.47440003982337819 0.14108374646277461 0 0.4606542806548829 0.14635512566865561 0 0.45780589394643589 0.13464078348168429 0 0.44948849767392751 0.14301744355981899 0 0.4606542806548829 0.14635512566865561 0 0.4539509332951488 0.1565341988291061 0 0.4676260385355242 0.1564994560098939 0 0.4606542806548829 0.14635512566865561 0 0.44948849767392751 0.14301744355981899 0 0.4539509332951488 0.1565341988291061 0 0.4606542806548829 0.14635512566865561 0 0.4676260385355242 0.1564994560098939 0 0.47440003982337819 0.14108374646277461 0 0.46331457861382908 0.12815722530088591 0 0.45780589394643589 0.13464078348168429 0 0.47440003982337819 0.14108374646277461 0 0.46331457861382908 0.12815722530088591 0 0.47440003982337819 0.14108374646277461 0 0.46612824499648309 0.1169321537737366 0 0.46331457861382908 0.12815722530088591 0 0.45780589394643589 0.13464078348168429 0 0.45492413568901879 0.1199722174853482 0 0.45780589394643589 0.13464078348168429 0 0.44453423329796832 0.12967147621598341 0 0.44948849767392751 0.14301744355981899 0 0.45780589394643589 0.13464078348168429 0 0.44453423329796832 0.12967147621598341 0 0.45492413568901879 0.1199722174853482 0 0.44453423329796832 0.12967147621598341 0 0.43855033727846021 0.1404262119987949 0 0.44948849767392751 0.14301744355981899 0 0.43015587934393912 0.12976474789886161 0 0.44453423329796832 0.12967147621598341 0 0.43855033727846021 0.1404262119987949 0 0.43855033727846021 0.1404262119987949 0 0.44948849767392751 0.14301744355981899 0 0.44080796094049912 0.15236414254462891 0 0.44948849767392751 0.14301744355981899 0 0.44080796094049912 0.15236414254462891 0 0.4539509332951488 0.1565341988291061 0 0.43005325563685498 0.16120492810240569 0 0.44080796094049912 0.15236414254462891 0 0.44313076381311028 0.16525782976508191 0 0.43388747716604242 0.1685815387544741 0 0.44313076381311028 0.16525782976508191 0 0.43782780897081702 0.1770317183796733 0 0.44080796094049912 0.15236414254462891 0 0.44313076381311028 0.16525782976508191 0 0.4539509332951488 0.1565341988291061 0 0.44313076381311028 0.16525782976508191 0 0.43782780897081702 0.1770317183796733 0 0.4647648398124587 0.17479000523692809 0 0.43782780897081702 0.1770317183796733 0 0.4647648398124587 0.17479000523692809 0 0.4408614798708973 0.18543062918176101 0 0.43782780897081702 0.1770317183796733 0 0.4647648398124587 0.17479000523692809 0 0.45986028636432069 0.1896409518498926 0 0.4408614798708973 0.18543062918176101 0 0.4647648398124587 0.17479000523692809 0 0.45986028636432069 0.1896409518498926 0 0.47343737683631359 0.1917629662496606 0 0.4647648398124587 0.17479000523692809 0 0.4647648398124587 0.17479000523692809 0 0.4539509332951488 0.1565341988291061 0 0.4676260385355242 0.1564994560098939 0 0.44313076381311028 0.16525782976508191 0 0.4647648398124587 0.17479000523692809 0 0.4539509332951488 0.1565341988291061 0 0.4647648398124587 0.17479000523692809 0 0.4676260385355242 0.1564994560098939 0 0.4826718346502733 0.16523533915181249 0 0.49094362947717002 0.18938693184085009 0 0.4826718346502733 0.16523533915181249 0 0.47795442019405421 0.18029381061981289 0 0.47343737683631359 0.1917629662496606 0 0.49094362947717002 0.18938693184085009 0 0.47795442019405421 0.18029381061981289 0 0.4647648398124587 0.17479000523692809 0 0.4826718346502733 0.16523533915181249 0 0.47795442019405421 0.18029381061981289 0 0.47343737683631359 0.1917629662496606 0 0.4647648398124587 0.17479000523692809 0 0.47795442019405421 0.18029381061981289 0 0.49094362947717002 0.18938693184085009 0 0.4826718346502733 0.16523533915181249 0 0.49547181473858581 0.1631135625776573 0 0.49094362947717002 0.18938693184085009 0 0.4826718346502733 0.16523533915181249 0 0.49094362947717002 0.18938693184085009 0 0.49547181473858581 0.1631135625776573 0 0.49094362947717002 0.18938693184085009 0 0.5 0.18118982256534449 0 0.49547181473858581 0.1631135625776573 0 0.5 0.18118982256534449 0 0.5 0.15901500793990431 0 0.49547181473858581 0.1631135625776573 0 0.4826718346502733 0.16523533915181249 0 0.49547181473858581 0.1631135625776573 0 0.48677801853020558 0.1503366728507142 0 0.5 0.15901500793990431 0 0.49547181473858581 0.1631135625776573 0 0.50000000000000011 0.13684019331446409 0 0.49547181473858581 0.1631135625776573 0 0.50000000000000011 0.13684019331446409 0 0.49547181473858581 0.1631135625776573 0 0.48677801853020558 0.1503366728507142 0 0.50000000000000011 0.13684019331446409 0 0.4826718346502733 0.16523533915181249 0 0.48677801853020558 0.1503366728507142 0 0.47440003982337819 0.14108374646277461 0 0.4826718346502733 0.16523533915181249 0 0.47440003982337819 0.14108374646277461 0 0.4676260385355242 0.1564994560098939 0 0.4826718346502733 0.16523533915181249 0 0.47440003982337819 0.14108374646277461 0 0.47440003982337819 0.14108374646277461 0 0.47077271278572053 0.12175261407449151 0 0.46612824499648309 0.1169321537737366 0 0.47440003982337819 0.14108374646277461 0 0.48515387068146792 0.12787992974497331 0 0.47077271278572053 0.12175261407449151 0 0.47440003982337819 0.14108374646277461 0 0.46612824499648309 0.1169321537737366 0 0.48677801853020558 0.1503366728507142 0 0.47440003982337819 0.14108374646277461 0 0.48515387068146792 0.12787992974497331 0 0.48677801853020558 0.1503366728507142 0 0.48515387068146792 0.12787992974497331 0 0.50000000000000011 0.13684019331446409 0 0.48515387068146792 0.12787992974497331 0 0.50000000000000011 0.13684019331446409 0 0.5 0.11019905458794189 0 0.48515387068146792 0.12787992974497331 0 0.5 0.11019905458794189 0 0.48444687857307378 0.1144045970827534 0 0.5 0.11019905458794189 0 0.48331765870338711 0.099945885930141823 0 0.50000000000000311 0.083557915861419821 0 0.5 0.11019905458794189 0 0.48444687857307378 0.1144045970827534 0 0.48331765870338711 0.099945885930141823 0 0.48444687857307378 0.1144045970827534 0 0.48331765870338711 0.099945885930141823 0 0.47617696524420988 0.1126883443658605 0 0.47007551005862919 0.1048014295885258 0 0.46937830733153801 0.087850245102560065 0 0.48331765870338711 0.099945885930141823 0 0.47007551005862919 0.1048014295885258 0 0.46937830733153801 0.087850245102560065 0 0.48331765870338711 0.099945885930141823 0 0.47007551005862919 0.1048014295885258 0 0.47617696524420988 0.1126883443658605 0 0.47007551005862919 0.1048014295885258 0 0.47077271278572053 0.12175261407449151 0 0.46612824499648309 0.1169321537737366 0 0.47007551005862919 0.1048014295885258 0 0.47617696524420988 0.1126883443658605 0 0.47077271278572053 0.12175261407449151 0 0.47007551005862919 0.1048014295885258 0 0.47077271278572053 0.12175261407449151 0 0.47617696524420988 0.1126883443658605 0 0.47077271278572053 0.12175261407449151 0 0.47929241774591202 0.1195703023240635 0 0.48515387068146792 0.12787992974497331 0 0.47077271278572053 0.12175261407449151 0 0.47929241774591202 0.1195703023240635 0 0.48515387068146792 0.12787992974497331 0 0.48444687857307378 0.1144045970827534 0 0.47929241774591202 0.1195703023240635 0 0.48444687857307378 0.1144045970827534 0 0.47617696524420988 0.1126883443658605 0 0.47929241774591202 0.1195703023240635 0 0.5 0.063695271357823269 0 0.4849890068914125 0.07059365642005469 0 0.50000000000000311 0.083557915861419821 0 0.5 0.063695271357823269 0 0.4849890068914125 0.07059365642005469 0 0.4841318719001424 0.053594396596263222 0 0.48331765870338711 0.099945885930141823 0 0.48468915366577059 0.085704080481990352 0 0.50000000000000311 0.083557915861419821 0 0.4849890068914125 0.07059365642005469 0 0.48468915366577059 0.085704080481990352 0 0.50000000000000311 0.083557915861419821 0 0.48468915366577059 0.085704080481990352 0 0.50000000000000311 0.083557915861419821 0 0.4849890068914125 0.07059365642005469 0 0.48468915366577059 0.085704080481990352 0 0.46937830733153801 0.087850245102560065 0 0.48331765870338711 0.099945885930141823 0 0.48468915366577059 0.085704080481990352 0 0.46937830733153801 0.087850245102560065 0 0.48468915366577059 0.085704080481990352 0 0.46937830733153801 0.087850245102560065 0 0.4849890068914125 0.07059365642005469 0 0.46937830733153801 0.087850245102560065 0 0.4684005580242262 0.064078093552873527 0 0.4849890068914125 0.07059365642005469 0 0.4684005580242262 0.064078093552873527 0 0.4841318719001424 0.053594396596263222 0 0.46937830733153801 0.087850245102560065 0 0.4684005580242262 0.064078093552873527 0 0.45316235121001502 0.075497399453817393 0 0.4684005580242262 0.064078093552873527 0 0.45267159776790677 0.059149082956841209 0 0.46937830733153801 0.087850245102560065 0 0.45316235121001502 0.075497399453817393 0 0.4684005580242262 0.064078093552873527 0 0.46937830733153801 0.087850245102560065 0 0.44160931223090633 0.09174270365989777 0 0.45990248372723191 0.099034521191293037 0 0.46937830733153801 0.087850245102560065 0 0.44160931223090633 0.09174270365989777 0 0.46937830733153801 0.087850245102560065 0 0.45316235121001502 0.075497399453817393 0 0.44160931223090633 0.09174270365989777 0 0.45316235121001502 0.075497399453817393 0 0.44160931223090633 0.09174270365989777 0 0.43273950265907912 0.069604352084265853 0 0.45316235121001502 0.075497399453817393 0 0.43273950265907912 0.069604352084265853 0 0.45267159776790677 0.059149082956841209 0 0.45492413568901879 0.1199722174853482 0 0.4620738840391414 0.1091487317620011 0 0.45317127620493958 0.1064547946836443 0 0.46331457861382908 0.12815722530088591 0 0.45492413568901879 0.1199722174853482 0 0.46612824499648309 0.1169321537737366 0 0.47007551005862919 0.1048014295885258 0 0.46612824499648309 0.1169321537737366 0 0.4620738840391414 0.1091487317620011 0 0.45492413568901879 0.1199722174853482 0 0.46612824499648309 0.1169321537737366 0 0.4620738840391414 0.1091487317620011 0 0.47007551005862919 0.1048014295885258 0 0.4620738840391414 0.1091487317620011 0 0.45990248372723191 0.099034521191293037 0 0.47007551005862919 0.1048014295885258 0 0.46937830733153801 0.087850245102560065 0 0.45990248372723191 0.099034521191293037 0 0.4620738840391414 0.1091487317620011 0 0.45990248372723191 0.099034521191293037 0 0.45317127620493958 0.1064547946836443 0 0.44160931223090633 0.09174270365989777 0 0.45317127620493958 0.1064547946836443 0 0.44145435050082382 0.11421065319453411 0 0.44160931223090633 0.09174270365989777 0 0.45990248372723191 0.099034521191293037 0 0.45317127620493958 0.1064547946836443 0 0.45492413568901879 0.1199722174853482 0 0.45317127620493958 0.1064547946836443 0 0.44145435050082382 0.11421065319453411 0 0.44453423329796832 0.12967147621598341 0 0.45492413568901879 0.1199722174853482 0 0.44145435050082382 0.11421065319453411 0 0.43015587934393912 0.12976474789886161 0 0.44453423329796832 0.12967147621598341 0 0.44145435050082382 0.11421065319453411 0 0.43015587934393912 0.12976474789886161 0 0.42455490793183998 0.1103997367505989 0 0.41494454602174319 0.1233530903948843 0 0.43015587934393912 0.12976474789886161 0 0.44145435050082382 0.11421065319453411 0 0.42455490793183998 0.1103997367505989 0 0.42455490793183998 0.1103997367505989 0 0.41494454602174319 0.1233530903948843 0 0.40673166090298418 0.1095685580794394 0 0.42455490793183998 0.1103997367505989 0 0.40673166090298418 0.1095685580794394 0 0.41384031713027453 0.095635162217235087 0 0.44160931223090633 0.09174270365989777 0 0.44145435050082382 0.11421065319453411 0 0.42455490793183998 0.1103997367505989 0 0.44160931223090633 0.09174270365989777 0 0.42455490793183998 0.1103997367505989 0 0.41384031713027453 0.095635162217235087 0 0.44160931223090633 0.09174270365989777 0 0.41384031713027453 0.095635162217235087 0 0.44160931223090633 0.09174270365989777 0 0.43273950265907912 0.069604352084265853 0 0.41457328684335171 0.083270321328976327 0 0.44160931223090633 0.09174270365989777 0 0.41384031713027453 0.095635162217235087 0 0.41457328684335171 0.083270321328976327 0 0.43273950265907912 0.069604352084265853 0 0.41457328684335171 0.083270321328976327 0 0.43273950265907912 0.069604352084265853 0 0.40773581801483533 0.071673128604897718 0 0.41457328684335171 0.083270321328976327 0 0.43273950265907912 0.069604352084265853 0 0.40773581801483533 0.071673128604897718 0 0.41226345978870782 0.058704567824952668 0 0.41384031713027453 0.095635162217235087 0 0.41457328684335171 0.083270321328976327 0 0.39640707102762429 0.096936290573686801 0 0.40773581801483533 0.071673128604897718 0 0.41457328684335171 0.083270321328976327 0 0.39907784363438742 0.082385951433319407 0 0.41457328684335171 0.083270321328976327 0 0.39640707102762429 0.096936290573686801 0 0.41457328684335171 0.083270321328976327 0 0.39907784363438742 0.082385951433319407 0 0.39640707102762429 0.096936290573686801 0 0.39907784363438742 0.082385951433319407 0 0.39311047853448178 0.072978287141711423 0 0.38430280584342719 0.086146619157544985 0 0.39907784363438742 0.082385951433319407 0 0.38430280584342719 0.086146619157544985 0 0.39640707102762429 0.096936290573686801 0 0.40773581801483533 0.071673128604897718 0 0.39311047853448178 0.072978287141711423 0 0.39809268232723682 0.060970244055265098 0 0.40773581801483533 0.071673128604897718 0 0.39809268232723682 0.060970244055265098 0 0.41226345978870782 0.058704567824952668 0 0.40773581801483533 0.071673128604897718 0 0.39907784363438742 0.082385951433319407 0 0.39311047853448178 0.072978287141711423 0 0.39311047853448178 0.072978287141711423 0 0.38566035595512022 0.062818688866769543 0 0.39809268232723682 0.060970244055265098 0 0.39311047853448178 0.072978287141711423 0 0.38566035595512022 0.062818688866769543 0 0.38203350490619242 0.072664018174360523 0 0.39311047853448178 0.072978287141711423 0 0.38203350490619242 0.072664018174360523 0 0.38430280584342719 0.086146619157544985 0 0.37086601142707187 0.074810538278927668 0 0.38203350490619242 0.072664018174360523 0 0.38430280584342719 0.086146619157544985 0 0.37086601142707187 0.074810538278927668 0 0.38203350490619242 0.072664018174360523 0 0.37753157964184553 0.064609903736175672 0 0.38566035595512022 0.062818688866769543 0 0.38203350490619242 0.072664018174360523 0 0.37753157964184553 0.064609903736175672 0 0.36840817910976509 0.089921617152553729 0 0.38430280584342719 0.086146619157544985 0 0.37824085521189721 0.1106022598183974 0 0.38430280584342719 0.086146619157544985 0 0.37824085521189721 0.1106022598183974 0 0.39640707102762429 0.096936290573686801 0 0.37824085521189721 0.1106022598183974 0 0.39640707102762429 0.096936290573686801 0 0.37824085521189721 0.1106022598183974 0 0.39543304537231222 0.1180307480392543 0 0.39640707102762429 0.096936290573686801 0 0.38912416285099122 0.13349265038640351 0 0.37824085521189721 0.1106022598183974 0 0.38912416285099122 0.13349265038640351 0 0.37824085521189721 0.1106022598183974 0 0.39543304537231222 0.1180307480392543 0 0.41494454602174319 0.1233530903948843 0 0.40673166090298418 0.1095685580794394 0 0.39543304537231222 0.1180307480392543 0 0.40673166090298418 0.1095685580794394 0 0.41384031713027453 0.095635162217235087 0 0.39640707102762429 0.096936290573686801 0 0.40673166090298418 0.1095685580794394 0 0.39543304537231222 0.1180307480392543 0 0.39640707102762429 0.096936290573686801 0 0.39578349950655478 0.02493985379182433 0 0.39612576642925418 0.0113658436568718 0 0.38381167737395661 0.01892704830004344 0 0.39578349950655478 0.02493985379182433 0 0.40394791535848129 0.037403268980627152 0 0.40752920921290903 0.021913906371322959 0 0.39612576642925418 0.0113658436568718 0 0.40752920921290903 0.021913906371322959 0 0.39578349950655478 0.02493985379182433 0 0.39612576642925418 0.0113658436568718 0 0.40752920921290903 0.021913906371322959 0 0.39612576642925418 0.0113658436568718 0 0.39952884132554478 -0.0047806401933310648 0 0.37785840696812939 -0.0055312686344695028 0 0.39612576642925418 0.0113658436568718 0 0.42119927568296028 -0.0040300117521952514 0 0.39952884132554478 -0.0047806401933310648 0 0.374195934327619 0.0085389824845100992 0 0.39612576642925418 0.0113658436568718 0 0.37785840696812939 -0.0055312686344695028 0 0.374195934327619 0.0085389824845100992 0 0.39612576642925418 0.0113658436568718 0 0.38381167737395661 0.01892704830004344 0 0.39612576642925418 0.0113658436568718 0 0.38381167737395661 0.01892704830004344 0 0.39612576642925418 0.0113658436568718 0 0.37785840696812939 -0.0055312686344695028 0 0.374195934327619 0.0085389824845100992 0 0.37090587529055918 0.020912351321849029 0 0.38381167737395661 0.01892704830004344 0 0.39578349950655478 0.02493985379182433 0 0.38381167737395661 0.01892704830004344 0 0.38887434936719611 0.035033490361281359 0 0.38381167737395661 0.01892704830004344 0 0.37634882752855142 0.033677009705413173 0 0.38887434936719611 0.035033490361281359 0 0.37090587529055918 0.020912351321849029 0 0.38381167737395661 0.01892704830004344 0 0.37634882752855142 0.033677009705413173 0 0.37487198330074573 0.045301063530604549 0 0.37634882752855142 0.033677009705413173 0 0.3832621761012367 0.043491469912113737 0 0.3832621761012367 0.043491469912113737 0 0.38887434936719611 0.035033490361281359 0 0.39087387631107301 0.049282256309123779 0 0.37634882752855142 0.033677009705413173 0 0.3832621761012367 0.043491469912113737 0 0.38887434936719611 0.035033490361281359 0 0.38566035595512022 0.062818688866769543 0 0.37753157964184553 0.064609903736175672 0 0.37866268644438661 0.053744281833198827 0 0.37043533947645629 0.059011991527621779 0 0.37753157964184553 0.064609903736175672 0 0.37866268644438661 0.053744281833198827 0 0.37487198330074573 0.045301063530604549 0 0.3832621761012367 0.043491469912113737 0 0.37866268644438661 0.053744281833198827 0 0.3832621761012367 0.043491469912113737 0 0.37866268644438661 0.053744281833198827 0 0.39087387631107301 0.049282256309123779 0 0.38566035595512022 0.062818688866769543 0 0.37866268644438661 0.053744281833198827 0 0.39087387631107301 0.049282256309123779 0 0.38566035595512022 0.062818688866769543 0 0.39809268232723682 0.060970244055265098 0 0.39087387631107301 0.049282256309123779 0 0.39809268232723682 0.060970244055265098 0 0.39087387631107301 0.049282256309123779 0 0.40359144677852771 0.050630349538077699 0 0.39809268232723682 0.060970244055265098 0 0.40359144677852771 0.050630349538077699 0 0.41226345978870782 0.058704567824952668 0 0.39578349950655478 0.02493985379182433 0 0.38887434936719611 0.035033490361281359 0 0.40394791535848129 0.037403268980627152 0 0.38887434936719611 0.035033490361281359 0 0.39087387631107301 0.049282256309123779 0 0.40394791535848129 0.037403268980627152 0 0.39087387631107301 0.049282256309123779 0 0.40359144677852771 0.050630349538077699 0 0.40394791535848129 0.037403268980627152 0 0.40359144677852771 0.050630349538077699 0 0.40394791535848129 0.037403268980627152 0 0.4224621400864812 0.047321268153874697 0 0.40394791535848129 0.037403268980627152 0 0.41893265199656388 0.032461969085773978 0 0.4224621400864812 0.047321268153874697 0 0.40359144677852771 0.050630349538077699 0 0.41226345978870782 0.058704567824952668 0 0.4224621400864812 0.047321268153874697 0 0.43273950265907912 0.069604352084265853 0 0.41226345978870782 0.058704567824952668 0 0.4224621400864812 0.047321268153874697 0 0.43273950265907912 0.069604352084265853 0 0.4224621400864812 0.047321268153874697 0 0.44163276822929898 0.04625962769006222 0 0.4224621400864812 0.047321268153874697 0 0.43350721061272052 0.031640231271839687 0 0.44163276822929898 0.04625962769006222 0 0.41893265199656388 0.032461969085773978 0 0.4224621400864812 0.047321268153874697 0 0.43350721061272052 0.031640231271839687 0 0.43350721061272052 0.031640231271839687 0 0.42513607862055092 0.015851330265746779 0 0.44095448455414182 0.019900552434274941 0 0.41893265199656388 0.032461969085773978 0 0.43350721061272052 0.031640231271839687 0 0.42513607862055092 0.015851330265746779 0 0.41893265199656388 0.032461969085773978 0 0.42513607862055092 0.015851330265746779 0 0.40752920921290903 0.021913906371322959 0 0.41893265199656388 0.032461969085773978 0 0.40752920921290903 0.021913906371322959 0 0.40394791535848129 0.037403268980627152 0 0.41893265199656388 0.032461969085773978 0 0.40752920921290903 0.021913906371322959 0 0.42513607862055092 0.015851330265746779 0 0.40752920921290903 0.021913906371322959 0 0.42119927568296028 -0.0040300117521952514 0 0.39612576642925418 0.0113658436568718 0 0.40752920921290903 0.021913906371322959 0 0.42119927568296028 -0.0040300117521952514 0 0.39612576642925418 0.0113658436568718 0 0.42119927568296028 -0.0040300117521952514 0 0.43700639744049852 0.0092408338936907156 0 0.4420964108756813 -0.0033061691307141781 0 0.42119927568296028 -0.0040300117521952514 0 0.42513607862055092 0.015851330265746779 0 0.43700639744049852 0.0092408338936907156 0 0.42119927568296028 -0.0040300117521952514 0 0.42513607862055092 0.015851330265746779 0 0.43700639744049852 0.0092408338936907156 0 0.44095448455414182 0.019900552434274941 0 0.4516157250866023 0.01014825291205 0 0.4420964108756813 -0.0033061691307141781 0 0.46299354606840221 -0.0025823265092306149 0 0.43700639744049852 0.0092408338936907156 0 0.4516157250866023 0.01014825291205 0 0.4420964108756813 -0.0033061691307141781 0 0.43700639744049852 0.0092408338936907156 0 0.4516157250866023 0.01014825291205 0 0.44095448455414182 0.019900552434274941 0 0.4516157250866023 0.01014825291205 0 0.45192514018928659 0.028046640001305589 0 0.44095448455414182 0.019900552434274941 0 0.43350721061272052 0.031640231271839687 0 0.45192514018928659 0.028046640001305589 0 0.44095448455414182 0.019900552434274941 0 0.4516157250866023 0.01014825291205 0 0.45192514018928659 0.028046640001305589 0 0.46644505940960251 0.016533790453500629 0 0.46644505940960251 0.016533790453500629 0 0.46742280871691427 0.040305942003187031 0 0.45192514018928659 0.028046640001305589 0 0.46644505940960251 0.016533790453500629 0 0.46742280871691427 0.040305942003187031 0 0.4516157250866023 0.01014825291205 0 0.46644505940960251 0.016533790453500629 0 0.46299354606840221 -0.0025823265092306149 0 0.43273950265907912 0.069604352084265853 0 0.45267159776790677 0.059149082956841209 0 0.44163276822929898 0.04625962769006222 0 0.43350721061272052 0.031640231271839687 0 0.45192514018928659 0.028046640001305589 0 0.44163276822929898 0.04625962769006222 0 0.45192514018928659 0.028046640001305589 0 0.44163276822929898 0.04625962769006222 0 0.46742280871691427 0.040305942003187031 0 0.45267159776790677 0.059149082956841209 0 0.44163276822929898 0.04625962769006222 0 0.46742280871691427 0.040305942003187031 0 0.4684005580242262 0.064078093552873527 0 0.45267159776790677 0.059149082956841209 0 0.46742280871691427 0.040305942003187031 0 0.4684005580242262 0.064078093552873527 0 0.46742280871691427 0.040305942003187031 0 0.4684005580242262 0.064078093552873527 0 0.46742280871691427 0.040305942003187031 0 0.4841318719001424 0.053594396596263222 0 0.46742280871691427 0.040305942003187031 0 0.4832628634128136 0.039589528906544103 0 0.48149677303419958 0.020625150172498798 0 0.46742280871691427 0.040305942003187031 0 0.4841318719001424 0.053594396596263222 0 0.4832628634128136 0.039589528906544103 0 0.4832628634128136 0.039589528906544103 0 0.49999999999999889 0.043832626854226807 0 0.48149677303419958 0.020625150172498798 0 0.49999999999999889 0.043832626854226807 0 0.48149677303419958 0.020625150172498798 0 0.4841318719001424 0.053594396596263222 0 0.4832628634128136 0.039589528906544103 0 0.49999999999999889 0.043832626854226807 0 0.5 0.063695271357823269 0 0.4841318719001424 0.053594396596263222 0 0.49999999999999889 0.043832626854226807 0 0.48149677303419958 0.020625150172498798 0 0.48149677303420207 -0.0019414049575813891 0 0.46299354606840221 -0.0025823265092306149 0 0.46644505940960251 0.016533790453500629 0 0.48149677303419958 0.020625150172498798 0 0.46299354606840221 -0.0025823265092306149 0 0.48149677303419958 0.020625150172498798 0 0.46299354606840221 -0.0025823265092306149 0 0.46644505940960251 0.016533790453500629 0 0.46742280871691427 0.040305942003187031 0 0.48149677303419958 0.020625150172498798 0 0.49999999999999889 0.043832626854226807 0 0.48149677303419958 0.020625150172498798 0 0.5 0.02126607172414852 0 0.48149677303419958 0.020625150172498798 0 0.5 0.02126607172414852 0 0.4907483865171009 0.0096623333832839969 0 0.4907483865171009 0.0096623333832839969 0 0.500000000000002 -0.001300483405929869 0 0.48149677303420207 -0.0019414049575813891 0 0.5 0.02126607172414852 0 0.4907483865171009 0.0096623333832839969 0 0.500000000000002 -0.001300483405929869 0 0.48149677303419958 0.020625150172498798 0 0.4907483865171009 0.0096623333832839969 0 0.48149677303420207 -0.0019414049575813891 0 0.500000000000002 -0.001300483405929869 0 0.48149677303420207 -0.0019414049575813891 0 0.500000000000002 -0.001300483405929869 0 0.48468914545135749 -0.01711119449822671 0 0.5 -0.0210952737948682 0 0.500000000000002 -0.001300483405929869 0 0.48149677303420207 -0.0019414049575813891 0 0.48468914545135749 -0.01711119449822671 0 0.48149677303420207 -0.0019414049575813891 0 0.47153722401092901 -0.016694503217080939 0 0.46299354606840221 -0.0025823265092306149 0 0.48149677303420207 -0.0019414049575813891 0 0.46299354606840221 -0.0025823265092306149 0 0.48149677303420207 -0.0019414049575813891 0 0.47153722401092901 -0.016694503217080939 0 0.48468914545135749 -0.01711119449822671 0 0.47153722401092901 -0.016694503217080939 0 0.4771899260917874 -0.03099266898933763 0 0.46356416226684088 -0.027508695574783928 0 0.47153722401092901 -0.016694503217080939 0 0.4771899260917874 -0.03099266898933763 0 0.48468914545135749 -0.01711119449822671 0 0.4771899260917874 -0.03099266898933763 0 0.490742225523641 -0.030992668989337471 0 0.48468914545135749 -0.01711119449822671 0 0.490742225523641 -0.030992668989337471 0 0.5 -0.0210952737948682 0 0.50000000000000011 -0.040890064183806529 0 0.490742225523641 -0.030992668989337471 0 0.48468914545135749 -0.01711119449822671 0 0.5 -0.0210952737948682 0 0.490742225523641 -0.030992668989337471 0 0.50000000000000011 -0.040890064183806529 0 0.4823573513282049 -0.050316904947486182 0 0.50000000000000011 -0.040890064183806529 0 0.5 -0.065386498172205376 0 0.49261929543570188 -0.068547588295181677 0 0.50000000000000011 -0.040890064183806529 0 0.49261929543570188 -0.068547588295181677 0 0.50000000000000011 -0.040890064183806529 0 0.4823573513282049 -0.050316904947486182 0 0.49261929543570188 -0.068547588295181677 0 0.4823573513282049 -0.050316904947486182 0 0.4718085145677679 -0.043353700369748102 0 0.46291412766445961 -0.055016844574943151 0 0.4823573513282049 -0.050316904947486182 0 0.46291412766445961 -0.055016844574943151 0 0.47327616695842978 -0.073206659218025216 0 0.4771899260917874 -0.03099266898933763 0 0.4823573513282049 -0.050316904947486182 0 0.4718085145677679 -0.043353700369748102 0 0.4771899260917874 -0.03099266898933763 0 0.490742225523641 -0.030992668989337471 0 0.4823573513282049 -0.050316904947486182 0 0.4771899260917874 -0.03099266898933763 0 0.4718085145677679 -0.043353700369748102 0 0.46237373294454898 -0.038640250295632519 0 0.4771899260917874 -0.03099266898933763 0 0.46237373294454898 -0.038640250295632519 0 0.46356416226684088 -0.027508695574783928 0 0.46237373294454898 -0.038640250295632519 0 0.45461174980624491 -0.045008362555484557 0 0.46291412766445961 -0.055016844574943151 0 0.4718085145677679 -0.043353700369748102 0 0.46237373294454898 -0.038640250295632519 0 0.46291412766445961 -0.055016844574943151 0 0.46237373294454898 -0.038640250295632519 0 0.45461174980624491 -0.045008362555484557 0 0.4505605472280666 -0.035392886404814389 0 0.46237373294454898 -0.038640250295632519 0 0.4505605472280666 -0.035392886404814389 0 0.46356416226684088 -0.027508695574783928 0 0.45461174980624491 -0.045008362555484557 0 0.46291412766445961 -0.055016844574943151 0 0.44259859138790442 -0.05098346894654817 0 0.46291412766445961 -0.055016844574943151 0 0.44259859138790442 -0.05098346894654817 0 0.45013928821243232 -0.075447200643150747 0 0.45461174980624491 -0.045008362555484557 0 0.44259859138790442 -0.05098346894654817 0 0.4505605472280666 -0.035392886404814389 0 0.44259859138790442 -0.05098346894654817 0 0.4505605472280666 -0.035392886404814389 0 0.43677058926242329 -0.035472192678281257 0 0.44848247687967141 -0.020782681530916759 0 0.43608303829956169 -0.023684799305317649 0 0.43677058926242329 -0.035472192678281257 0 0.4505605472280666 -0.035392886404814389 0 0.44848247687967141 -0.020782681530916759 0 0.43677058926242329 -0.035472192678281257 0 0.44848247687967141 -0.020782681530916759 0 0.43677058926242329 -0.035472192678281257 0 0.4505605472280666 -0.035392886404814389 0 0.44848247687967141 -0.020782681530916759 0 0.45338946883143061 -0.023795715638679001 0 0.44848247687967141 -0.020782681530916759 0 0.45338946883143061 -0.023795715638679001 0 0.44848247687967141 -0.020782681530916759 0 0.43484087628131618 -0.012406346641555439 0 0.44848247687967141 -0.020782681530916759 0 0.43484087628131618 -0.012406346641555439 0 0.43608303829956169 -0.023684799305317649 0 0.44848247687967141 -0.020782681530916759 0 0.4420964108756813 -0.0033061691307141781 0 0.43484087628131618 -0.012406346641555439 0 0.4420964108756813 -0.0033061691307141781 0 0.46299354606840221 -0.0025823265092306149 0 0.44848247687967141 -0.020782681530916759 0 0.4420964108756813 -0.0033061691307141781 0 0.46299354606840221 -0.0025823265092306149 0 0.44848247687967141 -0.020782681530916759 0 0.46299354606840221 -0.0025823265092306149 0 0.44848247687967141 -0.020782681530916759 0 0.46299354606840221 -0.0025823265092306149 0 0.45999337561145459 -0.018272784494138081 0 0.47153722401092901 -0.016694503217080939 0 0.46299354606840221 -0.0025823265092306149 0 0.45999337561145459 -0.018272784494138081 0 0.47153722401092901 -0.016694503217080939 0 0.46356416226684088 -0.027508695574783928 0 0.45999337561145459 -0.018272784494138081 0 0.4505605472280666 -0.035392886404814389 0 0.46356416226684088 -0.027508695574783928 0 0.45338946883143061 -0.023795715638679001 0 0.44848247687967141 -0.020782681530916759 0 0.45338946883143061 -0.023795715638679001 0 0.45999337561145459 -0.018272784494138081 0 0.46356416226684088 -0.027508695574783928 0 0.45338946883143061 -0.023795715638679001 0 0.45999337561145459 -0.018272784494138081 0 0.47785788630710518 -0.123862636517932 0 0.48523859087140359 -0.096205112406556811 0 0.47785788630710518 -0.123862636517932 0 0.48523859087140359 -0.096205112406556811 0 0.46396867679830828 -0.11008953789388461 0 0.47785788630710518 -0.123862636517932 0 0.5 -0.11437936614900319 0 0.48523859087140359 -0.096205112406556811 0 0.5 -0.11437936614900319 0 0.48523859087140359 -0.096205112406556811 0 0.5 -0.089882932160604279 0 0.48523859087140359 -0.096205112406556811 0 0.46347196966271648 -0.091602723117105989 0 0.46396867679830828 -0.11008953789388461 0 0.48523859087140359 -0.096205112406556811 0 0.47327616695842978 -0.073206659218025216 0 0.46347196966271648 -0.091602723117105989 0 0.48523859087140359 -0.096205112406556811 0 0.49261929543570188 -0.068547588295181677 0 0.47327616695842978 -0.073206659218025216 0 0.48523859087140359 -0.096205112406556811 0 0.5 -0.089882932160604279 0 0.49261929543570188 -0.068547588295181677 0 0.48523859087140359 -0.096205112406556811 0 0.49261929543570188 -0.068547588295181677 0 0.5 -0.089882932160604279 0 0.5 -0.065386498172205376 0 0.49261929543570188 -0.068547588295181677 0 0.4823573513282049 -0.050316904947486182 0 0.49261929543570188 -0.068547588295181677 0 0.47327616695842978 -0.073206659218025216 0 0.46291412766445961 -0.055016844574943151 0 0.47327616695842978 -0.073206659218025216 0 0.45013928821243232 -0.075447200643150747 0 0.44259859138790442 -0.05098346894654817 0 0.45013928821243232 -0.075447200643150747 0 0.43358068765774271 -0.065580783921543526 0 0.45013928821243232 -0.075447200643150747 0 0.44473712547300831 -0.1030651054239126 0 0.42727034199364061 -0.086461021415587105 0 0.45013928821243232 -0.075447200643150747 0 0.46347196966271648 -0.091602723117105989 0 0.44473712547300831 -0.1030651054239126 0 0.47327616695842978 -0.073206659218025216 0 0.45013928821243232 -0.075447200643150747 0 0.46347196966271648 -0.091602723117105989 0 0.46347196966271648 -0.091602723117105989 0 0.44473712547300831 -0.1030651054239126 0 0.46396867679830828 -0.11008953789388461 0 0.44473712547300831 -0.1030651054239126 0 0.43394963671444298 -0.12221419474687439 0 0.45140506170839451 -0.1298584913037488 0 0.47785788630710518 -0.123862636517932 0 0.46396867679830828 -0.11008953789388461 0 0.45140506170839451 -0.1298584913037488 0 0.44473712547300831 -0.1030651054239126 0 0.46396867679830828 -0.11008953789388461 0 0.45140506170839451 -0.1298584913037488 0 0.41010060940839183 -0.1156030312293497 0 0.42386855503831722 -0.10957097848484749 0 0.4201610586004641 -0.13277732711090209 0 0.44473712547300831 -0.1030651054239126 0 0.42386855503831722 -0.10957097848484749 0 0.43394963671444298 -0.12221419474687439 0 0.42386855503831722 -0.10957097848484749 0 0.43394963671444298 -0.12221419474687439 0 0.4201610586004641 -0.13277732711090209 0 0.44473712547300831 -0.1030651054239126 0 0.42386855503831722 -0.10957097848484749 0 0.42727034199364061 -0.086461021415587105 0 0.42386855503831722 -0.10957097848484749 0 0.40861355236046659 -0.098254316896424693 0 0.42727034199364061 -0.086461021415587105 0 0.41010060940839183 -0.1156030312293497 0 0.42386855503831722 -0.10957097848484749 0 0.40861355236046659 -0.098254316896424693 0 0.40861355236046659 -0.098254316896424693 0 0.40844546952106803 -0.08037741271310167 0 0.42727034199364061 -0.086461021415587105 0 0.40844546952106803 -0.08037741271310167 0 0.42727034199364061 -0.086461021415587105 0 0.42096116184617199 -0.073246497712302433 0 0.42727034199364061 -0.086461021415587105 0 0.43358068765774271 -0.065580783921543526 0 0.42096116184617199 -0.073246497712302433 0 0.45013928821243232 -0.075447200643150747 0 0.42727034199364061 -0.086461021415587105 0 0.43358068765774271 -0.065580783921543526 0 0.43358068765774271 -0.065580783921543526 0 0.42096116184617199 -0.073246497712302433 0 0.41454814821223679 -0.060566772798977438 0 0.40844546952106803 -0.08037741271310167 0 0.42096116184617199 -0.073246497712302433 0 0.41454814821223679 -0.060566772798977438 0 0.40844546952106803 -0.08037741271310167 0 0.41454814821223679 -0.060566772798977438 0 0.39941332003512042 -0.06210017728163901 0 0.38887702453937778 -0.073072908504296208 0 0.39941332003512042 -0.06210017728163901 0 0.38670107827871092 -0.052730554523383683 0 0.40844546952106803 -0.08037741271310167 0 0.38887702453937778 -0.073072908504296208 0 0.40844546952106803 -0.08037741271310167 0 0.38887702453937778 -0.073072908504296208 0 0.39941332003512042 -0.06210017728163901 0 0.38887702453937778 -0.073072908504296208 0 0.36930857955768798 -0.065768404295489802 0 0.38887702453937778 -0.073072908504296208 0 0.38670107827871092 -0.052730554523383683 0 0.36930857955768798 -0.065768404295489802 0 0.38887702453937778 -0.073072908504296208 0 0.37893867535366849 -0.081451984142588918 0 0.36930857955768798 -0.065768404295489802 0 0.38887702453937778 -0.073072908504296208 0 0.37893867535366849 -0.081451984142588918 0 0.38923600718081758 -0.092562045543642599 0 0.37893867535366849 -0.081451984142588918 0 0.38923600718081758 -0.092562045543642599 0 0.36833309013679072 -0.094404578226927077 0 0.40861355236046659 -0.098254316896424693 0 0.40844546952106803 -0.08037741271310167 0 0.38923600718081758 -0.092562045543642599 0 0.40844546952106803 -0.08037741271310167 0 0.38887702453937778 -0.073072908504296208 0 0.38923600718081758 -0.092562045543642599 0 0.40861355236046659 -0.098254316896424693 0 0.38923600718081758 -0.092562045543642599 0 0.39594376399140407 -0.11063926778943051 0 0.41010060940839183 -0.1156030312293497 0 0.40861355236046659 -0.098254316896424693 0 0.39594376399140407 -0.11063926778943051 0 0.38923600718081758 -0.092562045543642599 0 0.3808202379258453 -0.1090173063464055 0 0.36833309013679072 -0.094404578226927077 0 0.38923600718081758 -0.092562045543642599 0 0.3808202379258453 -0.1090173063464055 0 0.39594376399140407 -0.11063926778943051 0 0.3808202379258453 -0.1090173063464055 0 0.38394496516283261 -0.12439878564756569 0 0.36735760071589302 -0.1230407521583643 0 0.3808202379258453 -0.1090173063464055 0 0.38394496516283261 -0.12439878564756569 0 0.39594376399140407 -0.11063926778943051 0 0.41010060940839183 -0.1156030312293497 0 0.39594376399140407 -0.11063926778943051 0 0.40191611705130692 -0.12677326586514401 0 0.38394496516283261 -0.12439878564756569 0 0.39594376399140407 -0.11063926778943051 0 0.40191611705130692 -0.12677326586514401 0 0.42119927568296028 -0.0040300117521952514 0 0.4224115886596656 -0.02586076040997649 0 0.40540126703197432 -0.020773175242644808 0 0.4224115886596656 -0.02586076040997649 0 0.40393306009562518 -0.042217018781065957 0 0.40540126703197432 -0.020773175242644808 0 0.42119927568296028 -0.0040300117521952514 0 0.39952884132554478 -0.0047806401933310648 0 0.42119927568296028 -0.0040300117521952514 0 0.40540126703197432 -0.020773175242644808 0 0.39952884132554478 -0.0047806401933310648 0 0.42119927568296028 -0.0040300117521952514 0 0.43484087628131618 -0.012406346641555439 0 0.4420964108756813 -0.0033061691307141781 0 0.42119927568296028 -0.0040300117521952514 0 0.42119927568296028 -0.0040300117521952514 0 0.43484087628131618 -0.012406346641555439 0 0.4224115886596656 -0.02586076040997649 0 0.4420964108756813 -0.0033061691307141781 0 0.42119927568296028 -0.0040300117521952514 0 0.43484087628131618 -0.012406346641555439 0 0.43484087628131618 -0.012406346641555439 0 0.4224115886596656 -0.02586076040997649 0 0.43608303829956169 -0.023684799305317649 0 0.4224115886596656 -0.02586076040997649 0 0.43608303829956169 -0.023684799305317649 0 0.43677058926242329 -0.035472192678281257 0 0.44259859138790442 -0.05098346894654817 0 0.43677058926242329 -0.035472192678281257 0 0.4243146749248542 -0.045493211193552832 0 0.4224115886596656 -0.02586076040997649 0 0.43677058926242329 -0.035472192678281257 0 0.4243146749248542 -0.045493211193552832 0 0.44259859138790442 -0.05098346894654817 0 0.43358068765774271 -0.065580783921543526 0 0.4243146749248542 -0.045493211193552832 0 0.43358068765774271 -0.065580783921543526 0 0.4243146749248542 -0.045493211193552832 0 0.41454814821223679 -0.060566772798977438 0 0.4243146749248542 -0.045493211193552832 0 0.41454814821223679 -0.060566772798977438 0 0.40393306009562518 -0.042217018781065957 0 0.4224115886596656 -0.02586076040997649 0 0.4243146749248542 -0.045493211193552832 0 0.40393306009562518 -0.042217018781065957 0 0.40393306009562518 -0.042217018781065957 0 0.38670107827871092 -0.052730554523383683 0 0.38691132252342197 -0.026917055164323411 0 0.41454814821223679 -0.060566772798977438 0 0.40393306009562518 -0.042217018781065957 0 0.39941332003512042 -0.06210017728163901 0 0.40393306009562518 -0.042217018781065957 0 0.39941332003512042 -0.06210017728163901 0 0.38670107827871092 -0.052730554523383683 0 0.38670107827871092 -0.052730554523383683 0 0.37008675280383591 -0.042924584620883929 0 0.36930857955768798 -0.065768404295489802 0 0.38670107827871092 -0.052730554523383683 0 0.38691132252342197 -0.026917055164323411 0 0.37008675280383591 -0.042924584620883929 0 0.40393306009562518 -0.042217018781065957 0 0.38691132252342197 -0.026917055164323411 0 0.40540126703197432 -0.020773175242644808 0 0.38691132252342197 -0.026917055164323411 0 0.40540126703197432 -0.020773175242644808 0 0.39952884132554478 -0.0047806401933310648 0 0.39952884132554478 -0.0047806401933310648 0 0.37785840696812939 -0.0055312686344695028 0 0.38691132252342197 -0.026917055164323411 0 0.39952884132554478 -0.0047806401933310648 0 0.37785840696812939 -0.0055312686344695028 0 0.37785840696812939 -0.0055312686344695028 0 0.35622924714907211 -0.0062804673930274843 0 0.37785840696812939 -0.0055312686344695028 0 0.35955322817013752 -0.022463363408275459 0 0.37785840696812939 -0.0055312686344695028 0 0.35955322817013752 -0.022463363408275459 0 0.35622924714907211 -0.0062804673930274843 0 0.374195934327619 0.0085389824845100992 0 0.37785840696812939 -0.0055312686344695028 0 0.35622924714907211 -0.0062804673930274843 0 0.38691132252342197 -0.026917055164323411 0 0.37785840696812939 -0.0055312686344695028 0 0.35955322817013752 -0.022463363408275459 0 0.38691132252342197 -0.026917055164323411 0 0.35955322817013752 -0.022463363408275459 0 0.37008675280383591 -0.042924584620883929 0 0.35955322817013752 -0.022463363408275459 0 0.34744195686620272 -0.01651820683132784 0 0.34124804937214448 -0.039395458182080352 0 0.35955322817013752 -0.022463363408275459 0 0.34124804937214448 -0.039395458182080352 0 0.35622924714907211 -0.0062804673930274843 0 0.33460008733001467 -0.0070296661515878676 0 0.35955322817013752 -0.022463363408275459 0 0.34744195686620272 -0.01651820683132784 0 0.35622924714907211 -0.0062804673930274843 0 0.34744195686620272 -0.01651820683132784 0 0.35622924714907211 -0.0062804673930274843 0 0.33460008733001467 -0.0070296661515878676 0 0.33154083921756039 -0.0071356335080265806 0 0.32998745475159341 -0.0071894402080177654 0 0.32327932441765478 -0.024690990074936098 0 0.33510916365591842 4.4648364335381739e-05 0 0.35622924714907211 -0.0062804673930274843 0 0.33460008733001467 -0.0070296661515878676 0 0.3279444846027797 0.0048160773842635934 0 0.33154083921756039 -0.0071356335080265806 0 0.32998745475159341 -0.0071894402080177654 0 0.3279444846027797 0.0048160773842635934 0 0.33154083921756039 -0.0071356335080265806 0 0.33510916365591842 4.4648364335381739e-05 0 0.33460008733001467 -0.0070296661515878676 0 0.33510916365591842 4.4648364335381739e-05 0 0.3279444846027797 0.0048160773842635934 0 0.33154083921756039 -0.0071356335080265806 0 0.33510916365591842 4.4648364335381739e-05 0 0.33154083921756039 -0.0071356335080265806 0 0.33510916365591842 4.4648364335381739e-05 0 0.33460008733001467 -0.0070296661515878676 0 0.33154083921756039 -0.0071356335080265806 0 0.33460008733001467 -0.0070296661515878676 0 0.33154083921756039 -0.0071356335080265806 0 0.33154083921756039 -0.0071356335080265806 0 0.32998745475159341 -0.0071894402080177654 0 0.33460008733001467 -0.0070296661515878676 0 0.33400351796710098 -0.01531981654554433 0 0.33460008733001467 -0.0070296661515878676 0 0.33154083921756039 -0.0071356335080265806 0 0.33400351796710098 -0.01531981654554433 0 0.33154083921756039 -0.0071356335080265806 0 0.33400351796710098 -0.01531981654554433 0 0.34744195686620272 -0.01651820683132784 0 0.33460008733001467 -0.0070296661515878676 0 0.33400351796710098 -0.01531981654554433 0 0.33400351796710098 -0.01531981654554433 0 0.332817185171496 -0.031805539588524209 0 0.34124804937214448 -0.039395458182080352 0 0.34744195686620272 -0.01651820683132784 0 0.33400351796710098 -0.01531981654554433 0 0.34124804937214448 -0.039395458182080352 0 0.33400351796710098 -0.01531981654554433 0 0.332817185171496 -0.031805539588524209 0 0.33154083921756039 -0.0071356335080265806 0 0.33400351796710098 -0.01531981654554433 0 0.32327932441765478 -0.024690990074936098 0 0.33400351796710098 -0.01531981654554433 0 0.32327932441765478 -0.024690990074936098 0 0.332817185171496 -0.031805539588524209 0 0.33400351796710098 -0.01531981654554433 0 0.34124804937214448 -0.039395458182080352 0 0.31274858703990582 -0.02714479717524608 0 0.32064054077760451 -0.010545991978225869 0 0.30800954781403878 -0.0098675874605419402 0 0.33154083921756039 -0.0071356335080265806 0 0.32327932441765478 -0.024690990074936098 0 0.32327932441765478 -0.024690990074936098 0 0.31274858703990582 -0.02714479717524608 0 0.32064054077760451 -0.010545991978225869 0 0.31274858703990582 -0.02714479717524608 0 0.32064054077760451 -0.010545991978225869 0 0.32327932441765478 -0.024690990074936098 0 0.32324471038385932 -0.035017835678295972 0 0.332817185171496 -0.031805539588524209 0 0.32327932441765478 -0.024690990074936098 0 0.31274858703990582 -0.02714479717524608 0 0.32324471038385932 -0.035017835678295972 0 0.31470163537401052 -0.0031951629764111061 0 0.32064054077760451 -0.010545991978225869 0 0.30800954781403878 -0.0098675874605419402 0 0.32998745475159341 -0.0071894402080177654 0 0.32327932441765478 -0.024690990074936098 0 0.32064054077760451 -0.010545991978225869 0 0.31889181602604338 0.0036246011320214609 0 0.31470163537401052 -0.0031951629764111061 0 0.32064054077760451 -0.010545991978225869 0 0.31889181602604338 0.0036246011320214609 0 0.3279444846027797 0.0048160773842635934 0 0.32064054077760451 -0.010545991978225869 0 0.3279444846027797 0.0048160773842635934 0 0.32998745475159341 -0.0071894402080177654 0 0.32064054077760451 -0.010545991978225869 0 0.3279444846027797 0.0048160773842635934 0 0.32064054077760451 -0.010545991978225869 0 0.32809460074039343 -0.057961726489878823 0 0.32300469550352462 -0.056270365556885367 0 0.32897990620080358 -0.073238927109804314 0 0.31984794873309708 -0.047305752492220098 0 0.32744436335378169 -0.042679333322597088 0 0.32900211441812122 -0.05072281715100814 0 0.32300469550352462 -0.056270365556885367 0 0.31984794873309708 -0.047305752492220098 0 0.31984794873309708 -0.047305752492220098 0 0.32900211441812122 -0.05072281715100814 0 0.32300469550352462 -0.056270365556885367 0 0.31984794873309708 -0.047305752492220098 0 0.32900211441812122 -0.05072281715100814 0 0.32300469550352462 -0.056270365556885367 0 0.32900211441812122 -0.05072281715100814 0 0.32809460074039343 -0.057961726489878823 0 0.32300469550352462 -0.056270365556885367 0 0.32900211441812122 -0.05072281715100814 0 0.32300469550352462 -0.056270365556885367 0 0.30939092746396002 -0.068862955512891177 0 0.31172190708387348 -0.055205315363210682 0 0.32300469550352462 -0.056270365556885367 0 0.31984794873309708 -0.047305752492220098 0 0.31172190708387348 -0.055205315363210682 0 0.31984794873309708 -0.047305752492220098 0 0.30567786258846141 -0.042016346308976549 0 0.31274858703990582 -0.02714479717524608 0 0.31984794873309708 -0.047305752492220098 0 0.30567786258846141 -0.042016346308976549 0 0.31274858703990582 -0.02714479717524608 0 0.31984794873309708 -0.047305752492220098 0 0.31274858703990582 -0.02714479717524608 0 0.31984794873309708 -0.047305752492220098 0 0.32324471038385932 -0.035017835678295972 0 0.32324471038385932 -0.035017835678295972 0 0.32744436335378169 -0.042679333322597088 0 0.332817185171496 -0.031805539588524209 0 0.31984794873309708 -0.047305752492220098 0 0.32324471038385932 -0.035017835678295972 0 0.32744436335378169 -0.042679333322597088 0 0.32744436335378169 -0.042679333322597088 0 0.332817185171496 -0.031805539588524209 0 0.33163085237589501 -0.04829126263150435 0 0.332817185171496 -0.031805539588524209 0 0.34124804937214448 -0.039395458182080352 0 0.33163085237589501 -0.04829126263150435 0 0.332817185171496 -0.031805539588524209 0 0.33163085237589501 -0.04829126263150435 0 0.34124804937214448 -0.039395458182080352 0 0.3455467937553458 -0.053681410367305227 0 0.34124804937214448 -0.039395458182080352 0 0.33163085237589501 -0.04829126263150435 0 0.33139168683912362 -0.051614796141816403 0 0.33163085237589501 -0.04829126263150435 0 0.3455467937553458 -0.053681410367305227 0 0.33139168683912362 -0.051614796141816403 0 0.33946647624880782 -0.058670594499917038 0 0.35035013319840558 -0.05869160021865364 0 0.33139168683912362 -0.051614796141816403 0 0.35035013319840558 -0.05869160021865364 0 0.3455467937553458 -0.053681410367305227 0 0.32809460074039343 -0.057961726489878823 0 0.33139168683912362 -0.051614796141816403 0 0.32897990620080358 -0.073238927109804314 0 0.33139168683912362 -0.051614796141816403 0 0.35035013319840558 -0.05869160021865364 0 0.34124804937214448 -0.039395458182080352 0 0.33163085237589501 -0.04829126263150435 0 0.3455467937553458 -0.053681410367305227 0 0.32744436335378169 -0.042679333322597088 0 0.32900211441812122 -0.05072281715100814 0 0.33163085237589501 -0.04829126263150435 0 0.32809460074039343 -0.057961726489878823 0 0.33139168683912362 -0.051614796141816403 0 0.32900211441812122 -0.05072281715100814 0 0.33139168683912362 -0.051614796141816403 0 0.32900211441812122 -0.05072281715100814 0 0.33139168683912362 -0.051614796141816403 0 0.32900211441812122 -0.05072281715100814 0 0.33163085237589501 -0.04829126263150435 0 0.33139168683912362 -0.051614796141816403 0 0.33163085237589501 -0.04829126263150435 0 0.32900211441812122 -0.05072281715100814 0 0.33163085237589501 -0.04829126263150435 0 0.33139168683912362 -0.051614796141816403 0 0.33946647624880782 -0.058670594499917038 0 0.33727962499954139 -0.064774092535736599 0 0.33946647624880782 -0.058670594499917038 0 0.34289445398993551 -0.062224756680468993 0 0.33727962499954139 -0.064774092535736599 0 0.35035013319840558 -0.05869160021865364 0 0.35732993561769738 -0.047192356068105283 0 0.36930857955768798 -0.065768404295489802 0 0.33946647624880782 -0.058670594499917038 0 0.34289445398993551 -0.062224756680468993 0 0.35035013319840558 -0.05869160021865364 0 0.3455467937553458 -0.053681410367305227 0 0.35732993561769738 -0.047192356068105283 0 0.34845359652583408 -0.045016995350848063 0 0.35035013319840558 -0.05869160021865364 0 0.3455467937553458 -0.053681410367305227 0 0.35732993561769738 -0.047192356068105283 0 0.35955322817013752 -0.022463363408275459 0 0.34124804937214448 -0.039395458182080352 0 0.34845359652583408 -0.045016995350848063 0 0.35955322817013752 -0.022463363408275459 0 0.35732993561769738 -0.047192356068105283 0 0.34845359652583408 -0.045016995350848063 0 0.34124804937214448 -0.039395458182080352 0 0.3455467937553458 -0.053681410367305227 0 0.34845359652583408 -0.045016995350848063 0 0.35955322817013752 -0.022463363408275459 0 0.35732993561769738 -0.047192356068105283 0 0.37008675280383591 -0.042924584620883929 0 0.35035013319840558 -0.05869160021865364 0 0.36930857955768798 -0.065768404295489802 0 0.35732993561769738 -0.047192356068105283 0 0.37008675280383591 -0.042924584620883929 0 0.36930857955768798 -0.065768404295489802 0 0.37008675280383591 -0.042924584620883929 0 0.36930857955768798 -0.065768404295489802 0 0.36930857955768798 -0.065768404295489802 0 0.35738101832480268 -0.072611077227683868 0 0.36833309013679072 -0.094404578226927077 0 0.36930857955768798 -0.065768404295489802 0 0.36833309013679072 -0.094404578226927077 0 0.37893867535366849 -0.081451984142588918 0 0.36930857955768798 -0.065768404295489802 0 0.36833309013679072 -0.094404578226927077 0 0.34825686221230429 -0.093286578292502198 0 0.3507693955190454 -0.0820050893234337 0 0.36833309013679072 -0.094404578226927077 0 0.3507693955190454 -0.0820050893234337 0 0.35738101832480268 -0.072611077227683868 0 0.36833309013679072 -0.094404578226927077 0 0.34825686221230429 -0.093286578292502198 0 0.3507693955190454 -0.0820050893234337 0 0.34065456184885601 -0.084711100261568278 0 0.3507693955190454 -0.0820050893234337 0 0.34174361199112507 -0.076733311505819635 0 0.34065456184885601 -0.084711100261568278 0 0.35035013319840558 -0.05869160021865364 0 0.36930857955768798 -0.065768404295489802 0 0.35738101832480268 -0.072611077227683868 0 0.34830557186344668 -0.074834728122919997 0 0.34677862742223342 -0.06741609644896851 0 0.34032031415507907 -0.06980870625610705 0 0.3507693955190454 -0.0820050893234337 0 0.34830557186344668 -0.074834728122919997 0 0.34174361199112507 -0.076733311505819635 0 0.34830557186344668 -0.074834728122919997 0 0.34677862742223342 -0.06741609644896851 0 0.35738101832480268 -0.072611077227683868 0 0.34289445398993551 -0.062224756680468993 0 0.35035013319840558 -0.05869160021865364 0 0.34677862742223342 -0.06741609644896851 0 0.35035013319840558 -0.05869160021865364 0 0.34677862742223342 -0.06741609644896851 0 0.35738101832480268 -0.072611077227683868 0 0.3507693955190454 -0.0820050893234337 0 0.34830557186344668 -0.074834728122919997 0 0.35738101832480268 -0.072611077227683868 0 0.36594035643393708 -0.1161170148654367 0 0.36735760071589302 -0.1230407521583643 0 0.36833309013679072 -0.094404578226927077 0 0.36594035643393708 -0.1161170148654367 0 0.36735760071589302 -0.1230407521583643 0 0.35033762891009013 -0.1322776946201239 0 0.36594035643393708 -0.1161170148654367 0 0.36833309013679072 -0.094404578226927077 0 0.35859035654532362 -0.10928689456817391 0 0.36833309013679072 -0.094404578226927077 0 0.3521077800381297 -0.1036045909519118 0 0.35859035654532362 -0.10928689456817391 0 0.3808202379258453 -0.1090173063464055 0 0.36735760071589302 -0.1230407521583643 0 0.36833309013679072 -0.094404578226927077 0 0.36735760071589302 -0.1230407521583643 0 0.36833309013679072 -0.094404578226927077 0 0.34825686221230429 -0.093286578292502198 0 0.36833309013679072 -0.094404578226927077 0 0.3521077800381297 -0.1036045909519118 0 0.3521077800381297 -0.1036045909519118 0 0.35015332955671508 -0.1165740046807027 0 0.34251418219523938 -0.1008854526065905 0 0.34825686221230429 -0.093286578292502198 0 0.3521077800381297 -0.1036045909519118 0 0.34251418219523938 -0.1008854526065905 0 0.36594035643393708 -0.1161170148654367 0 0.35015332955671508 -0.1165740046807027 0 0.35033762891009013 -0.1322776946201239 0 0.36594035643393708 -0.1161170148654367 0 0.35859035654532362 -0.10928689456817391 0 0.35015332955671508 -0.1165740046807027 0 0.36594035643393708 -0.1161170148654367 0 0.35033762891009013 -0.1322776946201239 0 0.3521077800381297 -0.1036045909519118 0 0.35859035654532362 -0.10928689456817391 0 0.35015332955671508 -0.1165740046807027 0 0.33408024974564432 -0.1110899838075585 0 0.32520619740052231 -0.12999625593136421 0 0.33774986032868082 -0.13169683188337411 0 0.35015332955671508 -0.1165740046807027 0 0.33408024974564432 -0.1110899838075585 0 0.34251418219523938 -0.1008854526065905 0 0.35015332955671508 -0.1165740046807027 0 0.33408024974564432 -0.1110899838075585 0 0.33774986032868082 -0.13169683188337411 0 0.33408024974564432 -0.1110899838075585 0 0.34251418219523938 -0.1008854526065905 0 0.33516216353576539 -0.094108658384581836 0 0.33408024974564432 -0.1110899838075585 0 0.33516216353576539 -0.094108658384581836 0 0.32402113668685228 -0.095825227761819162 0 0.34825686221230429 -0.093286578292502198 0 0.34251418219523938 -0.1008854526065905 0 0.33516216353576539 -0.094108658384581836 0 0.33408024974564432 -0.1110899838075585 0 0.31576136613198053 -0.10188721708901829 0 0.31278260718301498 -0.1106596909944768 0 0.33408024974564432 -0.1110899838075585 0 0.32402113668685228 -0.095825227761819162 0 0.31576136613198053 -0.10188721708901829 0 0.32402113668685228 -0.095825227761819162 0 0.31576136613198053 -0.10188721708901829 0 0.31513379542842962 -0.092860759652563851 0 0.31576136613198053 -0.10188721708901829 0 0.31513379542842962 -0.092860759652563851 0 0.30824502702055062 -0.094693783078429503 0 0.33408024974564432 -0.1110899838075585 0 0.30952455273467822 -0.1278996377728718 0 0.32520619740052231 -0.12999625593136421 0 0.33408024974564432 -0.1110899838075585 0 0.31278260718301498 -0.1106596909944768 0 0.30952455273467822 -0.1278996377728718 0 0.33408024974564432 -0.1110899838075585 0 0.30952455273467822 -0.1278996377728718 0 0.33139168683912362 -0.051614796141816403 0 0.32956819193298159 -0.076954761541333377 0 0.33139168683912362 -0.051614796141816403 0 0.33475312005885027 -0.071705934694874213 0 0.32956819193298159 -0.076954761541333377 0 0.33139168683912362 -0.051614796141816403 0 0.32956819193298159 -0.076954761541333377 0 0.32897990620080358 -0.073238927109804314 0 0.33139168683912362 -0.051614796141816403 0 0.33475312005885027 -0.071705934694874213 0 0.33727962499954139 -0.064774092535736599 0 0.33475312005885027 -0.071705934694874213 0 0.32956819193298159 -0.076954761541333377 0 0.33565642543507468 -0.078442099143525845 0 0.33475312005885027 -0.071705934694874213 0 0.33845863281225069 -0.068032970741170554 0 0.34032031415507907 -0.06980870625610705 0 0.33475312005885027 -0.071705934694874213 0 0.33845863281225069 -0.068032970741170554 0 0.33727962499954139 -0.064774092535736599 0 0.33845863281225069 -0.068032970741170554 0 0.33727962499954139 -0.064774092535736599 0 0.34148147203553209 -0.065843149477964338 0 0.34289445398993551 -0.062224756680468993 0 0.34677862742223342 -0.06741609644896851 0 0.34148147203553209 -0.065843149477964338 0 0.34289445398993551 -0.062224756680468993 0 0.33727962499954139 -0.064774092535736599 0 0.34148147203553209 -0.065843149477964338 0 0.33845863281225069 -0.068032970741170554 0 0.34148147203553209 -0.065843149477964338 0 0.34032031415507907 -0.06980870625610705 0 0.34677862742223342 -0.06741609644896851 0 0.34148147203553209 -0.065843149477964338 0 0.34032031415507907 -0.06980870625610705 0 0.34830557186344668 -0.074834728122919997 0 0.34032031415507907 -0.06980870625610705 0 0.34174361199112507 -0.076733311505819635 0 0.33475312005885027 -0.071705934694874213 0 0.34032031415507907 -0.06980870625610705 0 0.34174361199112507 -0.076733311505819635 0 0.33475312005885027 -0.071705934694874213 0 0.34174361199112507 -0.076733311505819635 0 0.33565642543507468 -0.078442099143525845 0 0.34174361199112507 -0.076733311505819635 0 0.34065456184885601 -0.084711100261568278 0 0.33565642543507468 -0.078442099143525845 0 0.34065456184885601 -0.084711100261568278 0 0.33565642543507468 -0.078442099143525845 0 0.33212090914878628 -0.08408580620812886 0 0.34825686221230429 -0.093286578292502198 0 0.33516216353576539 -0.094108658384581836 0 0.34065456184885601 -0.084711100261568278 0 0.33516216353576539 -0.094108658384581836 0 0.34065456184885601 -0.084711100261568278 0 0.33212090914878628 -0.08408580620812886 0 0.33516216353576539 -0.094108658384581836 0 0.32402113668685228 -0.095825227761819162 0 0.32569300373307802 -0.08844643659486344 0 0.33516216353576539 -0.094108658384581836 0 0.33212090914878628 -0.08408580620812886 0 0.32569300373307802 -0.08844643659486344 0 0.32956819193298159 -0.076954761541333377 0 0.33565642543507468 -0.078442099143525845 0 0.33212090914878628 -0.08408580620812886 0 0.32956819193298159 -0.076954761541333377 0 0.33212090914878628 -0.08408580620812886 0 0.32454745088018189 -0.081486866099241884 0 0.32454745088018189 -0.081486866099241884 0 0.31881849841100429 -0.086568970925635536 0 0.31787858461254198 -0.076900958387583512 0 0.32956819193298159 -0.076954761541333377 0 0.32454745088018189 -0.081486866099241884 0 0.32372777430748712 -0.075974922821213237 0 0.33212090914878628 -0.08408580620812886 0 0.32454745088018189 -0.081486866099241884 0 0.32569300373307802 -0.08844643659486344 0 0.32454745088018189 -0.081486866099241884 0 0.32569300373307802 -0.08844643659486344 0 0.31881849841100429 -0.086568970925635536 0 0.32402113668685228 -0.095825227761819162 0 0.32569300373307802 -0.08844643659486344 0 0.31881849841100429 -0.086568970925635536 0 0.31513379542842962 -0.092860759652563851 0 0.31881849841100429 -0.086568970925635536 0 0.31110191495808392 -0.084005122076661207 0 0.32402113668685228 -0.095825227761819162 0 0.31513379542842962 -0.092860759652563851 0 0.31881849841100429 -0.086568970925635536 0 0.31881849841100429 -0.086568970925635536 0 0.31787858461254198 -0.076900958387583512 0 0.31110191495808392 -0.084005122076661207 0 0.31787858461254198 -0.076900958387583512 0 0.32064736878560951 -0.066636779663310108 0 0.30939092746396002 -0.068862955512891177 0 0.31787858461254198 -0.076900958387583512 0 0.30939092746396002 -0.068862955512891177 0 0.31110191495808392 -0.084005122076661207 0 0.32300469550352462 -0.056270365556885367 0 0.32897990620080358 -0.073238927109804314 0 0.32064736878560951 -0.066636779663310108 0 0.32300469550352462 -0.056270365556885367 0 0.32897990620080358 -0.073238927109804314 0 0.31787858461254198 -0.076900958387583512 0 0.32372777430748712 -0.075974922821213237 0 0.32064736878560951 -0.066636779663310108 0 0.32897990620080358 -0.073238927109804314 0 0.32372777430748712 -0.075974922821213237 0 0.32064736878560951 -0.066636779663310108 0 0.32454745088018189 -0.081486866099241884 0 0.31787858461254198 -0.076900958387583512 0 0.32372777430748712 -0.075974922821213237 0 0.32956819193298159 -0.076954761541333377 0 0.32897990620080358 -0.073238927109804314 0 0.32372777430748712 -0.075974922821213237 0 0.32300469550352462 -0.056270365556885367 0 0.30939092746396002 -0.068862955512891177 0 0.32300469550352462 -0.056270365556885367 0 0.32064736878560951 -0.066636779663310108 0 0.30939092746396002 -0.068862955512891177 0 0.29577715942439492 -0.081455545468896509 0 0.30074251574663508 -0.052396648009924648 0 0.30939092746396002 -0.068862955512891177 0 0.29577715942439492 -0.081455545468896509 0 0.30074251574663508 -0.052396648009924648 0 0.30939092746396002 -0.068862955512891177 0 0.29577715942439492 -0.081455545468896509 0 0.30939092746396002 -0.068862955512891177 0 0.31110191495808392 -0.084005122076661207 0 0.29577715942439492 -0.081455545468896509 0 0.303487887152882 -0.089403762940026582 0 0.29577715942439492 -0.081455545468896509 0 0.29975815619463098 -0.097308468949736979 0 0.31110191495808392 -0.084005122076661207 0 0.303487887152882 -0.089403762940026582 0 0.30824502702055062 -0.094693783078429503 0 0.31513379542842962 -0.092860759652563851 0 0.31110191495808392 -0.084005122076661207 0 0.30824502702055062 -0.094693783078429503 0 0.31110191495808392 -0.084005122076661207 0 0.303487887152882 -0.089403762940026582 0 0.29577715942439492 -0.081455545468896509 0 0.28783519834237498 -0.092032744668105793 0 0.28946583605303039 -0.076114401018185687 0 0.27818915635942459 -0.099832154026446074 0 0.28946583605303039 -0.076114401018185687 0 0.27818915635942459 -0.099832154026446074 0 0.29239071089802438 -0.084587974167236901 0 0.28783519834237498 -0.092032744668105793 0 0.29190937091615898 -0.1040911152769339 0 0.29577715942439492 -0.081455545468896509 0 0.29190937091615898 -0.1040911152769339 0 0.29577715942439492 -0.081455545468896509 0 0.29239071089802438 -0.084587974167236901 0 0.29190937091615898 -0.1040911152769339 0 0.29239071089802438 -0.084587974167236901 0 0.28783519834237498 -0.092032744668105793 0 0.28946583605303039 -0.076114401018185687 0 0.29577715942439492 -0.081455545468896509 0 0.29239071089802438 -0.084587974167236901 0 0.28946583605303039 -0.076114401018185687 0 0.29577715942439492 -0.081455545468896509 0 0.29239071089802438 -0.084587974167236901 0 0.29577715942439492 -0.081455545468896509 0 0.28946583605303039 -0.076114401018185687 0 0.30074251574663508 -0.052396648009924648 0 0.28946583605303039 -0.076114401018185687 0 0.30074251574663508 -0.052396648009924648 0 0.31278260718301498 -0.1106596909944768 0 0.30290271010333503 -0.1115929986471651 0 0.30952455273467822 -0.1278996377728718 0 0.30290271010333503 -0.1115929986471651 0 0.28843911331993671 -0.1244002035075602 0 0.30952455273467822 -0.1278996377728718 0 0.30290271010333503 -0.1115929986471651 0 0.30131922304355302 -0.1038741086316103 0 0.30656432985070808 -0.1012180115474917 0 0.30131922304355302 -0.1038741086316103 0 0.29975815619463098 -0.097308468949736979 0 0.29605169602553782 -0.1053769553820476 0 0.30290271010333503 -0.1115929986471651 0 0.30131922304355302 -0.1038741086316103 0 0.29605169602553782 -0.1053769553820476 0 0.31278260718301498 -0.1106596909944768 0 0.30290271010333503 -0.1115929986471651 0 0.30656432985070808 -0.1012180115474917 0 0.31576136613198053 -0.10188721708901829 0 0.31278260718301498 -0.1106596909944768 0 0.30656432985070808 -0.1012180115474917 0 0.30656432985070808 -0.1012180115474917 0 0.30824502702055062 -0.094693783078429503 0 0.29975815619463098 -0.097308468949736979 0 0.31576136613198053 -0.10188721708901829 0 0.30656432985070808 -0.1012180115474917 0 0.30824502702055062 -0.094693783078429503 0 0.303487887152882 -0.089403762940026582 0 0.30824502702055062 -0.094693783078429503 0 0.29975815619463098 -0.097308468949736979 0 0.30131922304355302 -0.1038741086316103 0 0.30656432985070808 -0.1012180115474917 0 0.29975815619463098 -0.097308468949736979 0 0.29577715942439492 -0.081455545468896509 0 0.29975815619463098 -0.097308468949736979 0 0.29190937091615898 -0.1040911152769339 0 0.28783519834237498 -0.092032744668105793 0 0.29190937091615898 -0.1040911152769339 0 0.27818915635942459 -0.099832154026446074 0 0.29190937091615898 -0.1040911152769339 0 0.28106723413098972 -0.1135894265596423 0 0.27818915635942459 -0.099832154026446074 0 0.29190937091615898 -0.1040911152769339 0 0.27818915635942459 -0.099832154026446074 0 0.29975815619463098 -0.097308468949736979 0 0.29190937091615898 -0.1040911152769339 0 0.29605169602553782 -0.1053769553820476 0 0.29190937091615898 -0.1040911152769339 0 0.29605169602553782 -0.1053769553820476 0 0.29190937091615898 -0.1040911152769339 0 0.28843911331993671 -0.1244002035075602 0 0.28106723413098972 -0.1135894265596423 0 0.30290271010333503 -0.1115929986471651 0 0.29605169602553782 -0.1053769553820476 0 0.28843911331993671 -0.1244002035075602 0 0.29190937091615898 -0.1040911152769339 0 0.29605169602553782 -0.1053769553820476 0 0.28843911331993671 -0.1244002035075602 0 0.29190937091615898 -0.1040911152769339 0 0.28843911331993671 -0.1244002035075602 0 0.27818915635942459 -0.099832154026446074 0 0.25617956308440981 -0.10916717323675761 0 0.26573129592843792 -0.12603423342762909 0 0.28843911331993671 -0.1244002035075602 0 0.28106723413098972 -0.1135894265596423 0 0.26573129592843792 -0.12603423342762909 0 0.27818915635942459 -0.099832154026446074 0 0.26573129592843792 -0.12603423342762909 0 0.28106723413098972 -0.1135894265596423 0 0.27818915635942459 -0.099832154026446074 0 0.26573129592843792 -0.12603423342762909 0 0.27818915635942459 -0.099832154026446074 0 0.25250120689931721 -0.091858227605487897 0 0.27818915635942459 -0.099832154026446074 0 0.25617956308440981 -0.10916717323675761 0 0.25250120689931721 -0.091858227605487897 0 0.25617956308440981 -0.10916717323675761 0 0.26573129592843792 -0.12603423342762909 0 0.23979133561700799 -0.1173791356703934 0 0.28946583605303039 -0.076114401018185687 0 0.26909737732421862 -0.066114689573148255 0 0.26951012099555072 -0.082905406792374015 0 0.28946583605303039 -0.076114401018185687 0 0.26909737732421862 -0.066114689573148255 0 0.28144322363579982 -0.054173590981534327 0 0.27818915635942459 -0.099832154026446074 0 0.26951012099555072 -0.082905406792374015 0 0.25250120689931721 -0.091858227605487897 0 0.28946583605303039 -0.076114401018185687 0 0.27818915635942459 -0.099832154026446074 0 0.26951012099555072 -0.082905406792374015 0 0.26951012099555072 -0.082905406792374015 0 0.25250120689931721 -0.091858227605487897 0 0.25335200707433359 -0.077910669486100592 0 0.26909737732421862 -0.066114689573148255 0 0.26951012099555072 -0.082905406792374015 0 0.25335200707433359 -0.077910669486100592 0 0.26909737732421862 -0.066114689573148255 0 0.25335200707433359 -0.077910669486100592 0 0.25728682981584489 -0.060738772224033122 0 0.25335200707433359 -0.077910669486100592 0 0.25728682981584489 -0.060738772224033122 0 0.24271713241923329 -0.05236508977893202 0 0.26909737732421862 -0.066114689573148255 0 0.25728682981584489 -0.060738772224033122 0 0.2639808024455943 -0.046564640057951627 0 0.25728682981584489 -0.060738772224033122 0 0.2639808024455943 -0.046564640057951627 0 0.24271713241923329 -0.05236508977893202 0 0.26909737732421862 -0.066114689573148255 0 0.2639808024455943 -0.046564640057951627 0 0.28144322363579982 -0.054173590981534327 0 0.27443580640035181 -0.041923308900931669 0 0.2639808024455943 -0.046564640057951627 0 0.28144322363579982 -0.054173590981534327 0 0.27443580640035181 -0.041923308900931669 0 0.26848872007640229 -0.034488127317481423 0 0.28128218672957861 -0.032909934575463547 0 0.27443580640035181 -0.041923308900931669 0 0.26343715481133778 -0.038784839448623903 0 0.2639808024455943 -0.046564640057951627 0 0.27443580640035181 -0.041923308900931669 0 0.26848872007640229 -0.034488127317481423 0 0.26343715481133778 -0.038784839448623903 0 0.26848872007640229 -0.034488127317481423 0 0.26343715481133778 -0.038784839448623903 0 0.26060068752903692 -0.033055675284061913 0 0.2639808024455943 -0.046564640057951627 0 0.25601806831486851 -0.03729292471097443 0 0.24271713241923329 -0.05236508977893202 0 0.26343715481133778 -0.038784839448623903 0 0.26060068752903692 -0.033055675284061913 0 0.25601806831486851 -0.03729292471097443 0 0.26343715481133778 -0.038784839448623903 0 0.2639808024455943 -0.046564640057951627 0 0.25601806831486851 -0.03729292471097443 0 0.25601806831486851 -0.03729292471097443 0 0.25527477381133762 -0.030228792664428499 0 0.24583690460315419 -0.032216520319374713 0 0.26060068752903692 -0.033055675284061913 0 0.25601806831486851 -0.03729292471097443 0 0.25527477381133762 -0.030228792664428499 0 0.25527477381133762 -0.030228792664428499 0 0.25405962352648309 -0.023665905053132121 0 0.24583690460315419 -0.032216520319374713 0 0.25527477381133762 -0.030228792664428499 0 0.25405962352648309 -0.023665905053132121 0 0.25985858508314519 -0.024912937954599319 0 0.25405962352648309 -0.023665905053132121 0 0.25995765644393948 -0.02336410971436512 0 0.25650942056249049 -0.011019103688990971 0 0.25405962352648309 -0.023665905053132121 0 0.25650942056249049 -0.011019103688990971 0 0.24782149009274521 -0.020442975961762169 0 0.25995765644393948 -0.02336410971436512 0 0.26927623978404541 -0.0098798796439652017 0 0.26060068752903692 -0.033055675284061913 0 0.25527477381133762 -0.030228792664428499 0 0.25985858508314519 -0.024912937954599319 0 0.26848872007640229 -0.034488127317481423 0 0.26060068752903692 -0.033055675284061913 0 0.25985858508314519 -0.024912937954599319 0 0.25995765644393948 -0.02336410971436512 0 0.25985858508314519 -0.024912937954599319 0 0.26785194362050468 -0.024573753297929189 0 0.25405962352648309 -0.023665905053132121 0 0.25995765644393948 -0.02336410971436512 0 0.25985858508314519 -0.024912937954599319 0 0.25013882261941017 0.0089978927561854966 0 0.26927623978404541 -0.0098798796439652017 0 0.25013882261941017 0.0089978927561854966 0 0.25650942056249049 -0.011019103688990971 0 0.24782149009274521 -0.020442975961762169 0 0.25013882261941017 0.0089978927561854966 0 0.25650942056249049 -0.011019103688990971 0 0.26927623978404541 -0.0098798796439652017 0 0.25995765644393948 -0.02336410971436512 0 0.25650942056249049 -0.011019103688990971 0 0.26927623978404541 -0.0098798796439652017 0 0.28311691401082889 0.01014793239481486 0 0.26927623978404541 -0.0098798796439652017 0 0.28208761330809262 -0.0038888485574515362 0 0.26927623978404541 -0.0098798796439652017 0 0.28187497321338723 -0.022307681168239082 0 0.2837335155044961 -0.012392435661247781 0 0.26927623978404541 -0.0098798796439652017 0 0.28208761330809262 -0.0038888485574515362 0 0.2837335155044961 -0.012392435661247781 0 0.26848872007640229 -0.034488127317481423 0 0.25985858508314519 -0.024912937954599319 0 0.28128218672957861 -0.032909934575463547 0 0.25985858508314519 -0.024912937954599319 0 0.26785194362050468 -0.024573753297929189 0 0.28128218672957861 -0.032909934575463547 0 0.25985858508314519 -0.024912937954599319 0 0.28128218672957861 -0.032909934575463547 0 0.25995765644393948 -0.02336410971436512 0 0.26927623978404541 -0.0098798796439652017 0 0.26968801195677228 -0.019245035059726721 0 0.25995765644393948 -0.02336410971436512 0 0.26785194362050468 -0.024573753297929189 0 0.26968801195677228 -0.019245035059726721 0 0.26785194362050468 -0.024573753297929189 0 0.26968801195677228 -0.019245035059726721 0 0.27431772148379951 -0.024310987034785861 0 0.26927623978404541 -0.0098798796439652017 0 0.28187497321338723 -0.022307681168239082 0 0.26968801195677228 -0.019245035059726721 0 0.27431772148379951 -0.024310987034785861 0 0.28187497321338723 -0.022307681168239082 0 0.26927623978404541 -0.0098798796439652017 0 0.26968801195677228 -0.019245035059726721 0 0.28187497321338723 -0.022307681168239082 0 0.26785194362050468 -0.024573753297929189 0 0.27431772148379951 -0.024310987034785861 0 0.28128218672957861 -0.032909934575463547 0 0.27431772148379951 -0.024310987034785861 0 0.28187497321338723 -0.022307681168239082 0 0.28128218672957861 -0.032909934575463547 0 0.28187497321338723 -0.022307681168239082 0 0.2944737066427292 -0.034735482692512809 0 0.28187497321338723 -0.022307681168239082 0 0.28128218672957861 -0.032909934575463547 0 0.2944737066427292 -0.034735482692512809 0 0.28187497321338723 -0.022307681168239082 0 0.2897680532770528 -0.017482362731964681 0 0.2837335155044961 -0.012392435661247781 0 0.28187497321338723 -0.022307681168239082 0 0.2897680532770528 -0.017482362731964681 0 0.29366497864415031 -0.02522387524632818 0 0.2897680532770528 -0.017482362731964681 0 0.29366497864415031 -0.02522387524632818 0 0.29856323105050009 -0.016915797821848759 0 0.28187497321338723 -0.022307681168239082 0 0.29366497864415031 -0.02522387524632818 0 0.2944737066427292 -0.034735482692512809 0 0.28208761330809262 -0.0038888485574515362 0 0.2837335155044961 -0.012392435661247781 0 0.28924121434077521 -0.005037797731386507 0 0.29053149248006732 0.0017260991138315729 0 0.28208761330809262 -0.0038888485574515362 0 0.28924121434077521 -0.005037797731386507 0 0.2897680532770528 -0.017482362731964681 0 0.2837335155044961 -0.012392435661247781 0 0.29178596644861932 -0.01094900901629158 0 0.2837335155044961 -0.012392435661247781 0 0.29178596644861932 -0.01094900901629158 0 0.28924121434077521 -0.005037797731386507 0 0.29178596644861932 -0.01094900901629158 0 0.29707801834422592 -0.0056265721153986228 0 0.29856323105050009 -0.016915797821848759 0 0.2897680532770528 -0.017482362731964681 0 0.29178596644861932 -0.01094900901629158 0 0.29856323105050009 -0.016915797821848759 0 0.29053149248006732 0.0017260991138315729 0 0.28924121434077521 -0.005037797731386507 0 0.29707801834422592 -0.0056265721153986228 0 0.29178596644861932 -0.01094900901629158 0 0.28924121434077521 -0.005037797731386507 0 0.29707801834422592 -0.0056265721153986228 0 0.29767935603157969 0.0021227027615089138 0 0.29053149248006732 0.0017260991138315729 0 0.29707801834422592 -0.0056265721153986228 0 0.30316731419432169 6.4355149645006771e-05 0 0.29707801834422592 -0.0056265721153986228 0 0.30757016764344708 -0.01243898465626172 0 0.29767935603157969 0.0021227027615089138 0 0.30316731419432169 6.4355149645006771e-05 0 0.29707801834422592 -0.0056265721153986228 0 0.29707801834422592 -0.0056265721153986228 0 0.30757016764344708 -0.01243898465626172 0 0.29856323105050009 -0.016915797821848759 0 0.30757016764344708 -0.01243898465626172 0 0.30800954781403878 -0.0098675874605419402 0 0.31060481768337661 0.0053207849576982769 0 0.31470163537401052 -0.0031951629764111061 0 0.30800954781403878 -0.0098675874605419402 0 0.31060481768337661 0.0053207849576982769 0 0.30800954781403878 -0.0098675874605419402 0 0.3030510118942612 0.0050632426930448766 0 0.30316731419432169 6.4355149645006771e-05 0 0.30800954781403878 -0.0098675874605419402 0 0.30316731419432169 6.4355149645006771e-05 0 0.30757016764344708 -0.01243898465626172 0 0.30316731419432169 6.4355149645006771e-05 0 0.30757016764344708 -0.01243898465626172 0 0.30800954781403878 -0.0098675874605419402 0 0.3030510118942612 0.0050632426930448766 0 0.30800954781403878 -0.0098675874605419402 0 0.31274858703990582 -0.02714479717524608 0 0.30800954781403878 -0.0098675874605419402 0 0.30757016764344708 -0.01243898465626172 0 0.30270578837601347 -0.04090693119632316 0 0.29366497864415031 -0.02522387524632818 0 0.29856323105050009 -0.016915797821848759 0 0.30270578837601347 -0.04090693119632316 0 0.30757016764344708 -0.01243898465626172 0 0.29856323105050009 -0.016915797821848759 0 0.30270578837601347 -0.04090693119632316 0 0.31274858703990582 -0.02714479717524608 0 0.30757016764344708 -0.01243898465626172 0 0.30800954781403878 -0.0098675874605419402 0 0.31274858703990582 -0.02714479717524608 0 0.30757016764344708 -0.01243898465626172 0 0.30270578837601347 -0.04090693119632316 0 0.31274858703990582 -0.02714479717524608 0 0.30757016764344708 -0.01243898465626172 0 0.29366497864415031 -0.02522387524632818 0 0.30270578837601347 -0.04090693119632316 0 0.2944737066427292 -0.034735482692512809 0 0.31274858703990582 -0.02714479717524608 0 0.30567786258846141 -0.042016346308976549 0 0.31274858703990582 -0.02714479717524608 0 0.30270578837601347 -0.04090693119632316 0 0.30567786258846141 -0.042016346308976549 0 0.30270578837601347 -0.04090693119632316 0 0.30567786258846141 -0.042016346308976549 0 0.30074251574663508 -0.052396648009924648 0 0.30270578837601347 -0.04090693119632316 0 0.30074251574663508 -0.052396648009924648 0 0.30270578837601347 -0.04090693119632316 0 0.30074251574663508 -0.052396648009924648 0 0.2884288592837449 -0.044576525010196898 0 0.30270578837601347 -0.04090693119632316 0 0.30567786258846141 -0.042016346308976549 0 0.31984794873309708 -0.047305752492220098 0 0.30567786258846141 -0.042016346308976549 0 0.31172190708387348 -0.055205315363210682 0 0.30567786258846141 -0.042016346308976549 0 0.31172190708387348 -0.055205315363210682 0 0.30074251574663508 -0.052396648009924648 0 0.30939092746396002 -0.068862955512891177 0 0.31172190708387348 -0.055205315363210682 0 0.30074251574663508 -0.052396648009924648 0 0.30567786258846141 -0.042016346308976549 0 0.30074251574663508 -0.052396648009924648 0 0.28946583605303039 -0.076114401018185687 0 0.30074251574663508 -0.052396648009924648 0 0.28144322363579982 -0.054173590981534327 0 0.30074251574663508 -0.052396648009924648 0 0.28144322363579982 -0.054173590981534327 0 0.2884288592837449 -0.044576525010196898 0 0.27443580640035181 -0.041923308900931669 0 0.28144322363579982 -0.054173590981534327 0 0.2884288592837449 -0.044576525010196898 0 0.30270578837601347 -0.04090693119632316 0 0.28128218672957861 -0.032909934575463547 0 0.27443580640035181 -0.041923308900931669 0 0.2884288592837449 -0.044576525010196898 0 0.28128218672957861 -0.032909934575463547 0 0.30270578837601347 -0.04090693119632316 0 0.2884288592837449 -0.044576525010196898 0 0.28128218672957861 -0.032909934575463547 0 0.30270578837601347 -0.04090693119632316 0 0.28128218672957861 -0.032909934575463547 0 0.2944737066427292 -0.034735482692512809 0 0.29067513079836338 -0.20771790442997651 0 0.2969819925377214 -0.20417709329388301 0 0.29794998634200248 -0.21199061194119831 0 0.29067513079836338 -0.20771790442997651 0 0.29794998634200248 -0.21199061194119831 0 0.29248749564787407 -0.21957884445939629 0 0.29067513079836338 -0.20771790442997651 0 0.28267246255645728 -0.21672858476652171 0 0.29248749564787407 -0.21957884445939629 0 0.29067513079836338 -0.20771790442997651 0 0.28267246255645728 -0.21672858476652171 0 0.27954522717531388 -0.2056016267180425 0 0.29067513079836338 -0.20771790442997651 0 0.29600771376444401 -0.18855044298583001 0 0.27954522717531388 -0.2056016267180425 0 0.29600771376444401 -0.18855044298583001 0 0.27954522717531388 -0.2056016267180425 0 0.27680859938442748 -0.19246579435617281 0 0.29600771376444401 -0.18855044298583001 0 0.27680859938442748 -0.19246579435617281 0 0.28656013091391619 -0.1821722627068251 0 0.29067513079836338 -0.20771790442997651 0 0.29600771376444401 -0.18855044298583001 0 0.2969819925377214 -0.20417709329388301 0 0.29600771376444401 -0.18855044298583001 0 0.27954522717531388 -0.2056016267180425 0 0.29600771376444401 -0.18855044298583001 0 0.30048942671760631 -0.19914125667048529 0 0.2969819925377214 -0.20417709329388301 0 0.30048942671760631 -0.19914125667048529 0 0.3029580540757989 -0.2055729562946447 0 0.2969819925377214 -0.20417709329388301 0 0.30048942671760631 -0.19914125667048529 0 0.30218606893990202 -0.19267838930561601 0 0.30775715642661811 -0.1949296598362113 0 0.29600771376444401 -0.18855044298583001 0 0.30048942671760631 -0.19914125667048529 0 0.30218606893990202 -0.19267838930561601 0 0.29600771376444401 -0.18855044298583001 0 0.30218606893990202 -0.19267838930561601 0 0.30777818334317641 -0.18864636258917 0 0.30777818334317641 -0.18864636258917 0 0.31591810455256791 -0.18481700050159161 0 0.31360243564895462 -0.19424724556454101 0 0.30218606893990202 -0.19267838930561601 0 0.30777818334317641 -0.18864636258917 0 0.30775715642661811 -0.1949296598362113 0 0.30777818334317641 -0.18864636258917 0 0.30775715642661811 -0.1949296598362113 0 0.31360243564895462 -0.19424724556454101 0 0.30048942671760631 -0.19914125667048529 0 0.30775715642661811 -0.1949296598362113 0 0.31501895912304112 -0.19998379970172581 0 0.30775715642661811 -0.1949296598362113 0 0.31501895912304112 -0.19998379970172581 0 0.31360243564895462 -0.19424724556454101 0 0.3029580540757989 -0.2055729562946447 0 0.30518411562643638 -0.21327496256891301 0 0.31302460181432562 -0.21388185466535889 0 0.30048942671760631 -0.19914125667048529 0 0.3029580540757989 -0.2055729562946447 0 0.32789504339137637 -0.2103763087203131 0 0.3029580540757989 -0.2055729562946447 0 0.2969819925377214 -0.20417709329388301 0 0.29794998634200248 -0.21199061194119831 0 0.3029580540757989 -0.2055729562946447 0 0.29794998634200248 -0.21199061194119831 0 0.30518411562643638 -0.21327496256891301 0 0.29794998634200248 -0.21199061194119831 0 0.30214230300817108 -0.21976778989343701 0 0.29248749564787407 -0.21957884445939629 0 0.29794998634200248 -0.21199061194119831 0 0.30518411562643638 -0.21327496256891301 0 0.30214230300817108 -0.21976778989343701 0 0.30518411562643638 -0.21327496256891301 0 0.30975203735055928 -0.21876186320593949 0 0.30214230300817108 -0.21976778989343701 0 0.30518411562643638 -0.21327496256891301 0 0.30975203735055928 -0.21876186320593949 0 0.31302460181432562 -0.21388185466535889 0 0.30975203735055928 -0.21876186320593949 0 0.30889848893971739 -0.2283942068826938 0 0.30214230300817108 -0.21976778989343701 0 0.30975203735055928 -0.21876186320593949 0 0.30889848893971739 -0.2283942068826938 0 0.31746838592466059 -0.22016354057897211 0 0.30889848893971739 -0.2283942068826938 0 0.29837491453464859 -0.2294370169025487 0 0.30333573733268021 -0.2430346638525725 0 0.29837491453464859 -0.2294370169025487 0 0.30214230300817108 -0.21976778989343701 0 0.29248749564787407 -0.21957884445939629 0 0.30889848893971739 -0.2283942068826938 0 0.29837491453464859 -0.2294370169025487 0 0.30214230300817108 -0.21976778989343701 0 0.30889848893971739 -0.2283942068826938 0 0.30333573733268021 -0.2430346638525725 0 0.31979320554635837 -0.23576613497296769 0 0.29837491453464859 -0.2294370169025487 0 0.30333573733268021 -0.2430346638525725 0 0.28501054774480011 -0.236409579424644 0 0.30333573733268021 -0.2430346638525725 0 0.28501054774480011 -0.236409579424644 0 0.28590416935277951 -0.25711281835518962 0 0.28267246255645728 -0.21672858476652171 0 0.28501054774480011 -0.236409579424644 0 0.29248749564787407 -0.21957884445939629 0 0.29837491453464859 -0.2294370169025487 0 0.28501054774480011 -0.236409579424644 0 0.29248749564787407 -0.21957884445939629 0 0.26857415470866153 -0.24685412596275319 0 0.27140772680975428 -0.2185665617461329 0 0.28267246255645728 -0.21672858476652171 0 0.28501054774480011 -0.236409579424644 0 0.27140772680975428 -0.2185665617461329 0 0.28501054774480011 -0.236409579424644 0 0.26857415470866153 -0.24685412596275319 0 0.27140772680975428 -0.2185665617461329 0 0.28501054774480011 -0.236409579424644 0 0.27140772680975428 -0.2185665617461329 0 0.26857415470866153 -0.24685412596275319 0 0.26031336342542161 -0.2316689980625973 0 0.27140772680975428 -0.2185665617461329 0 0.28501054774480011 -0.236409579424644 0 0.26857415470866153 -0.24685412596275319 0 0.28590416935277951 -0.25711281835518962 0 0.26857415470866153 -0.24685412596275319 0 0.25064710514562599 -0.24374514853460069 0 0.26031336342542161 -0.2316689980625973 0 0.26857415470866153 -0.24685412596275319 0 0.25064710514562599 -0.24374514853460069 0 0.25890789642886602 -0.25893027643475658 0 0.25064710514562599 -0.24374514853460069 0 0.26031336342542161 -0.2316689980625973 0 0.25062446703764368 -0.21751015600690229 0 0.26031336342542161 -0.2316689980625973 0 0.25062446703764368 -0.21751015600690229 0 0.27140772680975428 -0.2185665617461329 0 0.25064710514562599 -0.24374514853460069 0 0.25062446703764368 -0.21751015600690229 0 0.25062446703764368 -0.21751015600690229 0 0.26100477786970028 -0.2049208626126714 0 0.25060182892965432 -0.1912751634792039 0 0.25062446703764368 -0.21751015600690229 0 0.25060182892965432 -0.1912751634792039 0 0.25062446703764368 -0.21751015600690229 0 0.26100477786970028 -0.2049208626126714 0 0.27140772680975428 -0.2185665617461329 0 0.27140772680975428 -0.2185665617461329 0 0.27954522717531388 -0.2056016267180425 0 0.27414967265648948 -0.1911937028772652 0 0.27140772680975428 -0.2185665617461329 0 0.27414967265648948 -0.1911937028772652 0 0.26100477786970028 -0.2049208626126714 0 0.27140772680975428 -0.2185665617461329 0 0.26100477786970028 -0.2049208626126714 0 0.27140772680975428 -0.2185665617461329 0 0.26679134995212672 -0.19730474190787389 0 0.28267246255645728 -0.21672858476652171 0 0.27140772680975428 -0.2185665617461329 0 0.27954522717531388 -0.2056016267180425 0 0.27140772680975428 -0.2185665617461329 0 0.27414967265648948 -0.1911937028772652 0 0.26679134995212672 -0.19730474190787389 0 0.27954522717531388 -0.2056016267180425 0 0.27680859938442748 -0.19246579435617281 0 0.27414967265648948 -0.1911937028772652 0 0.26679134995212672 -0.19730474190787389 0 0.26839057407833428 -0.19176666111316509 0 0.26236741313890849 -0.18882426467319999 0 0.27414967265648948 -0.1911937028772652 0 0.26679134995212672 -0.19730474190787389 0 0.26839057407833428 -0.19176666111316509 0 0.27414967265648948 -0.1911937028772652 0 0.26839057407833428 -0.19176666111316509 0 0.26868475440858092 -0.18788960601641541 0 0.26839057407833428 -0.19176666111316509 0 0.26868475440858092 -0.18788960601641541 0 0.26236741313890849 -0.18882426467319999 0 0.26100477786970028 -0.2049208626126714 0 0.26679134995212672 -0.19730474190787389 0 0.26236741313890849 -0.18882426467319999 0 0.26100477786970028 -0.2049208626126714 0 0.26236741313890849 -0.18882426467319999 0 0.25060182892965432 -0.1912751634792039 0 0.26100477786970028 -0.2049208626126714 0 0.25060182892965432 -0.1912751634792039 0 0.25060182892965432 -0.1912751634792039 0 0.25057709658737243 -0.16261319156669729 0 0.25060182892965432 -0.1912751634792039 0 0.26161858024543488 -0.18076052531793849 0 0.25824265377655392 -0.1719667453312497 0 0.25060182892965432 -0.1912751634792039 0 0.25824265377655392 -0.1719667453312497 0 0.25057709658737243 -0.16261319156669729 0 0.26236741313890849 -0.18882426467319999 0 0.26161858024543488 -0.18076052531793849 0 0.26994380786365291 -0.18162884153278591 0 0.26236741313890849 -0.18882426467319999 0 0.25060182892965432 -0.1912751634792039 0 0.26161858024543488 -0.18076052531793849 0 0.26161858024543488 -0.18076052531793849 0 0.25824265377655392 -0.1719667453312497 0 0.26706584615825629 -0.17362288236427459 0 0.25824265377655392 -0.1719667453312497 0 0.25595770379561428 -0.1600794306068351 0 0.25057709658737243 -0.16261319156669729 0 0.25595770379561428 -0.1600794306068351 0 0.25057709658737243 -0.16261319156669729 0 0.25327343549745029 -0.15223631282881189 0 0.25595770379561428 -0.1600794306068351 0 0.26307795758130093 -0.16747039176059 0 0.26976023589601988 -0.16466981678568041 0 0.25824265377655392 -0.1719667453312497 0 0.25595770379561428 -0.1600794306068351 0 0.26307795758130093 -0.16747039176059 0 0.25824265377655392 -0.1719667453312497 0 0.26307795758130093 -0.16747039176059 0 0.26706584615825629 -0.17362288236427459 0 0.26307795758130093 -0.16747039176059 0 0.26976023589601988 -0.16466981678568041 0 0.26706584615825629 -0.17362288236427459 0 0.25595770379561428 -0.1600794306068351 0 0.26976023589601988 -0.16466981678568041 0 0.28269508378872371 -0.15801615255863391 0 0.25595770379561428 -0.1600794306068351 0 0.26953722077938758 -0.15527304985172141 0 0.28269508378872371 -0.15801615255863391 0 0.26976023589601988 -0.16466981678568041 0 0.27975184158657562 -0.17524097345740339 0 0.28269508378872371 -0.15801615255863391 0 0.26976023589601988 -0.16466981678568041 0 0.27975184158657562 -0.17524097345740339 0 0.26706584615825629 -0.17362288236427459 0 0.27975184158657562 -0.17524097345740339 0 0.28269508378872371 -0.15801615255863391 0 0.25595770379561428 -0.1600794306068351 0 0.28269508378872371 -0.15801615255863391 0 0.27680859938442748 -0.19246579435617281 0 0.27414967265648948 -0.1911937028772652 0 0.27975184158657562 -0.17524097345740339 0 0.27414967265648948 -0.1911937028772652 0 0.27975184158657562 -0.17524097345740339 0 0.26994380786365291 -0.18162884153278591 0 0.27680859938442748 -0.19246579435617281 0 0.27975184158657562 -0.17524097345740339 0 0.27680859938442748 -0.19246579435617281 0 0.27975184158657562 -0.17524097345740339 0 0.28656013091391619 -0.1821722627068251 0 0.27414967265648948 -0.1911937028772652 0 0.26868475440858092 -0.18788960601641541 0 0.26994380786365291 -0.18162884153278591 0 0.26868475440858092 -0.18788960601641541 0 0.26236741313890849 -0.18882426467319999 0 0.26994380786365291 -0.18162884153278591 0 0.26161858024543488 -0.18076052531793849 0 0.26994380786365291 -0.18162884153278591 0 0.26706584615825629 -0.17362288236427459 0 0.27975184158657562 -0.17524097345740339 0 0.26994380786365291 -0.18162884153278591 0 0.26706584615825629 -0.17362288236427459 0 0.25327343549745029 -0.15223631282881189 0 0.26573129592843792 -0.12603423342762909 0 0.24236326494606 -0.1365088818677464 0 0.25327343549745029 -0.15223631282881189 0 0.26573129592843792 -0.12603423342762909 0 0.27238998424978511 -0.14053061827078181 0 0.25327343549745029 -0.15223631282881189 0 0.26573129592843792 -0.12603423342762909 0 0.25595770379561428 -0.1600794306068351 0 0.25327343549745029 -0.15223631282881189 0 0.26953722077938758 -0.15527304985172141 0 0.25327343549745029 -0.15223631282881189 0 0.26953722077938758 -0.15527304985172141 0 0.27238998424978511 -0.14053061827078181 0 0.26953722077938758 -0.15527304985172141 0 0.28496885572371289 -0.14470929173818639 0 0.26953722077938758 -0.15527304985172141 0 0.28496885572371289 -0.14470929173818639 0 0.28269508378872371 -0.15801615255863391 0 0.26953722077938758 -0.15527304985172141 0 0.27238998424978511 -0.14053061827078181 0 0.28496885572371289 -0.14470929173818639 0 0.28843911331993671 -0.1244002035075602 0 0.26573129592843792 -0.12603423342762909 0 0.27238998424978511 -0.14053061827078181 0 0.28843911331993671 -0.1244002035075602 0 0.27238998424978511 -0.14053061827078181 0 0.28496885572371289 -0.14470929173818639 0 0.28843911331993671 -0.1244002035075602 0 0.28496885572371289 -0.14470929173818639 0 0.28843911331993671 -0.1244002035075602 0 0.28496885572371289 -0.14470929173818639 0 0.30952455273467822 -0.1278996377728718 0 0.28496885572371289 -0.14470929173818639 0 0.30581388536571369 -0.15623211404001869 0 0.28269508378872371 -0.15801615255863391 0 0.28496885572371289 -0.14470929173818639 0 0.28269508378872371 -0.15801615255863391 0 0.28496885572371289 -0.14470929173818639 0 0.30581388536571369 -0.15623211404001869 0 0.30952455273467822 -0.1278996377728718 0 0.30581388536571369 -0.15623211404001869 0 0.30952455273467822 -0.1278996377728718 0 0.31801245855459809 -0.1428846253511927 0 0.28496885572371289 -0.14470929173818639 0 0.30952455273467822 -0.1278996377728718 0 0.29600771376444401 -0.18855044298583001 0 0.29367236892021792 -0.17243184002789441 0 0.28656013091391619 -0.1821722627068251 0 0.27975184158657562 -0.17524097345740339 0 0.29367236892021792 -0.17243184002789441 0 0.28656013091391619 -0.1821722627068251 0 0.30581388536571369 -0.15623211404001869 0 0.29367236892021792 -0.17243184002789441 0 0.28269508378872371 -0.15801615255863391 0 0.27975184158657562 -0.17524097345740339 0 0.29367236892021792 -0.17243184002789441 0 0.28269508378872371 -0.15801615255863391 0 0.30581388536571369 -0.15623211404001869 0 0.28269508378872371 -0.15801615255863391 0 0.30581388536571369 -0.15623211404001869 0 0.29367236892021792 -0.17243184002789441 0 0.31247020035357398 -0.1714992592536175 0 0.29600771376444401 -0.18855044298583001 0 0.31247020035357398 -0.1714992592536175 0 0.30777818334317641 -0.18864636258917 0 0.31247020035357398 -0.1714992592536175 0 0.31591810455256791 -0.18481700050159161 0 0.29600771376444401 -0.18855044298583001 0 0.29367236892021792 -0.17243184002789441 0 0.31247020035357398 -0.1714992592536175 0 0.29600771376444401 -0.18855044298583001 0 0.30777818334317641 -0.18864636258917 0 0.31247020035357398 -0.1714992592536175 0 0.31247020035357398 -0.1714992592536175 0 0.32597863713226921 -0.1804147181693613 0 0.33192673770063019 -0.1668315784001905 0 0.31591810455256791 -0.18481700050159161 0 0.32597863713226921 -0.1804147181693613 0 0.31976106628486511 -0.18927741693126809 0 0.31247020035357398 -0.1714992592536175 0 0.31591810455256791 -0.18481700050159161 0 0.32597863713226921 -0.1804147181693613 0 0.30581388536571369 -0.15623211404001869 0 0.31247020035357398 -0.1714992592536175 0 0.32893268694270378 -0.15444807552140469 0 0.31247020035357398 -0.1714992592536175 0 0.33192673770063019 -0.1668315784001905 0 0.32893268694270378 -0.15444807552140469 0 0.31247020035357398 -0.1714992592536175 0 0.32893268694270378 -0.15444807552140469 0 0.34261018094237239 -0.17645862555140651 0 0.3362649413809865 -0.15388225794203811 0 0.34196408171923021 -0.15344246499461409 0 0.33192673770063019 -0.1668315784001905 0 0.34261018094237239 -0.17645862555140651 0 0.3362649413809865 -0.15388225794203811 0 0.34261018094237239 -0.17645862555140651 0 0.3362649413809865 -0.15388225794203811 0 0.33192673770063019 -0.1668315784001905 0 0.32893268694270378 -0.15444807552140469 0 0.3362649413809865 -0.15388225794203811 0 0.32597863713226921 -0.1804147181693613 0 0.34261018094237239 -0.17645862555140651 0 0.33552132381016042 -0.18982552149738621 0 0.32597863713226921 -0.1804147181693613 0 0.33192673770063019 -0.1668315784001905 0 0.34261018094237239 -0.17645862555140651 0 0.30952455273467822 -0.1278996377728718 0 0.32520619740052231 -0.12999625593136421 0 0.31801245855459809 -0.1428846253511927 0 0.32520619740052231 -0.12999625593136421 0 0.32701396075875722 -0.13883069211787649 0 0.31801245855459809 -0.1428846253511927 0 0.30581388536571369 -0.15623211404001869 0 0.32893268694270378 -0.15444807552140469 0 0.30581388536571369 -0.15623211404001869 0 0.31801245855459809 -0.1428846253511927 0 0.32893268694270378 -0.15444807552140469 0 0.32810221508695708 -0.14563920796977639 0 0.31801245855459809 -0.1428846253511927 0 0.32893268694270378 -0.15444807552140469 0 0.32701396075875722 -0.13883069211787649 0 0.32810221508695708 -0.14563920796977639 0 0.31801245855459809 -0.1428846253511927 0 0.33473490138624329 -0.14843837437481139 0 0.34196408171923021 -0.15344246499461409 0 0.35262180577711161 -0.14541394545353289 0 0.33473490138624329 -0.14843837437481139 0 0.33334811920549701 -0.14350420222831251 0 0.35033762891009013 -0.1322776946201239 0 0.32810221508695708 -0.14563920796977639 0 0.32893268694270378 -0.15444807552140469 0 0.33473490138624329 -0.14843837437481139 0 0.32893268694270378 -0.15444807552140469 0 0.33473490138624329 -0.14843837437481139 0 0.32893268694270378 -0.15444807552140469 0 0.33473490138624329 -0.14843837437481139 0 0.3362649413809865 -0.15388225794203811 0 0.33473490138624329 -0.14843837437481139 0 0.3362649413809865 -0.15388225794203811 0 0.32893268694270378 -0.15444807552140469 0 0.3362649413809865 -0.15388225794203811 0 0.3362649413809865 -0.15388225794203811 0 0.34196408171923021 -0.15344246499461409 0 0.33473490138624329 -0.14843837437481139 0 0.3362649413809865 -0.15388225794203811 0 0.34196408171923021 -0.15344246499461409 0 0.33473490138624329 -0.14843837437481139 0 0.33334811920549701 -0.14350420222831251 0 0.32810221508695708 -0.14563920796977639 0 0.33473490138624329 -0.14843837437481139 0 0.33334811920549701 -0.14350420222831251 0 0.32701396075875722 -0.13883069211787649 0 0.32810221508695708 -0.14563920796977639 0 0.33334811920549701 -0.14350420222831251 0 0.33334811920549701 -0.14350420222831251 0 0.33774986032868082 -0.13169683188337411 0 0.35033762891009013 -0.1322776946201239 0 0.33473490138624329 -0.14843837437481139 0 0.35033762891009013 -0.1322776946201239 0 0.32520619740052231 -0.12999625593136421 0 0.32701396075875722 -0.13883069211787649 0 0.33774986032868082 -0.13169683188337411 0 0.32701396075875722 -0.13883069211787649 0 0.33334811920549701 -0.14350420222831251 0 0.33774986032868082 -0.13169683188337411 0 0.35015332955671508 -0.1165740046807027 0 0.33774986032868082 -0.13169683188337411 0 0.35033762891009013 -0.1322776946201239 0 0.36735760071589302 -0.1230407521583643 0 0.35033762891009013 -0.1322776946201239 0 0.35262180577711161 -0.14541394545353289 0 0.33473490138624329 -0.14843837437481139 0 0.35033762891009013 -0.1322776946201239 0 0.35262180577711161 -0.14541394545353289 0 0.34196408171923021 -0.15344246499461409 0 0.35262180577711161 -0.14541394545353289 0 0.35495451063621802 -0.1636074604834821 0 0.35262180577711161 -0.14541394545353289 0 0.36638211129499543 -0.1516769260898016 0 0.35495451063621802 -0.1636074604834821 0 0.36735760071589302 -0.1230407521583643 0 0.36638211129499543 -0.1516769260898016 0 0.36735760071589302 -0.1230407521583643 0 0.35262180577711161 -0.14541394545353289 0 0.36638211129499543 -0.1516769260898016 0 0.36735760071589302 -0.1230407521583643 0 0.36638211129499543 -0.1516769260898016 0 0.37893845476917098 -0.13829155366632079 0 0.34261018094237239 -0.17645862555140651 0 0.36886982029100313 -0.17662255015639219 0 0.36329740635070629 -0.19248063828176179 0 0.34261018094237239 -0.17645862555140651 0 0.35495451063621802 -0.1636074604834821 0 0.36886982029100313 -0.17662255015639219 0 0.34261018094237239 -0.17645862555140651 0 0.34196408171923021 -0.15344246499461409 0 0.35495451063621802 -0.1636074604834821 0 0.36638211129499543 -0.1516769260898016 0 0.36886982029100313 -0.17662255015639219 0 0.38380851967401308 -0.15359536869919879 0 0.36638211129499543 -0.1516769260898016 0 0.35495451063621802 -0.1636074604834821 0 0.36886982029100313 -0.17662255015639219 0 0.36886982029100313 -0.17662255015639219 0 0.36329740635070629 -0.19248063828176179 0 0.37762625629359831 -0.20073312558191189 0 0.36329740635070629 -0.19248063828176179 0 0.36490072962219477 -0.20768638959558169 0 0.37762625629359831 -0.20073312558191189 0 0.37308466387497691 -0.21715410593642401 0 0.36490072962219477 -0.20768638959558169 0 0.37762625629359831 -0.20073312558191189 0 0.37308466387497691 -0.21715410593642401 0 0.36490072962219477 -0.20768638959558169 0 0.36611695506152447 -0.2188763490491949 0 0.36490072962219477 -0.20768638959558169 0 0.36069107117734961 -0.21567318522444051 0 0.36611695506152447 -0.2188763490491949 0 0.36069107117734961 -0.21567318522444051 0 0.36611695506152447 -0.2188763490491949 0 0.36061769266676852 -0.21996180219343781 0 0.36490072962219477 -0.20768638959558169 0 0.36069107117734961 -0.21567318522444051 0 0.34895542050375872 -0.19903499316077469 0 0.34895542050375872 -0.19903499316077469 0 0.35544803685147869 -0.2221357274978569 0 0.34895542050375872 -0.19903499316077469 0 0.34227544408084309 -0.2118185710907626 0 0.35544803685147869 -0.2221357274978569 0 0.36069107117734961 -0.21567318522444051 0 0.34895542050375872 -0.19903499316077469 0 0.35544803685147869 -0.2221357274978569 0 0.34261018094237239 -0.17645862555140651 0 0.36329740635070629 -0.19248063828176179 0 0.34895542050375872 -0.19903499316077469 0 0.34261018094237239 -0.17645862555140651 0 0.34895542050375872 -0.19903499316077469 0 0.36329740635070629 -0.19248063828176179 0 0.36490072962219477 -0.20768638959558169 0 0.34895542050375872 -0.19903499316077469 0 0.34261018094237239 -0.17645862555140651 0 0.34895542050375872 -0.19903499316077469 0 0.33552132381016042 -0.18982552149738621 0 0.33552132381016042 -0.18982552149738621 0 0.33459140107478591 -0.2006762805634702 0 0.32753389457357029 -0.19402155954413111 0 0.32597863713226921 -0.1804147181693613 0 0.33552132381016042 -0.18982552149738621 0 0.32753389457357029 -0.19402155954413111 0 0.32896360304548211 -0.2027804822038031 0 0.33459140107478591 -0.2006762805634702 0 0.32753389457357029 -0.19402155954413111 0 0.34895542050375872 -0.19903499316077469 0 0.33459140107478591 -0.2006762805634702 0 0.33627659754357941 -0.20805299085316589 0 0.34895542050375872 -0.19903499316077469 0 0.33552132381016042 -0.18982552149738621 0 0.33459140107478591 -0.2006762805634702 0 0.34895542050375872 -0.19903499316077469 0 0.33627659754357941 -0.20805299085316589 0 0.34227544408084309 -0.2118185710907626 0 0.34227544408084309 -0.2118185710907626 0 0.32789504339137637 -0.2103763087203131 0 0.35544803685147869 -0.2221357274978569 0 0.32920304546363871 -0.2138543418962511 0 0.32789504339137637 -0.2103763087203131 0 0.35544803685147869 -0.2221357274978569 0 0.32920304546363871 -0.2138543418962511 0 0.35544803685147869 -0.2221357274978569 0 0.32789504339137637 -0.2103763087203131 0 0.35544803685147869 -0.2221357274978569 0 0.33627659754357941 -0.20805299085316589 0 0.33182206539918019 -0.20605719912205719 0 0.32789504339137637 -0.2103763087203131 0 0.33627659754357941 -0.20805299085316589 0 0.34227544408084309 -0.2118185710907626 0 0.32789504339137637 -0.2103763087203131 0 0.33459140107478591 -0.2006762805634702 0 0.33627659754357941 -0.20805299085316589 0 0.33182206539918019 -0.20605719912205719 0 0.32896360304548211 -0.2027804822038031 0 0.33459140107478591 -0.2006762805634702 0 0.33182206539918019 -0.20605719912205719 0 0.32896360304548211 -0.2027804822038031 0 0.33182206539918019 -0.20605719912205719 0 0.32789504339137637 -0.2103763087203131 0 0.3029580540757989 -0.2055729562946447 0 0.32920304546363871 -0.2138543418962511 0 0.31302460181432562 -0.21388185466535889 0 0.32920304546363871 -0.2138543418962511 0 0.31302460181432562 -0.21388185466535889 0 0.31746838592466059 -0.22016354057897211 0 0.3029580540757989 -0.2055729562946447 0 0.32920304546363871 -0.2138543418962511 0 0.32789504339137637 -0.2103763087203131 0 0.31501895912304112 -0.19998379970172581 0 0.32324960045006129 -0.20130685422687131 0 0.30048942671760631 -0.19914125667048529 0 0.32789504339137637 -0.2103763087203131 0 0.31501895912304112 -0.19998379970172581 0 0.32896360304548211 -0.2027804822038031 0 0.32789504339137637 -0.2103763087203131 0 0.32324960045006129 -0.20130685422687131 0 0.3029580540757989 -0.2055729562946447 0 0.32920304546363871 -0.2138543418962511 0 0.32789504339137637 -0.2103763087203131 0 0.30048942671760631 -0.19914125667048529 0 0.32789504339137637 -0.2103763087203131 0 0.30975203735055928 -0.21876186320593949 0 0.31302460181432562 -0.21388185466535889 0 0.31746838592466059 -0.22016354057897211 0 0.31501895912304112 -0.19998379970172581 0 0.31983319121609849 -0.19576737519370749 0 0.32324960045006129 -0.20130685422687131 0 0.31501895912304112 -0.19998379970172581 0 0.31983319121609849 -0.19576737519370749 0 0.31360243564895462 -0.19424724556454101 0 0.31591810455256791 -0.18481700050159161 0 0.31360243564895462 -0.19424724556454101 0 0.31976106628486511 -0.18927741693126809 0 0.31983319121609849 -0.19576737519370749 0 0.31360243564895462 -0.19424724556454101 0 0.31976106628486511 -0.18927741693126809 0 0.32597863713226921 -0.1804147181693613 0 0.31976106628486511 -0.18927741693126809 0 0.32753389457357029 -0.19402155954413111 0 0.31983319121609849 -0.19576737519370749 0 0.31976106628486511 -0.18927741693126809 0 0.32753389457357029 -0.19402155954413111 0 0.32896360304548211 -0.2027804822038031 0 0.32753389457357029 -0.19402155954413111 0 0.32324960045006129 -0.20130685422687131 0 0.31983319121609849 -0.19576737519370749 0 0.32753389457357029 -0.19402155954413111 0 0.32324960045006129 -0.20130685422687131 0 0.30333573733268021 -0.2430346638525725 0 0.31979320554635837 -0.23576613497296769 0 0.31911582008033079 -0.25036718024175703 0 0.31979320554635837 -0.23576613497296769 0 0.3345513338571241 -0.2364518190375135 0 0.31911582008033079 -0.25036718024175703 0 0.30889848893971739 -0.2283942068826938 0 0.31979320554635837 -0.23576613497296769 0 0.31746838592466059 -0.22016354057897211 0 0.32920304546363871 -0.2138543418962511 0 0.31746838592466059 -0.22016354057897211 0 0.32764670020216408 -0.22615433726766149 0 0.31979320554635837 -0.23576613497296769 0 0.32764670020216408 -0.22615433726766149 0 0.3345513338571241 -0.2364518190375135 0 0.31979320554635837 -0.23576613497296769 0 0.31746838592466059 -0.22016354057897211 0 0.32764670020216408 -0.22615433726766149 0 0.32764670020216408 -0.22615433726766149 0 0.33763433559194672 -0.22622860224656771 0 0.3345513338571241 -0.2364518190375135 0 0.32920304546363871 -0.2138543418962511 0 0.34440639265540662 -0.22420431050197431 0 0.35544803685147869 -0.2221357274978569 0 0.32920304546363871 -0.2138543418962511 0 0.32764670020216408 -0.22615433726766149 0 0.33763433559194672 -0.22622860224656771 0 0.32920304546363871 -0.2138543418962511 0 0.33763433559194672 -0.22622860224656771 0 0.34440639265540662 -0.22420431050197431 0 0.33763433559194672 -0.22622860224656771 0 0.3345513338571241 -0.2364518190375135 0 0.34709014065253407 -0.2317293221889416 0 0.33763433559194672 -0.22622860224656771 0 0.34440639265540662 -0.22420431050197431 0 0.34709014065253407 -0.2317293221889416 0 0.3345513338571241 -0.2364518190375135 0 0.35006890825575798 -0.25285522346077249 0 0.3345513338571241 -0.2364518190375135 0 0.31911582008033079 -0.25036718024175703 0 0.33369468868185093 -0.25697909081922299 0 0.3345513338571241 -0.2364518190375135 0 0.33369468868185093 -0.25697909081922299 0 0.35006890825575798 -0.25285522346077249 0 0.3345513338571241 -0.2364518190375135 0 0.35332044235727489 -0.24141356709664191 0 0.34709014065253407 -0.2317293221889416 0 0.3345513338571241 -0.2364518190375135 0 0.35332044235727489 -0.24141356709664191 0 0.35006890825575798 -0.25285522346077249 0 0.35909567784838498 -0.23511403718285179 0 0.35332044235727489 -0.24141356709664191 0 0.34709014065253407 -0.2317293221889416 0 0.35332044235727489 -0.24141356709664191 0 0.35006890825575798 -0.25285522346077249 0 0.36302422455619848 -0.25179289512644371 0 0.34440639265540662 -0.22420431050197431 0 0.35183758849208918 -0.22794662343929131 0 0.35544803685147869 -0.2221357274978569 0 0.34440639265540662 -0.22420431050197431 0 0.34709014065253407 -0.2317293221889416 0 0.35183758849208918 -0.22794662343929131 0 0.35909567784838498 -0.23511403718285179 0 0.35544803685147869 -0.2221357274978569 0 0.35909567784838498 -0.23511403718285179 0 0.35183758849208918 -0.22794662343929131 0 0.35544803685147869 -0.2221357274978569 0 0.35909567784838498 -0.23511403718285179 0 0.35544803685147869 -0.2221357274978569 0 0.36036208436305489 -0.22368631372997311 0 0.35909567784838498 -0.23511403718285179 0 0.34709014065253407 -0.2317293221889416 0 0.35183758849208918 -0.22794662343929131 0 0.35544803685147869 -0.2221357274978569 0 0.36036208436305489 -0.22368631372997311 0 0.36069107117734961 -0.21567318522444051 0 0.35544803685147869 -0.2221357274978569 0 0.36061769266676852 -0.21996180219343781 0 0.35544803685147869 -0.2221357274978569 0 0.36061769266676852 -0.21996180219343781 0 0.36036208436305489 -0.22368631372997311 0 0.3667539024285863 -0.23189006834289419 0 0.37323672937811742 -0.23585484630786299 0 0.38408041768348322 -0.2334097478917454 0 0.36036208436305489 -0.22368631372997311 0 0.38408041768348322 -0.2334097478917454 0 0.36611695506152447 -0.2188763490491949 0 0.36036208436305489 -0.22368631372997311 0 0.37859015382345362 -0.22943802725670601 0 0.36036208436305489 -0.22368631372997311 0 0.37859015382345362 -0.22943802725670601 0 0.36036208436305489 -0.22368631372997311 0 0.38408041768348322 -0.2334097478917454 0 0.37859015382345362 -0.22943802725670601 0 0.36036208436305489 -0.22368631372997311 0 0.3667539024285863 -0.23189006834289419 0 0.38408041768348322 -0.2334097478917454 0 0.36611695506152447 -0.2188763490491949 0 0.36061769266676852 -0.21996180219343781 0 0.36036208436305489 -0.22368631372997311 0 0.35909567784838498 -0.23511403718285179 0 0.36036208436305489 -0.22368631372997311 0 0.3667539024285863 -0.23189006834289419 0 0.37308466387497691 -0.21715410593642401 0 0.36611695506152447 -0.2188763490491949 0 0.37859015382345362 -0.22943802725670601 0 0.35332044235727489 -0.24141356709664191 0 0.36609236897364977 -0.2405381055833285 0 0.36302422455619848 -0.25179289512644371 0 0.35909567784838498 -0.23511403718285179 0 0.35332044235727489 -0.24141356709664191 0 0.36609236897364977 -0.2405381055833285 0 0.35909567784838498 -0.23511403718285179 0 0.3667539024285863 -0.23189006834289419 0 0.36609236897364977 -0.2405381055833285 0 0.3667539024285863 -0.23189006834289419 0 0.36609236897364977 -0.2405381055833285 0 0.37323672937811742 -0.23585484630786299 0 0.36609236897364977 -0.2405381055833285 0 0.37323672937811742 -0.23585484630786299 0 0.37728752930010861 -0.24028425828759331 0 0.36609236897364977 -0.2405381055833285 0 0.37279783360010088 -0.24694817791151311 0 0.37728752930010861 -0.24028425828759331 0 0.36609236897364977 -0.2405381055833285 0 0.37279783360010088 -0.24694817791151311 0 0.36302422455619848 -0.25179289512644371 0 0.37279783360010088 -0.24694817791151311 0 0.37728752930010861 -0.24028425828759331 0 0.3837972593496195 -0.24565134198914079 0 0.37279783360010088 -0.24694817791151311 0 0.3837972593496195 -0.24565134198914079 0 0.3791811444710193 -0.25281526561046269 0 0.37323672937811742 -0.23585484630786299 0 0.37728752930010861 -0.24028425828759331 0 0.38408041768348322 -0.2334097478917454 0 0.37728752930010861 -0.24028425828759331 0 0.38363741308521693 -0.2397632513044331 0 0.3837972593496195 -0.24565134198914079 0 0.37728752930010861 -0.24028425828759331 0 0.38363741308521693 -0.2397632513044331 0 0.38408041768348322 -0.2334097478917454 0 0.38363741308521693 -0.2397632513044331 0 0.38938444600765643 -0.2397076570492529 0 0.38408041768348322 -0.2334097478917454 0 0.38363741308521693 -0.2397632513044331 0 0.38938444600765643 -0.2397076570492529 0 0.3837972593496195 -0.24565134198914079 0 0.38938444600765643 -0.2397076570492529 0 0.3916035212037991 -0.23274340662196241 0 0.38408041768348322 -0.2334097478917454 0 0.38938444600765643 -0.2397076570492529 0 0.3837972593496195 -0.24565134198914079 0 0.39094372899812041 -0.24902918812751379 0 0.38938444600765643 -0.2397076570492529 0 0.3983095970332618 -0.2424826494243808 0 0.39094372899812041 -0.24902918812751379 0 0.3983095970332618 -0.2424826494243808 0 0.39094372899812041 -0.24902918812751379 0 0.39731994695456002 -0.25526880638918681 0 0.38938444600765643 -0.2397076570492529 0 0.3983095970332618 -0.2424826494243808 0 0.3916035212037991 -0.23274340662196241 0 0.3983095970332618 -0.2424826494243808 0 0.39914700081657351 -0.22858759054423611 0 0.3916035212037991 -0.23274340662196241 0 0.3983095970332618 -0.2424826494243808 0 0.39914700081657351 -0.22858759054423611 0 0.40973232721252911 -0.2376798429031787 0 0.3983095970332618 -0.2424826494243808 0 0.40973232721252911 -0.2376798429031787 0 0.410079610593787 -0.25315682717779231 0 0.39914700081657351 -0.22858759054423611 0 0.39393175598830671 -0.21275105928274191 0 0.41394644530969599 -0.22259091691811639 0 0.39914700081657351 -0.22858759054423611 0 0.38707484993179903 -0.22404407892732769 0 0.39393175598830671 -0.21275105928274191 0 0.39914700081657351 -0.22858759054423611 0 0.3916035212037991 -0.23274340662196241 0 0.38707484993179903 -0.22404407892732769 0 0.38707484993179903 -0.22404407892732769 0 0.38024763029990638 -0.2212022771607855 0 0.38224085356939641 -0.21417289652268451 0 0.3916035212037991 -0.23274340662196241 0 0.38707484993179903 -0.22404407892732769 0 0.38408041768348322 -0.2334097478917454 0 0.38707484993179903 -0.22404407892732769 0 0.38408041768348322 -0.2334097478917454 0 0.37859015382345362 -0.22943802725670601 0 0.38707484993179903 -0.22404407892732769 0 0.37859015382345362 -0.22943802725670601 0 0.38024763029990638 -0.2212022771607855 0 0.37308466387497691 -0.21715410593642401 0 0.37859015382345362 -0.22943802725670601 0 0.38024763029990638 -0.2212022771607855 0 0.38224085356939641 -0.21417289652268451 0 0.37762625629359831 -0.20073312558191189 0 0.39393175598830671 -0.21275105928274191 0 0.37308466387497691 -0.21715410593642401 0 0.38024763029990638 -0.2212022771607855 0 0.38224085356939641 -0.21417289652268451 0 0.37308466387497691 -0.21715410593642401 0 0.38224085356939641 -0.21417289652268451 0 0.37762625629359831 -0.20073312558191189 0 0.38707484993179903 -0.22404407892732769 0 0.38224085356939641 -0.21417289652268451 0 0.39393175598830671 -0.21275105928274191 0 0.36886982029100313 -0.17662255015639219 0 0.37762625629359831 -0.20073312558191189 0 0.39494447455111481 -0.19031074804361359 0 0.37762625629359831 -0.20073312558191189 0 0.39494447455111481 -0.19031074804361359 0 0.39393175598830671 -0.21275105928274191 0 0.39494447455111481 -0.19031074804361359 0 0.40803381316213883 -0.20525200766040161 0 0.41155067668106721 -0.19199227516203479 0 0.39494447455111481 -0.19031074804361359 0 0.39393175598830671 -0.21275105928274191 0 0.40803381316213883 -0.20525200766040161 0 0.39393175598830671 -0.21275105928274191 0 0.40803381316213883 -0.20525200766040161 0 0.41394644530969599 -0.22259091691811639 0 0.40803381316213883 -0.20525200766040161 0 0.42644008672767358 -0.20320394268009409 0 0.41394644530969599 -0.22259091691811639 0 0.40803381316213883 -0.20525200766040161 0 0.41155067668106721 -0.19199227516203479 0 0.42644008672767358 -0.20320394268009409 0 0.41155067668106721 -0.19199227516203479 0 0.42644008672767358 -0.20320394268009409 0 0.42437476297621213 -0.1840825774846292 0 0.42644008672767358 -0.20320394268009409 0 0.42437476297621213 -0.1840825774846292 0 0.44148341880325842 -0.18564356523157319 0 0.42644008672767358 -0.20320394268009409 0 0.43428055514131397 -0.2213541998832006 0 0.41394644530969599 -0.22259091691811639 0 0.43428055514131397 -0.2213541998832006 0 0.42696540300507818 -0.23964819800230261 0 0.44833506804991202 -0.23449273296343259 0 0.43428055514131397 -0.2213541998832006 0 0.42696540300507818 -0.23964819800230261 0 0.41394644530969599 -0.22259091691811639 0 0.42696540300507818 -0.23964819800230261 0 0.410079610593787 -0.25315682717779231 0 0.42446640670767799 -0.25620471794116328 0 0.42696540300507818 -0.23964819800230261 0 0.40973232721252911 -0.2376798429031787 0 0.410079610593787 -0.25315682717779231 0 0.42696540300507818 -0.23964819800230261 0 0.40973232721252911 -0.2376798429031787 0 0.41394644530969599 -0.22259091691811639 0 0.39914700081657351 -0.22858759054423611 0 0.40973232721252911 -0.2376798429031787 0 0.41394644530969599 -0.22259091691811639 0 0.38394496516283261 -0.12439878564756569 0 0.40191611705130692 -0.12677326586514401 0 0.39364389131236432 -0.13904133394618889 0 0.40191611705130692 -0.12677326586514401 0 0.39364389131236432 -0.13904133394618889 0 0.40687913312997459 -0.1381933914895114 0 0.38394496516283261 -0.12439878564756569 0 0.36735760071589302 -0.1230407521583643 0 0.37893845476917098 -0.13829155366632079 0 0.38394496516283261 -0.12439878564756569 0 0.39364389131236432 -0.13904133394618889 0 0.37893845476917098 -0.13829155366632079 0 0.36638211129499543 -0.1516769260898016 0 0.37893845476917098 -0.13829155366632079 0 0.38380851967401308 -0.15359536869919879 0 0.39364389131236432 -0.13904133394618889 0 0.37893845476917098 -0.13829155366632079 0 0.38380851967401308 -0.15359536869919879 0 0.39364389131236432 -0.13904133394618889 0 0.40974854266460831 -0.15220338617169729 0 0.40687913312997459 -0.1381933914895114 0 0.39364389131236432 -0.13904133394618889 0 0.38380851967401308 -0.15359536869919879 0 0.40974854266460831 -0.15220338617169729 0 0.39285220384406211 -0.16877288347773881 0 0.41206898232120998 -0.17334578687637059 0 0.40974854266460831 -0.15220338617169729 0 0.38380851967401308 -0.15359536869919879 0 0.39285220384406211 -0.16877288347773881 0 0.40974854266460831 -0.15220338617169729 0 0.36886982029100313 -0.17662255015639219 0 0.38380851967401308 -0.15359536869919879 0 0.39285220384406211 -0.16877288347773881 0 0.36886982029100313 -0.17662255015639219 0 0.39494447455111481 -0.19031074804361359 0 0.39285220384406211 -0.16877288347773881 0 0.39494447455111481 -0.19031074804361359 0 0.41155067668106721 -0.19199227516203479 0 0.41206898232120998 -0.17334578687637059 0 0.39494447455111481 -0.19031074804361359 0 0.39285220384406211 -0.16877288347773881 0 0.41206898232120998 -0.17334578687637059 0 0.41155067668106721 -0.19199227516203479 0 0.41206898232120998 -0.17334578687637059 0 0.42437476297621213 -0.1840825774846292 0 0.42437476297621213 -0.1840825774846292 0 0.43033065034785128 -0.16622731747307309 0 0.44148341880325842 -0.18564356523157319 0 0.41206898232120998 -0.17334578687637059 0 0.42437476297621213 -0.1840825774846292 0 0.43033065034785128 -0.16622731747307309 0 0.41206898232120998 -0.17334578687637059 0 0.43033065034785128 -0.16622731747307309 0 0.40974854266460831 -0.15220338617169729 0 0.40974854266460831 -0.15220338617169729 0 0.43566644502645591 -0.14495365499122789 0 0.4201610586004641 -0.13277732711090209 0 0.40974854266460831 -0.15220338617169729 0 0.4201610586004641 -0.13277732711090209 0 0.40687913312997459 -0.1381933914895114 0 0.43033065034785128 -0.16622731747307309 0 0.40974854266460831 -0.15220338617169729 0 0.43566644502645591 -0.14495365499122789 0 0.43394963671444298 -0.12221419474687439 0 0.43566644502645591 -0.14495365499122789 0 0.4201610586004641 -0.13277732711090209 0 0.40191611705130692 -0.12677326586514401 0 0.4201610586004641 -0.13277732711090209 0 0.40687913312997459 -0.1381933914895114 0 0.41010060940839183 -0.1156030312293497 0 0.40191611705130692 -0.12677326586514401 0 0.4201610586004641 -0.13277732711090209 0 0.47785788630710518 -0.123862636517932 0 0.45140506170839451 -0.1298584913037488 0 0.47047718174280689 -0.15152016062930709 0 0.43394963671444298 -0.12221419474687439 0 0.43566644502645591 -0.14495365499122789 0 0.45140506170839451 -0.1298584913037488 0 0.43566644502645591 -0.14495365499122789 0 0.45140506170839451 -0.1298584913037488 0 0.4500825823209611 -0.1598173699873279 0 0.45140506170839451 -0.1298584913037488 0 0.4500825823209611 -0.1598173699873279 0 0.47047718174280689 -0.15152016062930709 0 0.46309647717850871 -0.1791776847406823 0 0.47047718174280689 -0.15152016062930709 0 0.4500825823209611 -0.1598173699873279 0 0.46309647717850871 -0.1791776847406823 0 0.47047718174280689 -0.15152016062930709 0 0.43033065034785128 -0.16622731747307309 0 0.4500825823209611 -0.1598173699873279 0 0.44148341880325842 -0.18564356523157319 0 0.43033065034785128 -0.16622731747307309 0 0.43566644502645591 -0.14495365499122789 0 0.4500825823209611 -0.1598173699873279 0 0.4500825823209611 -0.1598173699873279 0 0.44148341880325842 -0.18564356523157319 0 0.46309647717850871 -0.1791776847406823 0 0.46309647717850871 -0.1791776847406823 0 0.48154629714568092 -0.17352315574008839 0 0.47784389897937019 -0.1857243293707522 0 0.48154629714568092 -0.17352315574008839 0 0.47784389897937019 -0.1857243293707522 0 0.49220361958998238 -0.19034577909766259 0 0.48154629714568092 -0.17352315574008839 0 0.50000000000000022 -0.1633722341258009 0 0.49220361958998238 -0.19034577909766259 0 0.50000000000000022 -0.1633722341258009 0 0.5 -0.18970904439037359 0 0.49220361958998238 -0.19034577909766259 0 0.50000000000000022 -0.1633722341258009 0 0.49220361958998238 -0.19034577909766259 0 0.46309647717850871 -0.1791776847406823 0 0.48154629714568092 -0.17352315574008839 0 0.47047718174280689 -0.15152016062930709 0 0.48154629714568092 -0.17352315574008839 0 0.50000000000000022 -0.1633722341258009 0 0.47047718174280689 -0.15152016062930709 0 0.50000000000000022 -0.1633722341258009 0 0.47047718174280689 -0.15152016062930709 0 0.5 -0.13887580013740211 0 0.47785788630710518 -0.123862636517932 0 0.5 -0.11437936614900319 0 0.5 -0.13887580013740211 0 0.47785788630710518 -0.123862636517932 0 0.47047718174280689 -0.15152016062930709 0 0.47785788630710518 -0.123862636517932 0 0.47047718174280689 -0.15152016062930709 0 0.5 -0.13887580013740211 0 0.46585659890992498 -0.22825344716579571 0 0.44833506804991202 -0.23449273296343259 0 0.45571577261421031 -0.2068352088520575 0 0.46585659890992498 -0.22825344716579571 0 0.44833506804991202 -0.23449273296343259 0 0.45915222747570078 -0.25316085949990691 0 0.46585659890992498 -0.22825344716579571 0 0.47661085876994608 -0.24429286904138561 0 0.45915222747570078 -0.25316085949990691 0 0.42696540300507818 -0.23964819800230261 0 0.44833506804991202 -0.23449273296343259 0 0.44095436348561362 -0.26215025707480788 0 0.44833506804991202 -0.23449273296343259 0 0.44095436348561362 -0.26215025707480788 0 0.44833506804991202 -0.23449273296343259 0 0.45915222747570078 -0.25316085949990691 0 0.44095436348561362 -0.26215025707480788 0 0.43428055514131397 -0.2213541998832006 0 0.44833506804991202 -0.23449273296343259 0 0.45571577261421031 -0.2068352088520575 0 0.44833506804991202 -0.23449273296343259 0 0.45571577261421031 -0.2068352088520575 0 0.42644008672767358 -0.20320394268009409 0 0.43428055514131397 -0.2213541998832006 0 0.45571577261421031 -0.2068352088520575 0 0.42644008672767358 -0.20320394268009409 0 0.44148341880325842 -0.18564356523157319 0 0.45571577261421031 -0.2068352088520575 0 0.44148341880325842 -0.18564356523157319 0 0.46309647717850871 -0.1791776847406823 0 0.45571577261421031 -0.2068352088520575 0 0.46309647717850871 -0.1791776847406823 0 0.45571577261421031 -0.2068352088520575 0 0.47452920200330911 -0.1998506979045756 0 0.46309647717850871 -0.1791776847406823 0 0.45571577261421031 -0.2068352088520575 0 0.45571577261421031 -0.2068352088520575 0 0.47035326723198501 -0.21316610351812509 0 0.47452920200330911 -0.1998506979045756 0 0.46585659890992498 -0.22825344716579571 0 0.45571577261421031 -0.2068352088520575 0 0.47035326723198501 -0.21316610351812509 0 0.47035326723198501 -0.21316610351812509 0 0.47452920200330911 -0.1998506979045756 0 0.4844072391799642 -0.2173193240695242 0 0.47452920200330911 -0.1998506979045756 0 0.49220361958998238 -0.19034577909766259 0 0.4844072391799642 -0.2173193240695242 0 0.46309647717850871 -0.1791776847406823 0 0.47784389897937019 -0.1857243293707522 0 0.47452920200330911 -0.1998506979045756 0 0.47784389897937019 -0.1857243293707522 0 0.47452920200330911 -0.1998506979045756 0 0.49220361958998238 -0.19034577909766259 0 0.5 -0.18970904439037359 0 0.49220361958998238 -0.19034577909766259 0 0.5 -0.21604585465494611 0 0.49220361958998238 -0.19034577909766259 0 0.4844072391799642 -0.2173193240695242 0 0.49220361958998238 -0.19034577909766259 0 0.4844072391799642 -0.2173193240695242 0 0.5 -0.21604585465494611 0 0.5 -0.21604585465494611 0 0.49025452448747758 -0.2300101781713437 0 0.5 -0.24238266491951871 0 0.4844072391799642 -0.2173193240695242 0 0.5 -0.21604585465494611 0 0.49025452448747758 -0.2300101781713437 0 0.4844072391799642 -0.2173193240695242 0 0.47661085876994608 -0.24429286904138561 0 0.46585659890992498 -0.22825344716579571 0 0.47035326723198501 -0.21316610351812509 0 0.4844072391799642 -0.2173193240695242 0 0.4844072391799642 -0.2173193240695242 0 0.49025452448747758 -0.2300101781713437 0 0.47661085876994608 -0.24429286904138561 0 0.46585659890992498 -0.22825344716579571 0 0.4844072391799642 -0.2173193240695242 0 0.47661085876994608 -0.24429286904138561 0 0.49025452448747758 -0.2300101781713437 0 0.47661085876994608 -0.24429286904138561 0 0.5 -0.24238266491951871 0 0.47661085876994608 -0.24429286904138561 0 0.5 -0.24238266491951871 0 0.48638264992757918 -0.26050569748691221 0 0.5 -0.24238266491951871 0 0.48638264992757918 -0.26050569748691221 0 0.5 -0.26871947518409123 0 0.5 -0.26871947518409123 0 0.48834706169355652 -0.27170766962032677 0 0.48965301586500232 -0.28107597142945839 0 0.48638264992757918 -0.26050569748691221 0 0.5 -0.26871947518409123 0 0.48834706169355652 -0.27170766962032677 0 0.48834706169355652 -0.27170766962032677 0 0.48965301586500232 -0.28107597142945839 0 0.4773525809816444 -0.27652953438084538 0 0.48638264992757918 -0.26050569748691221 0 0.48834706169355652 -0.27170766962032677 0 0.4773525809816444 -0.27652953438084538 0 0.48638264992757918 -0.26050569748691221 0 0.4773525809816444 -0.27652953438084538 0 0.46881447835992801 -0.27126641401324708 0 0.48638264992757918 -0.26050569748691221 0 0.4773525809816444 -0.27652953438084538 0 0.4773525809816444 -0.27652953438084538 0 0.46881447835992801 -0.27126641401324708 0 0.4687316129595207 -0.28051782031122702 0 0.47661085876994608 -0.24429286904138561 0 0.46881447835992801 -0.27126641401324708 0 0.47661085876994608 -0.24429286904138561 0 0.48638264992757918 -0.26050569748691221 0 0.46881447835992801 -0.27126641401324708 0 0.47661085876994608 -0.24429286904138561 0 0.46881447835992801 -0.27126641401324708 0 0.45915222747570078 -0.25316085949990691 0 0.46881447835992801 -0.27126641401324708 0 0.45915222747570078 -0.25316085949990691 0 0.45437096806331151 -0.26827751165010733 0 0.46881447835992801 -0.27126641401324708 0 0.45437096806331151 -0.26827751165010733 0 0.46043688046080039 -0.28172196157603657 0 0.46881447835992801 -0.27126641401324708 0 0.4687316129595207 -0.28051782031122702 0 0.46043688046080039 -0.28172196157603657 0 0.45437096806331151 -0.26827751165010733 0 0.4483495593153895 -0.27908491561883031 0 0.46043688046080039 -0.28172196157603657 0 0.4483495593153895 -0.27908491561883031 0 0.44095436348561362 -0.26215025707480788 0 0.43357365892131577 -0.28980778118618322 0 0.45437096806331151 -0.26827751165010733 0 0.4483495593153895 -0.27908491561883031 0 0.44095436348561362 -0.26215025707480788 0 0.45915222747570078 -0.25316085949990691 0 0.45437096806331151 -0.26827751165010733 0 0.44095436348561362 -0.26215025707480788 0 0.44040395698957691 -0.31190611476557922 0 0.44167416161544187 -0.30035061700418642 0 0.45702628118294752 -0.312598507340142 0 0.44167416161544187 -0.30035061700418642 0 0.45094808547851262 -0.29118057623048282 0 0.45702628118294752 -0.312598507340142 0 0.4483495593153895 -0.27908491561883031 0 0.45094808547851262 -0.29118057623048282 0 0.43357365892131577 -0.28980778118618322 0 0.44167416161544187 -0.30035061700418642 0 0.45094808547851262 -0.29118057623048282 0 0.43357365892131577 -0.28980778118618322 0 0.45094808547851262 -0.29118057623048282 0 0.43357365892131577 -0.28980778118618322 0 0.45094808547851262 -0.29118057623048282 0 0.46043688046080039 -0.28172196157603657 0 0.46832251203570968 -0.29255337127477871 0 0.45094808547851262 -0.29118057623048282 0 0.46832251203570968 -0.29255337127477871 0 0.4483495593153895 -0.27908491561883031 0 0.45094808547851262 -0.29118057623048282 0 0.46043688046080039 -0.28172196157603657 0 0.4687316129595207 -0.28051782031122702 0 0.46043688046080039 -0.28172196157603657 0 0.46832251203570968 -0.29255337127477871 0 0.46832251203570968 -0.29255337127477871 0 0.45702628118294752 -0.312598507340142 0 0.45094808547851262 -0.29118057623048282 0 0.46832251203570968 -0.29255337127477871 0 0.45702628118294752 -0.312598507340142 0 0.46832251203570968 -0.29255337127477871 0 0.47503215793491532 -0.30848968621990919 0 0.45702628118294752 -0.312598507340142 0 0.47503215793491532 -0.30848968621990919 0 0.48416125601785442 -0.29380482836172139 0 0.48700339427963452 -0.30980317129460128 0 0.46832251203570968 -0.29255337127477871 0 0.47503215793491532 -0.30848968621990919 0 0.48416125601785442 -0.29380482836172139 0 0.4773525809816444 -0.27652953438084538 0 0.4687316129595207 -0.28051782031122702 0 0.46832251203570968 -0.29255337127477871 0 0.48965301586500232 -0.28107597142945839 0 0.4773525809816444 -0.27652953438084538 0 0.48416125601785442 -0.29380482836172139 0 0.4773525809816444 -0.27652953438084538 0 0.46832251203570968 -0.29255337127477871 0 0.48416125601785442 -0.29380482836172139 0 0.46832251203570968 -0.29255337127477871 0 0.48416125601785442 -0.29380482836172139 0 0.4773525809816444 -0.27652953438084538 0 0.46832251203570968 -0.29255337127477871 0 0.48965301586500232 -0.28107597142945839 0 0.48416125601785442 -0.29380482836172139 0 0.49999999999999889 -0.29505628544866369 0 0.5 -0.26871947518409123 0 0.48965301586500232 -0.28107597142945839 0 0.49999999999999889 -0.29505628544866369 0 0.48416125601785442 -0.29380482836172139 0 0.49999999999999889 -0.29505628544866369 0 0.48416125601785442 -0.29380482836172139 0 0.49999999999999889 -0.29505628544866369 0 0.48700339427963452 -0.30980317129460128 0 0.49999999999999889 -0.29505628544866369 0 0.48700339427963452 -0.30980317129460128 0 0.5 -0.32590229380492369 0 0.48700339427963452 -0.30980317129460128 0 0.5 -0.32590229380492369 0 0.47582355744540361 -0.32576276263778853 0 0.5 -0.32590229380492369 0 0.47582355744540361 -0.32576276263778853 0 0.48656609533903261 -0.3447298255624956 0 0.47582355744540361 -0.32576276263778853 0 0.48656609533903261 -0.3447298255624956 0 0.47598862712254758 -0.34505650503419522 0 0.47582355744540361 -0.32576276263778853 0 0.47598862712254758 -0.34505650503419522 0 0.46594330790593902 -0.34245842432408458 0 0.47503215793491532 -0.30848968621990919 0 0.47582355744540361 -0.32576276263778853 0 0.45702628118294752 -0.312598507340142 0 0.47503215793491532 -0.30848968621990919 0 0.48700339427963452 -0.30980317129460128 0 0.47582355744540361 -0.32576276263778853 0 0.5 -0.32590229380492369 0 0.5 -0.36758037777344837 0 0.48656609533903261 -0.3447298255624956 0 0.5 -0.36758037777344837 0 0.48101829212721198 -0.35934718856212228 0 0.48604954469193279 -0.37844502632510468 0 0.5 -0.36758037777344837 0 0.48656609533903261 -0.3447298255624956 0 0.48101829212721198 -0.35934718856212228 0 0.48656609533903261 -0.3447298255624956 0 0.47598862712254758 -0.34505650503419522 0 0.48101829212721198 -0.35934718856212228 0 0.47598862712254758 -0.34505650503419522 0 0.46738175409187788 -0.35442355804138642 0 0.46594330790593902 -0.34245842432408458 0 0.47598862712254758 -0.34505650503419522 0 0.48101829212721198 -0.35934718856212228 0 0.46738175409187788 -0.35442355804138642 0 0.46995050984559011 -0.37032232635088441 0 0.48604954469193279 -0.37844502632510468 0 0.48101829212721198 -0.35934718856212228 0 0.46995050984559011 -0.37032232635088441 0 0.46738175409187788 -0.35442355804138642 0 0.48101829212721198 -0.35934718856212228 0 0.46995050984559011 -0.37032232635088441 0 0.48604954469193279 -0.37844502632510468 0 0.45385147499924727 -0.36219962637666409 0 0.46412380831707017 -0.38184918771470011 0 0.45385147499924727 -0.36219962637666409 0 0.46412380831707017 -0.38184918771470011 0 0.4472870117889125 -0.37875399151884931 0 0.46995050984559011 -0.37032232635088441 0 0.45385147499924727 -0.36219962637666409 0 0.46738175409187788 -0.35442355804138642 0 0.46995050984559011 -0.37032232635088441 0 0.45385147499924727 -0.36219962637666409 0 0.46995050984559011 -0.37032232635088441 0 0.45385147499924727 -0.36219962637666409 0 0.46412380831707017 -0.38184918771470011 0 0.45385147499924727 -0.36219962637666409 0 0.46738175409187788 -0.35442355804138642 0 0.45753831255073157 -0.34715727760036802 0 0.46738175409187788 -0.35442355804138642 0 0.45753831255073157 -0.34715727760036802 0 0.46594330790593902 -0.34245842432408458 0 0.45385147499924727 -0.36219962637666409 0 0.45753831255073157 -0.34715727760036802 0 0.4424738420471318 -0.34043577880111642 0 0.45385147499924727 -0.36219962637666409 0 0.4424738420471318 -0.34043577880111642 0 0.45385147499924727 -0.36219962637666409 0 0.43968040800871039 -0.35504967443374658 0 0.4424738420471318 -0.34043577880111642 0 0.45385147499924727 -0.36219962637666409 0 0.43968040800871039 -0.35504967443374658 0 0.45385147499924727 -0.36219962637666409 0 0.43968040800871039 -0.35504967443374658 0 0.43697648056532568 -0.3687818640914467 0 0.45385147499924727 -0.36219962637666409 0 0.43697648056532568 -0.3687818640914467 0 0.4472870117889125 -0.37875399151884931 0 0.45702628118294752 -0.312598507340142 0 0.45914869974626771 -0.33309927071945239 0 0.44573005033018548 -0.33264364340550528 0 0.47582355744540361 -0.32576276263778853 0 0.45702628118294752 -0.312598507340142 0 0.45914869974626771 -0.33309927071945239 0 0.47582355744540361 -0.32576276263778853 0 0.45914869974626771 -0.33309927071945239 0 0.47582355744540361 -0.32576276263778853 0 0.46594330790593902 -0.34245842432408458 0 0.45914869974626771 -0.33309927071945239 0 0.45753831255073157 -0.34715727760036802 0 0.46594330790593902 -0.34245842432408458 0 0.45914869974626771 -0.33309927071945239 0 0.45914869974626771 -0.33309927071945239 0 0.4424738420471318 -0.34043577880111642 0 0.45753831255073157 -0.34715727760036802 0 0.45914869974626771 -0.33309927071945239 0 0.4424738420471318 -0.34043577880111642 0 0.45914869974626771 -0.33309927071945239 0 0.44573005033018548 -0.33264364340550528 0 0.4424738420471318 -0.34043577880111642 0 0.44573005033018548 -0.33264364340550528 0 0.4424738420471318 -0.34043577880111642 0 0.43240678929435988 -0.32117889096088592 0 0.44040395698957691 -0.31190611476557922 0 0.45702628118294752 -0.312598507340142 0 0.44378097915458842 -0.32020317723688502 0 0.45702628118294752 -0.312598507340142 0 0.44573005033018548 -0.33264364340550528 0 0.44573005033018548 -0.33264364340550528 0 0.44378097915458842 -0.32020317723688502 0 0.43240678929435988 -0.32117889096088592 0 0.45702628118294752 -0.312598507340142 0 0.44573005033018548 -0.33264364340550528 0 0.44378097915458842 -0.32020317723688502 0 0.44040395698957691 -0.31190611476557922 0 0.44378097915458842 -0.32020317723688502 0 0.43240678929435988 -0.32117889096088592 0 0.44040395698957691 -0.31190611476557922 0 0.43240678929435988 -0.32117889096088592 0 0.429652117673192 -0.30450287169940587 0 0.4424738420471318 -0.34043577880111642 0 0.43240678929435988 -0.32117889096088592 0 0.42001582743727928 -0.33095284122609092 0 0.4424738420471318 -0.34043577880111642 0 0.43240678929435988 -0.32117889096088592 0 0.4424738420471318 -0.34043577880111642 0 0.42001582743727928 -0.33095284122609092 0 0.42550934101817339 -0.34789972249082979 0 0.42001582743727928 -0.33095284122609092 0 0.42550934101817339 -0.34789972249082979 0 0.40617842677194033 -0.33814639142792968 0 0.42550934101817339 -0.34789972249082979 0 0.40617842677194033 -0.33814639142792968 0 0.42001582743727928 -0.33095284122609092 0 0.40420099065652382 -0.326422308323848 0 0.40617842677194033 -0.33814639142792968 0 0.42001582743727928 -0.33095284122609092 0 0.40987614895859259 -0.3160765963045955 0 0.40420099065652382 -0.326422308323848 0 0.43240678929435988 -0.32117889096088592 0 0.42001582743727928 -0.33095284122609092 0 0.40987614895859259 -0.3160765963045955 0 0.43240678929435988 -0.32117889096088592 0 0.40987614895859259 -0.3160765963045955 0 0.42233973654158952 -0.30192200312065448 0 0.43968040800871039 -0.35504967443374658 0 0.43697648056532568 -0.3687818640914467 0 0.42291534142767878 -0.36701634375762698 0 0.43697648056532568 -0.3687818640914467 0 0.42291534142767878 -0.36701634375762698 0 0.43100330124851471 -0.38110591502268909 0 0.4424738420471318 -0.34043577880111642 0 0.42550934101817339 -0.34789972249082979 0 0.43968040800871039 -0.35504967443374658 0 0.4424738420471318 -0.34043577880111642 0 0.42550934101817339 -0.34789972249082979 0 0.43968040800871039 -0.35504967443374658 0 0.42291534142767878 -0.36701634375762698 0 0.42550934101817339 -0.34789972249082979 0 0.43968040800871039 -0.35504967443374658 0 0.42550934101817339 -0.34789972249082979 0 0.42550934101817339 -0.34789972249082979 0 0.40507752071656827 -0.35688919739193242 0 0.40617842677194033 -0.33814639142792968 0 0.42550934101817339 -0.34789972249082979 0 0.40507752071656827 -0.35688919739193242 0 0.42291534142767878 -0.36701634375762698 0 0.42550934101817339 -0.34789972249082979 0 0.40507752071656827 -0.35688919739193242 0 0.42291534142767878 -0.36701634375762698 0 0.40542835642231229 -0.37498958931970072 0 0.41775682987818757 -0.38267672979367467 0 0.42291534142767878 -0.36701634375762698 0 0.40542835642231229 -0.37498958931970072 0 0.40507752071656827 -0.35688919739193242 0 0.40542835642231229 -0.37498958931970072 0 0.39350156376966011 -0.36630364685389721 0 0.38844617493321942 -0.38155813363525448 0 0.40542835642231229 -0.37498958931970072 0 0.39350156376966011 -0.36630364685389721 0 0.40507752071656827 -0.35688919739193242 0 0.39350156376966011 -0.36630364685389721 0 0.40507752071656827 -0.35688919739193242 0 0.38602020948387461 -0.35410950166396687 0 0.40507752071656827 -0.35688919739193242 0 0.38602020948387461 -0.35410950166396687 0 0.39307497289835602 -0.34324441454792931 0 0.40507752071656827 -0.35688919739193242 0 0.40617842677194033 -0.33814639142792968 0 0.39307497289835602 -0.34324441454792931 0 0.38602020948387461 -0.35410950166396687 0 0.39307497289835602 -0.34324441454792931 0 0.38039313981998102 -0.34171499198339461 0 0.38602020948387461 -0.35410950166396687 0 0.38039313981998102 -0.34171499198339461 0 0.37175901252368798 -0.35282923564929708 0 0.38602020948387461 -0.35410950166396687 0 0.37903455355624088 -0.36395301616228631 0 0.37175901252368798 -0.35282923564929708 0 0.37903455355624088 -0.36395301616228631 0 0.38844617493321942 -0.38155813363525448 0 0.37089429962911441 -0.36919986710883163 0 0.39350156376966011 -0.36630364685389721 0 0.37903455355624088 -0.36395301616228631 0 0.38844617493321942 -0.38155813363525448 0 0.39350156376966011 -0.36630364685389721 0 0.38602020948387461 -0.35410950166396687 0 0.37903455355624088 -0.36395301616228631 0 0.39808703758910041 -0.31854265229559342 0 0.38489543110289121 -0.31334024120813597 0 0.40227426392630927 -0.30804075311413992 0 0.39808703758910041 -0.31854265229559342 0 0.40420099065652382 -0.326422308323848 0 0.3868475125257067 -0.3283930603650303 0 0.40987614895859259 -0.3160765963045955 0 0.39808703758910041 -0.31854265229559342 0 0.40227426392630927 -0.30804075311413992 0 0.40987614895859259 -0.3160765963045955 0 0.39808703758910041 -0.31854265229559342 0 0.40420099065652382 -0.326422308323848 0 0.40617842677194033 -0.33814639142792968 0 0.39307497289835602 -0.34324441454792931 0 0.3868475125257067 -0.3283930603650303 0 0.40617842677194033 -0.33814639142792968 0 0.3868475125257067 -0.3283930603650303 0 0.40420099065652382 -0.326422308323848 0 0.40617842677194033 -0.33814639142792968 0 0.3868475125257067 -0.3283930603650303 0 0.39307497289835602 -0.34324441454792931 0 0.3868475125257067 -0.3283930603650303 0 0.38039313981998102 -0.34171499198339461 0 0.3868475125257067 -0.3283930603650303 0 0.38039313981998102 -0.34171499198339461 0 0.37365593632763128 -0.33170829163027798 0 0.3868475125257067 -0.3283930603650303 0 0.36751659827947292 -0.31863972930213141 0 0.3868475125257067 -0.3283930603650303 0 0.36751659827947292 -0.31863972930213141 0 0.37365593632763128 -0.33170829163027798 0 0.38489543110289121 -0.31334024120813597 0 0.36751659827947292 -0.31863972930213141 0 0.3868475125257067 -0.3283930603650303 0 0.38489543110289121 -0.31334024120813597 0 0.36751659827947292 -0.31863972930213141 0 0.39808703758910041 -0.31854265229559342 0 0.3868475125257067 -0.3283930603650303 0 0.38489543110289121 -0.31334024120813597 0 0.38489543110289121 -0.31334024120813597 0 0.40227426392630927 -0.30804075311413992 0 0.3834984874274453 -0.28819315017313479 0 0.38489543110289121 -0.31334024120813597 0 0.3834984874274453 -0.28819315017313479 0 0.37071752330638558 -0.30099965562461739 0 0.38489543110289121 -0.31334024120813597 0 0.40227426392630927 -0.30804075311413992 0 0.40227426392630927 -0.30804075311413992 0 0.3834984874274453 -0.28819315017313479 0 0.40227426392630927 -0.30804075311413992 0 0.39714490480811088 -0.29326134808597248 0 0.40961669118933541 -0.29888901161398818 0 0.40987614895859259 -0.3160765963045955 0 0.40227426392630927 -0.30804075311413992 0 0.39151818923982529 -0.28015742188169251 0 0.40310581509446508 -0.27651366610855949 0 0.40961928539845061 -0.2879150887768484 0 0.3856649118755856 -0.28602239636751059 0 0.40961928539845061 -0.2879150887768484 0 0.39714490480811088 -0.29326134808597248 0 0.3856649118755856 -0.28602239636751059 0 0.40961928539845061 -0.2879150887768484 0 0.40227426392630927 -0.30804075311413992 0 0.39714490480811088 -0.29326134808597248 0 0.3834984874274453 -0.28819315017313479 0 0.3856649118755856 -0.28602239636751059 0 0.39151818923982529 -0.28015742188169251 0 0.40961928539845061 -0.2879150887768484 0 0.39714490480811088 -0.29326134808597248 0 0.40961669118933541 -0.29888901161398818 0 0.40961928539845061 -0.2879150887768484 0 0.3856649118755856 -0.28602239636751059 0 0.38462511523083409 -0.28254576449574109 0 0.39151818923982529 -0.28015742188169251 0 0.3856649118755856 -0.28602239636751059 0 0.39151818923982529 -0.28015742188169251 0 0.3856649118755856 -0.28602239636751059 0 0.3834984874274453 -0.28819315017313479 0 0.38110405705302619 -0.28566203230729009 0 0.3856649118755856 -0.28602239636751059 0 0.38110405705302619 -0.28566203230729009 0 0.3856649118755856 -0.28602239636751059 0 0.3834984874274453 -0.28819315017313479 0 0.38462511523083409 -0.28254576449574109 0 0.38110405705302619 -0.28566203230729009 0 0.38396664661948959 -0.27847422910778169 0 0.3856649118755856 -0.28602239636751059 0 0.38462511523083409 -0.28254576449574109 0 0.38110405705302619 -0.28566203230729009 0 0.39714490480811088 -0.29326134808597248 0 0.3856649118755856 -0.28602239636751059 0 0.3834984874274453 -0.28819315017313479 0 0.3834984874274453 -0.28819315017313479 0 0.37071752330638558 -0.30099965562461739 0 0.3834984874274453 -0.28819315017313479 0 0.38110405705302619 -0.28566203230729009 0 0.37010967773042092 -0.29060938252364732 0 0.3834984874274453 -0.28819315017313479 0 0.38110405705302619 -0.28566203230729009 0 0.38110405705302619 -0.28566203230729009 0 0.37920891347832592 -0.27081580729214672 0 0.38396664661948959 -0.27847422910778169 0 0.38110405705302619 -0.28566203230729009 0 0.37920891347832592 -0.27081580729214672 0 0.36558648265439192 -0.2692586278840316 0 0.37920891347832592 -0.27081580729214672 0 0.38874772975272792 -0.26868155992527892 0 0.38396664661948959 -0.27847422910778169 0 0.37920891347832592 -0.27081580729214672 0 0.38874772975272792 -0.26868155992527892 0 0.38291794921528249 -0.26256350337430429 0 0.38874772975272792 -0.26868155992527892 0 0.38396664661948959 -0.27847422910778169 0 0.39151818923982529 -0.28015742188169251 0 0.38462511523083409 -0.28254576449574109 0 0.38396664661948959 -0.27847422910778169 0 0.39151818923982529 -0.28015742188169251 0 0.37279783360010088 -0.24694817791151311 0 0.3791811444710193 -0.25281526561046269 0 0.37333221333256178 -0.25922491662173119 0 0.37920891347832592 -0.27081580729214672 0 0.38291794921528249 -0.26256350337430429 0 0.37333221333256178 -0.25922491662173119 0 0.3791811444710193 -0.25281526561046269 0 0.38291794921528249 -0.26256350337430429 0 0.37333221333256178 -0.25922491662173119 0 0.38874772975272792 -0.26868155992527892 0 0.38291794921528249 -0.26256350337430429 0 0.3926663899911173 -0.26149720382946051 0 0.38291794921528249 -0.26256350337430429 0 0.38668450734927778 -0.25641361365976412 0 0.3926663899911173 -0.26149720382946051 0 0.3791811444710193 -0.25281526561046269 0 0.38291794921528249 -0.26256350337430429 0 0.38668450734927778 -0.25641361365976412 0 0.3837972593496195 -0.24565134198914079 0 0.3791811444710193 -0.25281526561046269 0 0.38668450734927778 -0.25641361365976412 0 0.3837972593496195 -0.24565134198914079 0 0.39094372899812041 -0.24902918812751379 0 0.38668450734927778 -0.25641361365976412 0 0.38668450734927778 -0.25641361365976412 0 0.39731994695456002 -0.25526880638918681 0 0.3926663899911173 -0.26149720382946051 0 0.39094372899812041 -0.24902918812751379 0 0.38668450734927778 -0.25641361365976412 0 0.39731994695456002 -0.25526880638918681 0 0.39731994695456002 -0.25526880638918681 0 0.3926663899911173 -0.26149720382946051 0 0.4005467780380304 -0.26575970430660362 0 0.38874772975272792 -0.26868155992527892 0 0.3926663899911173 -0.26149720382946051 0 0.4005467780380304 -0.26575970430660362 0 0.39731994695456002 -0.25526880638918681 0 0.4005467780380304 -0.26575970430660362 0 0.410079610593787 -0.25315682717779231 0 0.3983095970332618 -0.2424826494243808 0 0.39731994695456002 -0.25526880638918681 0 0.410079610593787 -0.25315682717779231 0 0.38874772975272792 -0.26868155992527892 0 0.39151818923982529 -0.28015742188169251 0 0.39575897057848181 -0.27281140413476418 0 0.39151818923982529 -0.28015742188169251 0 0.39575897057848181 -0.27281140413476418 0 0.40310581509446508 -0.27651366610855949 0 0.38874772975272792 -0.26868155992527892 0 0.39575897057848181 -0.27281140413476418 0 0.4005467780380304 -0.26575970430660362 0 0.39575897057848181 -0.27281140413476418 0 0.4005467780380304 -0.26575970430660362 0 0.40310581509446508 -0.27651366610855949 0 0.40310581509446508 -0.27651366610855949 0 0.41769937905949522 -0.2703369892053048 0 0.40961928539845061 -0.2879150887768484 0 0.4005467780380304 -0.26575970430660362 0 0.40310581509446508 -0.27651366610855949 0 0.41769937905949522 -0.2703369892053048 0 0.41769937905949522 -0.2703369892053048 0 0.410079610593787 -0.25315682717779231 0 0.42446640670767799 -0.25620471794116328 0 0.4005467780380304 -0.26575970430660362 0 0.41769937905949522 -0.2703369892053048 0 0.410079610593787 -0.25315682717779231 0 0.44095436348561362 -0.26215025707480788 0 0.41769937905949522 -0.2703369892053048 0 0.42446640670767799 -0.25620471794116328 0 0.42696540300507818 -0.23964819800230261 0 0.44095436348561362 -0.26215025707480788 0 0.42446640670767799 -0.25620471794116328 0 0.44095436348561362 -0.26215025707480788 0 0.43357365892131577 -0.28980778118618322 0 0.44095436348561362 -0.26215025707480788 0 0.41769937905949522 -0.2703369892053048 0 0.43357365892131577 -0.28980778118618322 0 0.43357365892131577 -0.28980778118618322 0 0.43099490466106288 -0.2994710806054881 0 0.42063115676272622 -0.29865372490897751 0 0.44167416161544187 -0.30035061700418642 0 0.43357365892131577 -0.28980778118618322 0 0.43099490466106288 -0.2994710806054881 0 0.43357365892131577 -0.28980778118618322 0 0.43099490466106288 -0.2994710806054881 0 0.43240678929435988 -0.32117889096088592 0 0.42233973654158952 -0.30192200312065448 0 0.43240678929435988 -0.32117889096088592 0 0.429652117673192 -0.30450287169940587 0 0.42233973654158952 -0.30192200312065448 0 0.44167416161544187 -0.30035061700418642 0 0.43099490466106288 -0.2994710806054881 0 0.429652117673192 -0.30450287169940587 0 0.43099490466106288 -0.2994710806054881 0 0.429652117673192 -0.30450287169940587 0 0.44040395698957691 -0.31190611476557922 0 0.44167416161544187 -0.30035061700418642 0 0.429652117673192 -0.30450287169940587 0 0.43099490466106288 -0.2994710806054881 0 0.429652117673192 -0.30450287169940587 0 0.42233973654158952 -0.30192200312065448 0 0.43099490466106288 -0.2994710806054881 0 0.42233973654158952 -0.30192200312065448 0 0.43099490466106288 -0.2994710806054881 0 0.42233973654158952 -0.30192200312065448 0 0.42063115676272622 -0.29865372490897751 0 0.42233973654158952 -0.30192200312065448 0 0.42063115676272622 -0.29865372490897751 0 0.40961669118933541 -0.29888901161398818 0 0.40227426392630927 -0.30804075311413992 0 0.42233973654158952 -0.30192200312065448 0 0.40961669118933541 -0.29888901161398818 0 0.40987614895859259 -0.3160765963045955 0 0.40227426392630927 -0.30804075311413992 0 0.42233973654158952 -0.30192200312065448 0 0.40227426392630927 -0.30804075311413992 0 0.42233973654158952 -0.30192200312065448 0 0.42233973654158952 -0.30192200312065448 0 0.42063115676272622 -0.29865372490897751 0 0.42063115676272622 -0.29865372490897751 0 0.40961669118933541 -0.29888901161398818 0 0.40961928539845061 -0.2879150887768484 0 0.43357365892131577 -0.28980778118618322 0 0.42063115676272622 -0.29865372490897751 0 0.40961928539845061 -0.2879150887768484 0 0.43357365892131577 -0.28980778118618322 0 0.40961928539845061 -0.2879150887768484 0 0.41769937905949522 -0.2703369892053048 0 0.43357365892131577 -0.28980778118618322 0 0.40961928539845061 -0.2879150887768484 0 0.5 -0.5 0 0.48318266282615557 -0.447825774798353 0 0.5 -0.42389924258499689 0 0.45282781641332798 -0.47966152156400471 0 0.46212791753207871 -0.5 0 0.43077174029637089 -0.48983076078200272 0 0.45282781641332798 -0.47966152156400471 0 0.43077174029637089 -0.48983076078200272 0 0.45282781641332798 -0.47966152156400471 0 0.43573126139403512 -0.46570443414131962 0 0.43077174029637089 -0.48983076078200272 0 0.45282781641332798 -0.47966152156400471 0 0.45706817734749128 -0.46109212100259789 0 0.43573126139403512 -0.46570443414131962 0 0.45282781641332798 -0.47966152156400471 0 0.47488389253028512 -0.4694922823460066 0 0.45282781641332798 -0.47966152156400471 0 0.47488389253028512 -0.4694922823460066 0 0.45706817734749128 -0.46109212100259789 0 0.45282781641332798 -0.47966152156400471 0 0.46212791753207871 -0.5 0 0.47488389253028512 -0.4694922823460066 0 0.46212791753207871 -0.5 0 0.5 -0.5 0 0.47488389253028512 -0.4694922823460066 0 0.5 -0.5 0 0.47488389253028512 -0.4694922823460066 0 0.48318266282615557 -0.447825774798353 0 0.47488389253028512 -0.4694922823460066 0 0.48318266282615557 -0.447825774798353 0 0.46636276527504178 -0.44390724356277961 0 0.48318266282615557 -0.447825774798353 0 0.46636276527504178 -0.44390724356277961 0 0.47318084419889139 -0.42850756990556271 0 0.46636276527504178 -0.44390724356277961 0 0.45706817734749128 -0.46109212100259789 0 0.4483877734748814 -0.44197998776082847 0 0.47488389253028512 -0.4694922823460066 0 0.46636276527504178 -0.44390724356277961 0 0.45706817734749128 -0.46109212100259789 0 0.45706817734749128 -0.46109212100259789 0 0.4483877734748814 -0.44197998776082847 0 0.43573126139403512 -0.46570443414131962 0 0.4483877734748814 -0.44197998776082847 0 0.45990078427669051 -0.42540475101393432 0 0.43417086966771939 -0.4142394358339746 0 0.45908884559838697 -0.4099521308587713 0 0.45467426594262589 -0.39521188473519148 0 0.43417086966771939 -0.4142394358339746 0 0.45908884559838697 -0.4099521308587713 0 0.45990078427669051 -0.42540475101393432 0 0.43417086966771939 -0.4142394358339746 0 0.45908884559838697 -0.4099521308587713 0 0.4704338497993783 -0.41694807782741578 0 0.47439614163489302 -0.40149874905273619 0 0.45908884559838697 -0.4099521308587713 0 0.45990078427669051 -0.42540475101393432 0 0.4704338497993783 -0.41694807782741578 0 0.46636276527504178 -0.44390724356277961 0 0.45990078427669051 -0.42540475101393432 0 0.47318084419889139 -0.42850756990556271 0 0.46636276527504178 -0.44390724356277961 0 0.4483877734748814 -0.44197998776082847 0 0.45990078427669051 -0.42540475101393432 0 0.45990078427669051 -0.42540475101393432 0 0.47318084419889139 -0.42850756990556271 0 0.4704338497993783 -0.41694807782741578 0 0.48318266282615557 -0.447825774798353 0 0.47318084419889139 -0.42850756990556271 0 0.48466847495271581 -0.42114831039077238 0 0.47318084419889139 -0.42850756990556271 0 0.48466847495271581 -0.42114831039077238 0 0.4704338497993783 -0.41694807782741578 0 0.48318266282615557 -0.447825774798353 0 0.5 -0.42389924258499689 0 0.48466847495271581 -0.42114831039077238 0 0.5 -0.42389924258499689 0 0.48466847495271581 -0.42114831039077238 0 0.47439614163489302 -0.40149874905273619 0 0.48466847495271581 -0.42114831039077238 0 0.4704338497993783 -0.41694807782741578 0 0.47439614163489302 -0.40149874905273619 0 0.48466847495271581 -0.42114831039077238 0 0.47439614163489302 -0.40149874905273619 0 0.5 -0.36758037777344837 0 0.5 -0.42389924258499689 0 0.48604954469193279 -0.37844502632510468 0 0.5 -0.42389924258499689 0 0.47439614163489302 -0.40149874905273619 0 0.48604954469193279 -0.37844502632510468 0 0.47439614163489302 -0.40149874905273619 0 0.46412380831707017 -0.38184918771470011 0 0.47439614163489302 -0.40149874905273619 0 0.48604954469193279 -0.37844502632510468 0 0.4743441013199915 -0.38162140541399142 0 0.46995050984559011 -0.37032232635088441 0 0.48604954469193279 -0.37844502632510468 0 0.4743441013199915 -0.38162140541399142 0 0.47439614163489302 -0.40149874905273619 0 0.4743441013199915 -0.38162140541399142 0 0.46412380831707017 -0.38184918771470011 0 0.46995050984559011 -0.37032232635088441 0 0.4743441013199915 -0.38162140541399142 0 0.46412380831707017 -0.38184918771470011 0 0.46412380831707017 -0.38184918771470011 0 0.45467426594262589 -0.39521188473519148 0 0.4472870117889125 -0.37875399151884931 0 0.47439614163489302 -0.40149874905273619 0 0.46412380831707017 -0.38184918771470011 0 0.45467426594262589 -0.39521188473519148 0 0.45908884559838697 -0.4099521308587713 0 0.47439614163489302 -0.40149874905273619 0 0.45467426594262589 -0.39521188473519148 0 0.45467426594262589 -0.39521188473519148 0 0.43417086966771939 -0.4142394358339746 0 0.45467426594262589 -0.39521188473519148 0 0.43860166399649619 -0.39330740540180908 0 0.43417086966771939 -0.4142394358339746 0 0.43697648056532568 -0.3687818640914467 0 0.4472870117889125 -0.37875399151884931 0 0.43100330124851471 -0.38110591502268909 0 0.45467426594262589 -0.39521188473519148 0 0.43860166399649619 -0.39330740540180908 0 0.4472870117889125 -0.37875399151884931 0 0.43860166399649619 -0.39330740540180908 0 0.4472870117889125 -0.37875399151884931 0 0.43100330124851471 -0.38110591502268909 0 0.42291534142767878 -0.36701634375762698 0 0.43100330124851471 -0.38110591502268909 0 0.41775682987818757 -0.38267672979367467 0 0.43100330124851471 -0.38110591502268909 0 0.42343910005510788 -0.3963554007066793 0 0.41775682987818757 -0.38267672979367467 0 0.43860166399649619 -0.39330740540180908 0 0.43100330124851471 -0.38110591502268909 0 0.42343910005510788 -0.3963554007066793 0 0.43860166399649619 -0.39330740540180908 0 0.42343910005510788 -0.3963554007066793 0 0.43417086966771939 -0.4142394358339746 0 0.42343910005510788 -0.3963554007066793 0 0.41775682987818757 -0.38267672979367467 0 0.40599805023732438 -0.39391640016167728 0 0.42343910005510788 -0.3963554007066793 0 0.40599805023732438 -0.39391640016167728 0 0.4142292277311701 -0.41130943370211021 0 0.40599805023732438 -0.39391640016167728 0 0.40040462240191133 -0.40874745038516241 0 0.4142292277311701 -0.41130943370211021 0 0.40542835642231229 -0.37498958931970072 0 0.41775682987818757 -0.38267672979367467 0 0.40599805023732438 -0.39391640016167728 0 0.40542835642231229 -0.37498958931970072 0 0.38844617493321942 -0.38155813363525448 0 0.40599805023732438 -0.39391640016167728 0 0.38844617493321942 -0.38155813363525448 0 0.40599805023732438 -0.39391640016167728 0 0.38844617493321942 -0.38155813363525448 0 0.37089429962911441 -0.36919986710883163 0 0.38844617493321942 -0.38155813363525448 0 0.37361258768617728 -0.37903117907426792 0 0.36954808338506201 -0.38830078231272758 0 0.38844617493321942 -0.38155813363525448 0 0.37361258768617728 -0.37903117907426792 0 0.37089429962911441 -0.36919986710883163 0 0.38844617493321942 -0.38155813363525448 0 0.38577324464505908 -0.4031221745810149 0 0.36954808338506201 -0.38830078231272758 0 0.38577324464505908 -0.4031221745810149 0 0.40599805023732438 -0.39391640016167728 0 0.40040462240191133 -0.40874745038516241 0 0.38844617493321942 -0.38155813363525448 0 0.38577324464505908 -0.4031221745810149 0 0.40599805023732438 -0.39391640016167728 0 0.40040462240191133 -0.40874745038516241 0 0.40169160136650861 -0.42327516735642551 0 0.4142292277311701 -0.41130943370211021 0 0.40040462240191133 -0.40874745038516241 0 0.38824995310970511 -0.41690288556773569 0 0.40169160136650861 -0.42327516735642551 0 0.38577324464505908 -0.4031221745810149 0 0.40040462240191133 -0.40874745038516241 0 0.38824995310970511 -0.41690288556773569 0 0.38577324464505908 -0.4031221745810149 0 0.38824995310970511 -0.41690288556773569 0 0.37581116524379038 -0.41612502244408212 0 0.38577324464505908 -0.4031221745810149 0 0.37581116524379038 -0.41612502244408212 0 0.36562088408747911 -0.40548055700314428 0 0.38824995310970511 -0.41690288556773569 0 0.37581116524379038 -0.41612502244408212 0 0.37756913189125579 -0.43324461307199352 0 0.37756913189125579 -0.43324461307199352 0 0.40169160136650861 -0.42327516735642551 0 0.38824995310970511 -0.41690288556773569 0 0.37756913189125579 -0.43324461307199352 0 0.40169160136650861 -0.42327516735642551 0 0.37756913189125579 -0.43324461307199352 0 0.39303317105314378 -0.43649345185809452 0 0.40169160136650861 -0.42327516735642551 0 0.39303317105314378 -0.43649345185809452 0 0.40169160136650861 -0.42327516735642551 0 0.41366747339281268 -0.43326698693275773 0 0.40169160136650861 -0.42327516735642551 0 0.41366747339281268 -0.43326698693275773 0 0.4142292277311701 -0.41130943370211021 0 0.41366747339281268 -0.43326698693275773 0 0.4142292277311701 -0.41130943370211021 0 0.43417086966771939 -0.4142394358339746 0 0.42343910005510788 -0.3963554007066793 0 0.4142292277311701 -0.41130943370211021 0 0.43417086966771939 -0.4142394358339746 0 0.41366747339281268 -0.43326698693275773 0 0.43417086966771939 -0.4142394358339746 0 0.41366747339281268 -0.43326698693275773 0 0.43417086966771939 -0.4142394358339746 0 0.42732889071596991 -0.44468440502451489 0 0.4483877734748814 -0.44197998776082847 0 0.43417086966771939 -0.4142394358339746 0 0.42732889071596991 -0.44468440502451489 0 0.4483877734748814 -0.44197998776082847 0 0.42732889071596991 -0.44468440502451489 0 0.43573126139403512 -0.46570443414131962 0 0.42732889071596991 -0.44468440502451489 0 0.43573126139403512 -0.46570443414131962 0 0.41761568651334641 -0.46297164911390082 0 0.41761568651334641 -0.46297164911390082 0 0.40954718171000037 -0.45073158692849202 0 0.3985856977619518 -0.47498826853818538 0 0.41366747339281268 -0.43326698693275773 0 0.42732889071596991 -0.44468440502451489 0 0.40954718171000037 -0.45073158692849202 0 0.42732889071596991 -0.44468440502451489 0 0.41761568651334641 -0.46297164911390082 0 0.40954718171000037 -0.45073158692849202 0 0.41366747339281268 -0.43326698693275773 0 0.39316407711790619 -0.45229453803154068 0 0.39303317105314378 -0.43649345185809452 0 0.41366747339281268 -0.43326698693275773 0 0.39316407711790619 -0.45229453803154068 0 0.41366747339281268 -0.43326698693275773 0 0.40954718171000037 -0.45073158692849202 0 0.39316407711790619 -0.45229453803154068 0 0.39303317105314378 -0.43649345185809452 0 0.39316407711790619 -0.45229453803154068 0 0.37343782116561769 -0.45034207485875122 0 0.37756913189125579 -0.43324461307199352 0 0.39303317105314378 -0.43649345185809452 0 0.37343782116561769 -0.45034207485875122 0 0.39316407711790619 -0.45229453803154068 0 0.37266068084299969 -0.47132208913032381 0 0.37343782116561769 -0.45034207485875122 0 0.39316407711790619 -0.45229453803154068 0 0.37266068084299969 -0.47132208913032381 0 0.39316407711790619 -0.45229453803154068 0 0.3985856977619518 -0.47498826853818538 0 0.37266068084299969 -0.47132208913032381 0 0.40954718171000037 -0.45073158692849202 0 0.39316407711790619 -0.45229453803154068 0 0.3985856977619518 -0.47498826853818538 0 0.3985856977619518 -0.47498826853818538 0 0.3830324132307823 -0.48508475657044331 0 0.37266068084299969 -0.47132208913032381 0 0.3830324132307823 -0.48508475657044331 0 0.37055460436887622 -0.49517482011455333 0 0.37266068084299969 -0.47132208913032381 0 0.3889519241696594 -0.50000000000000022 0 0.37055460436887622 -0.49517482011455333 0 0.3889519241696594 -0.50000000000000022 0 0.3830324132307823 -0.48508475657044331 0 0.37055460436887622 -0.49517482011455333 0 0.3985856977619518 -0.47498826853818538 0 0.3889519241696594 -0.50000000000000022 0 0.3830324132307823 -0.48508475657044331 0 0.3985856977619518 -0.47498826853818538 0 0.3889519241696594 -0.50000000000000022 0 0.40871566417941357 -0.50000000000000044 0 0.46212791753207871 -0.5 0 0.40871566417941357 -0.50000000000000044 0 0.43077174029637089 -0.48983076078200272 0 0.40871566417941357 -0.50000000000000044 0 0.41682200916418333 -0.4789296403088662 0 0.43077174029637089 -0.48983076078200272 0 0.3985856977619518 -0.47498826853818538 0 0.40871566417941357 -0.50000000000000044 0 0.41682200916418333 -0.4789296403088662 0 0.40871566417941357 -0.50000000000000044 0 0.43077174029637089 -0.48983076078200272 0 0.41761568651334641 -0.46297164911390082 0 0.3985856977619518 -0.47498826853818538 0 0.41682200916418333 -0.4789296403088662 0 0.43573126139403512 -0.46570443414131962 0 0.41682200916418333 -0.4789296403088662 0 0.43077174029637089 -0.48983076078200272 0 0.43573126139403512 -0.46570443414131962 0 0.41761568651334641 -0.46297164911390082 0 0.41682200916418333 -0.4789296403088662 0 0.31301969678354657 -0.48778808249877897 0 0.32299894720503541 -0.48270210110597139 0 0.33961841598400622 -0.49748875405982301 0 0.31301969678354657 -0.48778808249877897 0 0.31903586288538288 -0.5 0 0.33961841598400622 -0.49748875405982301 0 0.31301969678354657 -0.48778808249877897 0 0.33961841598400622 -0.49748875405982301 0 0.32299894720503541 -0.48270210110597139 0 0.35215728456809298 -0.4903496402291066 0 0.35075320367239832 -0.46548369827299352 0 0.31903586288538288 -0.5 0 0.33961841598400622 -0.49748875405982301 0 0.341758408246564 -0.49999999999999473 0 0.32299894720503541 -0.48270210110597139 0 0.33961841598400622 -0.49748875405982301 0 0.35215728456809298 -0.4903496402291066 0 0.32299894720503541 -0.48270210110597139 0 0.35215728456809298 -0.4903496402291066 0 0.33961841598400622 -0.49748875405982301 0 0.341758408246564 -0.49999999999999473 0 0.35215728456809298 -0.4903496402291066 0 0.341758408246564 -0.49999999999999473 0 0.35215728456809298 -0.4903496402291066 0 0.341758408246564 -0.49999999999999473 0 0.35215728456809298 -0.4903496402291066 0 0.3653551662081117 -0.5 0 0.35215728456809298 -0.4903496402291066 0 0.37055460436887622 -0.49517482011455333 0 0.37266068084299969 -0.47132208913032381 0 0.35215728456809298 -0.4903496402291066 0 0.37055460436887622 -0.49517482011455333 0 0.35215728456809298 -0.4903496402291066 0 0.3653551662081117 -0.5 0 0.37055460436887622 -0.49517482011455333 0 0.3889519241696594 -0.50000000000000022 0 0.3653551662081117 -0.5 0 0.37055460436887622 -0.49517482011455333 0 0.35215728456809298 -0.4903496402291066 0 0.37266068084299969 -0.47132208913032381 0 0.35215728456809298 -0.4903496402291066 0 0.37266068084299969 -0.47132208913032381 0 0.35075320367239832 -0.46548369827299352 0 0.35075320367239832 -0.46548369827299352 0 0.35344666241600298 -0.44321405878756148 0 0.32932419294075022 -0.45318350450312961 0 0.37266068084299969 -0.47132208913032381 0 0.35075320367239832 -0.46548369827299352 0 0.37343782116561769 -0.45034207485875122 0 0.37756913189125579 -0.43324461307199352 0 0.37343782116561769 -0.45034207485875122 0 0.35344666241600298 -0.44321405878756148 0 0.37756913189125579 -0.43324461307199352 0 0.35344666241600298 -0.44321405878756148 0 0.35075320367239832 -0.46548369827299352 0 0.37343782116561769 -0.45034207485875122 0 0.35344666241600298 -0.44321405878756148 0 0.35344666241600298 -0.44321405878756148 0 0.32932419294075022 -0.45318350450312961 0 0.33320196334537427 -0.42584573847643148 0 0.35344666241600298 -0.44321405878756148 0 0.32932419294075022 -0.45318350450312961 0 0.32299894720503541 -0.48270210110597139 0 0.35075320367239832 -0.46548369827299352 0 0.32932419294075022 -0.45318350450312961 0 0.32299894720503541 -0.48270210110597139 0 0.32932419294075022 -0.45318350450312961 0 0.31107835377490167 -0.46330126686378242 0 0.32932419294075022 -0.45318350450312961 0 0.31554742987573159 -0.43753219422533629 0 0.33320196334537427 -0.42584573847643148 0 0.32932419294075022 -0.45318350450312961 0 0.31554742987573159 -0.43753219422533629 0 0.31107835377490167 -0.46330126686378242 0 0.31554742987573159 -0.43753219422533629 0 0.31862340225286429 -0.41594576711444831 0 0.33320196334537427 -0.42584573847643148 0 0.31862340225286429 -0.41594576711444831 0 0.33460187290306148 -0.41037099653195258 0 0.3187838704750765 -0.39508235714022688 0 0.31862340225286429 -0.41594576711444831 0 0.33460187290306148 -0.41037099653195258 0 0.33320196334537427 -0.42584573847643148 0 0.33460187290306148 -0.41037099653195258 0 0.33320196334537427 -0.42584573847643148 0 0.33460187290306148 -0.41037099653195258 0 0.34605744626676438 -0.42148135999075997 0 0.34872774093321002 -0.40748290903018258 0 0.33460187290306148 -0.41037099653195258 0 0.33320196334537427 -0.42584573847643148 0 0.34605744626676438 -0.42148135999075997 0 0.35344666241600298 -0.44321405878756148 0 0.36030899173617309 -0.42049309712767141 0 0.34605744626676438 -0.42148135999075997 0 0.35344666241600298 -0.44321405878756148 0 0.33320196334537427 -0.42584573847643148 0 0.34605744626676438 -0.42148135999075997 0 0.37756913189125579 -0.43324461307199352 0 0.35344666241600298 -0.44321405878756148 0 0.36030899173617309 -0.42049309712767141 0 0.37581116524379038 -0.41612502244408212 0 0.37756913189125579 -0.43324461307199352 0 0.36030899173617309 -0.42049309712767141 0 0.37581116524379038 -0.41612502244408212 0 0.36030899173617309 -0.42049309712767141 0 0.36562088408747911 -0.40548055700314428 0 0.36030899173617309 -0.42049309712767141 0 0.34872774093321002 -0.40748290903018258 0 0.36562088408747911 -0.40548055700314428 0 0.36030899173617309 -0.42049309712767141 0 0.34605744626676438 -0.42148135999075997 0 0.34872774093321002 -0.40748290903018258 0 0.35272628690878299 -0.3947154851089239 0 0.33600178246074858 -0.39489625458747363 0 0.34872774093321002 -0.40748290903018258 0 0.35272628690878299 -0.3947154851089239 0 0.36562088408747911 -0.40548055700314428 0 0.35272628690878299 -0.3947154851089239 0 0.34479993810119458 -0.3839185049101792 0 0.33600178246074858 -0.39489625458747363 0 0.34872774093321002 -0.40748290903018258 0 0.35272628690878299 -0.3947154851089239 0 0.33600178246074858 -0.39489625458747363 0 0.35272628690878299 -0.3947154851089239 0 0.36562088408747911 -0.40548055700314428 0 0.36954808338506201 -0.38830078231272758 0 0.38577324464505908 -0.4031221745810149 0 0.36562088408747911 -0.40548055700314428 0 0.36954808338506201 -0.38830078231272758 0 0.35272628690878299 -0.3947154851089239 0 0.36954808338506201 -0.38830078231272758 0 0.3563997624415931 -0.37946807423635831 0 0.37361258768617728 -0.37903117907426792 0 0.3655617927973136 -0.37706593324025778 0 0.37089429962911441 -0.36919986710883163 0 0.37361258768617728 -0.37903117907426792 0 0.36954808338506201 -0.38830078231272758 0 0.3655617927973136 -0.37706593324025778 0 0.3655617927973136 -0.37706593324025778 0 0.3563997624415931 -0.37946807423635831 0 0.35857216650123641 -0.36962189621405622 0 0.36954808338506201 -0.38830078231272758 0 0.3655617927973136 -0.37706593324025778 0 0.3563997624415931 -0.37946807423635831 0 0.3563997624415931 -0.37946807423635831 0 0.34479993810119458 -0.3839185049101792 0 0.34854783712210619 -0.36801311865490799 0 0.35272628690878299 -0.3947154851089239 0 0.3563997624415931 -0.37946807423635831 0 0.34479993810119458 -0.3839185049101792 0 0.33600178246074858 -0.39489625458747363 0 0.32728227663748438 -0.3847614115003512 0 0.3380755244104181 -0.37197290117913662 0 0.34479993810119458 -0.3839185049101792 0 0.33600178246074858 -0.39489625458747363 0 0.3380755244104181 -0.37197290117913662 0 0.33600178246074858 -0.39489625458747363 0 0.3380755244104181 -0.37197290117913662 0 0.33460187290306148 -0.41037099653195258 0 0.33600178246074858 -0.39489625458747363 0 0.3187838704750765 -0.39508235714022688 0 0.33460187290306148 -0.41037099653195258 0 0.34872774093321002 -0.40748290903018258 0 0.33600178246074858 -0.39489625458747363 0 0.33460187290306148 -0.41037099653195258 0 0.33600178246074858 -0.39489625458747363 0 0.33600178246074858 -0.39489625458747363 0 0.3187838704750765 -0.39508235714022688 0 0.31862340225286429 -0.41594576711444831 0 0.3187838704750765 -0.39508235714022688 0 0.30949101837273502 -0.40704010276764713 0 0.33600178246074858 -0.39489625458747363 0 0.3187838704750765 -0.39508235714022688 0 0.32728227663748438 -0.3847614115003512 0 0.3187838704750765 -0.39508235714022688 0 0.30307180801325889 -0.37971629892630832 0 0.31884267442699737 -0.37495309146445438 0 0.3187838704750765 -0.39508235714022688 0 0.32728227663748438 -0.3847614115003512 0 0.31884267442699737 -0.37495309146445438 0 0.32728227663748438 -0.3847614115003512 0 0.3380755244104181 -0.37197290117913662 0 0.31884267442699737 -0.37495309146445438 0 0.3187838704750765 -0.39508235714022688 0 0.30307180801325889 -0.37971629892630832 0 0.30156595848940432 -0.39526845969298091 0 0.30307180801325889 -0.37971629892630832 0 0.30156595848940432 -0.39526845969298091 0 0.30307180801325889 -0.37971629892630832 0 0.30156595848940432 -0.39526845969298091 0 0.28818647727522401 -0.38292650416746382 0 0.3187838704750765 -0.39508235714022688 0 0.30156595848940432 -0.39526845969298091 0 0.30949101837273502 -0.40704010276764713 0 0.3187838704750765 -0.39508235714022688 0 0.30156595848940432 -0.39526845969298091 0 0.30156595848940432 -0.39526845969298091 0 0.27995589795927223 -0.39550203548505158 0 0.30156595848940432 -0.39526845969298091 0 0.28818647727522401 -0.38292650416746382 0 0.27995589795927223 -0.39550203548505158 0 0.30156595848940432 -0.39526845969298091 0 0.27995589795927223 -0.39550203548505158 0 0.28775829261861863 -0.40830077198102188 0 0.30307180801325889 -0.37971629892630832 0 0.28818647727522401 -0.38292650416746382 0 0.29363117049904669 -0.3716579995045084 0 0.28818647727522401 -0.38292650416746382 0 0.29363117049904669 -0.3716579995045084 0 0.27948248906290629 -0.37222969951659762 0 0.28818647727522401 -0.38292650416746382 0 0.26956336187312679 -0.38503240133824179 0 0.27995589795927223 -0.39550203548505158 0 0.28818647727522401 -0.38292650416746382 0 0.26956336187312679 -0.38503240133824179 0 0.27948248906290629 -0.37222969951659762 0 0.26956336187312679 -0.38503240133824179 0 0.26603579784302211 -0.37167386426528642 0 0.27948248906290629 -0.37222969951659762 0 0.26956336187312679 -0.38503240133824179 0 0.25076540773007611 -0.38084438940180371 0 0.25834583742914008 -0.39573561127712148 0 0.26956336187312679 -0.38503240133824179 0 0.25076540773007611 -0.38084438940180371 0 0.26603579784302211 -0.37167386426528642 0 0.25076540773007611 -0.38084438940180371 0 0.25834583742914008 -0.39573561127712148 0 0.25078974985290448 -0.40905414133907242 0 0.25834583742914008 -0.39573561127712148 0 0.268823225558251 -0.40873240114940163 0 0.25078974985290448 -0.40905414133907242 0 0.25076540773007611 -0.38084438940180371 0 0.25078974985290448 -0.40905414133907242 0 0.25834583742914008 -0.39573561127712148 0 0.27995589795927223 -0.39550203548505158 0 0.268823225558251 -0.40873240114940163 0 0.26956336187312679 -0.38503240133824179 0 0.25834583742914008 -0.39573561127712148 0 0.27995589795927223 -0.39550203548505158 0 0.27995589795927223 -0.39550203548505158 0 0.268823225558251 -0.40873240114940163 0 0.28775829261861863 -0.40830077198102188 0 0.25834583742914008 -0.39573561127712148 0 0.27995589795927223 -0.39550203548505158 0 0.268823225558251 -0.40873240114940163 0 0.27440618678065382 -0.42322507885573929 0 0.28775829261861863 -0.40830077198102188 0 0.268823225558251 -0.40873240114940163 0 0.26087085850535202 -0.42352931423279438 0 0.27440618678065382 -0.42322507885573929 0 0.268823225558251 -0.40873240114940163 0 0.25078974985290448 -0.40905414133907242 0 0.26087085850535202 -0.42352931423279438 0 0.2508140919757329 -0.43726389327634119 0 0.26087085850535202 -0.42352931423279438 0 0.26416654129872019 -0.44398950642511958 0 0.25078974985290448 -0.40905414133907242 0 0.2508140919757329 -0.43726389327634119 0 0.26087085850535202 -0.42352931423279438 0 0.25078974985290448 -0.40905414133907242 0 0.2508140919757329 -0.43726389327634119 0 0.26087085850535202 -0.42352931423279438 0 0.27440618678065382 -0.42322507885573929 0 0.26416654129872019 -0.44398950642511958 0 0.27440618678065382 -0.42322507885573929 0 0.28231666757328772 -0.43783829353548442 0 0.26416654129872019 -0.44398950642511958 0 0.29899084227359468 -0.42186382712293269 0 0.29641572605778532 -0.4484591945528848 0 0.28231666757328772 -0.43783829353548442 0 0.27440618678065382 -0.42322507885573929 0 0.29899084227359468 -0.42186382712293269 0 0.28231666757328772 -0.43783829353548442 0 0.27440618678065382 -0.42322507885573929 0 0.28775829261861863 -0.40830077198102188 0 0.29899084227359468 -0.42186382712293269 0 0.30156595848940432 -0.39526845969298091 0 0.28775829261861863 -0.40830077198102188 0 0.29899084227359468 -0.42186382712293269 0 0.30156595848940432 -0.39526845969298091 0 0.29899084227359468 -0.42186382712293269 0 0.30949101837273502 -0.40704010276764713 0 0.30156595848940432 -0.39526845969298091 0 0.29899084227359468 -0.42186382712293269 0 0.31862340225286429 -0.41594576711444831 0 0.29899084227359468 -0.42186382712293269 0 0.30949101837273502 -0.40704010276764713 0 0.31554742987573159 -0.43753219422533629 0 0.31862340225286429 -0.41594576711444831 0 0.29899084227359468 -0.42186382712293269 0 0.31554742987573159 -0.43753219422533629 0 0.29899084227359468 -0.42186382712293269 0 0.29641572605778532 -0.4484591945528848 0 0.29899084227359468 -0.42186382712293269 0 0.29641572605778532 -0.4484591945528848 0 0.31554742987573159 -0.43753219422533629 0 0.31107835377490167 -0.46330126686378242 0 0.29641572605778532 -0.4484591945528848 0 0.31107835377490167 -0.46330126686378242 0 0.29641572605778532 -0.4484591945528848 0 0.29384060984197752 -0.47505456198283702 0 0.29641572605778532 -0.4484591945528848 0 0.27760404145568468 -0.45165386072074559 0 0.27680345263786038 -0.47058612043065978 0 0.29641572605778532 -0.4484591945528848 0 0.29384060984197752 -0.47505456198283702 0 0.29641572605778532 -0.4484591945528848 0 0.27680345263786038 -0.47058612043065978 0 0.29384060984197752 -0.47505456198283702 0 0.29641572605778532 -0.4484591945528848 0 0.28231666757328772 -0.43783829353548442 0 0.27760404145568468 -0.45165386072074559 0 0.28231666757328772 -0.43783829353548442 0 0.27760404145568468 -0.45165386072074559 0 0.26416654129872019 -0.44398950642511958 0 0.27760404145568468 -0.45165386072074559 0 0.26416654129872019 -0.44398950642511958 0 0.26875794117976942 -0.4606373063762888 0 0.2508140919757329 -0.43726389327634119 0 0.26416654129872019 -0.44398950642511958 0 0.25780952115643729 -0.45844810224608401 0 0.2508140919757329 -0.43726389327634119 0 0.2508384340985611 -0.4654736452136099 0 0.2508140919757329 -0.43726389327634119 0 0.2508384340985611 -0.4654736452136099 0 0.25780952115643729 -0.45844810224608401 0 0.26416654129872019 -0.44398950642511958 0 0.25780952115643729 -0.45844810224608401 0 0.26875794117976942 -0.4606373063762888 0 0.2508384340985611 -0.4654736452136099 0 0.25780952115643729 -0.45844810224608401 0 0.25982225838262768 -0.4683867393766909 0 0.2508384340985611 -0.4654736452136099 0 0.25780952115643729 -0.45844810224608401 0 0.25780952115643729 -0.45844810224608401 0 0.25982225838262768 -0.4683867393766909 0 0.26875794117976942 -0.4606373063762888 0 0.25982225838262768 -0.4683867393766909 0 0.26875794117976942 -0.4606373063762888 0 0.27680345263786038 -0.47058612043065978 0 0.27760404145568468 -0.45165386072074559 0 0.26875794117976942 -0.4606373063762888 0 0.27680345263786038 -0.47058612043065978 0 0.25982225838262768 -0.4683867393766909 0 0.27680345263786038 -0.47058612043065978 0 0.28642097758308721 -0.47808741093773488 0 0.25982225838262768 -0.4683867393766909 0 0.27413866605410009 -0.47995604806268932 0 0.28642097758308721 -0.47808741093773488 0 0.25982225838262768 -0.4683867393766909 0 0.27413866605410009 -0.47995604806268932 0 0.26898521368714151 -0.48425516629595211 0 0.25982225838262768 -0.4683867393766909 0 0.28642097758308721 -0.47808741093773488 0 0.27413866605410009 -0.47995604806268932 0 0.28132621456354412 -0.48909487564037918 0 0.28642097758308721 -0.47808741093773488 0 0.2508384340985611 -0.4654736452136099 0 0.25085333045020058 -0.48273682260679712 0 0.2508384340985611 -0.4654736452136099 0 0.25820520010536052 -0.47821460744292521 0 0.25085333045020058 -0.48273682260679712 0 0.25982225838262768 -0.4683867393766909 0 0.26898521368714151 -0.48425516629595211 0 0.25820520010536052 -0.47821460744292521 0 0.26898521368714151 -0.48425516629595211 0 0.25820520010536052 -0.47821460744292521 0 0.26052676390827167 -0.49022066372157641 0 0.25820520010536052 -0.47821460744292521 0 0.25085333045020058 -0.48273682260679712 0 0.26052676390827167 -0.49022066372157641 0 0.2508384340985611 -0.4654736452136099 0 0.25982225838262768 -0.4683867393766909 0 0.25820520010536052 -0.47821460744292521 0 0.25085333045020058 -0.48273682260679712 0 0.25086822680183979 -0.49999999999998412 0 0.25086822680183979 -0.49999999999998412 0 0.26052676390827167 -0.49022066372157641 0 0.27359077216302091 -0.5 0 0.25085333045020058 -0.48273682260679712 0 0.25086822680183979 -0.49999999999998412 0 0.26052676390827167 -0.49022066372157641 0 0.26898521368714151 -0.48425516629595211 0 0.27359077216302091 -0.5 0 0.28132621456354412 -0.48909487564037918 0 0.26898521368714151 -0.48425516629595211 0 0.26052676390827167 -0.49022066372157641 0 0.27359077216302091 -0.5 0 0.27413866605410009 -0.47995604806268932 0 0.26898521368714151 -0.48425516629595211 0 0.28132621456354412 -0.48909487564037918 0 0.27359077216302091 -0.5 0 0.29631331752420192 -0.5 0 0.28132621456354412 -0.48909487564037918 0 0.29631331752420192 -0.5 0 0.29174870401683478 -0.48967665241411529 0 0.30130771175861071 -0.49111042917012587 0 0.29631331752420192 -0.5 0 0.29174870401683478 -0.48967665241411529 0 0.28132621456354412 -0.48909487564037918 0 0.29174870401683478 -0.48967665241411529 0 0.28642097758308721 -0.47808741093773488 0 0.30130771175861071 -0.49111042917012587 0 0.29174870401683478 -0.48967665241411529 0 0.28132621456354412 -0.48909487564037918 0 0.28642097758308721 -0.47808741093773488 0 0.27680345263786038 -0.47058612043065978 0 0.29384060984197752 -0.47505456198283702 0 0.27680345263786038 -0.47058612043065978 0 0.28642097758308721 -0.47808741093773488 0 0.29384060984197752 -0.47505456198283702 0 0.28642097758308721 -0.47808741093773488 0 0.29384060984197752 -0.47505456198283702 0 0.29348512430679741 -0.4787259568371971 0 0.29384060984197752 -0.47505456198283702 0 0.29348512430679741 -0.4787259568371971 0 0.31301969678354657 -0.48778808249877897 0 0.28642097758308721 -0.47808741093773488 0 0.29348512430679741 -0.4787259568371971 0 0.31301969678354657 -0.48778808249877897 0 0.28642097758308721 -0.47808741093773488 0 0.31301969678354657 -0.48778808249877897 0 0.29384060984197752 -0.47505456198283702 0 0.29348512430679741 -0.4787259568371971 0 0.31301969678354657 -0.48778808249877897 0 0.32299894720503541 -0.48270210110597139 0 0.29384060984197752 -0.47505456198283702 0 0.32299894720503541 -0.48270210110597139 0 0.29384060984197752 -0.47505456198283702 0 0.32299894720503541 -0.48270210110597139 0 0.31107835377490167 -0.46330126686378242 0 0.29384060984197752 -0.47505456198283702 0 0.31301969678354657 -0.48778808249877897 0 0.28642097758308721 -0.47808741093773488 0 0.30130771175861071 -0.49111042917012587 0 0.31903586288538288 -0.5 0 0.29631331752420192 -0.5 0 0.30130771175861071 -0.49111042917012587 0 0.31301969678354657 -0.48778808249877897 0 0.31903586288538288 -0.5 0 0.30130771175861071 -0.49111042917012587 0 0.33648706041317189 -0.28610540419655878 0 0.33542854808399941 -0.30052727829292969 0 0.32035972959832221 -0.298752924556413 0 0.33648706041317189 -0.28610540419655878 0 0.33542854808399941 -0.30052727829292969 0 0.34832008127649039 -0.29715093959302841 0 0.33542854808399941 -0.30052727829292969 0 0.34463862801558809 -0.30513670533693471 0 0.34832008127649039 -0.29715093959302841 0 0.33542854808399941 -0.30052727829292969 0 0.34463862801558809 -0.30513670533693471 0 0.34043392835471731 -0.31281042935954789 0 0.33542854808399941 -0.30052727829292969 0 0.34043392835471731 -0.31281042935954789 0 0.32761534536133441 -0.31291080157412871 0 0.33542854808399941 -0.30052727829292969 0 0.32035972959832221 -0.298752924556413 0 0.32761534536133441 -0.31291080157412871 0 0.32035972959832221 -0.298752924556413 0 0.32761534536133441 -0.31291080157412871 0 0.31145556049235351 -0.31463971893757009 0 0.33648706041317189 -0.28610540419655878 0 0.32035972959832221 -0.298752924556413 0 0.31444321122017538 -0.27972145302063012 0 0.33648706041317189 -0.28610540419655878 0 0.31444321122017538 -0.27972145302063012 0 0.33161885438109728 -0.27115264579400689 0 0.31444321122017538 -0.27972145302063012 0 0.32016133568510191 -0.26369572226005389 0 0.30547036446903408 -0.26397126389557468 0 0.31444321122017538 -0.27972145302063012 0 0.32016133568510191 -0.26369572226005389 0 0.33161885438109728 -0.27115264579400689 0 0.31911582008033079 -0.25036718024175703 0 0.32016133568510191 -0.26369572226005389 0 0.30547036446903408 -0.26397126389557468 0 0.31911582008033079 -0.25036718024175703 0 0.32016133568510191 -0.26369572226005389 0 0.33369468868185093 -0.25697909081922299 0 0.33369468868185093 -0.25697909081922299 0 0.34709596018757732 -0.27012117114210688 0 0.35006890825575798 -0.25285522346077249 0 0.32016133568510191 -0.26369572226005389 0 0.33369468868185093 -0.25697909081922299 0 0.33161885438109728 -0.27115264579400689 0 0.33648706041317189 -0.28610540419655878 0 0.33161885438109728 -0.27115264579400689 0 0.34709596018757732 -0.27012117114210688 0 0.33369468868185093 -0.25697909081922299 0 0.33161885438109728 -0.27115264579400689 0 0.34709596018757732 -0.27012117114210688 0 0.34709596018757732 -0.27012117114210688 0 0.36558648265439192 -0.2692586278840316 0 0.35625562778254549 -0.28369869841256962 0 0.33648706041317189 -0.28610540419655878 0 0.34709596018757732 -0.27012117114210688 0 0.35625562778254549 -0.28369869841256962 0 0.35006890825575798 -0.25285522346077249 0 0.36558648265439192 -0.2692586278840316 0 0.34709596018757732 -0.27012117114210688 0 0.35006890825575798 -0.25285522346077249 0 0.36558648265439192 -0.2692586278840316 0 0.36302422455619848 -0.25179289512644371 0 0.37333221333256178 -0.25922491662173119 0 0.36558648265439192 -0.2692586278840316 0 0.35006890825575798 -0.25285522346077249 0 0.36302422455619848 -0.25179289512644371 0 0.36558648265439192 -0.2692586278840316 0 0.37279783360010088 -0.24694817791151311 0 0.36302422455619848 -0.25179289512644371 0 0.37333221333256178 -0.25922491662173119 0 0.38110405705302619 -0.28566203230729009 0 0.36558648265439192 -0.2692586278840316 0 0.38110405705302619 -0.28566203230729009 0 0.36558648265439192 -0.2692586278840316 0 0.35625562778254549 -0.28369869841256962 0 0.37920891347832592 -0.27081580729214672 0 0.37333221333256178 -0.25922491662173119 0 0.36558648265439192 -0.2692586278840316 0 0.38110405705302619 -0.28566203230729009 0 0.37010967773042092 -0.29060938252364732 0 0.35625562778254549 -0.28369869841256962 0 0.38110405705302619 -0.28566203230729009 0 0.35625562778254549 -0.28369869841256962 0 0.3834984874274453 -0.28819315017313479 0 0.37010967773042092 -0.29060938252364732 0 0.37071752330638558 -0.30099965562461739 0 0.37010967773042092 -0.29060938252364732 0 0.35625562778254549 -0.28369869841256962 0 0.35897269308270219 -0.29449337610062398 0 0.37010967773042092 -0.29060938252364732 0 0.35897269308270219 -0.29449337610062398 0 0.37071752330638558 -0.30099965562461739 0 0.33648706041317189 -0.28610540419655878 0 0.35625562778254549 -0.28369869841256962 0 0.34832008127649039 -0.29715093959302841 0 0.35625562778254549 -0.28369869841256962 0 0.35897269308270219 -0.29449337610062398 0 0.34832008127649039 -0.29715093959302841 0 0.34463862801558809 -0.30513670533693471 0 0.34834896693847278 -0.31074350064249973 0 0.35441710556685829 -0.30565995819425612 0 0.34463862801558809 -0.30513670533693471 0 0.34834896693847278 -0.31074350064249973 0 0.34043392835471731 -0.31281042935954789 0 0.34834896693847278 -0.31074350064249973 0 0.35265641259895941 -0.31079239170535827 0 0.35196540470150378 -0.3139904241289847 0 0.34463862801558809 -0.30513670533693471 0 0.34832008127649039 -0.29715093959302841 0 0.35441710556685829 -0.30565995819425612 0 0.35897269308270219 -0.29449337610062398 0 0.34832008127649039 -0.29715093959302841 0 0.35441710556685829 -0.30565995819425612 0 0.35441710556685829 -0.30565995819425612 0 0.35589417318900263 -0.31277568385569299 0 0.35793655918532602 -0.31380616107609982 0 0.34834896693847278 -0.31074350064249973 0 0.35441710556685829 -0.30565995819425612 0 0.35265641259895941 -0.31079239170535827 0 0.35441710556685829 -0.30565995819425612 0 0.35265641259895941 -0.31079239170535827 0 0.35589417318900263 -0.31277568385569299 0 0.37071752330638558 -0.30099965562461739 0 0.35793655918532602 -0.31380616107609982 0 0.35897269308270219 -0.29449337610062398 0 0.35441710556685829 -0.30565995819425612 0 0.37071752330638558 -0.30099965562461739 0 0.37071752330638558 -0.30099965562461739 0 0.36751659827947292 -0.31863972930213141 0 0.35793655918532602 -0.31380616107609982 0 0.35441710556685829 -0.30565995819425612 0 0.37071752330638558 -0.30099965562461739 0 0.35793655918532602 -0.31380616107609982 0 0.38489543110289121 -0.31334024120813597 0 0.37071752330638558 -0.30099965562461739 0 0.36751659827947292 -0.31863972930213141 0 0.36751659827947292 -0.31863972930213141 0 0.35793655918532602 -0.31380616107609982 0 0.36751659827947292 -0.31863972930213141 0 0.35793655918532602 -0.31380616107609982 0 0.35732689243405291 -0.32174697047061562 0 0.36751659827947292 -0.31863972930213141 0 0.35732689243405291 -0.32174697047061562 0 0.36751659827947292 -0.31863972930213141 0 0.36502020017014158 -0.32966033639772863 0 0.35732689243405291 -0.32174697047061562 0 0.36502020017014158 -0.32966033639772863 0 0.3583930464242393 -0.32874297500849209 0 0.35732689243405291 -0.32174697047061562 0 0.36751659827947292 -0.31863972930213141 0 0.37365593632763128 -0.33170829163027798 0 0.36502020017014158 -0.32966033639772863 0 0.37365593632763128 -0.33170829163027798 0 0.36850223084285461 -0.34013334010310559 0 0.36502020017014158 -0.32966033639772863 0 0.38039313981998102 -0.34171499198339461 0 0.37365593632763128 -0.33170829163027798 0 0.36850223084285461 -0.34013334010310559 0 0.36850223084285461 -0.34013334010310559 0 0.35726076688370939 -0.33545605859219219 0 0.36063352175558938 -0.34744094915871709 0 0.36850223084285461 -0.34013334010310559 0 0.36502020017014158 -0.32966033639772863 0 0.35726076688370939 -0.33545605859219219 0 0.36502020017014158 -0.32966033639772863 0 0.3583930464242393 -0.32874297500849209 0 0.35726076688370939 -0.33545605859219219 0 0.3583930464242393 -0.32874297500849209 0 0.35726076688370939 -0.33545605859219219 0 0.35326713399978238 -0.32932416777090029 0 0.35726076688370939 -0.33545605859219219 0 0.35326713399978238 -0.32932416777090029 0 0.34887199749310388 -0.33408212611371751 0 0.35726076688370939 -0.33545605859219219 0 0.34995942557290799 -0.34259218614548981 0 0.34887199749310388 -0.33408212611371751 0 0.35726076688370939 -0.33545605859219219 0 0.34995942557290799 -0.34259218614548981 0 0.36063352175558938 -0.34744094915871709 0 0.34995942557290799 -0.34259218614548981 0 0.34014926636009962 -0.34904954777080072 0 0.34137083527447443 -0.33554620134835988 0 0.34995942557290799 -0.34259218614548981 0 0.34887199749310388 -0.33408212611371751 0 0.34137083527447443 -0.33554620134835988 0 0.35326713399978238 -0.32932416777090029 0 0.34887199749310388 -0.33408212611371751 0 0.34445390476416071 -0.32731575907744309 0 0.34887199749310388 -0.33408212611371751 0 0.34445390476416071 -0.32731575907744309 0 0.34137083527447443 -0.33554620134835988 0 0.34445390476416071 -0.32731575907744309 0 0.35793655918532602 -0.31380616107609982 0 0.34445390476416071 -0.32731575907744309 0 0.34828232143956722 -0.31855730025296519 0 0.34288369724591378 -0.32141345396954762 0 0.34828232143956722 -0.31855730025296519 0 0.34043392835471731 -0.31281042935954789 0 0.34288369724591378 -0.32141345396954762 0 0.34445390476416071 -0.32731575907744309 0 0.34828232143956722 -0.31855730025296519 0 0.35793655918532602 -0.31380616107609982 0 0.34834896693847278 -0.31074350064249973 0 0.34828232143956722 -0.31855730025296519 0 0.35196540470150378 -0.3139904241289847 0 0.34834896693847278 -0.31074350064249973 0 0.34828232143956722 -0.31855730025296519 0 0.34043392835471731 -0.31281042935954789 0 0.34828232143956722 -0.31855730025296519 0 0.35196540470150378 -0.3139904241289847 0 0.35793655918532602 -0.31380616107609982 0 0.35196540470150378 -0.3139904241289847 0 0.35589417318900263 -0.31277568385569299 0 0.35793655918532602 -0.31380616107609982 0 0.35265641259895941 -0.31079239170535827 0 0.35196540470150378 -0.3139904241289847 0 0.35589417318900263 -0.31277568385569299 0 0.35589417318900263 -0.31277568385569299 0 0.35793655918532602 -0.31380616107609982 0 0.35326713399978238 -0.32932416777090029 0 0.34445390476416071 -0.32731575907744309 0 0.35732689243405291 -0.32174697047061562 0 0.34445390476416071 -0.32731575907744309 0 0.35793655918532602 -0.31380616107609982 0 0.35732689243405291 -0.32174697047061562 0 0.3583930464242393 -0.32874297500849209 0 0.35326713399978238 -0.32932416777090029 0 0.35732689243405291 -0.32174697047061562 0 0.37089429962911441 -0.36919986710883163 0 0.35334242432500967 -0.35684160058240832 0 0.35857216650123641 -0.36962189621405622 0 0.37089429962911441 -0.36919986710883163 0 0.35334242432500967 -0.35684160058240832 0 0.37089429962911441 -0.36919986710883163 0 0.36758639431781559 -0.36525427681399519 0 0.35334242432500967 -0.35684160058240832 0 0.3655617927973136 -0.37706593324025778 0 0.37089429962911441 -0.36919986710883163 0 0.35857216650123641 -0.36962189621405622 0 0.37903455355624088 -0.36395301616228631 0 0.37251336221733938 -0.36448304034633711 0 0.37062182192688342 -0.35989094089845919 0 0.37903455355624088 -0.36395301616228631 0 0.37089429962911441 -0.36919986710883163 0 0.37251336221733938 -0.36448304034633711 0 0.36758639431781559 -0.36525427681399519 0 0.37062182192688342 -0.35989094089845919 0 0.36468572105177871 -0.35631075001656748 0 0.37089429962911441 -0.36919986710883163 0 0.36758639431781559 -0.36525427681399519 0 0.37251336221733938 -0.36448304034633711 0 0.36758639431781559 -0.36525427681399519 0 0.37251336221733938 -0.36448304034633711 0 0.37062182192688342 -0.35989094089845919 0 0.36758639431781559 -0.36525427681399519 0 0.35334242432500967 -0.35684160058240832 0 0.36758639431781559 -0.36525427681399519 0 0.36468572105177871 -0.35631075001656748 0 0.35334242432500967 -0.35684160058240832 0 0.36468572105177871 -0.35631075001656748 0 0.37175901252368798 -0.35282923564929708 0 0.36063352175558938 -0.34744094915871709 0 0.36468572105177871 -0.35631075001656748 0 0.36063352175558938 -0.34744094915871709 0 0.35334242432500967 -0.35684160058240832 0 0.37062182192688342 -0.35989094089845919 0 0.36468572105177871 -0.35631075001656748 0 0.37175901252368798 -0.35282923564929708 0 0.37903455355624088 -0.36395301616228631 0 0.37062182192688342 -0.35989094089845919 0 0.37175901252368798 -0.35282923564929708 0 0.38039313981998102 -0.34171499198339461 0 0.36850223084285461 -0.34013334010310559 0 0.37175901252368798 -0.35282923564929708 0 0.36850223084285461 -0.34013334010310559 0 0.37175901252368798 -0.35282923564929708 0 0.36063352175558938 -0.34744094915871709 0 0.35334242432500967 -0.35684160058240832 0 0.34854783712210619 -0.36801311865490799 0 0.34014926636009962 -0.34904954777080072 0 0.34995942557290799 -0.34259218614548981 0 0.36063352175558938 -0.34744094915871709 0 0.35334242432500967 -0.35684160058240832 0 0.34995942557290799 -0.34259218614548981 0 0.35334242432500967 -0.35684160058240832 0 0.34014926636009962 -0.34904954777080072 0 0.35334242432500967 -0.35684160058240832 0 0.34014926636009962 -0.34904954777080072 0 0.34479993810119458 -0.3839185049101792 0 0.34854783712210619 -0.36801311865490799 0 0.3380755244104181 -0.37197290117913662 0 0.35334242432500967 -0.35684160058240832 0 0.34854783712210619 -0.36801311865490799 0 0.35857216650123641 -0.36962189621405622 0 0.3563997624415931 -0.37946807423635831 0 0.34854783712210619 -0.36801311865490799 0 0.35857216650123641 -0.36962189621405622 0 0.3380755244104181 -0.37197290117913662 0 0.34014926636009962 -0.34904954777080072 0 0.34854783712210619 -0.36801311865490799 0 0.3380755244104181 -0.37197290117913662 0 0.34014926636009962 -0.34904954777080072 0 0.3380755244104181 -0.37197290117913662 0 0.34014926636009962 -0.34904954777080072 0 0.31936341340850821 -0.35682535097728041 0 0.34014926636009962 -0.34904954777080072 0 0.31936341340850821 -0.35682535097728041 0 0.31440184774223529 -0.33384278331252648 0 0.3380755244104181 -0.37197290117913662 0 0.31936341340850821 -0.35682535097728041 0 0.31884267442699737 -0.37495309146445438 0 0.31936341340850821 -0.35682535097728041 0 0.31884267442699737 -0.37495309146445438 0 0.30457765753711358 -0.36416413815963572 0 0.33677618957552741 -0.3214467299851389 0 0.32465579436422348 -0.32830444444049178 0 0.32761534536133441 -0.31291080157412871 0 0.33677618957552741 -0.3214467299851389 0 0.33446610860790649 -0.33083056389922227 0 0.32465579436422348 -0.32830444444049178 0 0.34043392835471731 -0.31281042935954789 0 0.33677618957552741 -0.3214467299851389 0 0.32761534536133441 -0.31291080157412871 0 0.34043392835471731 -0.31281042935954789 0 0.34288369724591378 -0.32141345396954762 0 0.33677618957552741 -0.3214467299851389 0 0.34445390476416071 -0.32731575907744309 0 0.34288369724591378 -0.32141345396954762 0 0.33677618957552741 -0.3214467299851389 0 0.34445390476416071 -0.32731575907744309 0 0.33677618957552741 -0.3214467299851389 0 0.33446610860790649 -0.33083056389922227 0 0.34445390476416071 -0.32731575907744309 0 0.33097125034299552 -0.34082535707878642 0 0.34445390476416071 -0.32731575907744309 0 0.34137083527447443 -0.33554620134835988 0 0.33097125034299552 -0.34082535707878642 0 0.34445390476416071 -0.32731575907744309 0 0.33097125034299552 -0.34082535707878642 0 0.33446610860790649 -0.33083056389922227 0 0.34014926636009962 -0.34904954777080072 0 0.34137083527447443 -0.33554620134835988 0 0.33097125034299552 -0.34082535707878642 0 0.34014926636009962 -0.34904954777080072 0 0.34137083527447443 -0.33554620134835988 0 0.34014926636009962 -0.34904954777080072 0 0.32685646658449041 -0.33819285113007219 0 0.34014926636009962 -0.34904954777080072 0 0.33097125034299552 -0.34082535707878642 0 0.32685646658449041 -0.33819285113007219 0 0.33097125034299552 -0.34082535707878642 0 0.3298935646214366 -0.33478841822197453 0 0.32685646658449041 -0.33819285113007219 0 0.33097125034299552 -0.34082535707878642 0 0.33446610860790649 -0.33083056389922227 0 0.3298935646214366 -0.33478841822197453 0 0.33446610860790649 -0.33083056389922227 0 0.3298935646214366 -0.33478841822197453 0 0.32465579436422348 -0.32830444444049178 0 0.34014926636009962 -0.34904954777080072 0 0.31440184774223529 -0.33384278331252648 0 0.3298935646214366 -0.33478841822197453 0 0.32465579436422348 -0.32830444444049178 0 0.32685646658449041 -0.33819285113007219 0 0.34014926636009962 -0.34904954777080072 0 0.32685646658449041 -0.33819285113007219 0 0.31440184774223529 -0.33384278331252648 0 0.32465579436422348 -0.32830444444049178 0 0.32685646658449041 -0.33819285113007219 0 0.31440184774223529 -0.33384278331252648 0 0.32465579436422348 -0.32830444444049178 0 0.32761534536133441 -0.31291080157412871 0 0.31145556049235351 -0.31463971893757009 0 0.32465579436422348 -0.32830444444049178 0 0.31440184774223529 -0.33384278331252648 0 0.31145556049235351 -0.31463971893757009 0 0.31440184774223529 -0.33384278331252648 0 0.31145556049235351 -0.31463971893757009 0 0.28865442912436862 -0.31863601885425702 0 0.31440184774223529 -0.33384278331252648 0 0.28865442912436862 -0.31863601885425702 0 0.31440184774223529 -0.33384278331252648 0 0.2922631677185441 -0.33660155290929172 0 0.28865442912436862 -0.31863601885425702 0 0.31440184774223529 -0.33384278331252648 0 0.2922631677185441 -0.33660155290929172 0 0.3001222263508595 -0.34963438111602951 0 0.2922631677185441 -0.33660155290929172 0 0.28237246459225179 -0.34752061898461722 0 0.27576487078300538 -0.33337396227902832 0 0.2922631677185441 -0.33660155290929172 0 0.28865442912436862 -0.31863601885425702 0 0.27576487078300538 -0.33337396227902832 0 0.30307180801325889 -0.37971629892630832 0 0.31884267442699737 -0.37495309146445438 0 0.30457765753711358 -0.36416413815963572 0 0.30307180801325889 -0.37971629892630832 0 0.30457765753711358 -0.36416413815963572 0 0.29363117049904669 -0.3716579995045084 0 0.30307180801325889 -0.37971629892630832 0 0.30457765753711358 -0.36416413815963572 0 0.31936341340850821 -0.35682535097728041 0 0.31440184774223529 -0.33384278331252648 0 0.3001222263508595 -0.34963438111602951 0 0.31936341340850821 -0.35682535097728041 0 0.30457765753711358 -0.36416413815963572 0 0.3001222263508595 -0.34963438111602951 0 0.30457765753711358 -0.36416413815963572 0 0.3001222263508595 -0.34963438111602951 0 0.28925972092397301 -0.36031650373056062 0 0.28237246459225179 -0.34752061898461722 0 0.28925972092397301 -0.36031650373056062 0 0.27357218403695838 -0.35988849572988291 0 0.2922631677185441 -0.33660155290929172 0 0.3001222263508595 -0.34963438111602951 0 0.28237246459225179 -0.34752061898461722 0 0.3001222263508595 -0.34963438111602951 0 0.28237246459225179 -0.34752061898461722 0 0.28925972092397301 -0.36031650373056062 0 0.30457765753711358 -0.36416413815963572 0 0.28925972092397301 -0.36031650373056062 0 0.29363117049904669 -0.3716579995045084 0 0.28925972092397301 -0.36031650373056062 0 0.29363117049904669 -0.3716579995045084 0 0.27948248906290629 -0.37222969951659762 0 0.28925972092397301 -0.36031650373056062 0 0.27948248906290629 -0.37222969951659762 0 0.27357218403695838 -0.35988849572988291 0 0.26603579784302211 -0.37167386426528642 0 0.27357218403695838 -0.35988849572988291 0 0.25731081180838089 -0.35929613351305889 0 0.26603579784302211 -0.37167386426528642 0 0.27948248906290629 -0.37222969951659762 0 0.27357218403695838 -0.35988849572988291 0 0.27357218403695838 -0.35988849572988291 0 0.26937408962393122 -0.34615599829151739 0 0.25731081180838089 -0.35929613351305889 0 0.28237246459225179 -0.34752061898461722 0 0.27357218403695838 -0.35988849572988291 0 0.26937408962393122 -0.34615599829151739 0 0.25074106560724763 -0.35263463746453488 0 0.25072729184322701 -0.33667241144986981 0 0.25074106560724763 -0.35263463746453488 0 0.25731081180838089 -0.35929613351305889 0 0.26010891115742768 -0.33136269395452622 0 0.25731081180838089 -0.35929613351305889 0 0.26010891115742768 -0.33136269395452622 0 0.26937408962393122 -0.34615599829151739 0 0.25731081180838089 -0.35929613351305889 0 0.26010891115742768 -0.33136269395452622 0 0.25076540773007611 -0.38084438940180371 0 0.26603579784302211 -0.37167386426528642 0 0.25731081180838089 -0.35929613351305889 0 0.25076540773007611 -0.38084438940180371 0 0.25074106560724763 -0.35263463746453488 0 0.25076540773007611 -0.38084438940180371 0 0.25074106560724763 -0.35263463746453488 0 0.25731081180838089 -0.35929613351305889 0 0.28865442912436862 -0.31863601885425702 0 0.27185880539282592 -0.32170048237094973 0 0.27576487078300538 -0.33337396227902832 0 0.28865442912436862 -0.31863601885425702 0 0.27185880539282592 -0.32170048237094973 0 0.26290701050649701 -0.30342925439599572 0 0.26937408962393122 -0.34615599829151739 0 0.27576487078300538 -0.33337396227902832 0 0.26010891115742768 -0.33136269395452622 0 0.27185880539282592 -0.32170048237094973 0 0.27576487078300538 -0.33337396227902832 0 0.26010891115742768 -0.33136269395452622 0 0.28237246459225179 -0.34752061898461722 0 0.26937408962393122 -0.34615599829151739 0 0.27576487078300538 -0.33337396227902832 0 0.25074106560724763 -0.35263463746453488 0 0.26010891115742768 -0.33136269395452622 0 0.25072729184322701 -0.33667241144986981 0 0.25072729184322701 -0.33667241144986981 0 0.2507167234844192 -0.32442488552726623 0 0.26010891115742768 -0.33136269395452622 0 0.25072729184322701 -0.33667241144986981 0 0.2507167234844192 -0.32442488552726623 0 0.26010891115742768 -0.33136269395452622 0 0.2507167234844192 -0.32442488552726623 0 0.26290701050649701 -0.30342925439599572 0 0.26010891115742768 -0.33136269395452622 0 0.26290701050649701 -0.30342925439599572 0 0.27185880539282592 -0.32170048237094973 0 0.26010891115742768 -0.33136269395452622 0 0.26290701050649701 -0.30342925439599572 0 0.2507167234844192 -0.32442488552726623 0 0.250692381361592 -0.2962151335899974 0 0.2507167234844192 -0.32442488552726623 0 0.26290701050649701 -0.30342925439599572 0 0.250692381361592 -0.2962151335899974 0 0.26290701050649701 -0.30342925439599572 0 0.250692381361592 -0.2962151335899974 0 0.26290701050649701 -0.30342925439599572 0 0.26574058260756789 -0.27514169017937329 0 0.26290701050649701 -0.30342925439599572 0 0.250692381361592 -0.2962151335899974 0 0.26574058260756789 -0.27514169017937329 0 0.250692381361592 -0.2962151335899974 0 0.25066974325360841 -0.26998014106229912 0 0.26290701050649701 -0.30342925439599572 0 0.29304621676363712 -0.29539134088760338 0 0.26574058260756789 -0.27514169017937329 0 0.28865442912436862 -0.31863601885425702 0 0.26290701050649701 -0.30342925439599572 0 0.28865442912436862 -0.31863601885425702 0 0.26290701050649701 -0.30342925439599572 0 0.29304621676363712 -0.29539134088760338 0 0.29304621676363712 -0.29539134088760338 0 0.29292090888263878 -0.27426771326767418 0 0.26574058260756789 -0.27514169017937329 0 0.31444321122017538 -0.27972145302063012 0 0.29304621676363712 -0.29539134088760338 0 0.29292090888263878 -0.27426771326767418 0 0.32035972959832221 -0.298752924556413 0 0.31444321122017538 -0.27972145302063012 0 0.29304621676363712 -0.29539134088760338 0 0.32035972959832221 -0.298752924556413 0 0.31145556049235351 -0.31463971893757009 0 0.29304621676363712 -0.29539134088760338 0 0.31145556049235351 -0.31463971893757009 0 0.28865442912436862 -0.31863601885425702 0 0.29304621676363712 -0.29539134088760338 0 0.30333573733268021 -0.2430346638525725 0 0.31911582008033079 -0.25036718024175703 0 0.30547036446903408 -0.26397126389557468 0 0.30333573733268021 -0.2430346638525725 0 0.30547036446903408 -0.26397126389557468 0 0.28590416935277951 -0.25711281835518962 0 0.31444321122017538 -0.27972145302063012 0 0.30547036446903408 -0.26397126389557468 0 0.29292090888263878 -0.27426771326767418 0 0.29292090888263878 -0.27426771326767418 0 0.28590416935277951 -0.25711281835518962 0 0.26574058260756789 -0.27514169017937329 0 0.30547036446903408 -0.26397126389557468 0 0.29292090888263878 -0.27426771326767418 0 0.28590416935277951 -0.25711281835518962 0 0.26857415470866153 -0.24685412596275319 0 0.28590416935277951 -0.25711281835518962 0 0.26574058260756789 -0.27514169017937329 0 0.26857415470866153 -0.24685412596275319 0 0.26574058260756789 -0.27514169017937329 0 0.250692381361592 -0.2962151335899974 0 0.26574058260756789 -0.27514169017937329 0 0.25066974325360841 -0.26998014106229912 0 0.26574058260756789 -0.27514169017937329 0 0.25066974325360841 -0.26998014106229912 0 0.25890789642886602 -0.25893027643475658 0 0.25064710514562599 -0.24374514853460069 0 0.25066974325360841 -0.26998014106229912 0 0.26857415470866153 -0.24685412596275319 0 0.26574058260756789 -0.27514169017937329 0 0.25890789642886602 -0.25893027643475658 0 0.25064710514562599 -0.24374514853460069 0 0.25066974325360841 -0.26998014106229912 0 0.25890789642886602 -0.25893027643475658 0 0.25066974325360841 -0.26998014106229912 0 0.23574799295882359 -0.25043693971702707 0 0.23509835120407241 -0.26676444721969372 0 0.25064710514562599 -0.24374514853460069 0 0.25066974325360841 -0.26998014106229912 0 0.23574799295882359 -0.25043693971702707 0 0.25066974325360841 -0.26998014106229912 0 0.23509835120407241 -0.26676444721969372 0 0.22915195035378441 -0.28349307140866231 0 0.22210734053167919 -0.26580296361655292 0 0.22915195035378441 -0.28349307140866231 0 0.22210734053167919 -0.26580296361655292 0 0.21624526788434251 -0.2758702147967641 0 0.22915195035378441 -0.28349307140866231 0 0.23509835120407241 -0.26676444721969372 0 0.22210734053167919 -0.26580296361655292 0 0.22915195035378441 -0.28349307140866231 0 0.22210734053167919 -0.26580296361655292 0 0.21624526788434251 -0.2758702147967641 0 0.21624526788434251 -0.2758702147967641 0 0.22915195035378441 -0.28349307140866231 0 0.22210734053167919 -0.26580296361655292 0 0.2323178439682041 -0.24826791945116011 0 0.23574799295882359 -0.25043693971702707 0 0.23509835120407241 -0.26676444721969372 0 0.22210734053167919 -0.26580296361655292 0 0.22210734053167919 -0.26580296361655292 0 0.22434081939328099 -0.25218634102797599 0 0.2323178439682041 -0.24826791945116011 0 0.23574799295882359 -0.25043693971702707 0 0.22210734053167919 -0.26580296361655292 0 0.2323178439682041 -0.24826791945116011 0 0.22210734053167919 -0.26580296361655292 0 0.21882357413728051 -0.25755691693007332 0 0.22434081939328099 -0.25218634102797599 0 0.22210734053167919 -0.26580296361655292 0 0.21882357413728051 -0.25755691693007332 0 0.21882357413728051 -0.25755691693007332 0 0.22434081939328099 -0.25218634102797599 0 0.21985462013140389 -0.24971968414124501 0 0.22434081939328099 -0.25218634102797599 0 0.21985462013140389 -0.24971968414124501 0 0.22297677265606941 -0.24873837238888649 0 0.21882357413728051 -0.25755691693007332 0 0.21449381670827419 -0.25078028241941708 0 0.21083217863346809 -0.26013506523819158 0 0.21882357413728051 -0.25755691693007332 0 0.21449381670827419 -0.25078028241941708 0 0.21985462013140389 -0.24971968414124501 0 0.21449381670827419 -0.25078028241941708 0 0.2032001387785364 -0.25078579389211808 0 0.21083217863346809 -0.26013506523819158 0 0.22210734053167919 -0.26580296361655292 0 0.21882357413728051 -0.25755691693007332 0 0.21083217863346809 -0.26013506523819158 0 0.21624526788434251 -0.2758702147967641 0 0.19079171259271391 -0.27031259851977052 0 0.20803406741562769 -0.28997174894390298 0 0.21083217863346809 -0.26013506523819158 0 0.21624526788434251 -0.2758702147967641 0 0.19489731282707459 -0.26326183144619669 0 0.21624526788434251 -0.2758702147967641 0 0.19489731282707459 -0.26326183144619669 0 0.22210734053167919 -0.26580296361655292 0 0.21083217863346809 -0.26013506523819158 0 0.21624526788434251 -0.2758702147967641 0 0.19079171259271391 -0.27031259851977052 0 0.20803406741562769 -0.28997174894390298 0 0.21624526788434251 -0.2758702147967641 0 0.19079171259271391 -0.27031259851977052 0 0.19489731282707459 -0.26326183144619669 0 0.2032001387785364 -0.25078579389211808 0 0.21083217863346809 -0.26013506523819158 0 0.19489731282707459 -0.26326183144619669 0 0.2032001387785364 -0.25078579389211808 0 0.19489731282707459 -0.26326183144619669 0 0.1891685256102339 -0.24827901167628361 0 0.19858096764978889 -0.30620606323842081 0 0.1954469893506339 -0.29351178901868907 0 0.18236207103658419 -0.29208821230862408 0 0.19079171259271391 -0.27031259851977052 0 0.1954469893506339 -0.29351178901868907 0 0.20803406741562769 -0.28997174894390298 0 0.19858096764978889 -0.30620606323842081 0 0.1954469893506339 -0.29351178901868907 0 0.20803406741562769 -0.28997174894390298 0 0.19079171259271391 -0.27031259851977052 0 0.1954469893506339 -0.29351178901868907 0 0.18236207103658419 -0.29208821230862408 0 0.21624526788434251 -0.2758702147967641 0 0.20803406741562769 -0.28997174894390298 0 0.2202018622523764 -0.28930535936401353 0 0.21624526788434251 -0.2758702147967641 0 0.20803406741562769 -0.28997174894390298 0 0.20803406741562769 -0.28997174894390298 0 0.21648128117304441 -0.29960297667510899 0 0.2202018622523764 -0.28930535936401353 0 0.20803406741562769 -0.28997174894390298 0 0.21648128117304441 -0.29960297667510899 0 0.19858096764978889 -0.30620606323842081 0 0.20803406741562769 -0.28997174894390298 0 0.21648128117304441 -0.29960297667510899 0 0.19858096764978889 -0.30620606323842081 0 0.21648128117304441 -0.29960297667510899 0 0.21540652948145869 -0.3131606418185654 0 0.19858096764978889 -0.30620606323842081 0 0.20803406741562769 -0.28997174894390298 0 0.23592014810302939 -0.30048906561786548 0 0.21540652948145869 -0.3131606418185654 0 0.21648128117304441 -0.29960297667510899 0 0.23592014810302939 -0.30048906561786548 0 0.21540652948145869 -0.3131606418185654 0 0.23592014810302939 -0.30048906561786548 0 0.22974304889915681 -0.31342936888619849 0 0.21540652948145869 -0.3131606418185654 0 0.21648128117304441 -0.29960297667510899 0 0.2202018622523764 -0.28930535936401353 0 0.23592014810302939 -0.30048906561786548 0 0.22915195035378441 -0.28349307140866231 0 0.23592014810302939 -0.30048906561786548 0 0.2202018622523764 -0.28930535936401353 0 0.22915195035378441 -0.28349307140866231 0 0.23592014810302939 -0.30048906561786548 0 0.21624526788434251 -0.2758702147967641 0 0.2202018622523764 -0.28930535936401353 0 0.22915195035378441 -0.28349307140866231 0 0.250692381361592 -0.2962151335899974 0 0.22915195035378441 -0.28349307140866231 0 0.2422646067955064 -0.29656999637625509 0 0.250692381361592 -0.2962151335899974 0 0.25066974325360841 -0.26998014106229912 0 0.22915195035378441 -0.28349307140866231 0 0.22915195035378441 -0.28349307140866231 0 0.2422646067955064 -0.29656999637625509 0 0.23592014810302939 -0.30048906561786548 0 0.250692381361592 -0.2962151335899974 0 0.22915195035378441 -0.28349307140866231 0 0.2507167234844192 -0.32442488552726623 0 0.250692381361592 -0.2962151335899974 0 0.24454371971181171 -0.30725599826911693 0 0.23592014810302939 -0.30048906561786548 0 0.24454371971181171 -0.30725599826911693 0 0.24312473881451269 -0.31858091023420049 0 0.23592014810302939 -0.30048906561786548 0 0.24312473881451269 -0.31858091023420049 0 0.22974304889915681 -0.31342936888619849 0 0.23592014810302939 -0.30048906561786548 0 0.24312473881451269 -0.31858091023420049 0 0.2422646067955064 -0.29656999637625509 0 0.23592014810302939 -0.30048906561786548 0 0.24454371971181171 -0.30725599826911693 0 0.2422646067955064 -0.29656999637625509 0 0.23592014810302939 -0.30048906561786548 0 0.250692381361592 -0.2962151335899974 0 0.2422646067955064 -0.29656999637625509 0 0.24454371971181171 -0.30725599826911693 0 0.25072729184322701 -0.33667241144986981 0 0.24312473881451269 -0.31858091023420049 0 0.25072729184322701 -0.33667241144986981 0 0.2507167234844192 -0.32442488552726623 0 0.24312473881451269 -0.31858091023420049 0 0.2507167234844192 -0.32442488552726623 0 0.24454371971181171 -0.30725599826911693 0 0.24312473881451269 -0.31858091023420049 0 0.24312473881451269 -0.31858091023420049 0 0.22974304889915681 -0.31342936888619849 0 0.23040287913779831 -0.32226264710036251 0 0.24312473881451269 -0.31858091023420049 0 0.23840786575374279 -0.33141989622111923 0 0.23040287913779831 -0.32226264710036251 0 0.25072729184322701 -0.33667241144986981 0 0.24312473881451269 -0.31858091023420049 0 0.23840786575374279 -0.33141989622111923 0 0.25072729184322701 -0.33667241144986981 0 0.23840786575374279 -0.33141989622111923 0 0.23691545031567299 -0.34677622125836488 0 0.23840786575374279 -0.33141989622111923 0 0.22533221274012069 -0.33472241834172878 0 0.23040287913779831 -0.32226264710036251 0 0.22533221274012069 -0.33472241834172878 0 0.23691545031567299 -0.34677622125836488 0 0.21827476785139341 -0.34950891238811388 0 0.23840786575374279 -0.33141989622111923 0 0.22533221274012069 -0.33472241834172878 0 0.23691545031567299 -0.34677622125836488 0 0.22533221274012069 -0.33472241834172878 0 0.23040287913779831 -0.32226264710036251 0 0.21540652948145869 -0.3131606418185654 0 0.22974304889915681 -0.31342936888619849 0 0.23040287913779831 -0.32226264710036251 0 0.21540652948145869 -0.3131606418185654 0 0.25076540773007611 -0.38084438940180371 0 0.25074106560724763 -0.35263463746453488 0 0.2395489055853158 -0.36409554593469451 0 0.25076540773007611 -0.38084438940180371 0 0.2395489055853158 -0.36409554593469451 0 0.23223980930840399 -0.3782039701858243 0 0.25074106560724763 -0.35263463746453488 0 0.25072729184322701 -0.33667241144986981 0 0.23691545031567299 -0.34677622125836488 0 0.25074106560724763 -0.35263463746453488 0 0.2395489055853158 -0.36409554593469451 0 0.23691545031567299 -0.34677622125836488 0 0.2395489055853158 -0.36409554593469451 0 0.23691545031567299 -0.34677622125836488 0 0.22708279496517819 -0.36201851136294438 0 0.23691545031567299 -0.34677622125836488 0 0.22708279496517819 -0.36201851136294438 0 0.21827476785139341 -0.34950891238811388 0 0.22708279496517819 -0.36201851136294438 0 0.21066256834875091 -0.36989847363458428 0 0.23223980930840399 -0.3782039701858243 0 0.2395489055853158 -0.36409554593469451 0 0.22708279496517819 -0.36201851136294438 0 0.23223980930840399 -0.3782039701858243 0 0.22708279496517819 -0.36201851136294438 0 0.21066256834875091 -0.36989847363458428 0 0.21827476785139341 -0.34950891238811388 0 0.21066256834875091 -0.36989847363458428 0 0.21827476785139341 -0.34950891238811388 0 0.2000061205849894 -0.35579311839705258 0 0.21827476785139341 -0.34950891238811388 0 0.2000061205849894 -0.35579311839705258 0 0.20733401733743659 -0.33912575195570022 0 0.2000061205849894 -0.35579311839705258 0 0.1911645314222388 -0.34265383627953888 0 0.17803865930433449 -0.35488422869917391 0 0.2000061205849894 -0.35579311839705258 0 0.20733401733743659 -0.33912575195570022 0 0.1911645314222388 -0.34265383627953888 0 0.2000061205849894 -0.35579311839705258 0 0.18604428338340159 -0.37233663720161247 0 0.2000061205849894 -0.35579311839705258 0 0.18604428338340159 -0.37233663720161247 0 0.17803865930433449 -0.35488422869917391 0 0.21066256834875091 -0.36989847363458428 0 0.2000061205849894 -0.35579311839705258 0 0.18604428338340159 -0.37233663720161247 0 0.21540652948145869 -0.3131606418185654 0 0.20733401733743659 -0.33912575195570022 0 0.19489291085988811 -0.32583221801926548 0 0.21540652948145869 -0.3131606418185654 0 0.19489291085988811 -0.32583221801926548 0 0.22533221274012069 -0.33472241834172878 0 0.21540652948145869 -0.3131606418185654 0 0.20733401733743659 -0.33912575195570022 0 0.22533221274012069 -0.33472241834172878 0 0.21827476785139341 -0.34950891238811388 0 0.20733401733743659 -0.33912575195570022 0 0.20733401733743659 -0.33912575195570022 0 0.1911645314222388 -0.34265383627953888 0 0.19489291085988811 -0.32583221801926548 0 0.19858096764978889 -0.30620606323842081 0 0.21540652948145869 -0.3131606418185654 0 0.19489291085988811 -0.32583221801926548 0 0.19858096764978889 -0.30620606323842081 0 0.19489291085988811 -0.32583221801926548 0 0.17873943730394079 -0.31395419138896341 0 0.19489291085988811 -0.32583221801926548 0 0.17873943730394079 -0.31395419138896341 0 0.17437929223831741 -0.33850379421996568 0 0.17873943730394079 -0.31395419138896341 0 0.17437929223831741 -0.33850379421996568 0 0.16400459206764251 -0.32443593550622529 0 0.19489291085988811 -0.32583221801926548 0 0.17437929223831741 -0.33850379421996568 0 0.1911645314222388 -0.34265383627953888 0 0.19489291085988811 -0.32583221801926548 0 0.17437929223831741 -0.33850379421996568 0 0.17437929223831741 -0.33850379421996568 0 0.16400459206764251 -0.32443593550622529 0 0.15386567361674669 -0.35117537042066588 0 0.17873943730394079 -0.31395419138896341 0 0.16400459206764251 -0.32443593550622529 0 0.15921488240034501 -0.30192424672731222 0 0.16400459206764251 -0.32443593550622529 0 0.14610087566687679 -0.32440150116349331 0 0.15921488240034501 -0.30192424672731222 0 0.18604428338340159 -0.37233663720161247 0 0.17803865930433449 -0.35488422869917391 0 0.16218622618719949 -0.36927758062293908 0 0.1911645314222388 -0.34265383627953888 0 0.17437929223831741 -0.33850379421996568 0 0.17803865930433449 -0.35488422869917391 0 0.17803865930433449 -0.35488422869917391 0 0.16218622618719949 -0.36927758062293908 0 0.15386567361674669 -0.35117537042066588 0 0.17437929223831741 -0.33850379421996568 0 0.15386567361674669 -0.35117537042066588 0 0.17437929223831741 -0.33850379421996568 0 0.17803865930433449 -0.35488422869917391 0 0.15386567361674669 -0.35117537042066588 0 0.16218622618719949 -0.36927758062293908 0 0.15386567361674669 -0.35117537042066588 0 0.13335205499517369 -0.36384694662136241 0 0.16218622618719949 -0.36927758062293908 0 0.13335205499517369 -0.36384694662136241 0 0.14573633198770841 -0.38463531071605112 0 0.15386567361674669 -0.35117537042066588 0 0.13335205499517369 -0.36384694662136241 0 0.15386567361674669 -0.35117537042066588 0 0.13335205499517369 -0.36384694662136241 0 0.13790499494631811 -0.34167513071539851 0 0.13335205499517369 -0.36384694662136241 0 0.13790499494631811 -0.34167513071539851 0 0.1214787826188599 -0.34391635969222589 0 0.13335205499517369 -0.36384694662136241 0 0.1214787826188599 -0.34391635969222589 0 0.13335205499517369 -0.36384694662136241 0 0.14573633198770841 -0.38463531071605112 0 0.15386567361674669 -0.35117537042066588 0 0.14610087566687679 -0.32440150116349331 0 0.13790499494631811 -0.34167513071539851 0 0.16400459206764251 -0.32443593550622529 0 0.15386567361674669 -0.35117537042066588 0 0.14610087566687679 -0.32440150116349331 0 0.14610087566687679 -0.32440150116349331 0 0.13790499494631811 -0.34167513071539851 0 0.12921888679364621 -0.32641851231157998 0 0.13790499494631811 -0.34167513071539851 0 0.12921888679364621 -0.32641851231157998 0 0.1214787826188599 -0.34391635969222589 0 0.14610087566687679 -0.32440150116349331 0 0.12921888679364621 -0.32641851231157998 0 0.13155342607858059 -0.3048290349205045 0 0.14610087566687679 -0.32440150116349331 0 0.13155342607858059 -0.3048290349205045 0 0.15921488240034501 -0.30192424672731222 0 0.13155342607858059 -0.3048290349205045 0 0.14503894491502109 -0.28929259712237299 0 0.15921488240034501 -0.30192424672731222 0 0.13155342607858059 -0.3048290349205045 0 0.14503894491502109 -0.28929259712237299 0 0.12933390051357599 -0.27594060683633709 0 0.12933390051357599 -0.27594060683633709 0 0.1420728656464782 -0.2576794520533135 0 0.1221314744503164 -0.24898433523857991 0 0.12933390051357599 -0.27594060683633709 0 0.1420728656464782 -0.2576794520533135 0 0.15768057569669239 -0.27192150047744512 0 0.14503894491502109 -0.28929259712237299 0 0.12933390051357599 -0.27594060683633709 0 0.15768057569669239 -0.27192150047744512 0 0.19079171259271391 -0.27031259851977052 0 0.15768057569669239 -0.27192150047744512 0 0.17354935776980321 -0.25065344809563522 0 0.1420728656464782 -0.2576794520533135 0 0.15768057569669239 -0.27192150047744512 0 0.17354935776980321 -0.25065344809563522 0 0.19079171259271391 -0.27031259851977052 0 0.15768057569669239 -0.27192150047744512 0 0.16665075609027569 -0.28733251583286978 0 0.19489731282707459 -0.26326183144619669 0 0.17354935776980321 -0.25065344809563522 0 0.1891685256102339 -0.24827901167628361 0 0.19079171259271391 -0.27031259851977052 0 0.19489731282707459 -0.26326183144619669 0 0.17354935776980321 -0.25065344809563522 0 0.19489731282707459 -0.26326183144619669 0 0.17354935776980321 -0.25065344809563522 0 0.19079171259271391 -0.27031259851977052 0 0.17354935776980321 -0.25065344809563522 0 0.19079171259271391 -0.27031259851977052 0 0.18236207103658419 -0.29208821230862408 0 0.16665075609027569 -0.28733251583286978 0 0.19858096764978889 -0.30620606323842081 0 0.17873943730394079 -0.31395419138896341 0 0.18236207103658419 -0.29208821230862408 0 0.17873943730394079 -0.31395419138896341 0 0.18236207103658419 -0.29208821230862408 0 0.15921488240034501 -0.30192424672731222 0 0.14503894491502109 -0.28929259712237299 0 0.15768057569669239 -0.27192150047744512 0 0.16665075609027569 -0.28733251583286978 0 0.14503894491502109 -0.28929259712237299 0 0.15921488240034501 -0.30192424672731222 0 0.16665075609027569 -0.28733251583286978 0 0.18236207103658419 -0.29208821230862408 0 0.15921488240034501 -0.30192424672731222 0 0.16665075609027569 -0.28733251583286978 0 0.1901389582608608 -0.5 0 0.2003771594263809 -0.47635591870268601 0 0.17508705052532239 -0.47718428807024948 0 0.1901389582608608 -0.5 0 0.2003771594263809 -0.47635591870268601 0 0.2144626762417606 -0.50000000000000111 0 0.2003771594263809 -0.47635591870268601 0 0.21723316147757021 -0.48449135111366842 0 0.22155289244562459 -0.46284430166373891 0 0.2003771594263809 -0.47635591870268601 0 0.21723316147757021 -0.48449135111366842 0 0.2144626762417606 -0.50000000000000111 0 0.2003771594263809 -0.47635591870268601 0 0.2144626762417606 -0.50000000000000111 0 0.21723316147757021 -0.48449135111366842 0 0.2144626762417606 -0.50000000000000111 0 0.2165796976393885 -0.49999999999999978 0 0.2165796976393885 -0.49999999999999978 0 0.2337239622206142 -0.5 0 0.23319338163469661 -0.48325653520191592 0 0.2165796976393885 -0.49999999999999978 0 0.23319338163469661 -0.48325653520191592 0 0.21723316147757021 -0.48449135111366842 0 0.2165796976393885 -0.49999999999999978 0 0.23319338163469661 -0.48325653520191592 0 0.25085333045020058 -0.48273682260679712 0 0.25086822680183979 -0.49999999999998412 0 0.24209892902911909 -0.49887289893437198 0 0.2337239622206142 -0.5 0 0.24209892902911909 -0.49887289893437198 0 0.23319338163469661 -0.48325653520191592 0 0.25086822680183979 -0.49999999999998412 0 0.2337239622206142 -0.5 0 0.24209892902911909 -0.49887289893437198 0 0.25085333045020058 -0.48273682260679712 0 0.24209892902911909 -0.49887289893437198 0 0.23319338163469661 -0.48325653520191592 0 0.24209892902911909 -0.49887289893437198 0 0.23319338163469661 -0.48325653520191592 0 0.2508384340985611 -0.4654736452136099 0 0.23319338163469661 -0.48325653520191592 0 0.22155289244562459 -0.46284430166373891 0 0.2508384340985611 -0.4654736452136099 0 0.23319338163469661 -0.48325653520191592 0 0.2508384340985611 -0.4654736452136099 0 0.25085333045020058 -0.48273682260679712 0 0.23319338163469661 -0.48325653520191592 0 0.21723316147757021 -0.48449135111366842 0 0.23319338163469661 -0.48325653520191592 0 0.22155289244562459 -0.46284430166373891 0 0.23319338163469661 -0.48325653520191592 0 0.22155289244562459 -0.46284430166373891 0 0.2508384340985611 -0.4654736452136099 0 0.22155289244562459 -0.46284430166373891 0 0.2308873624976131 -0.44399590223232432 0 0.2508140919757329 -0.43726389327634119 0 0.2508384340985611 -0.4654736452136099 0 0.2308873624976131 -0.44399590223232432 0 0.22155289244562459 -0.46284430166373891 0 0.2308873624976131 -0.44399590223232432 0 0.209912403256553 -0.44243206812556179 0 0.22155289244562459 -0.46284430166373891 0 0.209912403256553 -0.44243206812556179 0 0.2003771594263809 -0.47635591870268601 0 0.22155289244562459 -0.46284430166373891 0 0.20453352443489009 -0.4585860314743393 0 0.22155289244562459 -0.46284430166373891 0 0.209912403256553 -0.44243206812556179 0 0.20453352443489009 -0.4585860314743393 0 0.2003771594263809 -0.47635591870268601 0 0.18629164261100159 -0.45271183740537052 0 0.2003771594263809 -0.47635591870268601 0 0.20453352443489009 -0.4585860314743393 0 0.18629164261100159 -0.45271183740537052 0 0.209912403256553 -0.44243206812556179 0 0.20453352443489009 -0.4585860314743393 0 0.18629164261100159 -0.45271183740537052 0 0.209912403256553 -0.44243206812556179 0 0.1982719140674814 -0.42201983458738468 0 0.18629164261100159 -0.45271183740537052 0 0.1982719140674814 -0.42201983458738468 0 0.20961320668151481 -0.40317558938368753 0 0.18663142487840981 -0.40160760104920762 0 0.1982719140674814 -0.42201983458738468 0 0.18663142487840981 -0.40160760104920762 0 0.1982719140674814 -0.42201983458738468 0 0.2256329064549559 -0.421350729972087 0 0.20961320668151481 -0.40317558938368753 0 0.209912403256553 -0.44243206812556179 0 0.1982719140674814 -0.42201983458738468 0 0.209912403256553 -0.44243206812556179 0 0.1982719140674814 -0.42201983458738468 0 0.2256329064549559 -0.421350729972087 0 0.2308873624976131 -0.44399590223232432 0 0.209912403256553 -0.44243206812556179 0 0.2256329064549559 -0.421350729972087 0 0.2508140919757329 -0.43726389327634119 0 0.2308873624976131 -0.44399590223232432 0 0.2256329064549559 -0.421350729972087 0 0.25078974985290448 -0.40905414133907242 0 0.2508140919757329 -0.43726389327634119 0 0.2256329064549559 -0.421350729972087 0 0.25078974985290448 -0.40905414133907242 0 0.2256329064549559 -0.421350729972087 0 0.2311180478825208 -0.39666103482987342 0 0.2256329064549559 -0.421350729972087 0 0.2311180478825208 -0.39666103482987342 0 0.20961320668151481 -0.40317558938368753 0 0.2311180478825208 -0.39666103482987342 0 0.21677709024467859 -0.38690849478035338 0 0.20961320668151481 -0.40317558938368753 0 0.25076540773007611 -0.38084438940180371 0 0.25078974985290448 -0.40905414133907242 0 0.2311180478825208 -0.39666103482987342 0 0.25076540773007611 -0.38084438940180371 0 0.2311180478825208 -0.39666103482987342 0 0.23223980930840399 -0.3782039701858243 0 0.21066256834875091 -0.36989847363458428 0 0.23223980930840399 -0.3782039701858243 0 0.21677709024467859 -0.38690849478035338 0 0.2311180478825208 -0.39666103482987342 0 0.23223980930840399 -0.3782039701858243 0 0.21677709024467859 -0.38690849478035338 0 0.21066256834875091 -0.36989847363458428 0 0.21677709024467859 -0.38690849478035338 0 0.197596417282834 -0.38693792388185971 0 0.21677709024467859 -0.38690849478035338 0 0.20961320668151481 -0.40317558938368753 0 0.197596417282834 -0.38693792388185971 0 0.20961320668151481 -0.40317558938368753 0 0.197596417282834 -0.38693792388185971 0 0.18663142487840981 -0.40160760104920762 0 0.21066256834875091 -0.36989847363458428 0 0.18604428338340159 -0.37233663720161247 0 0.197596417282834 -0.38693792388185971 0 0.18604428338340159 -0.37233663720161247 0 0.17208244618181379 -0.38888015600617221 0 0.18604428338340159 -0.37233663720161247 0 0.16218622618719949 -0.36927758062293908 0 0.17208244618181379 -0.38888015600617221 0 0.18604428338340159 -0.37233663720161247 0 0.197596417282834 -0.38693792388185971 0 0.17208244618181379 -0.38888015600617221 0 0.197596417282834 -0.38693792388185971 0 0.17208244618181379 -0.38888015600617221 0 0.18663142487840981 -0.40160760104920762 0 0.17208244618181379 -0.38888015600617221 0 0.18663142487840981 -0.40160760104920762 0 0.174565044556313 -0.41150976092725178 0 0.17208244618181379 -0.38888015600617221 0 0.1581206089802385 -0.40542367481074248 0 0.174565044556313 -0.41150976092725178 0 0.17208244618181379 -0.38888015600617221 0 0.1581206089802385 -0.40542367481074248 0 0.17208244618181379 -0.38888015600617221 0 0.1581206089802385 -0.40542367481074248 0 0.14573633198770841 -0.38463531071605112 0 0.16218622618719949 -0.36927758062293908 0 0.17208244618181379 -0.38888015600617221 0 0.14573633198770841 -0.38463531071605112 0 0.13335205499517369 -0.36384694662136241 0 0.14573633198770841 -0.38463531071605112 0 0.12729728539988949 -0.38706415041518871 0 0.12729728539988949 -0.38706415041518871 0 0.12502042570686009 -0.40238312680533161 0 0.14150936221537 -0.40456915117518177 0 0.14573633198770841 -0.38463531071605112 0 0.12729728539988949 -0.38706415041518871 0 0.14150936221537 -0.40456915117518177 0 0.1581206089802385 -0.40542367481074248 0 0.14573633198770841 -0.38463531071605112 0 0.1581206089802385 -0.40542367481074248 0 0.14573633198770841 -0.38463531071605112 0 0.14150936221537 -0.40456915117518177 0 0.1581206089802385 -0.40542367481074248 0 0.14150936221537 -0.40456915117518177 0 0.14514337171976929 -0.42080053141991702 0 0.1581206089802385 -0.40542367481074248 0 0.14514337171976929 -0.42080053141991702 0 0.12502042570686009 -0.40238312680533161 0 0.14150936221537 -0.40456915117518177 0 0.12576992835246159 -0.4217661332975291 0 0.14150936221537 -0.40456915117518177 0 0.14514337171976929 -0.42080053141991702 0 0.12576992835246159 -0.4217661332975291 0 0.14514337171976929 -0.42080053141991702 0 0.12576992835246159 -0.4217661332975291 0 0.13512402312352581 -0.44185709965307413 0 0.14514337171976929 -0.42080053141991702 0 0.15205416108664169 -0.43689293447663502 0 0.13512402312352581 -0.44185709965307413 0 0.14514337171976929 -0.42080053141991702 0 0.15205416108664169 -0.43689293447663502 0 0.17220612579562239 -0.4290677561080552 0 0.1581206089802385 -0.40542367481074248 0 0.14514337171976929 -0.42080053141991702 0 0.17220612579562239 -0.4290677561080552 0 0.1581206089802385 -0.40542367481074248 0 0.174565044556313 -0.41150976092725178 0 0.17220612579562239 -0.4290677561080552 0 0.1581206089802385 -0.40542367481074248 0 0.17220612579562239 -0.4290677561080552 0 0.1982719140674814 -0.42201983458738468 0 0.174565044556313 -0.41150976092725178 0 0.17220612579562239 -0.4290677561080552 0 0.1982719140674814 -0.42201983458738468 0 0.18663142487840981 -0.40160760104920762 0 0.174565044556313 -0.41150976092725178 0 0.1982719140674814 -0.42201983458738468 0 0.17220612579562239 -0.4290677561080552 0 0.18629164261100159 -0.45271183740537052 0 0.17220612579562239 -0.4290677561080552 0 0.18629164261100159 -0.45271183740537052 0 0.15732703418186861 -0.45393910035423551 0 0.17220612579562239 -0.4290677561080552 0 0.18629164261100159 -0.45271183740537052 0 0.18629164261100159 -0.45271183740537052 0 0.15732703418186861 -0.45393910035423551 0 0.17508705052532239 -0.47718428807024948 0 0.15205416108664169 -0.43689293447663502 0 0.17220612579562239 -0.4290677561080552 0 0.15732703418186861 -0.45393910035423551 0 0.15205416108664169 -0.43689293447663502 0 0.15732703418186861 -0.45393910035423551 0 0.13512402312352581 -0.44185709965307413 0 0.15732703418186861 -0.45393910035423551 0 0.13512402312352581 -0.44185709965307413 0 0.13831354811476701 -0.46242600649539201 0 0.13831354811476701 -0.46242600649539201 0 0.12871320399070441 -0.47926451567793349 0 0.1195700032761564 -0.45811817147626083 0 0.13512402312352581 -0.44185709965307413 0 0.13831354811476701 -0.46242600649539201 0 0.1195700032761564 -0.45811817147626083 0 0.15732703418186861 -0.45393910035423551 0 0.13831354811476701 -0.46242600649539201 0 0.1508334760015799 -0.47895114531545591 0 0.13831354811476701 -0.46242600649539201 0 0.1508334760015799 -0.47895114531545591 0 0.12871320399070441 -0.47926451567793349 0 0.1508334760015799 -0.47895114531545591 0 0.12871320399070441 -0.47926451567793349 0 0.14149152229906109 -0.5 0 0.12871320399070441 -0.47926451567793349 0 0.14149152229906109 -0.5 0 0.11716780431816121 -0.5 0 0.1508334760015799 -0.47895114531545591 0 0.14149152229906109 -0.5 0 0.16581524027996111 -0.5 0 0.1508334760015799 -0.47895114531545591 0 0.16581524027996111 -0.5 0 0.17508705052532239 -0.47718428807024948 0 0.15732703418186861 -0.45393910035423551 0 0.1508334760015799 -0.47895114531545591 0 0.17508705052532239 -0.47718428807024948 0 0.2003771594263809 -0.47635591870268601 0 0.18629164261100159 -0.45271183740537052 0 0.17508705052532239 -0.47718428807024948 0 0.1901389582608608 -0.5 0 0.16581524027996111 -0.5 0 0.17508705052532239 -0.47718428807024948 0 0.072041274890217763 -0.4836648910743247 0 0.058751042079532627 -0.5 0 0.057994564833227402 -0.48794296797725728 0 0.072041274890217763 -0.4836648910743247 0 0.085571084909948608 -0.50000000000000044 0 0.058751042079532627 -0.5 0 0.072041274890217763 -0.4836648910743247 0 0.075616543433965844 -0.4807934535378271 0 0.085571084909948608 -0.50000000000000044 0 0.075616543433965844 -0.4807934535378271 0 0.079253044147621424 -0.4807934535378286 0 0.065662001957982885 -0.46158690707565392 0 0.063389314311409414 -0.47420419790704182 0 0.075616543433965844 -0.4807934535378271 0 0.065662001957982885 -0.46158690707565392 0 0.079253044147621424 -0.4807934535378286 0 0.065662001957982885 -0.46158690707565392 0 0.075616543433965844 -0.4807934535378271 0 0.065662001957982885 -0.46158690707565392 0 0.063389314311409414 -0.47420419790704182 0 0.072041274890217763 -0.4836648910743247 0 0.075616543433965844 -0.4807934535378271 0 0.079253044147621424 -0.4807934535378286 0 0.10474772318967999 -0.4754786357230732 0 0.090631695211391361 -0.45832967250771661 0 0.079253044147621424 -0.4807934535378286 0 0.092844086337261392 -0.50000000000000233 0 0.10474772318967999 -0.4754786357230732 0 0.079253044147621424 -0.4807934535378286 0 0.092844086337261392 -0.50000000000000233 0 0.079253044147621424 -0.4807934535378286 0 0.085571084909948608 -0.50000000000000044 0 0.092844086337261392 -0.50000000000000233 0 0.075616543433965844 -0.4807934535378271 0 0.079253044147621424 -0.4807934535378286 0 0.085571084909948608 -0.50000000000000044 0 0.075616543433965844 -0.4807934535378271 0 0.085571084909948608 -0.50000000000000044 0 0.092844086337261392 -0.50000000000000233 0 0.11716780431816121 -0.5 0 0.10474772318967999 -0.4754786357230732 0 0.12871320399070441 -0.47926451567793349 0 0.11716780431816121 -0.5 0 0.10474772318967999 -0.4754786357230732 0 0.12871320399070441 -0.47926451567793349 0 0.10474772318967999 -0.4754786357230732 0 0.1195700032761564 -0.45811817147626083 0 0.10474772318967999 -0.4754786357230732 0 0.1050542250464649 -0.45184463686176968 0 0.090631695211391361 -0.45832967250771661 0 0.12871320399070441 -0.47926451567793349 0 0.1195700032761564 -0.45811817147626083 0 0.10474772318967999 -0.4754786357230732 0 0.1195700032761564 -0.45811817147626083 0 0.1050542250464649 -0.45184463686176968 0 0.13512402312352581 -0.44185709965307413 0 0.1195700032761564 -0.45811817147626083 0 0.1104268025616084 -0.43697182727458789 0 0.1195700032761564 -0.45811817147626083 0 0.1104268025616084 -0.43697182727458789 0 0.1195700032761564 -0.45811817147626083 0 0.1050542250464649 -0.45184463686176968 0 0.1104268025616084 -0.43697182727458789 0 0.1050542250464649 -0.45184463686176968 0 0.089062934039491365 -0.43513963711475678 0 0.1104268025616084 -0.43697182727458789 0 0.1050542250464649 -0.45184463686176968 0 0.090631695211391361 -0.45832967250771661 0 0.089062934039491365 -0.43513963711475678 0 0.07869668253710832 -0.44976138314380087 0 0.090631695211391361 -0.45832967250771661 0 0.089062934039491365 -0.43513963711475678 0 0.07869668253710832 -0.44976138314380087 0 0.073045685341796507 -0.44030670341085659 0 0.089062934039491365 -0.43513963711475678 0 0.079253044147621424 -0.4807934535378286 0 0.090631695211391361 -0.45832967250771661 0 0.065662001957982885 -0.46158690707565392 0 0.07869668253710832 -0.44976138314380087 0 0.090631695211391361 -0.45832967250771661 0 0.065662001957982885 -0.46158690707565392 0 0.065662001957982885 -0.46158690707565392 0 0.068079244683758838 -0.44768743776819842 0 0.057126386200487281 -0.44511807211975518 0 0.068079244683758838 -0.44768743776819842 0 0.063570066275711365 -0.44065744826289921 0 0.073045685341796507 -0.44030670341085659 0 0.063570066275711365 -0.44065744826289921 0 0.073045685341796507 -0.44030670341085659 0 0.061906998613199288 -0.43219395807085498 0 0.068079244683758838 -0.44768743776819842 0 0.063570066275711365 -0.44065744826289921 0 0.057126386200487281 -0.44511807211975518 0 0.07869668253710832 -0.44976138314380087 0 0.068079244683758838 -0.44768743776819842 0 0.073045685341796507 -0.44030670341085659 0 0.07869668253710832 -0.44976138314380087 0 0.065662001957982885 -0.46158690707565392 0 0.068079244683758838 -0.44768743776819842 0 0.073045685341796507 -0.44030670341085659 0 0.067558478770120403 -0.41627970157383981 0 0.089062934039491365 -0.43513963711475678 0 0.073045685341796507 -0.44030670341085659 0 0.067558478770120403 -0.41627970157383981 0 0.073045685341796507 -0.44030670341085659 0 0.067558478770120403 -0.41627970157383981 0 0.061906998613199288 -0.43219395807085498 0 0.067558478770120403 -0.41627970157383981 0 0.083646326718276071 -0.41068474944142791 0 0.062071272198444293 -0.39225269973682292 0 0.067558478770120403 -0.41627970157383981 0 0.083646326718276071 -0.41068474944142791 0 0.089062934039491365 -0.43513963711475678 0 0.083646326718276071 -0.41068474944142791 0 0.089062934039491365 -0.43513963711475678 0 0.10128360184706039 -0.41582548307291523 0 0.083646326718276071 -0.41068474944142791 0 0.10128360184706039 -0.41582548307291523 0 0.092140401132512401 -0.39467913887124262 0 0.1104268025616084 -0.43697182727458789 0 0.10128360184706039 -0.41582548307291523 0 0.089062934039491365 -0.43513963711475678 0 0.1104268025616084 -0.43697182727458789 0 0.10128360184706039 -0.41582548307291523 0 0.12576992835246159 -0.4217661332975291 0 0.1104268025616084 -0.43697182727458789 0 0.10128360184706039 -0.41582548307291523 0 0.12576992835246159 -0.4217661332975291 0 0.13512402312352581 -0.44185709965307413 0 0.1104268025616084 -0.43697182727458789 0 0.12502042570686009 -0.40238312680533161 0 0.12576992835246159 -0.4217661332975291 0 0.10128360184706039 -0.41582548307291523 0 0.10128360184706039 -0.41582548307291523 0 0.092140401132512401 -0.39467913887124262 0 0.10128360184706039 -0.41582548307291523 0 0.1092157900240041 -0.39581939463949117 0 0.092140401132512401 -0.39467913887124262 0 0.12729728539988949 -0.38706415041518871 0 0.12502042570686009 -0.40238312680533161 0 0.1092157900240041 -0.39581939463949117 0 0.12502042570686009 -0.40238312680533161 0 0.10128360184706039 -0.41582548307291523 0 0.1092157900240041 -0.39581939463949117 0 0.13335205499517369 -0.36384694662136241 0 0.12729728539988949 -0.38706415041518871 0 0.1092969250358708 -0.37870616858118922 0 0.12729728539988949 -0.38706415041518871 0 0.1092157900240041 -0.39581939463949117 0 0.1092969250358708 -0.37870616858118922 0 0.1092969250358708 -0.37870616858118922 0 0.092140401132512401 -0.39467913887124262 0 0.095548053615924403 -0.37043356043309372 0 0.1092157900240041 -0.39581939463949117 0 0.1092969250358708 -0.37870616858118922 0 0.092140401132512401 -0.39467913887124262 0 0.092140401132512401 -0.39467913887124262 0 0.095548053615924403 -0.37043356043309372 0 0.079797954813813243 -0.37414621065104059 0 0.083646326718276071 -0.41068474944142791 0 0.092140401132512401 -0.39467913887124262 0 0.062071272198444293 -0.39225269973682292 0 0.067558478770120403 -0.41627970157383981 0 0.062071272198444293 -0.39225269973682292 0 0.092140401132512401 -0.39467913887124262 0 0.062071272198444293 -0.39225269973682292 0 0.079797954813813243 -0.37414621065104059 0 0.062071272198444293 -0.39225269973682292 0 0.079797954813813243 -0.37414621065104059 0 0.056584065626768182 -0.36822569789980603 0 0.062071272198444293 -0.39225269973682292 0 0.042101924376601457 -0.38588103033104992 0 0.056584065626768182 -0.36822569789980603 0 0.062071272198444293 -0.39225269973682292 0 0.056584065626768182 -0.36822569789980603 0 0.067558478770120403 -0.41627970157383981 0 0.062071272198444293 -0.39225269973682292 0 0.047754257828946142 -0.40673888177392448 0 0.062071272198444293 -0.39225269973682292 0 0.042101924376601457 -0.38588103033104992 0 0.047754257828946142 -0.40673888177392448 0 0.042101924376601457 -0.38588103033104992 0 0.025025848289174289 -0.39983538846695538 0 0.047754257828946142 -0.40673888177392448 0 0.042101924376601457 -0.38588103033104992 0 0.023383243730251541 -0.3760081255292782 0 0.037461454567348687 -0.37134887755677032 0 0.042101924376601457 -0.38588103033104992 0 0.056584065626768182 -0.36822569789980603 0 0.037461454567348687 -0.37134887755677032 0 0.042101924376601457 -0.38588103033104992 0 0.023383243730251541 -0.3760081255292782 0 0.025025848289174289 -0.39983538846695538 0 0.023383243730251541 -0.3760081255292782 0 0.025025848289174289 -0.39983538846695538 0 0.023383243730251541 -0.3760081255292782 0 0.011202095480052561 -0.38222296958521651 0 0.025025848289174289 -0.39983538846695538 0 -0.00568525042696946 -0.37842456367287702 0 -0.0006222275249309682 -0.38928598288879779 0 0.011202095480052561 -0.38222296958521651 0 -0.00568525042696946 -0.37842456367287702 0 0.011202095480052561 -0.38222296958521651 0 0.0073606813550033921 -0.36751964548334382 0 0.011202095480052561 -0.38222296958521651 0 0.0047818153486084581 -0.40074878757652083 0 0.025025848289174289 -0.39983538846695538 0 0.0047818153486084581 -0.40074878757652083 0 0.025025848289174289 -0.39983538846695538 0 0.0117148487393024 -0.41609386015685113 0 -0.0006222275249309682 -0.38928598288879779 0 0.011202095480052561 -0.38222296958521651 0 0.0047818153486084581 -0.40074878757652083 0 0.025025848289174289 -0.39983538846695538 0 0.026668452848097039 -0.42366265140463261 0 0.036529292764338459 -0.41482038106091262 0 0.025025848289174289 -0.39983538846695538 0 0.026668452848097039 -0.42366265140463261 0 0.025025848289174289 -0.39983538846695538 0 0.0117148487393024 -0.41609386015685113 0 0.026668452848097039 -0.42366265140463261 0 -0.0074561972421502698 -0.42101560817717493 0 0.0047818153486084581 -0.40074878757652083 0 0.0117148487393024 -0.41609386015685113 0 -0.0074561972421502698 -0.42101560817717493 0 0.0117148487393024 -0.41609386015685113 0 0.0095543244527824846 -0.43520686515897189 0 0.026668452848097039 -0.42366265140463261 0 0.02831105740701979 -0.44748991434230978 0 0.0095543244527824846 -0.43520686515897189 0 0.026668452848097039 -0.42366265140463261 0 0.02831105740701979 -0.44748991434230978 0 0.026668452848097039 -0.42366265140463261 0 0.03790074982848201 -0.42496395087523192 0 0.02831105740701979 -0.44748991434230978 0 0.0117148487393024 -0.41609386015685113 0 0.0095543244527824846 -0.43520686515897189 0 0.026668452848097039 -0.42366265140463261 0 0.045604041356245517 -0.43324146109304812 0 0.03790074982848201 -0.42496395087523192 0 0.02831105740701979 -0.44748991434230978 0 0.045604041356245517 -0.43324146109304812 0 0.03790074982848201 -0.42496395087523192 0 0.048590770442991378 -0.42864923716385672 0 0.03790074982848201 -0.42496395087523192 0 0.045297155026992802 -0.41890103278381863 0 0.048590770442991378 -0.42864923716385672 0 0.026668452848097039 -0.42366265140463261 0 0.03790074982848201 -0.42496395087523192 0 0.036529292764338459 -0.41482038106091262 0 0.025025848289174289 -0.39983538846695538 0 0.036529292764338459 -0.41482038106091262 0 0.047754257828946142 -0.40673888177392448 0 0.036529292764338459 -0.41482038106091262 0 0.045297155026992802 -0.41890103278381863 0 0.047754257828946142 -0.40673888177392448 0 0.03790074982848201 -0.42496395087523192 0 0.036529292764338459 -0.41482038106091262 0 0.045297155026992802 -0.41890103278381863 0 0.045297155026992802 -0.41890103278381863 0 0.047754257828946142 -0.40673888177392448 0 0.055767174738247841 -0.42180600971732468 0 0.067558478770120403 -0.41627970157383981 0 0.047754257828946142 -0.40673888177392448 0 0.055767174738247841 -0.42180600971732468 0 0.045604041356245517 -0.43324146109304812 0 0.048590770442991378 -0.42864923716385672 0 0.057126386200487281 -0.44511807211975518 0 0.067558478770120403 -0.41627970157383981 0 0.055767174738247841 -0.42180600971732468 0 0.061906998613199288 -0.43219395807085498 0 0.048590770442991378 -0.42864923716385672 0 0.057126386200487281 -0.44511807211975518 0 0.055767174738247841 -0.42180600971732468 0 0.061906998613199288 -0.43219395807085498 0 0.055661437922918423 -0.43040373508614549 0 0.057523042775455273 -0.43712589510231981 0 0.048590770442991378 -0.42864923716385672 0 0.057126386200487281 -0.44511807211975518 0 0.063570066275711365 -0.44065744826289921 0 0.061906998613199288 -0.43219395807085498 0 0.057523042775455273 -0.43712589510231981 0 0.061906998613199288 -0.43219395807085498 0 0.057523042775455273 -0.43712589510231981 0 0.055661437922918423 -0.43040373508614549 0 0.057523042775455273 -0.43712589510231981 0 0.055661437922918423 -0.43040373508614549 0 0.048590770442991378 -0.42864923716385672 0 0.055767174738247841 -0.42180600971732468 0 0.055661437922918423 -0.43040373508614549 0 0.048590770442991378 -0.42864923716385672 0 0.045297155026992802 -0.41890103278381863 0 0.055767174738247841 -0.42180600971732468 0 0.048590770442991378 -0.42864923716385672 0 0.065662001957982885 -0.46158690707565392 0 0.057126386200487281 -0.44511807211975518 0 0.055633021657114062 -0.44741418408435107 0 0.048286704675984587 -0.4451975002858698 0 0.055633021657114062 -0.44741418408435107 0 0.049940498406687003 -0.45368608631506291 0 0.045604041356245517 -0.43324146109304812 0 0.055633021657114062 -0.44741418408435107 0 0.045604041356245517 -0.43324146109304812 0 0.048286704675984587 -0.4451975002858698 0 0.055633021657114062 -0.44741418408435107 0 0.045604041356245517 -0.43324146109304812 0 0.057126386200487281 -0.44511807211975518 0 0.055633021657114062 -0.44741418408435107 0 0.063570066275711365 -0.44065744826289921 0 0.057523042775455273 -0.43712589510231981 0 0.057126386200487281 -0.44511807211975518 0 0.063389314311409414 -0.47420419790704182 0 0.065662001957982885 -0.46158690707565392 0 0.048992064468523118 -0.46447179543599182 0 0.065662001957982885 -0.46158690707565392 0 0.055633021657114062 -0.44741418408435107 0 0.049940498406687003 -0.45368608631506291 0 0.065662001957982885 -0.46158690707565392 0 0.057126386200487281 -0.44511807211975518 0 0.065662001957982885 -0.46158690707565392 0 0.048992064468523118 -0.46447179543599182 0 0.049940498406687003 -0.45368608631506291 0 0.065662001957982885 -0.46158690707565392 0 0.055633021657114062 -0.44741418408435107 0 0.039452682618340777 -0.45661842233775513 0 0.02831105740701979 -0.44748991434230978 0 0.029953661965942891 -0.4713171772799869 0 0.048992064468523118 -0.46447179543599182 0 0.049940498406687003 -0.45368608631506291 0 0.039452682618340777 -0.45661842233775513 0 0.048992064468523118 -0.46447179543599182 0 0.039452682618340777 -0.45661842233775513 0 0.029953661965942891 -0.4713171772799869 0 0.045604041356245517 -0.43324146109304812 0 0.041969257283891767 -0.44644826965101703 0 0.02831105740701979 -0.44748991434230978 0 0.039452682618340777 -0.45661842233775513 0 0.041969257283891767 -0.44644826965101703 0 0.02831105740701979 -0.44748991434230978 0 0.048286704675984587 -0.4451975002858698 0 0.049940498406687003 -0.45368608631506291 0 0.041969257283891767 -0.44644826965101703 0 0.049940498406687003 -0.45368608631506291 0 0.039452682618340777 -0.45661842233775513 0 0.041969257283891767 -0.44644826965101703 0 0.045604041356245517 -0.43324146109304812 0 0.048286704675984587 -0.4451975002858698 0 0.041969257283891767 -0.44644826965101703 0 0.0095543244527824846 -0.43520686515897189 0 0.02831105740701979 -0.44748991434230978 0 0.016000294833025851 -0.45395390220636778 0 -0.0078431527587624669 -0.43654892348980973 0 0.0095543244527824846 -0.43520686515897189 0 0.0003462931537320732 -0.449753717877452 0 0.0095543244527824846 -0.43520686515897189 0 0.0003462931537320732 -0.449753717877452 0 0.016000294833025851 -0.45395390220636778 0 -0.0062813875946388506 -0.46068649546624918 0 0.011836137185652041 -0.46600183637311798 0 0.0003462931537320732 -0.449753717877452 0 0.011836137185652041 -0.46600183637311798 0 0.016000294833025851 -0.45395390220636778 0 -0.0062813875946388506 -0.46068649546624918 0 0.0003462931537320732 -0.449753717877452 0 0.011836137185652041 -0.46600183637311798 0 -0.0062813875946388506 -0.46068649546624918 0 0.011836137185652041 -0.46600183637311798 0 0.00069556006081381754 -0.47298388299922328 0 0.011836137185652041 -0.46600183637311798 0 0.016000294833025851 -0.45395390220636778 0 0.029953661965942891 -0.4713171772799869 0 0.02831105740701979 -0.44748991434230978 0 0.016000294833025851 -0.45395390220636778 0 0.029953661965942891 -0.4713171772799869 0 0.011836137185652041 -0.46600183637311798 0 0.029953661965942891 -0.4713171772799869 0 0.02831105740701979 -0.44748991434230978 0 0.029953661965942891 -0.4713171772799869 0 0.011836137185652041 -0.46600183637311798 0 0.029953661965942891 -0.4713171772799869 0 0.01298219392324429 -0.48224849217764859 0 -0.0043354945670682028 -0.48500613191932068 0 0.01298219392324429 -0.48224849217764859 0 0.00069556006081381754 -0.47298388299922328 0 0.011836137185652041 -0.46600183637311798 0 0.01298219392324429 -0.48224849217764859 0 0.00069556006081381754 -0.47298388299922328 0 -0.0043354945670682028 -0.48500613191932068 0 0.01298219392324429 -0.48224849217764859 0 0.008025207391458955 -0.5 0 0.029953661965942891 -0.4713171772799869 0 0.031930999249116583 -0.49999999999999811 0 0.029953661965942891 -0.4713171772799869 0 0.01298219392324429 -0.48224849217764859 0 0.031930999249116583 -0.49999999999999811 0 0.01298219392324429 -0.48224849217764859 0 0.008025207391458955 -0.5 0 0.031930999249116583 -0.49999999999999811 0 0.029953661965942891 -0.4713171772799869 0 0.050997468428080339 -0.47749103417715583 0 0.048992064468523118 -0.46447179543599182 0 0.029953661965942891 -0.4713171772799869 0 0.050997468428080339 -0.47749103417715583 0 0.029953661965942891 -0.4713171772799869 0 0.031930999249116583 -0.49999999999999811 0 0.050997468428080339 -0.47749103417715583 0 0.072041274890217763 -0.4836648910743247 0 0.050997468428080339 -0.47749103417715583 0 0.057994564833227402 -0.48794296797725728 0 0.063389314311409414 -0.47420419790704182 0 0.072041274890217763 -0.4836648910743247 0 0.050997468428080339 -0.47749103417715583 0 0.072041274890217763 -0.4836648910743247 0 0.050997468428080339 -0.47749103417715583 0 0.063389314311409414 -0.47420419790704182 0 0.048992064468523118 -0.46447179543599182 0 0.050997468428080339 -0.47749103417715583 0 0.031930999249116583 -0.49999999999999811 0 0.050997468428080339 -0.47749103417715583 0 0.057994564833227402 -0.48794296797725728 0 0.031930999249116583 -0.49999999999999811 0 0.058751042079532627 -0.5 0 0.057994564833227402 -0.48794296797725728 0 0.08585896548991534 -0.28412459890481839 0 0.097732237866232585 -0.30405518583395302 0 0.08585896548991534 -0.28412459890481839 0 0.076411884321231596 -0.3001648697087812 0 0.097732237866232585 -0.30405518583395302 0 0.076411884321231596 -0.3001648697087812 0 0.097732237866232585 -0.30405518583395302 0 0.080076331460025824 -0.31500525750445663 0 0.076411884321231596 -0.3001648697087812 0 0.063476261252659025 -0.30321495739521598 0 0.057853492492634738 -0.28973436126141627 0 0.076411884321231596 -0.3001648697087812 0 0.080076331460025824 -0.31500525750445663 0 0.067503780996721302 -0.31306290803287329 0 0.076411884321231596 -0.3001648697087812 0 0.063476261252659025 -0.30321495739521598 0 0.067503780996721302 -0.31306290803287329 0 0.063476261252659025 -0.30321495739521598 0 0.067503780996721302 -0.31306290803287329 0 0.058490298182012943 -0.31070344664020833 0 0.079196447787395707 -0.27294083388801832 0 0.057853492492634738 -0.28973436126141627 0 0.08585896548991534 -0.28412459890481839 0 0.057853492492634738 -0.28973436126141627 0 0.08585896548991534 -0.28412459890481839 0 0.079196447787395707 -0.27294083388801832 0 0.057853492492634738 -0.28973436126141627 0 0.08585896548991534 -0.28412459890481839 0 0.076411884321231596 -0.3001648697087812 0 0.057853492492634738 -0.28973436126141627 0 0.076411884321231596 -0.3001648697087812 0 0.057853492492634738 -0.28973436126141627 0 0.079196447787395707 -0.27294083388801832 0 0.057853492492634738 -0.28973436126141627 0 0.060977270043786072 -0.27191351993786539 0 0.066883261619085435 -0.25227180352098671 0 0.079196447787395707 -0.27294083388801832 0 0.060977270043786072 -0.27191351993786539 0 0.066883261619085435 -0.25227180352098671 0 0.079196447787395707 -0.27294083388801832 0 0.066883261619085435 -0.25227180352098671 0 0.082021898643938315 -0.25674219528866549 0 0.079196447787395707 -0.27294083388801832 0 0.082021898643938315 -0.25674219528866549 0 0.094755719560205884 -0.26069814992892543 0 0.099595398467116653 -0.2477458686159098 0 0.082021898643938315 -0.25674219528866549 0 0.079196447787395707 -0.27294083388801832 0 0.094755719560205884 -0.26069814992892543 0 0.08585896548991534 -0.28412459890481839 0 0.079196447787395707 -0.27294083388801832 0 0.079196447787395707 -0.27294083388801832 0 0.094755719560205884 -0.26069814992892543 0 0.079196447787395707 -0.27294083388801832 0 0.09323429371911271 -0.27274881559127973 0 0.094755719560205884 -0.26069814992892543 0 0.08585896548991534 -0.28412459890481839 0 0.079196447787395707 -0.27294083388801832 0 0.09323429371911271 -0.27274881559127973 0 0.08585896548991534 -0.28412459890481839 0 0.09323429371911271 -0.27274881559127973 0 0.10759643300174671 -0.28003260287058362 0 0.09323429371911271 -0.27274881559127973 0 0.10930498848637001 -0.26389217757175321 0 0.094755719560205884 -0.26069814992892543 0 0.09323429371911271 -0.27274881559127973 0 0.10759643300174671 -0.28003260287058362 0 0.10930498848637001 -0.26389217757175321 0 0.10930498848637001 -0.26389217757175321 0 0.094755719560205884 -0.26069814992892543 0 0.099595398467116653 -0.2477458686159098 0 0.12933390051357599 -0.27594060683633709 0 0.10930498848637001 -0.26389217757175321 0 0.1221314744503164 -0.24898433523857991 0 0.10930498848637001 -0.26389217757175321 0 0.1221314744503164 -0.24898433523857991 0 0.099595398467116653 -0.2477458686159098 0 0.12933390051357599 -0.27594060683633709 0 0.10759643300174671 -0.28003260287058362 0 0.10930498848637001 -0.26389217757175321 0 0.12933390051357599 -0.27594060683633709 0 0.10759643300174671 -0.28003260287058362 0 0.12933390051357599 -0.27594060683633709 0 0.10759643300174671 -0.28003260287058362 0 0.1138080044978086 -0.29674814345662098 0 0.13155342607858059 -0.3048290349205045 0 0.12933390051357599 -0.27594060683633709 0 0.1138080044978086 -0.29674814345662098 0 0.08585896548991534 -0.28412459890481839 0 0.10759643300174671 -0.28003260287058362 0 0.10124891021392669 -0.29124013276649352 0 0.08585896548991534 -0.28412459890481839 0 0.10759643300174671 -0.28003260287058362 0 0.08585896548991534 -0.28412459890481839 0 0.10124891021392669 -0.29124013276649352 0 0.097732237866232585 -0.30405518583395302 0 0.10759643300174671 -0.28003260287058362 0 0.1138080044978086 -0.29674814345662098 0 0.10124891021392669 -0.29124013276649352 0 0.1138080044978086 -0.29674814345662098 0 0.097732237866232585 -0.30405518583395302 0 0.10960551024254631 -0.32398577276308937 0 0.1138080044978086 -0.29674814345662098 0 0.10124891021392669 -0.29124013276649352 0 0.097732237866232585 -0.30405518583395302 0 0.13155342607858059 -0.3048290349205045 0 0.1138080044978086 -0.29674814345662098 0 0.10960551024254631 -0.32398577276308937 0 0.12921888679364621 -0.32641851231157998 0 0.13155342607858059 -0.3048290349205045 0 0.10960551024254631 -0.32398577276308937 0 0.10960551024254631 -0.32398577276308937 0 0.1036118766144901 -0.34117257545117002 0 0.1214787826188599 -0.34391635969222589 0 0.12921888679364621 -0.32641851231157998 0 0.10960551024254631 -0.32398577276308937 0 0.1214787826188599 -0.34391635969222589 0 0.10960551024254631 -0.32398577276308937 0 0.1214787826188599 -0.34391635969222589 0 0.10960551024254631 -0.32398577276308937 0 0.1036118766144901 -0.34117257545117002 0 0.088901380575019215 -0.33055317797611228 0 0.1036118766144901 -0.34117257545117002 0 0.089550719723102454 -0.35226423864095729 0 0.088901380575019215 -0.33055317797611228 0 0.097732237866232585 -0.30405518583395302 0 0.10960551024254631 -0.32398577276308937 0 0.097732237866232585 -0.30405518583395302 0 0.10960551024254631 -0.32398577276308937 0 0.088901380575019215 -0.33055317797611228 0 0.13335205499517369 -0.36384694662136241 0 0.1092969250358708 -0.37870616858118922 0 0.1086624204260168 -0.35789723754621061 0 0.13335205499517369 -0.36384694662136241 0 0.1092969250358708 -0.37870616858118922 0 0.13335205499517369 -0.36384694662136241 0 0.1214787826188599 -0.34391635969222589 0 0.1086624204260168 -0.35789723754621061 0 0.1036118766144901 -0.34117257545117002 0 0.1214787826188599 -0.34391635969222589 0 0.1086624204260168 -0.35789723754621061 0 0.1036118766144901 -0.34117257545117002 0 0.1086624204260168 -0.35789723754621061 0 0.089550719723102454 -0.35226423864095729 0 0.1092969250358708 -0.37870616858118922 0 0.1086624204260168 -0.35789723754621061 0 0.095548053615924403 -0.37043356043309372 0 0.1086624204260168 -0.35789723754621061 0 0.095548053615924403 -0.37043356043309372 0 0.089550719723102454 -0.35226423864095729 0 0.095548053615924403 -0.37043356043309372 0 0.079797954813813243 -0.37414621065104059 0 0.089550719723102454 -0.35226423864095729 0 0.079797954813813243 -0.37414621065104059 0 0.089550719723102454 -0.35226423864095729 0 0.070427754159539044 -0.34723150370962619 0 0.079797954813813243 -0.37414621065104059 0 0.070427754159539044 -0.34723150370962619 0 0.056584065626768182 -0.36822569789980603 0 0.080076331460025824 -0.31500525750445663 0 0.088901380575019215 -0.33055317797611228 0 0.069832373540924392 -0.32719014597056317 0 0.097732237866232585 -0.30405518583395302 0 0.080076331460025824 -0.31500525750445663 0 0.088901380575019215 -0.33055317797611228 0 0.089550719723102454 -0.35226423864095729 0 0.070427754159539044 -0.34723150370962619 0 0.088901380575019215 -0.33055317797611228 0 0.070427754159539044 -0.34723150370962619 0 0.088901380575019215 -0.33055317797611228 0 0.069832373540924392 -0.32719014597056317 0 0.070427754159539044 -0.34723150370962619 0 0.069832373540924392 -0.32719014597056317 0 0.058902588690834971 -0.3318276945515754 0 0.080076331460025824 -0.31500525750445663 0 0.069832373540924392 -0.32719014597056317 0 0.067503780996721302 -0.31306290803287329 0 0.069832373540924392 -0.32719014597056317 0 0.067503780996721302 -0.31306290803287329 0 0.057546304215204312 -0.32034643278912611 0 0.067503780996721302 -0.31306290803287329 0 0.057546304215204312 -0.32034643278912611 0 0.058490298182012943 -0.31070344664020833 0 0.049324687316894572 -0.31347192622423459 0 0.057546304215204312 -0.32034643278912611 0 0.058490298182012943 -0.31070344664020833 0 0.049324687316894572 -0.31347192622423459 0 0.057546304215204312 -0.32034643278912611 0 0.045609652483415079 -0.32017169422577241 0 0.049324687316894572 -0.31347192622423459 0 0.045609652483415079 -0.32017169422577241 0 0.057546304215204312 -0.32034643278912611 0 0.058902588690834971 -0.3318276945515754 0 0.045609652483415079 -0.32017169422577241 0 0.069832373540924392 -0.32719014597056317 0 0.057546304215204312 -0.32034643278912611 0 0.058902588690834971 -0.3318276945515754 0 0.045609652483415079 -0.32017169422577241 0 0.05109685905509205 -0.34419869606278902 0 0.070427754159539044 -0.34723150370962619 0 0.058902588690834971 -0.3318276945515754 0 0.05109685905509205 -0.34419869606278902 0 0.058902588690834971 -0.3318276945515754 0 0.045609652483415079 -0.32017169422577241 0 0.05109685905509205 -0.34419869606278902 0 0.034140466815627171 -0.3408554526789202 0 0.031880315179375333 -0.32511768079220782 0 0.045609652483415079 -0.32017169422577241 0 0.034140466815627171 -0.3408554526789202 0 0.045609652483415079 -0.32017169422577241 0 0.05109685905509205 -0.34419869606278902 0 0.034140466815627171 -0.3408554526789202 0 0.045609652483415079 -0.32017169422577241 0 0.036226384610824391 -0.31729239523441011 0 0.045609652483415079 -0.32017169422577241 0 0.041582341294488151 -0.30253718164261428 0 0.031880315179375333 -0.32511768079220782 0 0.036226384610824391 -0.31729239523441011 0 0.045609652483415079 -0.32017169422577241 0 0.036226384610824391 -0.31729239523441011 0 0.025569233705855982 -0.31698343628275127 0 0.032391353709665067 -0.30976903400151279 0 0.070427754159539044 -0.34723150370962619 0 0.056584065626768182 -0.36822569789980603 0 0.05109685905509205 -0.34419869606278902 0 0.056584065626768182 -0.36822569789980603 0 0.05109685905509205 -0.34419869606278902 0 0.056584065626768182 -0.36822569789980603 0 0.05109685905509205 -0.34419869606278902 0 0.039676914912430847 -0.35744714677333889 0 0.034140466815627171 -0.3408554526789202 0 0.039676914912430847 -0.35744714677333889 0 0.02267128114783987 -0.36153921113206838 0 0.034140466815627171 -0.3408554526789202 0 0.05109685905509205 -0.34419869606278902 0 0.039676914912430847 -0.35744714677333889 0 0.056584065626768182 -0.36822569789980603 0 0.039676914912430847 -0.35744714677333889 0 0.037461454567348687 -0.37134887755677032 0 0.039676914912430847 -0.35744714677333889 0 0.037461454567348687 -0.37134887755677032 0 0.02267128114783987 -0.36153921113206838 0 0.023383243730251541 -0.3760081255292782 0 0.011202095480052561 -0.38222296958521651 0 0.02267128114783987 -0.36153921113206838 0 0.011202095480052561 -0.38222296958521651 0 0.02267128114783987 -0.36153921113206838 0 0.023383243730251541 -0.3760081255292782 0 0.037461454567348687 -0.37134887755677032 0 0.02267128114783987 -0.36153921113206838 0 0.034140466815627171 -0.3408554526789202 0 0.02267128114783987 -0.36153921113206838 0 0.014770631808847259 -0.34399262035130218 0 0.034140466815627171 -0.3408554526789202 0 0.02267128114783987 -0.36153921113206838 0 0.02267128114783987 -0.36153921113206838 0 0.014770631808847259 -0.34399262035130218 0 0.0090199656279246598 -0.35574437679676613 0 -0.00021004152280150541 -0.34505834623397807 0 0.014770631808847259 -0.34399262035130218 0 0.0090199656279246598 -0.35574437679676613 0 -0.00021004152280150541 -0.34505834623397807 0 -0.002778103095315558 -0.36055067034781829 0 0.0090199656279246598 -0.35574437679676613 0 0.011202095480052561 -0.38222296958521651 0 0.02267128114783987 -0.36153921113206838 0 0.0073606813550033921 -0.36751964548334382 0 0.02267128114783987 -0.36153921113206838 0 0.0090199656279246598 -0.35574437679676613 0 0.0073606813550033921 -0.36751964548334382 0 -0.002778103095315558 -0.36055067034781829 0 0.0090199656279246598 -0.35574437679676613 0 0.0073606813550033921 -0.36751964548334382 0 0.025569233705855982 -0.31698343628275127 0 0.019097044874351429 -0.32921566930516077 0 0.012509917873108831 -0.31663613026935528 0 0.025569233705855982 -0.31698343628275127 0 0.012509917873108831 -0.31663613026935528 0 0.021410887939685201 -0.3077017316889768 0 0.031880315179375333 -0.32511768079220782 0 0.036226384610824391 -0.31729239523441011 0 0.025569233705855982 -0.31698343628275127 0 0.031880315179375333 -0.32511768079220782 0 0.025569233705855982 -0.31698343628275127 0 0.019097044874351429 -0.32921566930516077 0 0.034140466815627171 -0.3408554526789202 0 0.014770631808847259 -0.34399262035130218 0 0.019097044874351429 -0.32921566930516077 0 0.034140466815627171 -0.3408554526789202 0 0.031880315179375333 -0.32511768079220782 0 0.019097044874351429 -0.32921566930516077 0 0.014770631808847259 -0.34399262035130218 0 0.019097044874351429 -0.32921566930516077 0 0.0048350536763056302 -0.33042627974929473 0 -0.00021004152280150541 -0.34505834623397807 0 0.014770631808847259 -0.34399262035130218 0 0.0048350536763056302 -0.33042627974929473 0 -0.002203952878236643 -0.31761401677738621 0 0.0048350536763056302 -0.33042627974929473 0 0.012509917873108831 -0.31663613026935528 0 0.019097044874351429 -0.32921566930516077 0 0.0048350536763056302 -0.33042627974929473 0 0.012509917873108831 -0.31663613026935528 0 -0.002203952878236643 -0.31761401677738621 0 0.012509917873108831 -0.31663613026935528 0 0.0074146879300698246 -0.30311090148314129 0 0.012509917873108831 -0.31663613026935528 0 0.0074146879300698246 -0.30311090148314129 0 0.021410887939685201 -0.3077017316889768 0 0.0074146879300698246 -0.30311090148314129 0 0.01194092872147535 -0.28592760852776461 0 0.01915878970511491 -0.29668065469405341 0 -0.0031157133319765899 -0.29145036636146848 0 0.0074146879300698246 -0.30311090148314129 0 0.01194092872147535 -0.28592760852776461 0 -0.0031157133319765899 -0.29145036636146848 0 0.01194092872147535 -0.28592760852776461 0 0.00035302559643605509 -0.28051265405829823 0 0.01915878970511491 -0.29668065469405341 0 0.039375701079837573 -0.29287489760091001 0 0.01915878970511491 -0.29668065469405341 0 0.026045401943442219 -0.28470057286217321 0 0.039375701079837573 -0.29287489760091001 0 0.01194092872147535 -0.28592760852776461 0 0.01915878970511491 -0.29668065469405341 0 0.026045401943442219 -0.28470057286217321 0 0.01915878970511491 -0.29668065469405341 0 0.030652985128849009 -0.30203204545509738 0 0.039375701079837573 -0.29287489760091001 0 0.0074146879300698246 -0.30311090148314129 0 0.01915878970511491 -0.29668065469405341 0 0.021410887939685201 -0.3077017316889768 0 0.01915878970511491 -0.29668065469405341 0 0.021410887939685201 -0.3077017316889768 0 0.030652985128849009 -0.30203204545509738 0 0.021410887939685201 -0.3077017316889768 0 0.030652985128849009 -0.30203204545509738 0 0.032391353709665067 -0.30976903400151279 0 0.025569233705855982 -0.31698343628275127 0 0.021410887939685201 -0.3077017316889768 0 0.032391353709665067 -0.30976903400151279 0 0.049324687316894572 -0.31347192622423459 0 0.045609652483415079 -0.32017169422577241 0 0.041582341294488151 -0.30253718164261428 0 0.032391353709665067 -0.30976903400151279 0 0.041582341294488151 -0.30253718164261428 0 0.030652985128849009 -0.30203204545509738 0 0.032391353709665067 -0.30976903400151279 0 0.041582341294488151 -0.30253718164261428 0 0.036226384610824391 -0.31729239523441011 0 0.032391353709665067 -0.30976903400151279 0 0.041582341294488151 -0.30253718164261428 0 0.045609652483415079 -0.32017169422577241 0 0.041582341294488151 -0.30253718164261428 0 0.041582341294488151 -0.30253718164261428 0 0.039375701079837573 -0.29287489760091001 0 0.030652985128849009 -0.30203204545509738 0 0.041582341294488151 -0.30253718164261428 0 0.039375701079837573 -0.29287489760091001 0 0.041582341294488151 -0.30253718164261428 0 0.039375701079837573 -0.29287489760091001 0 0.057853492492634738 -0.28973436126141627 0 0.057853492492634738 -0.28973436126141627 0 0.035831863086380762 -0.27735738411446681 0 0.039375701079837573 -0.29287489760091001 0 0.057853492492634738 -0.28973436126141627 0 0.035831863086380762 -0.27735738411446681 0 0.039375701079837573 -0.29287489760091001 0 0.035831863086380762 -0.27735738411446681 0 0.026045401943442219 -0.28470057286217321 0 0.039375701079837573 -0.29287489760091001 0 0.035831863086380762 -0.27735738411446681 0 0.041582341294488151 -0.30253718164261428 0 0.057853492492634738 -0.28973436126141627 0 0.039375701079837573 -0.29287489760091001 0 0.057853492492634738 -0.28973436126141627 0 0.057853492492634738 -0.28973436126141627 0 0.051782019104678979 -0.2784022626232443 0 0.035831863086380762 -0.27735738411446681 0 0.041582341294488151 -0.30253718164261428 0 0.057853492492634738 -0.28973436126141627 0 0.053936932617504173 -0.30368727387190497 0 0.063476261252659025 -0.30321495739521598 0 0.057853492492634738 -0.28973436126141627 0 0.053936932617504173 -0.30368727387190497 0 0.063476261252659025 -0.30321495739521598 0 0.058490298182012943 -0.31070344664020833 0 0.053936932617504173 -0.30368727387190497 0 0.049324687316894572 -0.31347192622423459 0 0.058490298182012943 -0.31070344664020833 0 0.053936932617504173 -0.30368727387190497 0 0.049324687316894572 -0.31347192622423459 0 0.041582341294488151 -0.30253718164261428 0 0.053936932617504173 -0.30368727387190497 0 0.066883261619085435 -0.25227180352098671 0 0.046279873384851247 -0.26396884219032313 0 0.043445012758553822 -0.24578009654999039 0 0.066883261619085435 -0.25227180352098671 0 0.060977270043786072 -0.27191351993786539 0 0.046279873384851247 -0.26396884219032313 0 0.057853492492634738 -0.28973436126141627 0 0.060977270043786072 -0.27191351993786539 0 0.051782019104678979 -0.2784022626232443 0 0.060977270043786072 -0.27191351993786539 0 0.051782019104678979 -0.2784022626232443 0 0.046279873384851247 -0.26396884219032313 0 0.035831863086380762 -0.27735738411446681 0 0.031962226848447767 -0.26041328773630312 0 0.046279873384851247 -0.26396884219032313 0 0.051782019104678979 -0.2784022626232443 0 0.035831863086380762 -0.27735738411446681 0 0.046279873384851247 -0.26396884219032313 0 0.035831863086380762 -0.27735738411446681 0 0.031962226848447767 -0.26041328773630312 0 0.035831863086380762 -0.27735738411446681 0 0.031962226848447767 -0.26041328773630312 0 0.02991824517294351 -0.26671729020115559 0 0.031494222752371508 -0.2583640236655419 0 0.031962226848447767 -0.26041328773630312 0 0.039631396961681019 -0.23937852512595101 0 0.031962226848447767 -0.26041328773630312 0 0.046279873384851247 -0.26396884219032313 0 0.043445012758553822 -0.24578009654999039 0 0.031494222752371508 -0.2583640236655419 0 0.031962226848447767 -0.26041328773630312 0 0.031962226848447767 -0.26041328773630312 0 0.043445012758553822 -0.24578009654999039 0 0.031494222752371508 -0.2583640236655419 0 0.025751460507721709 -0.25622772419303852 0 0.02480988610936662 -0.2496318394226151 0 0.025751460507721709 -0.25622772419303852 0 0.025475562637861549 -0.26011790908646049 0 0.021842936654481501 -0.25605842628594228 0 0.025751460507721709 -0.25622772419303852 0 0.021842936654481501 -0.25605842628594228 0 0.02480988610936662 -0.2496318394226151 0 0.031494222752371508 -0.2583640236655419 0 0.025751460507721709 -0.25622772419303852 0 0.025475562637861549 -0.26011790908646049 0 0.031962226848447767 -0.26041328773630312 0 0.025475562637861549 -0.26011790908646049 0 0.02391972712440207 -0.27066231937367102 0 0.031962226848447767 -0.26041328773630312 0 0.02391972712440207 -0.27066231937367102 0 0.031494222752371508 -0.2583640236655419 0 0.031962226848447767 -0.26041328773630312 0 0.025475562637861549 -0.26011790908646049 0 0.031962226848447767 -0.26041328773630312 0 0.02991824517294351 -0.26671729020115559 0 0.018009784686513639 -0.25830933344505552 0 0.02391972712440207 -0.27066231937367102 0 0.0111547783940929 -0.25755211759742641 0 0.025475562637861549 -0.26011790908646049 0 0.018009784686513639 -0.25830933344505552 0 0.021842936654481501 -0.25605842628594228 0 0.025475562637861549 -0.26011790908646049 0 0.018009784686513639 -0.25830933344505552 0 0.02391972712440207 -0.27066231937367102 0 0.018009784686513639 -0.25830933344505552 0 0.018128466722276911 -0.25245957338688901 0 0.021842936654481501 -0.25605842628594228 0 0.018009784686513639 -0.25830933344505552 0 0.018128466722276911 -0.25245957338688901 0 0.012807600045865781 -0.25214573074287522 0 0.018128466722276911 -0.25245957338688901 0 0.021842936654481501 -0.25605842628594228 0 0.02480988610936662 -0.2496318394226151 0 0.026045401943442219 -0.28470057286217321 0 0.035831863086380762 -0.27735738411446681 0 0.02391972712440207 -0.27066231937367102 0 0.035831863086380762 -0.27735738411446681 0 0.02391972712440207 -0.27066231937367102 0 0.035831863086380762 -0.27735738411446681 0 0.02391972712440207 -0.27066231937367102 0 0.02991824517294351 -0.26671729020115559 0 0.031962226848447767 -0.26041328773630312 0 0.02391972712440207 -0.27066231937367102 0 0.02991824517294351 -0.26671729020115559 0 0.01194092872147535 -0.28592760852776461 0 0.02391972712440207 -0.27066231937367102 0 0.01194092872147535 -0.28592760852776461 0 0.026045401943442219 -0.28470057286217321 0 0.02391972712440207 -0.27066231937367102 0 0.02391972712440207 -0.27066231937367102 0 0.0041559861457207987 -0.2667883671998123 0 0.007293366333675326 -0.27396179620887001 0 0.01194092872147535 -0.28592760852776461 0 0.02391972712440207 -0.27066231937367102 0 0.007293366333675326 -0.27396179620887001 0 -0.0034276493682687168 -0.27073779767278261 0 0.0041559861457207987 -0.2667883671998123 0 0.007293366333675326 -0.27396179620887001 0 0.01194092872147535 -0.28592760852776461 0 0.00035302559643605509 -0.28051265405829823 0 0.007293366333675326 -0.27396179620887001 0 -0.0034276493682687168 -0.27073779767278261 0 0.00035302559643605509 -0.28051265405829823 0 0.007293366333675326 -0.27396179620887001 0 0.02391972712440207 -0.27066231937367102 0 0.0111547783940929 -0.25755211759742641 0 0.00044770008536651468 -0.25747016465634998 0 0.02391972712440207 -0.27066231937367102 0 0.0041559861457207987 -0.2667883671998123 0 0.00044770008536651468 -0.25747016465634998 0 0.02391972712440207 -0.27066231937367102 0 0.00044770008536651468 -0.25747016465634998 0 0.0089412223158049295 -0.25238844884700401 0 0.001965852013247726 -0.25181915572125679 0 0.01350144213559065 -0.2458962219538556 0 0.0111547783940929 -0.25755211759742641 0 0.0089412223158049295 -0.25238844884700401 0 0.012807600045865781 -0.25214573074287522 0 0.0111547783940929 -0.25755211759742641 0 0.0089412223158049295 -0.25238844884700401 0 0.0052764389902275888 -0.25452901821960611 0 0.0089412223158049295 -0.25238844884700401 0 0.012807600045865781 -0.25214573074287522 0 0.01350144213559065 -0.2458962219538556 0 0.018128466722276911 -0.25245957338688901 0 0.012807600045865781 -0.25214573074287522 0 0.01350144213559065 -0.2458962219538556 0 0.018009784686513639 -0.25830933344505552 0 0.0111547783940929 -0.25755211759742641 0 0.012807600045865781 -0.25214573074287522 0 0.00044770008536651468 -0.25747016465634998 0 0.0052764389902275888 -0.25452901821960611 0 0.001965852013247726 -0.25181915572125679 0 0.0111547783940929 -0.25755211759742641 0 0.00044770008536651468 -0.25747016465634998 0 0.0052764389902275888 -0.25452901821960611 0 0.0089412223158049295 -0.25238844884700401 0 0.0052764389902275888 -0.25452901821960611 0 0.001965852013247726 -0.25181915572125679 0 -0.0065717207650596949 -0.23493399075324439 0 0.001965852013247726 -0.25181915572125679 0 0.012238409882551919 -0.23288999223033049 0 0.001965852013247726 -0.25181915572125679 0 0.01350144213559065 -0.2458962219538556 0 0.012238409882551919 -0.23288999223033049 0 0.001965852013247726 -0.25181915572125679 0 0.012238409882551919 -0.23288999223033049 0 -0.0065717207650596949 -0.23493399075324439 0 -0.00070609683817438268 -0.21323582989178941 0 0.012238409882551919 -0.23288999223033049 0 -0.00070609683817438268 -0.21323582989178941 0 0.012238409882551919 -0.23288999223033049 0 0.02251096775185607 -0.21396082873940431 0 0.012238409882551919 -0.23288999223033049 0 0.02251096775185607 -0.21396082873940431 0 0.012238409882551919 -0.23288999223033049 0 0.030034365943566069 -0.22789371891195889 0 0.02251096775185607 -0.21396082873940431 0 0.012238409882551919 -0.23288999223033049 0 0.030034365943566069 -0.22789371891195889 0 0.024204283496205549 -0.23861895863727739 0 0.024204283496205549 -0.23861895863727739 0 0.02480988610936662 -0.2496318394226151 0 0.039631396961681019 -0.23937852512595101 0 0.01350144213559065 -0.2458962219538556 0 0.024204283496205549 -0.23861895863727739 0 0.02480988610936662 -0.2496318394226151 0 0.018128466722276911 -0.25245957338688901 0 0.01350144213559065 -0.2458962219538556 0 0.02480988610936662 -0.2496318394226151 0 0.01350144213559065 -0.2458962219538556 0 0.012238409882551919 -0.23288999223033049 0 0.024204283496205549 -0.23861895863727739 0 -0.00070609683817438268 -0.21323582989178941 0 -0.0053347481446384386 -0.19008994740323579 0 0.01387834787803964 -0.19722463815592101 0 -0.00070609683817438268 -0.21323582989178941 0 0.01387834787803964 -0.19722463815592101 0 0.02251096775185607 -0.21396082873940431 0 0.02251096775185607 -0.21396082873940431 0 0.032783525621156558 -0.19503166524847609 0 0.01387834787803964 -0.19722463815592101 0 0.02251096775185607 -0.21396082873940431 0 0.032783525621156558 -0.19503166524847609 0 0.01387834787803964 -0.19722463815592101 0 0.032783525621156558 -0.19503166524847609 0 0.02013809100000025 -0.17380491949669821 0 0.046496558580929527 -0.19054153670628951 0 0.032783525621156558 -0.19503166524847609 0 0.052494334867203743 -0.203174330522117 0 0.032783525621156558 -0.19503166524847609 0 0.046942843857023638 -0.21879963030587099 0 0.032783525621156558 -0.19503166524847609 0 0.052494334867203743 -0.203174330522117 0 0.046942843857023638 -0.21879963030587099 0 0.02251096775185607 -0.21396082873940431 0 0.032783525621156558 -0.19503166524847609 0 0.046942843857023638 -0.21879963030587099 0 0.052494334867203743 -0.203174330522117 0 0.046942843857023638 -0.21879963030587099 0 0.068302199082871939 -0.2141031182726727 0 0.052494334867203743 -0.203174330522117 0 0.068302199082871939 -0.2141031182726727 0 0.064787944054822549 -0.19736574312105401 0 0.052494334867203743 -0.203174330522117 0 0.046942843857023638 -0.21879963030587099 0 0.046496558580929527 -0.19054153670628951 0 0.052494334867203743 -0.203174330522117 0 0.05804582587737428 -0.1875490307383596 0 0.052494334867203743 -0.203174330522117 0 0.05804582587737428 -0.1875490307383596 0 0.052494334867203743 -0.203174330522117 0 0.05804582587737428 -0.1875490307383596 0 0.064787944054822549 -0.19736574312105401 0 0.05804582587737428 -0.1875490307383596 0 0.064787944054822549 -0.19736574312105401 0 0.063063037731694194 -0.18539877268072499 0 0.031494222752371508 -0.2583640236655419 0 0.02480988610936662 -0.2496318394226151 0 0.039631396961681019 -0.23937852512595101 0 0.031962226848447767 -0.26041328773630312 0 0.039631396961681019 -0.23937852512595101 0 0.043445012758553822 -0.24578009654999039 0 0.031962226848447767 -0.26041328773630312 0 0.039631396961681019 -0.23937852512595101 0 0.039631396961681019 -0.23937852512595101 0 0.043445012758553822 -0.24578009654999039 0 0.054570075450778743 -0.23160277315395311 0 0.030034365943566069 -0.22789371891195889 0 0.024204283496205549 -0.23861895863727739 0 0.039631396961681019 -0.23937852512595101 0 0.039631396961681019 -0.23937852512595101 0 0.046942843857023638 -0.21879963030587099 0 0.030034365943566069 -0.22789371891195889 0 0.02251096775185607 -0.21396082873940431 0 0.046942843857023638 -0.21879963030587099 0 0.030034365943566069 -0.22789371891195889 0 0.039631396961681019 -0.23937852512595101 0 0.046942843857023638 -0.21879963030587099 0 0.054570075450778743 -0.23160277315395311 0 0.068302199082871939 -0.2141031182726727 0 0.039631396961681019 -0.23937852512595101 0 0.054570075450778743 -0.23160277315395311 0 0.046942843857023638 -0.21879963030587099 0 0.054570075450778743 -0.23160277315395311 0 0.046942843857023638 -0.21879963030587099 0 0.068302199082871939 -0.2141031182726727 0 0.054570075450778743 -0.23160277315395311 0 0.046942843857023638 -0.21879963030587099 0 0.066883261619085435 -0.25227180352098671 0 0.043445012758553822 -0.24578009654999039 0 0.054570075450778743 -0.23160277315395311 0 0.066883261619085435 -0.25227180352098671 0 0.054570075450778743 -0.23160277315395311 0 0.043445012758553822 -0.24578009654999039 0 0.054570075450778743 -0.23160277315395311 0 0.066883261619085435 -0.25227180352098671 0 0.085505832286643796 -0.23899952398377439 0 0.071551108049484766 -0.23072043762415331 0 0.066883261619085435 -0.25227180352098671 0 0.054570075450778743 -0.23160277315395311 0 0.071551108049484766 -0.23072043762415331 0 0.082021898643938315 -0.25674219528866549 0 0.085505832286643796 -0.23899952398377439 0 0.099595398467116653 -0.2477458686159098 0 0.066883261619085435 -0.25227180352098671 0 0.082021898643938315 -0.25674219528866549 0 0.085505832286643796 -0.23899952398377439 0 0.085505832286643796 -0.23899952398377439 0 0.086641066095933791 -0.21888722290745291 0 0.1070883010191572 -0.23164363494466539 0 0.085505832286643796 -0.23899952398377439 0 0.086641066095933791 -0.21888722290745291 0 0.071551108049484766 -0.23072043762415331 0 0.054570075450778743 -0.23160277315395311 0 0.071551108049484766 -0.23072043762415331 0 0.068302199082871939 -0.2141031182726727 0 0.086641066095933791 -0.21888722290745291 0 0.071551108049484766 -0.23072043762415331 0 0.068302199082871939 -0.2141031182726727 0 0.068302199082871939 -0.2141031182726727 0 0.082034322714968966 -0.19660346339139509 0 0.068302199082871939 -0.2141031182726727 0 0.064787944054822549 -0.19736574312105401 0 0.082034322714968966 -0.19660346339139509 0 0.064787944054822549 -0.19736574312105401 0 0.082034322714968966 -0.19660346339139509 0 0.063063037731694194 -0.18539877268072499 0 0.082034322714968966 -0.19660346339139509 0 0.063063037731694194 -0.18539877268072499 0 0.082034322714968966 -0.19660346339139509 0 0.078276736471739189 -0.18508285443134051 0 0.063063037731694194 -0.18539877268072499 0 0.085908455596142463 -0.19166642741638959 0 0.082034322714968966 -0.19660346339139509 0 0.10336625358227269 -0.19269635062253271 0 0.085908455596142463 -0.19166642741638959 0 0.082034322714968966 -0.19660346339139509 0 0.078276736471739189 -0.18508285443134051 0 0.085908455596142463 -0.19166642741638959 0 0.082034322714968966 -0.19660346339139509 0 0.086641066095933791 -0.21888722290745291 0 0.068302199082871939 -0.2141031182726727 0 0.082034322714968966 -0.19660346339139509 0 0.082034322714968966 -0.19660346339139509 0 0.1049130814786782 -0.21011595956745421 0 0.086641066095933791 -0.21888722290745291 0 0.082034322714968966 -0.19660346339139509 0 0.1049130814786782 -0.21011595956745421 0 0.082034322714968966 -0.19660346339139509 0 0.1049130814786782 -0.21011595956745421 0 0.10336625358227269 -0.19269635062253271 0 0.085908455596142463 -0.19166642741638959 0 0.10336625358227269 -0.19269635062253271 0 0.09453411478771373 -0.18467375332551089 0 0.10336625358227269 -0.19269635062253271 0 0.1227939191788778 -0.2013027373632631 0 0.1229208327562098 -0.17843487112377801 0 0.1049130814786782 -0.21011595956745421 0 0.10336625358227269 -0.19269635062253271 0 0.1227939191788778 -0.2013027373632631 0 0.1049130814786782 -0.21011595956745421 0 0.12779184024238771 -0.22362845574351259 0 0.1049130814786782 -0.21011595956745421 0 0.1227939191788778 -0.2013027373632631 0 0.12779184024238771 -0.22362845574351259 0 0.1049130814786782 -0.21011595956745421 0 0.1070883010191572 -0.23164363494466539 0 0.12779184024238771 -0.22362845574351259 0 0.1221314744503164 -0.24898433523857991 0 0.099595398467116653 -0.2477458686159098 0 0.1070883010191572 -0.23164363494466539 0 0.1221314744503164 -0.24898433523857991 0 0.1070883010191572 -0.23164363494466539 0 0.12779184024238771 -0.22362845574351259 0 0.085505832286643796 -0.23899952398377439 0 0.099595398467116653 -0.2477458686159098 0 0.1070883010191572 -0.23164363494466539 0 0.086641066095933791 -0.21888722290745291 0 0.1049130814786782 -0.21011595956745421 0 0.1070883010191572 -0.23164363494466539 0 0.098278757088387236 -0.14149009274827551 0 0.1101537058271549 -0.1332121008651832 0 0.1098976636517959 -0.15643609725092589 0 0.098278757088387236 -0.14149009274827551 0 0.1098976636517959 -0.15643609725092589 0 0.091183851641917169 -0.15466554380652811 0 0.098278757088387236 -0.14149009274827551 0 0.1101537058271549 -0.1332121008651832 0 0.099834221573199766 -0.1245455224631231 0 0.098278757088387236 -0.14149009274827551 0 0.090214943702059486 -0.13398325681541709 0 0.099834221573199766 -0.1245455224631231 0 0.1101537058271549 -0.1332121008651832 0 0.12439711383699339 -0.1303924827288343 0 0.1226028682935372 -0.14368364856233329 0 0.1226028682935372 -0.14368364856233329 0 0.1098976636517959 -0.15643609725092589 0 0.13201949680868541 -0.15666236536338729 0 0.1101537058271549 -0.1332121008651832 0 0.1098976636517959 -0.15643609725092589 0 0.1101537058271549 -0.1332121008651832 0 0.1226028682935372 -0.14368364856233329 0 0.1098976636517959 -0.15643609725092589 0 0.1098976636517959 -0.15643609725092589 0 0.1229208327562098 -0.17843487112377801 0 0.13201949680868541 -0.15666236536338729 0 0.1098976636517959 -0.15643609725092589 0 0.1229208327562098 -0.17843487112377801 0 0.1018274774610015 -0.17619454187851449 0 0.10336625358227269 -0.19269635062253271 0 0.1018274774610015 -0.17619454187851449 0 0.09453411478771373 -0.18467375332551089 0 0.10336625358227269 -0.19269635062253271 0 0.1229208327562098 -0.17843487112377801 0 0.1018274774610015 -0.17619454187851449 0 0.1018274774610015 -0.17619454187851449 0 0.094123957453014745 -0.16620179594025619 0 0.087034272511438193 -0.17813769338460669 0 0.1018274774610015 -0.17619454187851449 0 0.09453411478771373 -0.18467375332551089 0 0.087034272511438193 -0.17813769338460669 0 0.1098976636517959 -0.15643609725092589 0 0.094123957453014745 -0.16620179594025619 0 0.091183851641917169 -0.15466554380652811 0 0.1098976636517959 -0.15643609725092589 0 0.1018274774610015 -0.17619454187851449 0 0.094123957453014745 -0.16620179594025619 0 0.094123957453014745 -0.16620179594025619 0 0.080676521998920975 -0.16557510338070569 0 0.091183851641917169 -0.15466554380652811 0 0.094123957453014745 -0.16620179594025619 0 0.080676521998920975 -0.16557510338070569 0 0.087034272511438193 -0.17813769338460669 0 0.080676521998920975 -0.16557510338070569 0 0.080700514442553037 -0.15354585875775639 0 0.091183851641917169 -0.15466554380652811 0 0.085908455596142463 -0.19166642741638959 0 0.09453411478771373 -0.18467375332551089 0 0.087034272511438193 -0.17813769338460669 0 0.080676521998920975 -0.16557510338070569 0 0.087034272511438193 -0.17813769338460669 0 0.074799238412422739 -0.1763828413530153 0 0.087034272511438193 -0.17813769338460669 0 0.078276736471739189 -0.18508285443134051 0 0.074799238412422739 -0.1763828413530153 0 0.085908455596142463 -0.19166642741638959 0 0.087034272511438193 -0.17813769338460669 0 0.078276736471739189 -0.18508285443134051 0 0.074799238412422739 -0.1763828413530153 0 0.063063037731694194 -0.18539877268072499 0 0.064945623348321158 -0.16771978288769829 0 0.078276736471739189 -0.18508285443134051 0 0.074799238412422739 -0.1763828413530153 0 0.063063037731694194 -0.18539877268072499 0 0.080676521998920975 -0.16557510338070569 0 0.074799238412422739 -0.1763828413530153 0 0.064945623348321158 -0.16771978288769829 0 0.080676521998920975 -0.16557510338070569 0 0.064945623348321158 -0.16771978288769829 0 0.068040287921465922 -0.15251947350072129 0 0.080676521998920975 -0.16557510338070569 0 0.068040287921465922 -0.15251947350072129 0 0.080700514442553037 -0.15354585875775639 0 0.068040287921465922 -0.15251947350072129 0 0.082901396207908096 -0.14142331434307059 0 0.059305566968197977 -0.1350513733001131 0 0.068040287921465922 -0.15251947350072129 0 0.080700514442553037 -0.15354585875775639 0 0.082901396207908096 -0.14142331434307059 0 0.080700514442553037 -0.15354585875775639 0 0.082901396207908096 -0.14142331434307059 0 0.091183851641917169 -0.15466554380652811 0 0.098278757088387236 -0.14149009274827551 0 0.082901396207908096 -0.14142331434307059 0 0.091183851641917169 -0.15466554380652811 0 0.090214943702059486 -0.13398325681541709 0 0.080695221397176914 -0.13166119830426429 0 0.088271273640455797 -0.1176245708254267 0 0.090214943702059486 -0.13398325681541709 0 0.088271273640455797 -0.1176245708254267 0 0.099834221573199766 -0.1245455224631231 0 0.090214943702059486 -0.13398325681541709 0 0.088271273640455797 -0.1176245708254267 0 0.098278757088387236 -0.14149009274827551 0 0.082901396207908096 -0.14142331434307059 0 0.090214943702059486 -0.13398325681541709 0 0.082901396207908096 -0.14142331434307059 0 0.090214943702059486 -0.13398325681541709 0 0.080695221397176914 -0.13166119830426429 0 0.082901396207908096 -0.14142331434307059 0 0.059305566968197977 -0.1350513733001131 0 0.082901396207908096 -0.14142331434307059 0 0.080695221397176914 -0.13166119830426429 0 0.059305566968197977 -0.1350513733001131 0 0.080695221397176914 -0.13166119830426429 0 0.070880455032640316 -0.12703424167724131 0 0.059305566968197977 -0.1350513733001131 0 0.080695221397176914 -0.13166119830426429 0 0.070880455032640316 -0.12703424167724131 0 0.076449217850295209 -0.1191494864398199 0 0.070880455032640316 -0.12703424167724131 0 0.059305566968197977 -0.1350513733001131 0 0.063677356079034908 -0.1206279022799138 0 0.047329417526337569 -0.12546641612577841 0 0.059305566968197977 -0.1350513733001131 0 0.037807605386059498 -0.12816141403442091 0 0.059305566968197977 -0.1350513733001131 0 0.049334035175127328 -0.14700533626109349 0 0.04200191797950064 -0.13939391156312561 0 0.059305566968197977 -0.1350513733001131 0 0.035709737728487068 -0.12867943225715869 0 0.059305566968197977 -0.1350513733001131 0 0.053750910988629948 -0.1219491688831639 0 0.063677356079034908 -0.1206279022799138 0 0.047329417526337569 -0.12546641612577841 0 0.059305566968197977 -0.1350513733001131 0 0.053750910988629948 -0.1219491688831639 0 0.068040287921465922 -0.15251947350072129 0 0.059305566968197977 -0.1350513733001131 0 0.049334035175127328 -0.14700533626109349 0 0.068040287921465922 -0.15251947350072129 0 0.049334035175127328 -0.14700533626109349 0 0.052987955759453698 -0.1578011170058076 0 0.049334035175127328 -0.14700533626109349 0 0.052987955759453698 -0.1578011170058076 0 0.040370715073650747 -0.16006781729825431 0 0.049334035175127328 -0.14700533626109349 0 0.035806449859008181 -0.14824506945407859 0 0.04200191797950064 -0.13939391156312561 0 0.049334035175127328 -0.14700533626109349 0 0.035806449859008181 -0.14824506945407859 0 0.040370715073650747 -0.16006781729825431 0 0.035806449859008181 -0.14824506945407859 0 0.04200191797950064 -0.13939391156312561 0 0.03002604744299538 -0.1391504234945152 0 0.035709737728487068 -0.12867943225715869 0 0.04200191797950064 -0.13939391156312561 0 0.03002604744299538 -0.1391504234945152 0 0.059305566968197977 -0.1350513733001131 0 0.035709737728487068 -0.12867943225715869 0 0.04200191797950064 -0.13939391156312561 0 0.059305566968197977 -0.1350513733001131 0 0.035709737728487068 -0.12867943225715869 0 0.037807605386059498 -0.12816141403442091 0 0.035709737728487068 -0.12867943225715869 0 0.037807605386059498 -0.12816141403442091 0 0.034099082418902298 -0.1208448758167366 0 0.035709737728487068 -0.12867943225715869 0 0.037807605386059498 -0.12816141403442091 0 0.047329417526337569 -0.12546641612577841 0 0.037807605386059498 -0.12816141403442091 0 0.041001164035275053 -0.1234053008799143 0 0.063063037731694194 -0.18539877268072499 0 0.064945623348321158 -0.16771978288769829 0 0.044091752748419387 -0.1741940819700549 0 0.063063037731694194 -0.18539877268072499 0 0.044091752748419387 -0.1741940819700549 0 0.046496558580929527 -0.19054153670628951 0 0.05804582587737428 -0.1875490307383596 0 0.044091752748419387 -0.1741940819700549 0 0.05804582587737428 -0.1875490307383596 0 0.063063037731694194 -0.18539877268072499 0 0.044091752748419387 -0.1741940819700549 0 0.052987955759453698 -0.1578011170058076 0 0.044091752748419387 -0.1741940819700549 0 0.064945623348321158 -0.16771978288769829 0 0.052987955759453698 -0.1578011170058076 0 0.044091752748419387 -0.1741940819700549 0 0.064945623348321158 -0.16771978288769829 0 0.068040287921465922 -0.15251947350072129 0 0.052987955759453698 -0.1578011170058076 0 0.040370715073650747 -0.16006781729825431 0 0.044091752748419387 -0.1741940819700549 0 0.025792204563628799 -0.16338612785749079 0 0.044091752748419387 -0.1741940819700549 0 0.025792204563628799 -0.16338612785749079 0 0.052987955759453698 -0.1578011170058076 0 0.040370715073650747 -0.16006781729825431 0 0.044091752748419387 -0.1741940819700549 0 0.035806449859008181 -0.14824506945407859 0 0.040370715073650747 -0.16006781729825431 0 0.025792204563628799 -0.16338612785749079 0 0.032783525621156558 -0.19503166524847609 0 0.044091752748419387 -0.1741940819700549 0 0.046496558580929527 -0.19054153670628951 0 0.032783525621156558 -0.19503166524847609 0 0.044091752748419387 -0.1741940819700549 0 0.032783525621156558 -0.19503166524847609 0 0.044091752748419387 -0.1741940819700549 0 0.02013809100000025 -0.17380491949669821 0 0.032783525621156558 -0.19503166524847609 0 0.02013809100000025 -0.17380491949669821 0 0.02013809100000025 -0.17380491949669821 0 0.025792204563628799 -0.16338612785749079 0 0.0074926563788405426 -0.1525781737449225 0 0.025792204563628799 -0.16338612785749079 0 0.0074926563788405426 -0.1525781737449225 0 0.044091752748419387 -0.1741940819700549 0 0.02013809100000025 -0.17380491949669821 0 0.025792204563628799 -0.16338612785749079 0 -0.003377803538905752 -0.16870184081923839 0 0.02013809100000025 -0.17380491949669821 0 0.0074926563788405426 -0.1525781737449225 0 0.02013809100000025 -0.17380491949669821 0 0.0074926563788405426 -0.1525781737449225 0 -0.0053347481446384386 -0.19008994740323579 0 0.01387834787803964 -0.19722463815592101 0 0.02013809100000025 -0.17380491949669821 0 -0.003377803538905752 -0.16870184081923839 0 -0.0053347481446384386 -0.19008994740323579 0 0.02013809100000025 -0.17380491949669821 0 0.035709737728487068 -0.12867943225715869 0 0.017587494333560751 -0.1331542866559344 0 0.035709737728487068 -0.12867943225715869 0 0.017587494333560751 -0.1331542866559344 0 0.03002604744299538 -0.1391504234945152 0 0.035709737728487068 -0.12867943225715869 0 0.01842402975490182 -0.1240115093384685 0 0.035709737728487068 -0.12867943225715869 0 0.017587494333560751 -0.1331542866559344 0 0.01842402975490182 -0.1240115093384685 0 0.017587494333560751 -0.1331542866559344 0 0.03002604744299538 -0.1391504234945152 0 0.021703951590350021 -0.14762881171653289 0 0.025792204563628799 -0.16338612785749079 0 0.021703951590350021 -0.14762881171653289 0 0.0074926563788405426 -0.1525781737449225 0 0.035806449859008181 -0.14824506945407859 0 0.03002604744299538 -0.1391504234945152 0 0.021703951590350021 -0.14762881171653289 0 0.035806449859008181 -0.14824506945407859 0 0.025792204563628799 -0.16338612785749079 0 0.021703951590350021 -0.14762881171653289 0 0.017587494333560751 -0.1331542866559344 0 0.021703951590350021 -0.14762881171653289 0 0.0091195363095849368 -0.14197948820917419 0 0.021703951590350021 -0.14762881171653289 0 0.0091195363095849368 -0.14197948820917419 0 0.0074926563788405426 -0.1525781737449225 0 -0.001420858933149791 -0.14731373423524299 0 -0.003377803538905752 -0.16870184081923839 0 0.0074926563788405426 -0.1525781737449225 0 -0.001420858933149791 -0.14731373423524299 0 0.0074926563788405426 -0.1525781737449225 0 -0.00065167169345917457 -0.13890702787376791 0 -0.001420858933149791 -0.14731373423524299 0 0.0074926563788405426 -0.1525781737449225 0 -0.00065167169345917457 -0.13890702787376791 0 0.0074926563788405426 -0.1525781737449225 0 -0.00065167169345917457 -0.13890702787376791 0 0.0091195363095849368 -0.14197948820917419 0 0.0074926563788405426 -0.1525781737449225 0 -0.00065167169345917457 -0.13890702787376791 0 0.017587494333560751 -0.1331542866559344 0 -0.00065167169345917457 -0.13890702787376791 0 0.0081596983353319757 -0.12768201407897009 0 0.001138321781315315 -0.1193435864197827 0 -0.00065167169345917457 -0.13890702787376791 0 0.017587494333560751 -0.1331542866559344 0 0.0081596983353319757 -0.12768201407897009 0 -0.00065167169345917457 -0.13890702787376791 0 0.001138321781315315 -0.1193435864197827 0 -0.00065167169345917457 -0.13890702787376791 0 0.017587494333560751 -0.1331542866559344 0 0.0091195363095849368 -0.14197948820917419 0 0.017587494333560751 -0.1331542866559344 0 0.0081596983353319757 -0.12768201407897009 0 0.01842402975490182 -0.1240115093384685 0 0.001138321781315315 -0.1193435864197827 0 0.01842402975490182 -0.1240115093384685 0 0.0081596983353319757 -0.12768201407897009 0 0.001138321781315315 -0.1193435864197827 0 0.01842402975490182 -0.1240115093384685 0 0.001138321781315315 -0.1193435864197827 0 0.010938221621873381 -0.1150994956279314 0 0.01842402975490182 -0.1240115093384685 0 0.001676738841527552 -0.1134590450603037 0 0.010938221621873381 -0.1150994956279314 0 0.010817928375751471 -0.1062344141394222 0 0.001138321781315315 -0.1193435864197827 0 0.001676738841527552 -0.1134590450603037 0 0.010938221621873381 -0.1150994956279314 0 0.001138321781315315 -0.1193435864197827 0 0.001676738841527552 -0.1134590450603037 0 0.010938221621873381 -0.1150994956279314 0 0.022634089355870371 -0.1124489231816815 0 0.010817928375751471 -0.1062344141394222 0 0.01842402975490182 -0.1240115093384685 0 0.022634089355870371 -0.1124489231816815 0 0.034099082418902298 -0.1208448758167366 0 0.035709737728487068 -0.12867943225715869 0 0.01842402975490182 -0.1240115093384685 0 0.034099082418902298 -0.1208448758167366 0 0.010938221621873381 -0.1150994956279314 0 0.01842402975490182 -0.1240115093384685 0 0.022634089355870371 -0.1124489231816815 0 0.022634089355870371 -0.1124489231816815 0 0.034099082418902298 -0.1208448758167366 0 0.036805902345555211 -0.1102020973556681 0 0.023310603039027381 -0.098310194178450799 0 0.030024206626567369 -0.085589226789416273 0 0.035551945019922072 -0.097891033139193451 0 0.022634089355870371 -0.1124489231816815 0 0.023310603039027381 -0.098310194178450799 0 0.036805902345555211 -0.1102020973556681 0 0.022634089355870371 -0.1124489231816815 0 0.023310603039027381 -0.098310194178450799 0 0.010817928375751471 -0.1062344141394222 0 0.023310603039027381 -0.098310194178450799 0 0.010817928375751471 -0.1062344141394222 0 0.00045462985912098899 -0.096725844495365004 0 0.001676738841527552 -0.1134590450603037 0 0.010817928375751471 -0.1062344141394222 0 0.001385915358157298 -0.1055326127915648 0 0.010817928375751471 -0.1062344141394222 0 0.001385915358157298 -0.1055326127915648 0 0.00045462985912098899 -0.096725844495365004 0 0.023310603039027381 -0.098310194178450799 0 0.00045462985912098899 -0.096725844495365004 0 0.003163675488767316 -0.080168229229637081 0 0.023310603039027381 -0.098310194178450799 0 0.003163675488767316 -0.080168229229637081 0 -0.00014736047762457791 -0.065363202352821281 0 0.02158030552236687 -0.073105099929116263 0 0.024275106474751829 -0.052936371568054169 0 0.003163675488767316 -0.080168229229637081 0 0.02158030552236687 -0.073105099929116263 0 -0.00014736047762457791 -0.065363202352821281 0 0.003163675488767316 -0.080168229229637081 0 0.02158030552236687 -0.073105099929116263 0 -0.00014736047762457791 -0.065363202352821281 0 0.02158030552236687 -0.073105099929116263 0 0.02158030552236687 -0.073105099929116263 0 0.043079201542517452 -0.064859862764018714 0 0.024275106474751829 -0.052936371568054169 0 0.023310603039027381 -0.098310194178450799 0 0.003163675488767316 -0.080168229229637081 0 0.030024206626567369 -0.085589226789416273 0 0.003163675488767316 -0.080168229229637081 0 0.02158030552236687 -0.073105099929116263 0 0.030024206626567369 -0.085589226789416273 0 0.030024206626567369 -0.085589226789416273 0 0.043645220715109137 -0.080967164517739665 0 0.042720237723968227 -0.092349868683300348 0 0.02158030552236687 -0.073105099929116263 0 0.030024206626567369 -0.085589226789416273 0 0.043645220715109137 -0.080967164517739665 0 0.030024206626567369 -0.085589226789416273 0 0.042720237723968227 -0.092349868683300348 0 0.035551945019922072 -0.097891033139193451 0 0.043645220715109137 -0.080967164517739665 0 0.042720237723968227 -0.092349868683300348 0 0.053772673137450967 -0.089474939278016669 0 0.02158030552236687 -0.073105099929116263 0 0.043079201542517452 -0.064859862764018714 0 0.02158030552236687 -0.073105099929116263 0 0.043645220715109137 -0.080967164517739665 0 0.043079201542517452 -0.064859862764018714 0 0.02158030552236687 -0.073105099929116263 0 0.043645220715109137 -0.080967164517739665 0 0.043079201542517452 -0.064859862764018714 0 0.058917769776653008 -0.072259216422398492 0 0.054716329480472073 -0.059344743143811357 0 0.043645220715109137 -0.080967164517739665 0 0.043079201542517452 -0.064859862764018714 0 0.058917769776653008 -0.072259216422398492 0 0.058917769776653008 -0.072259216422398492 0 0.054716329480472073 -0.059344743143811357 0 0.068918243049951478 -0.059530178920315632 0 0.043645220715109137 -0.080967164517739665 0 0.058917769776653008 -0.072259216422398492 0 0.065710135907852268 -0.088829229106360555 0 0.043645220715109137 -0.080967164517739665 0 0.053772673137450967 -0.089474939278016669 0 0.065710135907852268 -0.088829229106360555 0 0.053772673137450967 -0.089474939278016669 0 0.070050138358152214 -0.095370412056725529 0 0.043645220715109137 -0.080967164517739665 0 0.065710135907852268 -0.088829229106360555 0 0.042720237723968227 -0.092349868683300348 0 0.053772673137450967 -0.089474939278016669 0 0.050425555820297147 -0.098200598935919217 0 0.053772673137450967 -0.089474939278016669 0 0.057604642070197248 -0.1004477265681971 0 0.063945664580187772 -0.099678168819715002 0 0.053772673137450967 -0.089474939278016669 0 0.057604642070197248 -0.1004477265681971 0 0.050425555820297147 -0.098200598935919217 0 0.057604642070197248 -0.1004477265681971 0 0.050425555820297147 -0.098200598935919217 0 0.053131450805377081 -0.1057266814609502 0 0.050425555820297147 -0.098200598935919217 0 0.053131450805377081 -0.1057266814609502 0 0.044898775364492188 -0.1030037786891318 0 0.053131450805377081 -0.1057266814609502 0 0.046960137606822133 -0.1110453651363152 0 0.044898775364492188 -0.1030037786891318 0 0.057604642070197248 -0.1004477265681971 0 0.062250913262591162 -0.10803894869454871 0 0.063945664580187772 -0.099678168819715002 0 0.053131450805377081 -0.1057266814609502 0 0.062250913262591162 -0.10803894869454871 0 0.054866830249054782 -0.1133118630703011 0 0.057604642070197248 -0.1004477265681971 0 0.053131450805377081 -0.1057266814609502 0 0.062250913262591162 -0.10803894869454871 0 0.062250913262591162 -0.10803894869454871 0 0.054866830249054782 -0.1133118630703011 0 0.063677356079034908 -0.1206279022799138 0 0.054866830249054782 -0.1133118630703011 0 0.053750910988629948 -0.1219491688831639 0 0.063677356079034908 -0.1206279022799138 0 0.047329417526337569 -0.12546641612577841 0 0.053750910988629948 -0.1219491688831639 0 0.044781840253525357 -0.11876482353127971 0 0.053750910988629948 -0.1219491688831639 0 0.049936584513988982 -0.115966291878337 0 0.044781840253525357 -0.11876482353127971 0 0.054866830249054782 -0.1133118630703011 0 0.049936584513988982 -0.115966291878337 0 0.046960137606822133 -0.1110453651363152 0 0.053131450805377081 -0.1057266814609502 0 0.054866830249054782 -0.1133118630703011 0 0.046960137606822133 -0.1110453651363152 0 0.054866830249054782 -0.1133118630703011 0 0.053750910988629948 -0.1219491688831639 0 0.049936584513988982 -0.115966291878337 0 0.049936584513988982 -0.115966291878337 0 0.046960137606822133 -0.1110453651363152 0 0.044781840253525357 -0.11876482353127971 0 0.046960137606822133 -0.1110453651363152 0 0.044781840253525357 -0.11876482353127971 0 0.036805902345555211 -0.1102020973556681 0 0.044781840253525357 -0.11876482353127971 0 0.041001164035275053 -0.1234053008799143 0 0.034099082418902298 -0.1208448758167366 0 0.047329417526337569 -0.12546641612577841 0 0.044781840253525357 -0.11876482353127971 0 0.041001164035275053 -0.1234053008799143 0 0.037807605386059498 -0.12816141403442091 0 0.041001164035275053 -0.1234053008799143 0 0.034099082418902298 -0.1208448758167366 0 0.044781840253525357 -0.11876482353127971 0 0.034099082418902298 -0.1208448758167366 0 0.036805902345555211 -0.1102020973556681 0 0.023310603039027381 -0.098310194178450799 0 0.036805902345555211 -0.1102020973556681 0 0.035551945019922072 -0.097891033139193451 0 0.042720237723968227 -0.092349868683300348 0 0.035551945019922072 -0.097891033139193451 0 0.044898775364492188 -0.1030037786891318 0 0.042720237723968227 -0.092349868683300348 0 0.050425555820297147 -0.098200598935919217 0 0.044898775364492188 -0.1030037786891318 0 0.046960137606822133 -0.1110453651363152 0 0.036805902345555211 -0.1102020973556681 0 0.044898775364492188 -0.1030037786891318 0 0.036805902345555211 -0.1102020973556681 0 0.035551945019922072 -0.097891033139193451 0 0.044898775364492188 -0.1030037786891318 0 0.022925687491744558 0.003154738795317772 0 0.02068447587930021 -0.016666471052588078 0 0.033493316951729857 -0.0044145458703618657 0 -0.00066596878166239742 -0.01102915960288571 0 0.0062984138645736706 0.0040987891581732759 0 0.022925687491744558 0.003154738795317772 0 -0.00066596878166239742 -0.01102915960288571 0 0.022925687491744558 0.003154738795317772 0 0.02068447587930021 -0.016666471052588078 0 -0.00066596878166239742 -0.01102915960288571 0 0.022925687491744558 0.003154738795317772 0 0.0039126334423128786 -0.024574328854650069 0 0.02068447587930021 -0.016666471052588078 0 0.013837442464632289 -0.034866722854824228 0 -0.00066596878166239742 -0.01102915960288571 0 0.0039126334423128786 -0.024574328854650069 0 0.02068447587930021 -0.016666471052588078 0 0.02068447587930021 -0.016666471052588078 0 0.013837442464632289 -0.034866722854824228 0 0.036079016441628232 -0.034427971865791093 0 0.013837442464632289 -0.034866722854824228 0 0.024275106474751829 -0.052936371568054169 0 0.036079016441628232 -0.034427971865791093 0 0.013837442464632289 -0.034866722854824228 0 0.036079016441628232 -0.034427971865791093 0 -0.001945559466484343 -0.048334864683548938 0 0.013837442464632289 -0.034866722854824228 0 0.024275106474751829 -0.052936371568054169 0 -0.0084041315123636537 -0.035305473843857363 0 -0.001945559466484343 -0.048334864683548938 0 0.013837442464632289 -0.034866722854824228 0 -0.0084041315123636537 -0.035305473843857363 0 0.013837442464632289 -0.034866722854824228 0 -0.0084041315123636537 -0.035305473843857363 0 0.0039126334423128786 -0.024574328854650069 0 0.013837442464632289 -0.034866722854824228 0 -0.001945559466484343 -0.048334864683548938 0 -0.00014736047762457791 -0.065363202352821281 0 0.024275106474751829 -0.052936371568054169 0 0.043079201542517452 -0.064859862764018714 0 0.024275106474751829 -0.052936371568054169 0 0.040242290343625052 -0.050882564047289622 0 0.043079201542517452 -0.064859862764018714 0 0.040242290343625052 -0.050882564047289622 0 0.054716329480472073 -0.059344743143811357 0 0.054716329480472073 -0.059344743143811357 0 0.053918206017057907 -0.045487851541525001 0 0.068918243049951478 -0.059530178920315632 0 0.040242290343625052 -0.050882564047289622 0 0.054716329480472073 -0.059344743143811357 0 0.053918206017057907 -0.045487851541525001 0 0.053918206017057907 -0.045487851541525001 0 0.055084548565126658 -0.025562111629883529 0 0.066614189362274076 -0.036952994697307097 0 0.053918206017057907 -0.045487851541525001 0 0.036079016441628232 -0.034427971865791093 0 0.055084548565126658 -0.025562111629883529 0 0.040242290343625052 -0.050882564047289622 0 0.053918206017057907 -0.045487851541525001 0 0.036079016441628232 -0.034427971865791093 0 0.024275106474751829 -0.052936371568054169 0 0.040242290343625052 -0.050882564047289622 0 0.036079016441628232 -0.034427971865791093 0 0.02068447587930021 -0.016666471052588078 0 0.036079016441628232 -0.034427971865791093 0 0.039998679968148279 -0.015267367052164769 0 0.036079016441628232 -0.034427971865791093 0 0.055084548565126658 -0.025562111629883529 0 0.039998679968148279 -0.015267367052164769 0 0.055084548565126658 -0.025562111629883529 0 0.052304081645858563 -0.012294646368377441 0 0.062828984173245339 -0.013006387026036461 0 0.055084548565126658 -0.025562111629883529 0 0.052304081645858563 -0.012294646368377441 0 0.039998679968148279 -0.015267367052164769 0 0.052304081645858563 -0.012294646368377441 0 0.058390066624374452 -0.003322226426799232 0 0.062828984173245339 -0.013006387026036461 0 0.052304081645858563 -0.012294646368377441 0 0.058390066624374452 -0.003322226426799232 0 0.045624452311687443 -0.0024205124681315432 0 0.045624452311687443 -0.0024205124681315432 0 0.039998679968148279 -0.015267367052164769 0 0.033493316951729857 -0.0044145458703618657 0 0.02068447587930021 -0.016666471052588078 0 0.039998679968148279 -0.015267367052164769 0 0.033493316951729857 -0.0044145458703618657 0 0.052304081645858563 -0.012294646368377441 0 0.045624452311687443 -0.0024205124681315432 0 0.039998679968148279 -0.015267367052164769 0 0.086523498384947259 -0.0075791690987411491 0 0.076469512856291694 -0.018296345006157479 0 0.093888843511429981 -0.019274163541848192 0 0.082478933454306638 0.0053231697351442953 0 0.086523498384947259 -0.0075791690987411491 0 0.10103114816576229 -0.00187795814595874 0 0.086523498384947259 -0.0075791690987411491 0 0.071896711174575384 -0.0055566056989646102 0 0.076469512856291694 -0.018296345006157479 0 0.082478933454306638 0.0053231697351442953 0 0.086523498384947259 -0.0075791690987411491 0 0.071896711174575384 -0.0055566056989646102 0 0.058390066624374452 -0.003322226426799232 0 0.071896711174575384 -0.0055566056989646102 0 0.062828984173245339 -0.013006387026036461 0 0.067326731398199557 0.0072435020532937676 0 0.058390066624374452 -0.003322226426799232 0 0.071896711174575384 -0.0055566056989646102 0 0.071896711174575384 -0.0055566056989646102 0 0.062828984173245339 -0.013006387026036461 0 0.076469512856291694 -0.018296345006157479 0 0.055084548565126658 -0.025562111629883529 0 0.076469512856291694 -0.018296345006157479 0 0.066614189362274076 -0.036952994697307097 0 0.055084548565126658 -0.025562111629883529 0 0.062828984173245339 -0.013006387026036461 0 0.076469512856291694 -0.018296345006157479 0 0.076469512856291694 -0.018296345006157479 0 0.079755543097145151 -0.045952858282583567 0 0.093888843511429981 -0.019274163541848192 0 0.079755543097145151 -0.045952858282583567 0 0.09754481088800239 -0.041042120575392242 0 0.093888843511429981 -0.019274163541848192 0 0.076469512856291694 -0.018296345006157479 0 0.079755543097145151 -0.045952858282583567 0 0.066614189362274076 -0.036952994697307097 0 0.076469512856291694 -0.018296345006157479 0 0.079755543097145151 -0.045952858282583567 0 0.079755543097145151 -0.045952858282583567 0 0.068918243049951478 -0.059530178920315632 0 0.083041573337998623 -0.073609371559009887 0 0.053918206017057907 -0.045487851541525001 0 0.066614189362274076 -0.036952994697307097 0 0.068918243049951478 -0.059530178920315632 0 0.079755543097145151 -0.045952858282583567 0 0.066614189362274076 -0.036952994697307097 0 0.068918243049951478 -0.059530178920315632 0 0.079755543097145151 -0.045952858282583567 0 0.083041573337998623 -0.073609371559009887 0 0.079755543097145151 -0.045952858282583567 0 0.095615104184124416 -0.060391312037090271 0 0.09754481088800239 -0.041042120575392242 0 0.079755543097145151 -0.045952858282583567 0 0.095615104184124416 -0.060391312037090271 0 0.083041573337998623 -0.073609371559009887 0 0.095615104184124416 -0.060391312037090271 0 0.11108805186145571 -0.048463371898141358 0 0.09754481088800239 -0.041042120575392242 0 0.095615104184124416 -0.060391312037090271 0 0.11108805186145571 -0.048463371898141358 0 0.1108619505751417 -0.068971616091907717 0 0.11108805186145571 -0.048463371898141358 0 0.1108619505751417 -0.068971616091907717 0 0.12805075434583449 -0.051480370075259109 0 0.11108805186145571 -0.048463371898141358 0 0.1108619505751417 -0.068971616091907717 0 0.11108805186145571 -0.048463371898141358 0 0.1229632513501389 -0.033627352704100687 0 0.10737651178585669 -0.03112889711729782 0 0.11108805186145571 -0.048463371898141358 0 0.1229632513501389 -0.033627352704100687 0 0.12805075434583449 -0.051480370075259109 0 0.11108805186145571 -0.048463371898141358 0 0.09754481088800239 -0.041042120575392242 0 0.10737651178585669 -0.03112889711729782 0 0.093888843511429981 -0.019274163541848192 0 0.10737651178585669 -0.03112889711729782 0 0.11154553737271961 -0.0151455722065699 0 0.093888843511429981 -0.019274163541848192 0 0.11154553737271961 -0.0151455722065699 0 0.09754481088800239 -0.041042120575392242 0 0.093888843511429981 -0.019274163541848192 0 0.10737651178585669 -0.03112889711729782 0 0.1229632513501389 -0.033627352704100687 0 0.10737651178585669 -0.03112889711729782 0 0.115651169166541 -0.02478412654777163 0 0.10737651178585669 -0.03112889711729782 0 0.115651169166541 -0.02478412654777163 0 0.11154553737271961 -0.0151455722065699 0 0.1229632513501389 -0.033627352704100687 0 0.115651169166541 -0.02478412654777163 0 0.1240788925114087 -0.022488211922392771 0 0.1240788925114087 -0.022488211922392771 0 0.11154553737271961 -0.0151455722065699 0 0.1252241908166801 -0.01596130129303797 0 0.115651169166541 -0.02478412654777163 0 0.1240788925114087 -0.022488211922392771 0 0.11154553737271961 -0.0151455722065699 0 0.11154553737271961 -0.0151455722065699 0 0.12920223123400901 -0.011016980871291051 0 0.1252241908166801 -0.01596130129303797 0 0.11154553737271961 -0.0151455722065699 0 0.12920223123400901 -0.011016980871291051 0 0.11154553737271961 -0.0151455722065699 0 0.1145727251727371 -0.0061514119211384553 0 0.12920223123400901 -0.011016980871291051 0 0.1165119839184577 0.0034348635392658648 0 0.1145727251727371 -0.0061514119211384553 0 0.12920223123400901 -0.011016980871291051 0 0.1165119839184577 0.0034348635392658648 0 0.1145727251727371 -0.0061514119211384553 0 0.10103114816576229 -0.00187795814595874 0 0.086523498384947259 -0.0075791690987411491 0 0.093888843511429981 -0.019274163541848192 0 0.10103114816576229 -0.00187795814595874 0 0.093888843511429981 -0.019274163541848192 0 0.11154553737271961 -0.0151455722065699 0 0.10103114816576229 -0.00187795814595874 0 0.11154553737271961 -0.0151455722065699 0 0.1145727251727371 -0.0061514119211384553 0 0.10103114816576229 -0.00187795814595874 0 0.086327603578852857 -0.101265884835436 0 0.078164472124055334 -0.1074941006528972 0 0.070050138358152214 -0.095370412056725529 0 0.086327603578852857 -0.101265884835436 0 0.078164472124055334 -0.1074941006528972 0 0.088271273640455797 -0.1176245708254267 0 0.086327603578852857 -0.101265884835436 0 0.070050138358152214 -0.095370412056725529 0 0.086327603578852857 -0.101265884835436 0 0.088271273640455797 -0.1176245708254267 0 0.080695221397176914 -0.13166119830426429 0 0.088271273640455797 -0.1176245708254267 0 0.076449217850295209 -0.1191494864398199 0 0.078164472124055334 -0.1074941006528972 0 0.088271273640455797 -0.1176245708254267 0 0.076449217850295209 -0.1191494864398199 0 0.078164472124055334 -0.1074941006528972 0 0.070955360471864057 -0.11192415820312721 0 0.076449217850295209 -0.1191494864398199 0 0.070955360471864057 -0.11192415820312721 0 0.076449217850295209 -0.1191494864398199 0 0.063677356079034908 -0.1206279022799138 0 0.070880455032640316 -0.12703424167724131 0 0.076449217850295209 -0.1191494864398199 0 0.063677356079034908 -0.1206279022799138 0 0.062250913262591162 -0.10803894869454871 0 0.070955360471864057 -0.11192415820312721 0 0.063677356079034908 -0.1206279022799138 0 0.062250913262591162 -0.10803894869454871 0 0.0695155866791312 -0.1043853613798193 0 0.063945664580187772 -0.099678168819715002 0 0.053772673137450967 -0.089474939278016669 0 0.063945664580187772 -0.099678168819715002 0 0.070050138358152214 -0.095370412056725529 0 0.086327603578852857 -0.101265884835436 0 0.070050138358152214 -0.095370412056725529 0 0.075200185660989821 -0.087260725677196047 0 0.062250913262591162 -0.10803894869454871 0 0.070955360471864057 -0.11192415820312721 0 0.0695155866791312 -0.1043853613798193 0 0.078164472124055334 -0.1074941006528972 0 0.0695155866791312 -0.1043853613798193 0 0.070050138358152214 -0.095370412056725529 0 0.078164472124055334 -0.1074941006528972 0 0.070955360471864057 -0.11192415820312721 0 0.0695155866791312 -0.1043853613798193 0 0.0695155866791312 -0.1043853613798193 0 0.063945664580187772 -0.099678168819715002 0 0.070050138358152214 -0.095370412056725529 0 0.058917769776653008 -0.072259216422398492 0 0.065710135907852268 -0.088829229106360555 0 0.070871477122093102 -0.077228730828448236 0 0.053772673137450967 -0.089474939278016669 0 0.070050138358152214 -0.095370412056725529 0 0.065710135907852268 -0.088829229106360555 0 0.075200185660989821 -0.087260725677196047 0 0.070871477122093102 -0.077228730828448236 0 0.083041573337998623 -0.073609371559009887 0 0.065710135907852268 -0.088829229106360555 0 0.075200185660989821 -0.087260725677196047 0 0.070871477122093102 -0.077228730828448236 0 0.070050138358152214 -0.095370412056725529 0 0.065710135907852268 -0.088829229106360555 0 0.075200185660989821 -0.087260725677196047 0 0.068918243049951478 -0.059530178920315632 0 0.070871477122093102 -0.077228730828448236 0 0.083041573337998623 -0.073609371559009887 0 0.058917769776653008 -0.072259216422398492 0 0.068918243049951478 -0.059530178920315632 0 0.070871477122093102 -0.077228730828448236 0 0.095615104184124416 -0.060391312037090271 0 0.083041573337998623 -0.073609371559009887 0 0.09409230134862194 -0.086319843437247107 0 0.086327603578852857 -0.101265884835436 0 0.083041573337998623 -0.073609371559009887 0 0.086327603578852857 -0.101265884835436 0 0.075200185660989821 -0.087260725677196047 0 0.083041573337998623 -0.073609371559009887 0 0.086327603578852857 -0.101265884835436 0 0.083041573337998623 -0.073609371559009887 0 0.09409230134862194 -0.086319843437247107 0 0.09409230134862194 -0.086319843437247107 0 0.1108619505751417 -0.068971616091907717 0 0.1106358492888278 -0.089479860285674076 0 0.086327603578852857 -0.101265884835436 0 0.09409230134862194 -0.086319843437247107 0 0.1106358492888278 -0.089479860285674076 0 0.095615104184124416 -0.060391312037090271 0 0.09409230134862194 -0.086319843437247107 0 0.1108619505751417 -0.068971616091907717 0 0.1108619505751417 -0.068971616091907717 0 0.12871497396941969 -0.083889265507816085 0 0.13409718410904589 -0.067265539000202851 0 0.1108619505751417 -0.068971616091907717 0 0.13409718410904589 -0.067265539000202851 0 0.12805075434583449 -0.051480370075259109 0 0.1106358492888278 -0.089479860285674076 0 0.1233771935910669 -0.10030467651481439 0 0.12871497396941969 -0.083889265507816085 0 0.1108619505751417 -0.068971616091907717 0 0.1106358492888278 -0.089479860285674076 0 0.1108619505751417 -0.068971616091907717 0 0.1106358492888278 -0.089479860285674076 0 0.12871497396941969 -0.083889265507816085 0 0.1233771935910669 -0.10030467651481439 0 0.11040974800251389 -0.10998810447944039 0 0.1311833993006993 -0.1175120336712588 0 0.1106358492888278 -0.089479860285674076 0 0.1233771935910669 -0.10030467651481439 0 0.11040974800251389 -0.10998810447944039 0 0.1106358492888278 -0.089479860285674076 0 0.11040974800251389 -0.10998810447944039 0 0.086327603578852857 -0.101265884835436 0 0.11040974800251389 -0.10998810447944039 0 0.086327603578852857 -0.101265884835436 0 0.1106358492888278 -0.089479860285674076 0 0.11040974800251389 -0.10998810447944039 0 0.1101537058271549 -0.1332121008651832 0 0.099834221573199766 -0.1245455224631231 0 0.11040974800251389 -0.10998810447944039 0 0.086327603578852857 -0.101265884835436 0 0.088271273640455797 -0.1176245708254267 0 0.11040974800251389 -0.10998810447944039 0 0.088271273640455797 -0.1176245708254267 0 0.099834221573199766 -0.1245455224631231 0 0.11040974800251389 -0.10998810447944039 0 0.12439711383699339 -0.1303924827288343 0 0.11040974800251389 -0.10998810447944039 0 0.1311833993006993 -0.1175120336712588 0 0.1101537058271549 -0.1332121008651832 0 0.12439711383699339 -0.1303924827288343 0 0.11040974800251389 -0.10998810447944039 0 0.11040974800251389 -0.10998810447944039 0 0.1311833993006993 -0.1175120336712588 0 0.1101537058271549 -0.1332121008651832 0 0.11040974800251389 -0.10998810447944039 0 0.1311833993006993 -0.1175120336712588 0 0.1446306118413917 -0.1155094104816705 0 0.13795314228359071 -0.1015342427916917 0 0.1311833993006993 -0.1175120336712588 0 0.13848235523365679 -0.13049884926639149 0 0.15195705059888459 -0.12503596286307711 0 0.1311833993006993 -0.1175120336712588 0 0.15195705059888459 -0.12503596286307711 0 0.1311833993006993 -0.1175120336712588 0 0.1446306118413917 -0.1155094104816705 0 0.15195705059888459 -0.12503596286307711 0 0.1446306118413917 -0.1155094104816705 0 0.13795314228359071 -0.1015342427916917 0 0.15742885518239219 -0.1179554026006545 0 0.13795314228359071 -0.1015342427916917 0 0.15742885518239219 -0.1179554026006545 0 0.1446306118413917 -0.1155094104816705 0 0.15742885518239219 -0.1179554026006545 0 0.15195705059888459 -0.12503596286307711 0 0.15427221611202199 -0.1014325097093576 0 0.13795314228359071 -0.1015342427916917 0 0.15742885518239219 -0.1179554026006545 0 0.1233771935910669 -0.10030467651481439 0 0.1311833993006993 -0.1175120336712588 0 0.13795314228359071 -0.1015342427916917 0 0.1233771935910669 -0.10030467651481439 0 0.13795314228359071 -0.1015342427916917 0 0.12871497396941969 -0.083889265507816085 0 0.13795314228359071 -0.1015342427916917 0 0.12871497396941969 -0.083889265507816085 0 0.15237681925561861 -0.077806317678462994 0 0.12871497396941969 -0.083889265507816085 0 0.13409718410904589 -0.067265539000202851 0 0.15237681925561861 -0.077806317678462994 0 0.15237681925561861 -0.077806317678462994 0 0.15048142239921511 -0.05418012564756837 0 0.13409718410904589 -0.067265539000202851 0 0.15237681925561861 -0.077806317678462994 0 0.15048142239921511 -0.05418012564756837 0 0.15237681925561861 -0.077806317678462994 0 0.16310185511909131 -0.066259096934125239 0 0.15048142239921511 -0.05418012564756837 0 0.15427221611202199 -0.1014325097093576 0 0.13795314228359071 -0.1015342427916917 0 0.15237681925561861 -0.077806317678462994 0 0.15427221611202199 -0.1014325097093576 0 0.15237681925561861 -0.077806317678462994 0 0.15427221611202199 -0.1014325097093576 0 0.15237681925561861 -0.077806317678462994 0 0.16738070855109921 -0.08952102726538344 0 0.15237681925561861 -0.077806317678462994 0 0.16738070855109921 -0.08952102726538344 0 0.1700932386155499 -0.077828712622630303 0 0.15237681925561861 -0.077806317678462994 0 0.16310185511909131 -0.066259096934125239 0 0.1700932386155499 -0.077828712622630303 0 0.16310185511909131 -0.066259096934125239 0 0.1700932386155499 -0.077828712622630303 0 0.17721599799553159 -0.06767907981773158 0 0.17721599799553159 -0.06767907981773158 0 0.187268811452829 -0.051913425758824433 0 0.18920720836578789 -0.073046089513581727 0 0.1700932386155499 -0.077828712622630303 0 0.17721599799553159 -0.06767907981773158 0 0.18188568643495079 -0.079004435659444663 0 0.17721599799553159 -0.06767907981773158 0 0.18188568643495079 -0.079004435659444663 0 0.18920720836578789 -0.073046089513581727 0 0.18188568643495079 -0.079004435659444663 0 0.18917425272266691 -0.081513209346859433 0 0.18920720836578789 -0.073046089513581727 0 0.16738070855109921 -0.08952102726538344 0 0.17763119256389159 -0.092961902760487602 0 0.17292285492067139 -0.098539175720035108 0 0.16738070855109921 -0.08952102726538344 0 0.17763119256389159 -0.092961902760487602 0 0.1787277051028304 -0.086359921888908314 0 0.16738070855109921 -0.08952102726538344 0 0.1700932386155499 -0.077828712622630303 0 0.1787277051028304 -0.086359921888908314 0 0.1700932386155499 -0.077828712622630303 0 0.1787277051028304 -0.086359921888908314 0 0.18188568643495079 -0.079004435659444663 0 0.1787277051028304 -0.086359921888908314 0 0.18188568643495079 -0.079004435659444663 0 0.18572769554975679 -0.085822453181045602 0 0.18188568643495079 -0.079004435659444663 0 0.18572769554975679 -0.085822453181045602 0 0.18917425272266691 -0.081513209346859433 0 0.17763119256389159 -0.092961902760487602 0 0.1787277051028304 -0.086359921888908314 0 0.18625216873885789 -0.091829433519575537 0 0.1787277051028304 -0.086359921888908314 0 0.18572769554975679 -0.085822453181045602 0 0.18625216873885789 -0.091829433519575537 0 0.18287252550599911 -0.098559955408535571 0 0.18920350329543531 -0.1063757505567398 0 0.19035977243770699 -0.098466372273776442 0 0.18625216873885789 -0.091829433519575537 0 0.18287252550599911 -0.098559955408535571 0 0.19035977243770699 -0.098466372273776442 0 0.17763119256389159 -0.092961902760487602 0 0.18625216873885789 -0.091829433519575537 0 0.18287252550599911 -0.098559955408535571 0 0.18287252550599911 -0.098559955408535571 0 0.17292285492067139 -0.098539175720035108 0 0.17735385009145271 -0.1049071955113433 0 0.17763119256389159 -0.092961902760487602 0 0.18287252550599911 -0.098559955408535571 0 0.17292285492067139 -0.098539175720035108 0 0.17292285492067139 -0.098539175720035108 0 0.17735385009145271 -0.1049071955113433 0 0.1667963817785359 -0.10750965368226981 0 0.17735385009145271 -0.1049071955113433 0 0.17570612519602971 -0.1147726281410729 0 0.1667963817785359 -0.10750965368226981 0 0.18287252550599911 -0.098559955408535571 0 0.17735385009145271 -0.1049071955113433 0 0.18920350329543531 -0.1063757505567398 0 0.18652969495188659 -0.1179495368716466 0 0.17570612519602971 -0.1147726281410729 0 0.17690456808119359 -0.13437656240961729 0 0.17735385009145271 -0.1049071955113433 0 0.18652969495188659 -0.1179495368716466 0 0.17570612519602971 -0.1147726281410729 0 0.17570612519602971 -0.1147726281410729 0 0.16843629896660081 -0.1178962032873941 0 0.17690456808119359 -0.13437656240961729 0 0.17735385009145271 -0.1049071955113433 0 0.18652969495188659 -0.1179495368716466 0 0.18920350329543531 -0.1063757505567398 0 0.16843629896660081 -0.1178962032873941 0 0.15742885518239219 -0.1179554026006545 0 0.1667963817785359 -0.10750965368226981 0 0.16843629896660081 -0.1178962032873941 0 0.15742885518239219 -0.1179554026006545 0 0.17690456808119359 -0.13437656240961729 0 0.17570612519602971 -0.1147726281410729 0 0.16843629896660081 -0.1178962032873941 0 0.1667963817785359 -0.10750965368226981 0 0.15427221611202199 -0.1014325097093576 0 0.16445359233631629 -0.099442880166533021 0 0.1667963817785359 -0.10750965368226981 0 0.15427221611202199 -0.1014325097093576 0 0.15742885518239219 -0.1179554026006545 0 0.1667963817785359 -0.10750965368226981 0 0.15427221611202199 -0.1014325097093576 0 0.16738070855109921 -0.08952102726538344 0 0.16445359233631629 -0.099442880166533021 0 0.16738070855109921 -0.08952102726538344 0 0.17292285492067139 -0.098539175720035108 0 0.16445359233631629 -0.099442880166533021 0 0.17292285492067139 -0.098539175720035108 0 0.16445359233631629 -0.099442880166533021 0 0.1667963817785359 -0.10750965368226981 0 0.146690628686408 -0.006927741585778832 0 0.15998318680073439 -0.019671788585841971 0 0.15955581840028041 -0.0039195277493322116 0 0.15194517986349629 0.0092607234429129912 0 0.146690628686408 -0.006927741585778832 0 0.15955581840028041 -0.0039195277493322116 0 0.146690628686408 -0.006927741585778832 0 0.15955581840028041 -0.0039195277493322116 0 0.13583143345913551 0.0034449281708086028 0 0.146690628686408 -0.006927741585778832 0 0.12920223123400901 -0.011016980871291051 0 0.146690628686408 -0.006927741585778832 0 0.12920223123400901 -0.011016980871291051 0 0.13859051992454871 -0.01593136550970576 0 0.146690628686408 -0.006927741585778832 0 0.12920223123400901 -0.011016980871291051 0 0.12920223123400901 -0.011016980871291051 0 0.132079662994217 -0.018817599352853411 0 0.1252241908166801 -0.01596130129303797 0 0.12920223123400901 -0.011016980871291051 0 0.13859051992454871 -0.01593136550970576 0 0.132079662994217 -0.018817599352853411 0 0.13859051992454871 -0.01593136550970576 0 0.132079662994217 -0.018817599352853411 0 0.1349932020101384 -0.025470441340537699 0 0.1240788925114087 -0.022488211922392771 0 0.132079662994217 -0.018817599352853411 0 0.1252241908166801 -0.01596130129303797 0 0.1240788925114087 -0.022488211922392771 0 0.132079662994217 -0.018817599352853411 0 0.1349932020101384 -0.025470441340537699 0 0.1229632513501389 -0.033627352704100687 0 0.1240788925114087 -0.022488211922392771 0 0.1349932020101384 -0.025470441340537699 0 0.146690628686408 -0.006927741585778832 0 0.13859051992454871 -0.01593136550970576 0 0.14858602554281161 -0.030553933616673652 0 0.146690628686408 -0.006927741585778832 0 0.14858602554281161 -0.030553933616673652 0 0.15998318680073439 -0.019671788585841971 0 0.146690628686408 -0.006927741585778832 0 0.14858602554281161 -0.030553933616673652 0 0.13859051992454871 -0.01593136550970576 0 0.1349932020101384 -0.025470441340537699 0 0.14858602554281161 -0.030553933616673652 0 0.14858602554281161 -0.030553933616673652 0 0.15048142239921511 -0.05418012564756837 0 0.1671794709303496 -0.048936479549795152 0 0.14858602554281161 -0.030553933616673652 0 0.13481938862192511 -0.037960812344586377 0 0.15048142239921511 -0.05418012564756837 0 0.14858602554281161 -0.030553933616673652 0 0.15048142239921511 -0.05418012564756837 0 0.1349932020101384 -0.025470441340537699 0 0.14858602554281161 -0.030553933616673652 0 0.13481938862192511 -0.037960812344586377 0 0.1229632513501389 -0.033627352704100687 0 0.13481938862192511 -0.037960812344586377 0 0.12805075434583449 -0.051480370075259109 0 0.1229632513501389 -0.033627352704100687 0 0.1349932020101384 -0.025470441340537699 0 0.13481938862192511 -0.037960812344586377 0 0.13481938862192511 -0.037960812344586377 0 0.12805075434583449 -0.051480370075259109 0 0.15048142239921511 -0.05418012564756837 0 0.13409718410904589 -0.067265539000202851 0 0.12805075434583449 -0.051480370075259109 0 0.15048142239921511 -0.05418012564756837 0 0.16310185511909131 -0.066259096934125239 0 0.15048142239921511 -0.05418012564756837 0 0.1671794709303496 -0.048936479549795152 0 0.16310185511909131 -0.066259096934125239 0 0.17721599799553159 -0.06767907981773158 0 0.1671794709303496 -0.048936479549795152 0 0.17721599799553159 -0.06767907981773158 0 0.1671794709303496 -0.048936479549795152 0 0.187268811452829 -0.051913425758824433 0 0.187268811452829 -0.051913425758824433 0 0.17341231492655471 -0.027916476754078171 0 0.187268811452829 -0.051913425758824433 0 0.17341231492655471 -0.027916476754078171 0 0.18921102464514691 -0.032768804783990198 0 0.1671794709303496 -0.048936479549795152 0 0.187268811452829 -0.051913425758824433 0 0.17341231492655471 -0.027916476754078171 0 0.14858602554281161 -0.030553933616673652 0 0.1671794709303496 -0.048936479549795152 0 0.17341231492655471 -0.027916476754078171 0 0.15998318680073439 -0.019671788585841971 0 0.17341231492655471 -0.027916476754078171 0 0.15955581840028041 -0.0039195277493322116 0 0.17341231492655471 -0.027916476754078171 0 0.17639545453956851 -0.0170226934724758 0 0.15955581840028041 -0.0039195277493322116 0 0.17341231492655471 -0.027916476754078171 0 0.15955581840028041 -0.0039195277493322116 0 0.14858602554281161 -0.030553933616673652 0 0.15998318680073439 -0.019671788585841971 0 0.17341231492655471 -0.027916476754078171 0 0.17341231492655471 -0.027916476754078171 0 0.1836492994017738 -0.02315837173595699 0 0.18921102464514691 -0.032768804783990198 0 0.1836492994017738 -0.02315837173595699 0 0.17639545453956851 -0.0170226934724758 0 0.1859111232351866 -0.01529186877895241 0 0.1836492994017738 -0.02315837173595699 0 0.1859111232351866 -0.01529186877895241 0 0.19244638389716179 -0.022373199244968119 0 0.17341231492655471 -0.027916476754078171 0 0.1836492994017738 -0.02315837173595699 0 0.17639545453956851 -0.0170226934724758 0 0.1833712000255828 0.0016491239471258491 0 0.18548413704857691 0.002143183228761612 0 0.1859111232351866 -0.01529186877895241 0 0.1833712000255828 0.0016491239471258491 0 0.1763626997432638 -0.0087531197266928033 0 0.15955581840028041 -0.0039195277493322116 0 0.17639545453956851 -0.0170226934724758 0 0.1763626997432638 -0.0087531197266928033 0 0.1859111232351866 -0.01529186877895241 0 0.1833712000255828 0.0016491239471258491 0 0.1859111232351866 -0.01529186877895241 0 0.1833712000255828 0.0016491239471258491 0 0.1763626997432638 -0.0087531197266928033 0 0.1859111232351866 -0.01529186877895241 0 0.1910819940596116 0.0040222601577129102 0 0.18548413704857691 0.002143183228761612 0 0.1859111232351866 -0.01529186877895241 0 0.17639545453956851 -0.0170226934724758 0 0.1763626997432638 -0.0087531197266928033 0 0.15955581840028041 -0.0039195277493322116 0 0.1833712000255828 0.0016491239471258491 0 0.15955581840028041 -0.0039195277493322116 0 0.20498211064709029 -0.0083746804042920241 0 0.21498421839008711 -0.01584854867148518 0 0.22144738310903259 -0.001273930364594923 0 0.20476540551253661 0.0056324796363614749 0 0.20498211064709029 -0.0083746804042920241 0 0.22144738310903259 -0.001273930364594923 0 0.20498211064709029 -0.0083746804042920241 0 0.20361016243576871 -0.02090751963572093 0 0.21498421839008711 -0.01584854867148518 0 0.1910819940596116 0.0040222601577129102 0 0.1993406012716871 -0.002825546469031011 0 0.19653289486750999 -0.0125822452659064 0 0.1910819940596116 0.0040222601577129102 0 0.19653289486750999 -0.0125822452659064 0 0.19244638389716179 -0.022373199244968119 0 0.1910819940596116 0.0040222601577129102 0 0.1859111232351866 -0.01529186877895241 0 0.19244638389716179 -0.022373199244968119 0 0.20476540551253661 0.0056324796363614749 0 0.20498211064709029 -0.0083746804042920241 0 0.1993406012716871 -0.002825546469031011 0 0.1910819940596116 0.0040222601577129102 0 0.19244638389716179 -0.022373199244968119 0 0.20498211064709029 -0.0083746804042920241 0 0.19653289486750999 -0.0125822452659064 0 0.20361016243576871 -0.02090751963572093 0 0.20498211064709029 -0.0083746804042920241 0 0.1993406012716871 -0.002825546469031011 0 0.19653289486750999 -0.0125822452659064 0 0.19653289486750999 -0.0125822452659064 0 0.19244638389716179 -0.022373199244968119 0 0.20361016243576871 -0.02090751963572093 0 0.19244638389716179 -0.022373199244968119 0 0.20000058910552029 -0.038606120354779547 0 0.18921102464514691 -0.032768804783990198 0 0.19244638389716179 -0.022373199244968119 0 0.20361016243576871 -0.02090751963572093 0 0.20000058910552029 -0.038606120354779547 0 0.1836492994017738 -0.02315837173595699 0 0.19244638389716179 -0.022373199244968119 0 0.18921102464514691 -0.032768804783990198 0 0.20361016243576871 -0.02090751963572093 0 0.21315837351157421 -0.027506975839182789 0 0.20000058910552029 -0.038606120354779547 0 0.20361016243576871 -0.02090751963572093 0 0.21498421839008711 -0.01584854867148518 0 0.21315837351157421 -0.027506975839182789 0 0.21315837351157421 -0.027506975839182789 0 0.20000058910552029 -0.038606120354779547 0 0.22176287777792539 -0.039174530338246472 0 0.20000058910552029 -0.038606120354779547 0 0.21853002385103529 -0.053901312719845808 0 0.22176287777792539 -0.039174530338246472 0 0.187268811452829 -0.051913425758824433 0 0.20000058910552029 -0.038606120354779547 0 0.18921102464514691 -0.032768804783990198 0 0.187268811452829 -0.051913425758824433 0 0.20378205253329229 -0.05848222518700847 0 0.20112530797910269 -0.075910374763570959 0 0.187268811452829 -0.051913425758824433 0 0.20000058910552029 -0.038606120354779547 0 0.20378205253329229 -0.05848222518700847 0 0.20000058910552029 -0.038606120354779547 0 0.20378205253329229 -0.05848222518700847 0 0.21853002385103529 -0.053901312719845808 0 0.20378205253329229 -0.05848222518700847 0 0.21853002385103529 -0.053901312719845808 0 0.2172797122637713 -0.069232811791982735 0 0.21853002385103529 -0.053901312719845808 0 0.24271713241923329 -0.05236508977893202 0 0.2360154030573593 -0.068979746196896646 0 0.21853002385103529 -0.053901312719845808 0 0.24271713241923329 -0.05236508977893202 0 0.22176287777792539 -0.039174530338246472 0 0.25601806831486851 -0.03729292471097443 0 0.24271713241923329 -0.05236508977893202 0 0.24583690460315419 -0.032216520319374713 0 0.24271713241923329 -0.05236508977893202 0 0.24583690460315419 -0.032216520319374713 0 0.23208225776413291 -0.026819510071763451 0 0.24271713241923329 -0.05236508977893202 0 0.23208225776413291 -0.026819510071763451 0 0.24271713241923329 -0.05236508977893202 0 0.22176287777792539 -0.039174530338246472 0 0.23208225776413291 -0.026819510071763451 0 0.21498421839008711 -0.01584854867148518 0 0.21315837351157421 -0.027506975839182789 0 0.23208225776413291 -0.026819510071763451 0 0.21315837351157421 -0.027506975839182789 0 0.22176287777792539 -0.039174530338246472 0 0.23208225776413291 -0.026819510071763451 0 0.23208225776413291 -0.026819510071763451 0 0.24782149009274521 -0.020442975961762169 0 0.23737886222130061 -0.0060324654932160521 0 0.24583690460315419 -0.032216520319374713 0 0.23208225776413291 -0.026819510071763451 0 0.24782149009274521 -0.020442975961762169 0 0.25405962352648309 -0.023665905053132121 0 0.24583690460315419 -0.032216520319374713 0 0.24782149009274521 -0.020442975961762169 0 0.25013882261941017 0.0089978927561854966 0 0.24782149009274521 -0.020442975961762169 0 0.23737886222130061 -0.0060324654932160521 0 0.25013882261941017 0.0089978927561854966 0 0.24782149009274521 -0.020442975961762169 0 0.23208225776413291 -0.026819510071763451 0 0.22144738310903259 -0.001273930364594923 0 0.23208225776413291 -0.026819510071763451 0 0.23737886222130061 -0.0060324654932160521 0 0.22144738310903259 -0.001273930364594923 0 0.21498421839008711 -0.01584854867148518 0 0.23208225776413291 -0.026819510071763451 0 0.22144738310903259 -0.001273930364594923 0 0.21331244000384891 -0.098474440266295468 0 0.215972754873755 -0.1140047452567996 0 0.19902713990871559 -0.10258185018336929 0 0.21331244000384891 -0.098474440266295468 0 0.19902713990871559 -0.10258185018336929 0 0.20296756310843331 -0.093885874278757595 0 0.215972754873755 -0.1140047452567996 0 0.19907803687685119 -0.1157895930917673 0 0.2010363605643064 -0.13071442048403931 0 0.215972754873755 -0.1140047452567996 0 0.19907803687685119 -0.1157895930917673 0 0.19902713990871559 -0.10258185018336929 0 0.18652969495188659 -0.1179495368716466 0 0.19907803687685119 -0.1157895930917673 0 0.2010363605643064 -0.13071442048403931 0 0.18652969495188659 -0.1179495368716466 0 0.19907803687685119 -0.1157895930917673 0 0.18920350329543531 -0.1063757505567398 0 0.18920350329543531 -0.1063757505567398 0 0.19902713990871559 -0.10258185018336929 0 0.19035977243770699 -0.098466372273776442 0 0.19907803687685119 -0.1157895930917673 0 0.18920350329543531 -0.1063757505567398 0 0.19902713990871559 -0.10258185018336929 0 0.19902713990871559 -0.10258185018336929 0 0.20296756310843331 -0.093885874278757595 0 0.19464673151683659 -0.092372502091597183 0 0.19902713990871559 -0.10258185018336929 0 0.19035977243770699 -0.098466372273776442 0 0.19464673151683659 -0.092372502091597183 0 0.18625216873885789 -0.091829433519575537 0 0.19035977243770699 -0.098466372273776442 0 0.19464673151683659 -0.092372502091597183 0 0.18625216873885789 -0.091829433519575537 0 0.19464673151683659 -0.092372502091597183 0 0.1917825355340588 -0.087364887717294198 0 0.19464673151683659 -0.092372502091597183 0 0.1917825355340588 -0.087364887717294198 0 0.19858898380789691 -0.086426859240574222 0 0.18572769554975679 -0.085822453181045602 0 0.18625216873885789 -0.091829433519575537 0 0.1917825355340588 -0.087364887717294198 0 0.1917825355340588 -0.087364887717294198 0 0.18917425272266691 -0.081513209346859433 0 0.19322113016134379 -0.083591572233713579 0 0.18917425272266691 -0.081513209346859433 0 0.19355960909421421 -0.080451628612257575 0 0.18920720836578789 -0.073046089513581727 0 0.18572769554975679 -0.085822453181045602 0 0.1917825355340588 -0.087364887717294198 0 0.18917425272266691 -0.081513209346859433 0 0.18917425272266691 -0.081513209346859433 0 0.19355960909421421 -0.080451628612257575 0 0.19322113016134379 -0.083591572233713579 0 0.19355960909421421 -0.080451628612257575 0 0.1962937302140271 -0.079168570109072217 0 0.19501487102607859 -0.076304079648039813 0 0.19355960909421421 -0.080451628612257575 0 0.19322113016134379 -0.083591572233713579 0 0.19641949129503969 -0.082050180208848036 0 0.1917825355340588 -0.087364887717294198 0 0.19322113016134379 -0.083591572233713579 0 0.19858898380789691 -0.086426859240574222 0 0.2020637873477712 -0.082306292255324626 0 0.19858898380789691 -0.086426859240574222 0 0.2077587082142042 -0.087483467865593273 0 0.19641949129503969 -0.082050180208848036 0 0.1991789285162277 -0.081770130235804483 0 0.19858898380789691 -0.086426859240574222 0 0.19322113016134379 -0.083591572233713579 0 0.19641949129503969 -0.082050180208848036 0 0.19858898380789691 -0.086426859240574222 0 0.19355960909421421 -0.080451628612257575 0 0.19641949129503969 -0.082050180208848036 0 0.1962937302140271 -0.079168570109072217 0 0.19641949129503969 -0.082050180208848036 0 0.1962937302140271 -0.079168570109072217 0 0.1985434167513476 -0.079151767532540843 0 0.19641949129503969 -0.082050180208848036 0 0.1991789285162277 -0.081770130235804483 0 0.1985434167513476 -0.079151767532540843 0 0.1962937302140271 -0.079168570109072217 0 0.1985434167513476 -0.079151767532540843 0 0.19781237619758901 -0.077472512098724161 0 0.200322163895508 -0.07957724386942383 0 0.2020637873477712 -0.082306292255324626 0 0.20112530797910269 -0.075910374763570959 0 0.1985434167513476 -0.079151767532540843 0 0.200322163895508 -0.07957724386942383 0 0.19993120486408919 -0.077417315918665477 0 0.1991789285162277 -0.081770130235804483 0 0.200322163895508 -0.07957724386942383 0 0.2020637873477712 -0.082306292255324626 0 0.1991789285162277 -0.081770130235804483 0 0.1985434167513476 -0.079151767532540843 0 0.200322163895508 -0.07957724386942383 0 0.1991789285162277 -0.081770130235804483 0 0.2020637873477712 -0.082306292255324626 0 0.19858898380789691 -0.086426859240574222 0 0.20296756310843331 -0.093885874278757595 0 0.19858898380789691 -0.086426859240574222 0 0.2077587082142042 -0.087483467865593273 0 0.20296756310843331 -0.093885874278757595 0 0.19464673151683659 -0.092372502091597183 0 0.19858898380789691 -0.086426859240574222 0 0.187268811452829 -0.051913425758824433 0 0.20112530797910269 -0.075910374763570959 0 0.187268811452829 -0.051913425758824433 0 0.18920720836578789 -0.073046089513581727 0 0.20112530797910269 -0.075910374763570959 0 0.18920720836578789 -0.073046089513581727 0 0.19501487102607859 -0.076304079648039813 0 0.20112530797910269 -0.075910374763570959 0 0.19355960909421421 -0.080451628612257575 0 0.18920720836578789 -0.073046089513581727 0 0.19501487102607859 -0.076304079648039813 0 0.19501487102607859 -0.076304079648039813 0 0.19781237619758901 -0.077472512098724161 0 0.20112530797910269 -0.075910374763570959 0 0.1962937302140271 -0.079168570109072217 0 0.19501487102607859 -0.076304079648039813 0 0.19781237619758901 -0.077472512098724161 0 0.1985434167513476 -0.079151767532540843 0 0.19781237619758901 -0.077472512098724161 0 0.19993120486408919 -0.077417315918665477 0 0.200322163895508 -0.07957724386942383 0 0.19993120486408919 -0.077417315918665477 0 0.20112530797910269 -0.075910374763570959 0 0.19781237619758901 -0.077472512098724161 0 0.19993120486408919 -0.077417315918665477 0 0.20112530797910269 -0.075910374763570959 0 0.20378205253329229 -0.05848222518700847 0 0.20112530797910269 -0.075910374763570959 0 0.2172797122637713 -0.069232811791982735 0 0.20112530797910269 -0.075910374763570959 0 0.2172797122637713 -0.069232811791982735 0 0.2268132574392098 -0.08388430118452983 0 0.21331244000384891 -0.098474440266295468 0 0.2077587082142042 -0.087483467865593273 0 0.2268132574392098 -0.08388430118452983 0 0.20112530797910269 -0.075910374763570959 0 0.2268132574392098 -0.08388430118452983 0 0.20112530797910269 -0.075910374763570959 0 0.2077587082142042 -0.087483467865593273 0 0.2268132574392098 -0.08388430118452983 0 0.21331244000384891 -0.098474440266295468 0 0.20296756310843331 -0.093885874278757595 0 0.2077587082142042 -0.087483467865593273 0 0.2020637873477712 -0.082306292255324626 0 0.20112530797910269 -0.075910374763570959 0 0.2077587082142042 -0.087483467865593273 0 0.21853002385103529 -0.053901312719845808 0 0.2172797122637713 -0.069232811791982735 0 0.2360154030573593 -0.068979746196896646 0 0.2172797122637713 -0.069232811791982735 0 0.2268132574392098 -0.08388430118452983 0 0.2360154030573593 -0.068979746196896646 0 0.25335200707433359 -0.077910669486100592 0 0.24271713241923329 -0.05236508977893202 0 0.2360154030573593 -0.068979746196896646 0 0.25335200707433359 -0.077910669486100592 0 0.2268132574392098 -0.08388430118452983 0 0.2360154030573593 -0.068979746196896646 0 0.25335200707433359 -0.077910669486100592 0 0.24271713241923329 -0.05236508977893202 0 0.25250120689931721 -0.091858227605487897 0 0.2268132574392098 -0.08388430118452983 0 0.23477886716272339 -0.101553803984387 0 0.25250120689931721 -0.091858227605487897 0 0.25335200707433359 -0.077910669486100592 0 0.2268132574392098 -0.08388430118452983 0 0.25250120689931721 -0.091858227605487897 0 0.2268132574392098 -0.08388430118452983 0 0.25617956308440981 -0.10916717323675761 0 0.23477886716272339 -0.101553803984387 0 0.23979133561700799 -0.1173791356703934 0 0.25617956308440981 -0.10916717323675761 0 0.25250120689931721 -0.091858227605487897 0 0.23477886716272339 -0.101553803984387 0 0.21331244000384891 -0.098474440266295468 0 0.215972754873755 -0.1140047452567996 0 0.23477886716272339 -0.101553803984387 0 0.21331244000384891 -0.098474440266295468 0 0.2268132574392098 -0.08388430118452983 0 0.23477886716272339 -0.101553803984387 0 0.215972754873755 -0.1140047452567996 0 0.23979133561700799 -0.1173791356703934 0 0.2212940899616245 -0.13474569708511749 0 0.215972754873755 -0.1140047452567996 0 0.23477886716272339 -0.101553803984387 0 0.23979133561700799 -0.1173791356703934 0 0.26573129592843792 -0.12603423342762909 0 0.23979133561700799 -0.1173791356703934 0 0.24236326494606 -0.1365088818677464 0 0.23979133561700799 -0.1173791356703934 0 0.24236326494606 -0.1365088818677464 0 0.2212940899616245 -0.13474569708511749 0 0.25327343549745029 -0.15223631282881189 0 0.24236326494606 -0.1365088818677464 0 0.22626433327028481 -0.15935131714070089 0 0.24236326494606 -0.1365088818677464 0 0.2212940899616245 -0.13474569708511749 0 0.22626433327028481 -0.15935131714070089 0 0.2212940899616245 -0.13474569708511749 0 0.19638028097999499 -0.15079772221858009 0 0.2010363605643064 -0.13071442048403931 0 0.215972754873755 -0.1140047452567996 0 0.2212940899616245 -0.13474569708511749 0 0.2010363605643064 -0.13071442048403931 0 0.2212940899616245 -0.13474569708511749 0 0.19638028097999499 -0.15079772221858009 0 0.22626433327028481 -0.15935131714070089 0 0.18652969495188659 -0.1179495368716466 0 0.2010363605643064 -0.13071442048403931 0 0.17690456808119359 -0.13437656240961729 0 0.19638028097999499 -0.15079772221858009 0 0.2010363605643064 -0.13071442048403931 0 0.17690456808119359 -0.13437656240961729 0 0.19775480743387919 -0.1866020182846653 0 0.20383956181700039 -0.16956175291931899 0 0.17921767483095569 -0.17152087077770439 0 0.19638028097999499 -0.15079772221858009 0 0.20383956181700039 -0.16956175291931899 0 0.17921767483095569 -0.17152087077770439 0 0.20383956181700039 -0.16956175291931899 0 0.2195807125698874 -0.17953683617494429 0 0.22626433327028481 -0.15935131714070089 0 0.19638028097999499 -0.15079772221858009 0 0.20383956181700039 -0.16956175291931899 0 0.22626433327028481 -0.15935131714070089 0 0.19775480743387919 -0.1866020182846653 0 0.20383956181700039 -0.16956175291931899 0 0.2195807125698874 -0.17953683617494429 0 0.2195807125698874 -0.17953683617494429 0 0.22626433327028481 -0.15935131714070089 0 0.24081557506646159 -0.17843839222999411 0 0.2195807125698874 -0.17953683617494429 0 0.24081557506646159 -0.17843839222999411 0 0.23213322921931739 -0.1966995949891433 0 0.22626433327028481 -0.15935131714070089 0 0.24081557506646159 -0.17843839222999411 0 0.25327343549745029 -0.15223631282881189 0 0.24081557506646159 -0.17843839222999411 0 0.25327343549745029 -0.15223631282881189 0 0.22626433327028481 -0.15935131714070089 0 0.24081557506646159 -0.17843839222999411 0 0.25057709658737243 -0.16261319156669729 0 0.25327343549745029 -0.15223631282881189 0 0.24081557506646159 -0.17843839222999411 0 0.25060182892965432 -0.1912751634792039 0 0.25057709658737243 -0.16261319156669729 0 0.24081557506646159 -0.17843839222999411 0 0.25060182892965432 -0.1912751634792039 0 0.24081557506646159 -0.17843839222999411 0 0.25060182892965432 -0.1912751634792039 0 0.24081557506646159 -0.17843839222999411 0 0.23213322921931739 -0.1966995949891433 0 0.25060182892965432 -0.1912751634792039 0 0.2387776221615012 -0.2081470619643192 0 0.23213322921931739 -0.1966995949891433 0 0.24081557506646159 -0.17843839222999411 0 0.23213322921931739 -0.1966995949891433 0 0.25062446703764368 -0.21751015600690229 0 0.25060182892965432 -0.1912751634792039 0 0.2387776221615012 -0.2081470619643192 0 0.25062446703764368 -0.21751015600690229 0 0.2387776221615012 -0.2081470619643192 0 0.23707770224871169 -0.22028959759805469 0 0.2387776221615012 -0.2081470619643192 0 0.22345088337217189 -0.2149607977482918 0 0.23213322921931739 -0.1966995949891433 0 0.22345088337217189 -0.2149607977482918 0 0.23213322921931739 -0.1966995949891433 0 0.21264346307689691 -0.1999628743297534 0 0.22345088337217189 -0.2149607977482918 0 0.23213322921931739 -0.1966995949891433 0 0.2387776221615012 -0.2081470619643192 0 0.22345088337217189 -0.2149607977482918 0 0.23707770224871169 -0.22028959759805469 0 0.2195807125698874 -0.17953683617494429 0 0.23213322921931739 -0.1966995949891433 0 0.21264346307689691 -0.1999628743297534 0 0.2439925404390729 -0.22821833820309989 0 0.22983954414877489 -0.23340099941814341 0 0.2323178439682041 -0.24826791945116011 0 0.2439925404390729 -0.22821833820309989 0 0.2323178439682041 -0.24826791945116011 0 0.25064710514562599 -0.24374514853460069 0 0.23574799295882359 -0.25043693971702707 0 0.2323178439682041 -0.24826791945116011 0 0.25064710514562599 -0.24374514853460069 0 0.2439925404390729 -0.22821833820309989 0 0.2323178439682041 -0.24826791945116011 0 0.25064710514562599 -0.24374514853460069 0 0.25062446703764368 -0.21751015600690229 0 0.2439925404390729 -0.22821833820309989 0 0.2439925404390729 -0.22821833820309989 0 0.23707770224871169 -0.22028959759805469 0 0.22983954414877489 -0.23340099941814341 0 0.25062446703764368 -0.21751015600690229 0 0.2439925404390729 -0.22821833820309989 0 0.23707770224871169 -0.22028959759805469 0 0.22345088337217189 -0.2149607977482918 0 0.21476853752502639 -0.2332220005074403 0 0.22345088337217189 -0.2149607977482918 0 0.23707770224871169 -0.22028959759805469 0 0.22983954414877489 -0.23340099941814341 0 0.22345088337217189 -0.2149607977482918 0 0.22983954414877489 -0.23340099941814341 0 0.21476853752502639 -0.2332220005074403 0 0.21987066996782101 -0.2446318835437562 0 0.2323178439682041 -0.24826791945116011 0 0.21124938015519329 -0.2349454879456799 0 0.2323178439682041 -0.24826791945116011 0 0.21124938015519329 -0.2349454879456799 0 0.22983954414877489 -0.23340099941814341 0 0.2323178439682041 -0.24826791945116011 0 0.21476853752502639 -0.2332220005074403 0 0.2323178439682041 -0.24826791945116011 0 0.21124938015519329 -0.2349454879456799 0 0.21476853752502639 -0.2332220005074403 0 0.21987066996782101 -0.2446318835437562 0 0.22572351353503739 -0.24844454388569451 0 0.2323178439682041 -0.24826791945116011 0 0.21987066996782101 -0.2446318835437562 0 0.21985462013140389 -0.24971968414124501 0 0.22297677265606941 -0.24873837238888649 0 0.21987066996782101 -0.2446318835437562 0 0.22297677265606941 -0.24873837238888649 0 0.22572351353503739 -0.24844454388569451 0 0.22434081939328099 -0.25218634102797599 0 0.22297677265606941 -0.24873837238888649 0 0.22572351353503739 -0.24844454388569451 0 0.22434081939328099 -0.25218634102797599 0 0.22572351353503739 -0.24844454388569451 0 0.2323178439682041 -0.24826791945116011 0 0.23574799295882359 -0.25043693971702707 0 0.2323178439682041 -0.24826791945116011 0 0.21449381670827419 -0.25078028241941708 0 0.2032001387785364 -0.25078579389211808 0 0.20998398724652451 -0.2440360809990757 0 0.2032001387785364 -0.25078579389211808 0 0.20998398724652451 -0.2440360809990757 0 0.19700535937679581 -0.2390995704407809 0 0.21449381670827419 -0.25078028241941708 0 0.21987066996782101 -0.2446318835437562 0 0.20998398724652451 -0.2440360809990757 0 0.21449381670827419 -0.25078028241941708 0 0.21987066996782101 -0.2446318835437562 0 0.21985462013140389 -0.24971968414124501 0 0.21987066996782101 -0.2446318835437562 0 0.20998398724652451 -0.2440360809990757 0 0.21124938015519329 -0.2349454879456799 0 0.20998398724652451 -0.2440360809990757 0 0.21124938015519329 -0.2349454879456799 0 0.19700535937679581 -0.2390995704407809 0 0.22345088337217189 -0.2149607977482918 0 0.21476853752502639 -0.2332220005074403 0 0.20604260767877169 -0.2198592796402038 0 0.21124938015519329 -0.2349454879456799 0 0.21476853752502639 -0.2332220005074403 0 0.20604260767877169 -0.2198592796402038 0 0.21124938015519329 -0.2349454879456799 0 0.19018091634218229 -0.22162305644020011 0 0.19700535937679581 -0.2390995704407809 0 0.21124938015519329 -0.2349454879456799 0 0.20604260767877169 -0.2198592796402038 0 0.19018091634218229 -0.22162305644020011 0 0.19018091634218229 -0.22162305644020011 0 0.19700535937679581 -0.2390995704407809 0 0.17932842121331499 -0.23651753208966431 0 0.21124938015519329 -0.2349454879456799 0 0.19018091634218229 -0.22162305644020011 0 0.19700535937679581 -0.2390995704407809 0 0.1891685256102339 -0.24827901167628361 0 0.17932842121331499 -0.23651753208966431 0 0.2032001387785364 -0.25078579389211808 0 0.19700535937679581 -0.2390995704407809 0 0.1891685256102339 -0.24827901167628361 0 0.19775480743387919 -0.1866020182846653 0 0.2195807125698874 -0.17953683617494429 0 0.21264346307689691 -0.1999628743297534 0 0.22345088337217189 -0.2149607977482918 0 0.20604260767877169 -0.2198592796402038 0 0.21264346307689691 -0.1999628743297534 0 0.20604260767877169 -0.2198592796402038 0 0.21264346307689691 -0.1999628743297534 0 0.19272151911194291 -0.20472449922593661 0 0.20604260767877169 -0.2198592796402038 0 0.19018091634218229 -0.22162305644020011 0 0.19272151911194291 -0.20472449922593661 0 0.19775480743387919 -0.1866020182846653 0 0.21264346307689691 -0.1999628743297534 0 0.19272151911194291 -0.20472449922593661 0 0.19775480743387919 -0.1866020182846653 0 0.19272151911194291 -0.20472449922593661 0 0.1805948676107563 -0.19199914172607641 0 0.19272151911194291 -0.20472449922593661 0 0.1805948676107563 -0.19199914172607641 0 0.16911245252917129 -0.2083006249347204 0 0.19018091634218229 -0.22162305644020011 0 0.19272151911194291 -0.20472449922593661 0 0.16911245252917129 -0.2083006249347204 0 0.19018091634218229 -0.22162305644020011 0 0.16911245252917129 -0.2083006249347204 0 0.16447469274077139 -0.22243040318315349 0 0.19018091634218229 -0.22162305644020011 0 0.16911245252917129 -0.2083006249347204 0 0.16911245252917129 -0.2083006249347204 0 0.16447469274077139 -0.22243040318315349 0 0.15250062194189609 -0.2068687633839961 0 0.16911245252917129 -0.2083006249347204 0 0.16052007656736911 -0.18850079341918091 0 0.15250062194189609 -0.2068687633839961 0 0.1805948676107563 -0.19199914172607641 0 0.16911245252917129 -0.2083006249347204 0 0.16052007656736911 -0.18850079341918091 0 0.17354935776980321 -0.25065344809563522 0 0.1891685256102339 -0.24827901167628361 0 0.17932842121331499 -0.23651753208966431 0 0.19018091634218229 -0.22162305644020011 0 0.17932842121331499 -0.23651753208966431 0 0.16447469274077139 -0.22243040318315349 0 0.17932842121331499 -0.23651753208966431 0 0.16447469274077139 -0.22243040318315349 0 0.16159167544010031 -0.23701970270193859 0 0.16447469274077139 -0.22243040318315349 0 0.16159167544010031 -0.23701970270193859 0 0.14963399311040271 -0.2233859573082374 0 0.17354935776980321 -0.25065344809563522 0 0.15067059900609719 -0.23714095191957099 0 0.17354935776980321 -0.25065344809563522 0 0.17932842121331499 -0.23651753208966431 0 0.16159167544010031 -0.23701970270193859 0 0.17354935776980321 -0.25065344809563522 0 0.16159167544010031 -0.23701970270193859 0 0.15067059900609719 -0.23714095191957099 0 0.17354935776980321 -0.25065344809563522 0 0.16159167544010031 -0.23701970270193859 0 0.1420728656464782 -0.2576794520533135 0 0.17354935776980321 -0.25065344809563522 0 0.15067059900609719 -0.23714095191957099 0 0.15067059900609719 -0.23714095191957099 0 0.14963399311040271 -0.2233859573082374 0 0.12779184024238771 -0.22362845574351259 0 0.16159167544010031 -0.23701970270193859 0 0.15067059900609719 -0.23714095191957099 0 0.14963399311040271 -0.2233859573082374 0 0.16159167544010031 -0.23701970270193859 0 0.14963399311040271 -0.2233859573082374 0 0.15067059900609719 -0.23714095191957099 0 0.12779184024238771 -0.22362845574351259 0 0.14963399311040271 -0.2233859573082374 0 0.12779184024238771 -0.22362845574351259 0 0.1380299361753389 -0.2094631635835956 0 0.1420728656464782 -0.2576794520533135 0 0.1221314744503164 -0.24898433523857991 0 0.15067059900609719 -0.23714095191957099 0 0.1221314744503164 -0.24898433523857991 0 0.15067059900609719 -0.23714095191957099 0 0.12779184024238771 -0.22362845574351259 0 0.16052007656736911 -0.18850079341918091 0 0.15250062194189609 -0.2068687633839961 0 0.13974157083837971 -0.1934776235387056 0 0.15250062194189609 -0.2068687633839961 0 0.1380299361753389 -0.2094631635835956 0 0.13974157083837971 -0.1934776235387056 0 0.16447469274077139 -0.22243040318315349 0 0.14963399311040271 -0.2233859573082374 0 0.15250062194189609 -0.2068687633839961 0 0.14963399311040271 -0.2233859573082374 0 0.15250062194189609 -0.2068687633839961 0 0.1380299361753389 -0.2094631635835956 0 0.1227939191788778 -0.2013027373632631 0 0.12779184024238771 -0.22362845574351259 0 0.1380299361753389 -0.2094631635835956 0 0.1227939191788778 -0.2013027373632631 0 0.1380299361753389 -0.2094631635835956 0 0.13974157083837971 -0.1934776235387056 0 0.1227939191788778 -0.2013027373632631 0 0.1229208327562098 -0.17843487112377801 0 0.13974157083837971 -0.1934776235387056 0 0.1229208327562098 -0.17843487112377801 0 0.13974157083837971 -0.1934776235387056 0 0.1514201922340829 -0.16952508973210351 0 0.16052007656736911 -0.18850079341918091 0 0.13974157083837971 -0.1934776235387056 0 0.1514201922340829 -0.16952508973210351 0 0.1514201922340829 -0.16952508973210351 0 0.13201949680868541 -0.15666236536338729 0 0.1518112773740882 -0.14825303318454999 0 0.1229208327562098 -0.17843487112377801 0 0.1514201922340829 -0.16952508973210351 0 0.13201949680868541 -0.15666236536338729 0 0.13201949680868541 -0.15666236536338729 0 0.13654636134305631 -0.14171519660333581 0 0.1518112773740882 -0.14825303318454999 0 0.1226028682935372 -0.14368364856233329 0 0.13201949680868541 -0.15666236536338729 0 0.13654636134305631 -0.14171519660333581 0 0.12439711383699339 -0.1303924827288343 0 0.1311833993006993 -0.1175120336712588 0 0.13848235523365679 -0.13049884926639149 0 0.12439711383699339 -0.1303924827288343 0 0.1226028682935372 -0.14368364856233329 0 0.13654636134305631 -0.14171519660333581 0 0.12439711383699339 -0.1303924827288343 0 0.13654636134305631 -0.14171519660333581 0 0.13848235523365679 -0.13049884926639149 0 0.13848235523365679 -0.13049884926639149 0 0.14811623865083171 -0.13599130066131981 0 0.15195705059888459 -0.12503596286307711 0 0.13654636134305631 -0.14171519660333581 0 0.13848235523365679 -0.13049884926639149 0 0.14811623865083171 -0.13599130066131981 0 0.14811623865083171 -0.13599130066131981 0 0.1518112773740882 -0.14825303318454999 0 0.1617841487044728 -0.1344534613892443 0 0.14811623865083171 -0.13599130066131981 0 0.15195705059888459 -0.12503596286307711 0 0.1617841487044728 -0.1344534613892443 0 0.13654636134305631 -0.14171519660333581 0 0.14811623865083171 -0.13599130066131981 0 0.1518112773740882 -0.14825303318454999 0 0.1518112773740882 -0.14825303318454999 0 0.1617841487044728 -0.1344534613892443 0 0.17203877280485 -0.15195697093877769 0 0.1617841487044728 -0.1344534613892443 0 0.17690456808119359 -0.13437656240961729 0 0.17203877280485 -0.15195697093877769 0 0.15742885518239219 -0.1179554026006545 0 0.15195705059888459 -0.12503596286307711 0 0.1617841487044728 -0.1344534613892443 0 0.15742885518239219 -0.1179554026006545 0 0.1617841487044728 -0.1344534613892443 0 0.17690456808119359 -0.13437656240961729 0 0.15742885518239219 -0.1179554026006545 0 0.17690456808119359 -0.13437656240961729 0 0.19638028097999499 -0.15079772221858009 0 0.17690456808119359 -0.13437656240961729 0 0.19638028097999499 -0.15079772221858009 0 0.17690456808119359 -0.13437656240961729 0 0.17203877280485 -0.15195697093877769 0 0.19638028097999499 -0.15079772221858009 0 0.17203877280485 -0.15195697093877769 0 0.17921767483095569 -0.17152087077770439 0 0.1805948676107563 -0.19199914172607641 0 0.16052007656736911 -0.18850079341918091 0 0.17921767483095569 -0.17152087077770439 0 0.19775480743387919 -0.1866020182846653 0 0.1805948676107563 -0.19199914172607641 0 0.17921767483095569 -0.17152087077770439 0 0.16052007656736911 -0.18850079341918091 0 0.1514201922340829 -0.16952508973210351 0 0.17921767483095569 -0.17152087077770439 0 0.1514201922340829 -0.16952508973210351 0 0.1518112773740882 -0.14825303318454999 0 0.17203877280485 -0.15195697093877769 0 0.1514201922340829 -0.16952508973210351 0 0.17203877280485 -0.15195697093877769 0 0.17921767483095569 -0.17152087077770439 0 
</DataArray>
</Points>
<Cells>
<DataArray type="UInt32" Name="connectivity" format="ascii">
0 1 2 3 4 5 6 7 8 9 10 11 12 13 14 15 16 17 18 19 20 21 22 23 24 25 26 27 28 29 30 31 32 33 34 35 36 37 38 39 40 41 42 43 44 45 46 47 48 49 50 51 52 53 54 55 56 57 58 59 60 61 62 63 64 65 66 67 68 69 70 71 72 73 74 75 76 77 78 79 80 81 82 83 84 85 86 87 88 89 90 91 92 93 94 95 96 97 98 99 100 101 102 103 104 105 106 107 108 109 110 111 112 113 114 115 116 117 118 119 120 121 122 123 124 125 126 127 128 129 130 131 132 133 134 135 136 137 138 139 140 141 142 143 144 145 146 147 148 149 150 151 152 153 154 155 156 157 158 159 160 161 162 163 164 165 166 167 168 169 170 171 172 173 174 175 176 177 178 179 180 181 182 183 184 185 186 187 188 189 190 191 192 193 194 195 196 197 198 199 200 201 202 203 204 205 206 207 208 209 210 211 212 213 214 215 216 217 218 219 220 221 222 223 224 225 226 227 228 229 230 231 232 233 234 235 236 237 238 239 240 241 242 243 244 245 246 247 248 249 250 251 252 253 254 255 256 257 258 259 260 261 262 263 264 265 266 267 268 269 270 271 272 273 274 275 276 277 278 279 280 281 282 283 284 285 286 287 288 289 290 291 292 293 294 295 296 297 298 299 300 301 302 303 304 305 306 307 308 309 310 311 312 313 314 315 316 317 318 319 320 321 322 323 324 325 326 327 328 329 330 331 332 333 334 335 336 337 338 339 340 341 342 343 344 345 346 347 348 349 350 351 352 353 354 355 356 357 358 359 360 361 362 363 364 365 366 367 368 369 370 371 372 373 374 375 376 377 378 379 380 381 382 383 384 385 386 387 388 389 390 391 392 393 394 395 396 397 398 399 400 401 402 403 404 405 406 407 408 409 410 411 412 413 414 415 416 417 418 419 420 421 422 423 424 425 426 427 428 429 430 431 432 433 434 435 436 437 438 439 440 441 442 443 444 445 446 447 448 449 450 451 452 453 454 455 456 457 458 459 460 461 462 463 464 465 466 467 468 469 470 471 472 473 474 475 476 477 478 479 480 481 482 483 484 485 486 487 488 489 490 491 492 493 494 495 496 497 498 499 500 501 502 503 504 505 506 507 508 509 510 511 512 513 514 515 516 517 518 519 520 521 522 523 524 525 526 527 528 529 530 531 532 533 534 535 536 537 538 539 540 541 542 543 544 545 546 547 548 549 550 551 552 553 554 555 556 557 558 559 560 561 562 563 564 565 566 567 568 569 570 571 572 573 574 575 576 577 578 579 580 581 582 583 584 585 586 587 588 589 590 591 592 593 594 595 596 597 598 599 600 601 602 603 604 605 606 607 608 609 610 611 612 613 614 615 616 617 618 619 620 621 622 623 624 625 626 627 628 629 630 631 632 633 634 635 636 637 638 639 640 641 642 643 644 645 646 647 648 649 650 651 652 653 654 655 656 657 658 659 660 661 662 663 664 665 666 667 668 669 670 671 672 673 674 675 676 677 678 679 680 681 682 683 684 685 686 687 688 689 690 691 692 693 694 695 696 697 698 699 700 701 702 703 704 705 706 707 708 709 710 711 712 713 714 715 716 717 718 719 720 721 722 723 724 725 726 727 728 729 730 731 732 733 734 735 736 737 738 739 740 741 742 743 744 745 746 747 748 749 750 751 752 753 754 755 756 757 758 759 760 761 762 763 764 765 766 767 768 769 770 771 772 773 774 775 776 777 778 779 780 781 782 783 784 785 786 787 788 789 790 791 792 793 794 795 796 797 798 799 800 801 802 803 804 805 806 807 808 809 810 811 812 813 814 815 816 817 818 819 820 821 822 823 824 825 826 827 828 829 830 831 832 833 834 835 836 837 838 839 840 841 842 843 844 845 846 847 848 849 850 851 852 853 854 855 856 857 858 859 860 861 862 863 864 865 866 867 868 869 870 871 872 873 874 875 876 877 878 879 880 881 882 883 884 885 886 887 888 889 890 891 892 893 894 895 896 897 898 899 900 901 902 903 904 905 906 907 908 909 910 911 912 913 914 915 916 917 918 919 920 921 922 923 924 925 926 927 928 929 930 931 932 933 934 935 936 937 938 939 940 941 942 943 944 945 946 947 948 949 950 951 952 953 954 955 956 957 958 959 960 961 962 963 964 965 966 967 968 969 970 971 972 973 974 975 976 977 978 979 980 981 982 983 984 985 986 987 988 989 990 991 992 993 994 995 996 997 998 999 1000 1001 1002 1003 1004 1005 1006 1007 1008 1009 1010 1011 1012 1013 1014 1015 1016 1017 1018 1019 1020 1021 1022 1023 1024 1025 1026 1027 1028 1029 1030 1031 1032 1033 1034 1035 1036 1037 1038 1039 1040 1041 1042 1043 1044 1045 1046 1047 1048 1049 1050 1051 1052 1053 1054 1055 1056 1057 1058 1059 1060 1061 1062 1063 1064 1065 1066 1067 1068 1069 1070 1071 1072 1073 1074 1075 1076 1077 1078 1079 1080 1081 1082 1083 1084 1085 1086 1087 1088 1089 1090 1091 1092 1093 1094 1095 1096 1097 1098 1099 1100 1101 1102 1103 1104 1105 1106 1107 1108 1109 1110 1111 1112 1113 1114 1115 1116 1117 1118 1119 1120 1121 1122 1123 1124 1125 1126 1127 1128 1129 1130 1131 1132 1133 1134 1135 1136 1137 1138 1139 1140 1141 1142 1143 1144 1145 1146 1147 1148 1149 1150 1151 1152 1153 1154 1155 1156 1157 1158 1159 1160 1161 1162 1163 1164 1165 1166 1167 1168 1169 1170 1171 1172 1173 1174 1175 1176 1177 1178 1179 1180 1181 1182 1183 1184 1185 1186 1187 1188 1189 1190 1191 1192 1193 1194 1195 1196 1197 1198 1199 1200 1201 1202 1203 1204 1205 1206 1207 1208 1209 1210 1211 1212 1213 1214 1215 1216 1217 1218 1219 1220 1221 1222 1223 1224 1225 1226 1227 1228 1229 1230 1231 1232 1233 1234 1235 1236 1237 1238 1239 1240 1241 1242 1243 1244 1245 1246 1247 1248 1249 1250 1251 1252 1253 1254 1255 1256 1257 1258 1259 1260 1261 1262 1263 1264 1265 1266 1267 1268 1269 1270 1271 1272 1273 1274 1275 1276 1277 1278 1279 1280 1281 1282 1283 1284 1285 1286 1287 1288 1289 1290 1291 1292 1293 1294 1295 1296 1297 1298 1299 1300 1301 1302 1303 1304 1305 1306 1307 1308 1309 1310 1311 1312 1313 1314 1315 1316 1317 1318 1319 1320 1321 1322 1323 1324 1325 1326 1327 1328 1329 1330 1331 1332 1333 1334 1335 1336 1337 1338 1339 1340 1341 1342 1343 1344 1345 1346 1347 1348 1349 1350 1351 1352 1353 1354 1355 1356 1357 1358 1359 1360 1361 1362 1363 1364 1365 1366 1367 1368 1369 1370 1371 1372 1373 1374 1375 1376 1377 1378 1379 1380 1381 1382 1383 1384 1385 1386 1387 1388 1389 1390 1391 1392 1393 1394 1395 1396 1397 1398 1399 1400 1401 1402 1403 1404 1405 1406 1407 1408 1409 1410 1411 1412 1413 1414 1415 1416 1417 1418 1419 1420 1421 1422 1423 1424 1425 1426 1427 1428 1429 1430 1431 1432 1433 1434 1435 1436 1437 1438 1439 1440 1441 1442 1443 1444 1445 1446 1447 1448 1449 1450 1451 1452 1453 1454 1455 1456 1457 1458 1459 1460 1461 1462 1463 1464 1465 1466 1467 1468 1469 1470 1471 1472 1473 1474 1475 1476 1477 1478 1479 1480 1481 1482 1483 1484 1485 1486 1487 1488 1489 1490 1491 1492 1493 1494 1495 1496 1497 1498 1499 1500 1501 1502 1503 1504 1505 1506 1507 1508 1509 1510 1511 1512 1513 1514 1515 1516 1517 1518 1519 1520 1521 1522 1523 1524 1525 1526 1527 1528 1529 1530 1531 1532 1533 1534 1535 1536 1537 1538 1539 1540 1541 1542 1543 1544 1545 1546 1547 1548 1549 1550 1551 1552 1553 1554 1555 1556 1557 1558 1559 1560 1561 1562 1563 1564 1565 1566 1567 1568 1569 1570 1571 1572 1573 1574 1575 1576 1577 1578 1579 1580 1581 1582 1583 1584 1585 1586 1587 1588 1589 1590 1591 1592 1593 1594 1595 1596 1597 1598 1599 1600 1601 1602 1603 1604 1605 1606 1607 1608 1609 1610 1611 1612 1613 1614 1615 1616 1617 1618 1619 1620 1621 1622 1623 1624 1625 1626 1627 1628 1629 1630 1631 1632 1633 1634 1635 1636 1637 1638 1639 1640 1641 1642 1643 1644 1645 1646 1647 1648 1649 1650 1651 1652 1653 1654 1655 1656 1657 1658 1659 1660 1661 1662 1663 1664 1665 1666 1667 1668 1669 1670 1671 1672 1673 1674 1675 1676 1677 1678 1679 1680 1681 1682 1683 1684 1685 1686 1687 1688 1689 1690 1691 1692 1693 1694 1695 1696 1697 1698 1699 1700 1701 1702 1703 1704 1705 1706 1707 1708 1709 1710 1711 1712 1713 1714 1715 1716 1717 1718 1719 1720 1721 1722 1723 1724 1725 1726 1727 1728 1729 1730 1731 1732 1733 1734 1735 1736 1737 1738 1739 1740 1741 1742 1743 1744 1745 1746 1747 1748 1749 1750 1751 1752 1753 1754 1755 1756 1757 1758 1759 1760 1761 1762 1763 1764 1765 1766 1767 1768 1769 1770 1771 1772 1773 1774 1775 1776 1777 1778 1779 1780 1781 1782 1783 1784 1785 1786 1787 1788 1789 1790 1791 1792 1793 1794 1795 1796 1797 1798 1799 1800 1801 1802 1803 1804 1805 1806 1807 1808 1809 1810 1811 1812 1813 1814 1815 1816 1817 1818 1819 1820 1821 1822 1823 1824 1825 1826 1827 1828 1829 1830 1831 1832 1833 1834 1835 1836 1837 1838 1839 1840 1841 1842 1843 1844 1845 1846 1847 1848 1849 1850 1851 1852 1853 1854 1855 1856 1857 1858 1859 1860 1861 1862 1863 1864 1865 1866 1867 1868 1869 1870 1871 1872 1873 1874 1875 1876 1877 1878 1879 1880 1881 1882 1883 1884 1885 1886 1887 1888 1889 1890 1891 1892 1893 1894 1895 1896 1897 1898 1899 1900 1901 1902 1903 1904 1905 1906 1907 1908 1909 1910 1911 1912 1913 1914 1915 1916 1917 1918 1919 1920 1921 1922 1923 1924 1925 1926 1927 1928 1929 1930 1931 1932 1933 1934 1935 1936 1937 1938 1939 1940 1941 1942 1943 1944 1945 1946 1947 1948 1949 1950 1951 1952 1953 1954 1955 1956 1957 1958 1959 1960 1961 1962 1963 1964 1965 1966 1967 1968 1969 1970 1971 1972 1973 1974 1975 1976 1977 1978 1979 1980 1981 1982 1983 1984 1985 1986 1987 1988 1989 1990 1991 1992 1993 1994 1995 1996 1997 1998 1999 2000 2001 2002 2003 2004 2005 2006 2007 2008 2009 2010 2011 2012 2013 2014 2015 2016 2017 2018 2019 2020 2021 2022 2023 2024 2025 2026 2027 2028 2029 2030 2031 2032 2033 2034 2035 2036 2037 2038 2039 2040 2041 2042 2043 2044 2045 2046 2047 2048 2049 2050 2051 2052 2053 2054 2055 2056 2057 2058 2059 2060 2061 2062 2063 2064 2065 2066 2067 2068 2069 2070 2071 2072 2073 2074 2075 2076 2077 2078 2079 2080 2081 2082 2083 2084 2085 2086 2087 2088 2089 2090 2091 2092 2093 2094 2095 2096 2097 2098 2099 2100 2101 2102 2103 2104 2105 2106 2107 2108 2109 2110 2111 2112 2113 2114 2115 2116 2117 2118 2119 2120 2121 2122 2123 2124 2125 2126 2127 2128 2129 2130 2131 2132 2133 2134 2135 2136 2137 2138 2139 2140 2141 2142 2143 2144 2145 2146 2147 2148 2149 2150 2151 2152 2153 2154 2155 2156 2157 2158 2159 2160 2161 2162 2163 2164 2165 2166 2167 2168 2169 2170 2171 2172 2173 2174 2175 2176 2177 2178 2179 2180 2181 2182 2183 2184 2185 2186 2187 2188 2189 2190 2191 2192 2193 2194 2195 2196 2197 2198 2199 2200 2201 2202 2203 2204 2205 2206 2207 2208 2209 2210 2211 2212 2213 2214 2215 2216 2217 2218 2219 2220 2221 2222 2223 2224 2225 2226 2227 2228 2229 2230 2231 2232 2233 2234 2235 2236 2237 2238 2239 2240 2241 2242 2243 2244 2245 2246 2247 2248 2249 2250 2251 2252 2253 2254 2255 2256 2257 2258 2259 2260 2261 2262 2263 2264 2265 2266 2267 2268 2269 2270 2271 2272 2273 2274 2275 2276 2277 2278 2279 2280 2281 2282 2283 2284 2285 2286 2287 2288 2289 2290 2291 2292 2293 2294 2295 2296 2297 2298 2299 2300 2301 2302 2303 2304 2305 2306 2307 2308 2309 2310 2311 2312 2313 2314 2315 2316 2317 2318 2319 2320 2321 2322 2323 2324 2325 2326 2327 2328 2329 2330 2331 2332 2333 2334 2335 2336 2337 2338 2339 2340 2341 2342 2343 2344 2345 2346 2347 2348 2349 2350 2351 2352 2353 2354 2355 2356 2357 2358 2359 2360 2361 2362 2363 2364 2365 2366 2367 2368 2369 2370 2371 2372 2373 2374 2375 2376 2377 2378 2379 2380 2381 2382 2383 2384 2385 2386 2387 2388 2389 2390 2391 2392 2393 2394 2395 2396 2397 2398 2399 2400 2401 2402 2403 2404 2405 2406 2407 2408 2409 2410 2411 2412 2413 2414 2415 2416 2417 2418 2419 2420 2421 2422 2423 2424 2425 2426 2427 2428 2429 2430 2431 2432 2433 2434 2435 2436 2437 2438 2439 2440 2441 2442 2443 2444 2445 2446 2447 2448 2449 2450 2451 2452 2453 2454 2455 2456 2457 2458 2459 2460 2461 2462 2463 2464 2465 2466 2467 2468 2469 2470 2471 2472 2473 2474 2475 2476 2477 2478 2479 2480 2481 2482 2483 2484 2485 2486 2487 2488 2489 2490 2491 2492 2493 2494 2495 2496 2497 2498 2499 2500 2501 2502 2503 2504 2505 2506 2507 2508 2509 2510 2511 2512 2513 2514 2515 2516 2517 2518 2519 2520 2521 2522 2523 2524 2525 2526 2527 2528 2529 2530 2531 2532 2533 2534 2535 2536 2537 2538 2539 2540 2541 2542 2543 2544 2545 2546 2547 2548 2549 2550 2551 2552 2553 2554 2555 2556 2557 2558 2559 2560 2561 2562 2563 2564 2565 2566 2567 2568 2569 2570 2571 2572 2573 2574 2575 2576 2577 2578 2579 2580 2581 2582 2583 2584 2585 2586 2587 2588 2589 2590 2591 2592 2593 2594 2595 2596 2597 2598 2599 2600 2601 2602 2603 2604 2605 2606 2607 2608 2609 2610 2611 2612 2613 2614 2615 2616 2617 2618 2619 2620 2621 2622 2623 2624 2625 2626 2627 2628 2629 2630 2631 2632 2633 2634 2635 2636 2637 2638 2639 2640 2641 2642 2643 2644 2645 2646 2647 2648 2649 2650 2651 2652 2653 2654 2655 2656 2657 2658 2659 2660 2661 2662 2663 2664 2665 2666 2667 2668 2669 2670 2671 2672 2673 2674 2675 2676 2677 2678 2679 2680 2681 2682 2683 2684 2685 2686 2687 2688 2689 2690 2691 2692 2693 2694 2695 2696 2697 2698 2699 2700 2701 2702 2703 2704 2705 2706 2707 2708 2709 2710 2711 2712 2713 2714 2715 2716 2717 2718 2719 2720 2721 2722 2723 2724 2725 2726 2727 2728 2729 2730 2731 2732 2733 2734 2735 2736 2737 2738 2739 2740 2741 2742 2743 2744 2745 2746 2747 2748 2749 2750 2751 2752 2753 2754 2755 2756 2757 2758 2759 2760 2761 2762 2763 2764 2765 2766 2767 2768 2769 2770 2771 2772 2773 2774 2775 2776 2777 2778 2779 2780 2781 2782 2783 2784 2785 2786 2787 2788 2789 2790 2791 2792 2793 2794 2795 2796 2797 2798 2799 2800 2801 2802 2803 2804 2805 2806 2807 2808 2809 2810 2811 2812 2813 2814 2815 2816 2817 2818 2819 2820 2821 2822 2823 2824 2825 2826 2827 2828 2829 2830 2831 2832 2833 2834 2835 2836 2837 2838 2839 2840 2841 2842 2843 2844 2845 2846 2847 2848 2849 2850 2851 2852 2853 2854 2855 2856 2857 2858 2859 2860 2861 2862 2863 2864 2865 2866 2867 2868 2869 2870 2871 2872 2873 2874 2875 2876 2877 2878 2879 2880 2881 2882 2883 2884 2885 2886 2887 2888 2889 2890 2891 2892 2893 2894 2895 2896 2897 2898 2899 2900 2901 2902 2903 2904 2905 2906 2907 2908 2909 2910 2911 2912 2913 2914 2915 2916 2917 2918 2919 2920 2921 2922 2923 2924 2925 2926 2927 2928 2929 2930 2931 2932 2933 2934 2935 2936 2937 2938 2939 2940 2941 2942 2943 2944 2945 2946 2947 2948 2949 2950 2951 2952 2953 2954 2955 2956 2957 2958 2959 2960 2961 2962 2963 2964 2965 2966 2967 2968 2969 2970 2971 2972 2973 2974 2975 2976 2977 2978 2979 2980 2981 2982 2983 2984 2985 2986 2987 2988 2989 2990 2991 2992 2993 2994 2995 2996 2997 2998 2999 3000 3001 3002 3003 3004 3005 3006 3007 3008 3009 3010 3011 3012 3013 3014 3015 3016 3017 3018 3019 3020 3021 3022 3023 3024 3025 3026 3027 3028 3029 3030 3031 3032 3033 3034 3035 3036 3037 3038 3039 3040 3041 3042 3043 3044 3045 3046 3047 3048 3049 3050 3051 3052 3053 3054 3055 3056 3057 3058 3059 3060 3061 3062 3063 3064 3065 3066 3067 3068 3069 3070 3071 3072 3073 3074 3075 3076 3077 3078 3079 3080 3081 3082 3083 3084 3085 3086 3087 3088 3089 3090 3091 3092 3093 3094 3095 3096 3097 3098 3099 3100 3101 3102 3103 3104 3105 3106 3107 3108 3109 3110 3111 3112 3113 3114 3115 3116 3117 3118 3119 3120 3121 3122 3123 3124 3125 3126 3127 3128 3129 3130 3131 3132 3133 3134 3135 3136 3137 3138 3139 3140 3141 3142 3143 3144 3145 3146 3147 3148 3149 3150 3151 3152 3153 3154 3155 3156 3157 3158 3159 3160 3161 3162 3163 3164 3165 3166 3167 3168 3169 3170 3171 3172 3173 3174 3175 3176 3177 3178 3179 3180 3181 3182 3183 3184 3185 3186 3187 3188 3189 3190 3191 3192 3193 3194 3195 3196 3197 3198 3199 3200 3201 3202 3203 3204 3205 3206 3207 3208 3209 3210 3211 3212 3213 3214 3215 3216 3217 3218 3219 3220 3221 3222 3223 3224 3225 3226 3227 3228 3229 3230 3231 3232 3233 3234 3235 3236 3237 3238 3239 3240 3241 3242 3243 3244 3245 3246 3247 3248 3249 3250 3251 3252 3253 3254 3255 3256 3257 3258 3259 3260 3261 3262 3263 3264 3265 3266 3267 3268 3269 3270 3271 3272 3273 3274 3275 3276 3277 3278 3279 3280 3281 3282 3283 3284 3285 3286 3287 3288 3289 3290 3291 3292 3293 3294 3295 3296 3297 3298 3299 3300 3301 3302 3303 3304 3305 3306 3307 3308 3309 3310 3311 3312 3313 3314 3315 3316 3317 3318 3319 3320 3321 3322 3323 3324 3325 3326 3327 3328 3329 3330 3331 3332 3333 3334 3335 3336 3337 3338 3339 3340 3341 3342 3343 3344 3345 3346 3347 3348 3349 3350 3351 3352 3353 3354 3355 3356 3357 3358 3359 3360 3361 3362 3363 3364 3365 3366 3367 3368 3369 3370 3371 3372 3373 3374 3375 3376 3377 3378 3379 3380 3381 3382 3383 3384 3385 3386 3387 3388 3389 3390 3391 3392 3393 3394 3395 3396 3397 3398 3399 3400 3401 3402 3403 3404 3405 3406 3407 3408 3409 3410 3411 3412 3413 3414 3415 3416 3417 3418 3419 3420 3421 3422 3423 3424 3425 3426 3427 3428 3429 3430 3431 3432 3433 3434 3435 3436 3437 3438 3439 3440 3441 3442 3443 3444 3445 3446 3447 3448 3449 3450 3451 3452 3453 3454 3455 3456 3457 3458 3459 3460 3461 3462 3463 3464 3465 3466 3467 3468 3469 3470 3471 3472 3473 3474 3475 3476 3477 3478 3479 3480 3481 3482 3483 3484 3485 3486 3487 3488 3489 3490 3491 3492 3493 3494 3495 3496 3497 3498 3499 3500 3501 3502 3503 3504 3505 3506 3507 3508 3509 3510 3511 3512 3513 3514 3515 3516 3517 3518 3519 3520 3521 3522 3523 3524 3525 3526 3527 3528 3529 3530 3531 3532 3533 3534 3535 3536 3537 3538 3539 3540 3541 3542 3543 3544 3545 3546 3547 3548 3549 3550 3551 3552 3553 3554 3555 3556 3557 3558 3559 3560 3561 3562 3563 3564 3565 3566 3567 3568 3569 3570 3571 3572 3573 3574 3575 3576 3577 3578 3579 3580 3581 3582 3583 3584 3585 3586 3587 3588 3589 3590 3591 3592 3593 3594 3595 3596 3597 3598 3599 3600 3601 3602 3603 3604 3605 3606 3607 3608 3609 3610 3611 3612 3613 3614 3615 3616 3617 3618 3619 3620 3621 3622 3623 3624 3625 3626 3627 3628 3629 3630 3631 3632 3633 3634 3635 3636 3637 3638 3639 3640 3641 3642 3643 3644 3645 3646 3647 3648 3649 3650 3651 3652 3653 3654 3655 3656 3657 3658 3659 3660 3661 3662 3663 3664 3665 3666 3667 3668 3669 3670 3671 3672 3673 3674 3675 3676 3677 3678 3679 3680 3681 3682 3683 3684 3685 3686 3687 3688 3689 3690 3691 3692 3693 3694 3695 3696 3697 3698 3699 3700 3701 3702 3703 3704 3705 3706 3707 3708 3709 3710 3711 3712 3713 3714 3715 3716 3717 3718 3719 3720 3721 3722 3723 3724 3725 3726 3727 3728 3729 3730 3731 3732 3733 3734 3735 3736 3737 3738 3739 3740 3741 3742 3743 3744 3745 3746 3747 3748 3749 3750 3751 3752 3753 3754 3755 3756 3757 3758 3759 3760 3761 3762 3763 3764 3765 3766 3767 3768 3769 3770 3771 3772 3773 3774 3775 3776 3777 3778 3779 3780 3781 3782 3783 3784 3785 3786 3787 3788 3789 3790 3791 3792 3793 3794 3795 3796 3797 3798 3799 3800 3801 3802 3803 3804 3805 3806 3807 3808 3809 3810 3811 3812 3813 3814 3815 3816 3817 3818 3819 3820 3821 3822 3823 3824 3825 3826 3827 3828 3829 3830 3831 3832 3833 3834 3835 3836 3837 3838 3839 3840 3841 3842 3843 3844 3845 3846 3847 3848 3849 3850 3851 3852 3853 3854 3855 3856 3857 3858 3859 3860 3861 3862 3863 3864 3865 3866 3867 3868 3869 3870 3871 3872 3873 3874 3875 3876 3877 3878 3879 3880 3881 3882 3883 3884 3885 3886 3887 3888 3889 3890 3891 3892 3893 3894 3895 3896 3897 3898 3899 3900 3901 3902 3903 3904 3905 3906 3907 3908 3909 3910 3911 3912 3913 3914 3915 3916 3917 3918 3919 3920 3921 3922 3923 3924 3925 3926 3927 3928 3929 3930 3931 3932 3933 3934 3935 3936 3937 3938 3939 3940 3941 3942 3943 3944 3945 3946 3947 3948 3949 3950 3951 3952 3953 3954 3955 3956 3957 3958 3959 3960 3961 3962 3963 3964 3965 3966 3967 3968 3969 3970 3971 3972 3973 3974 3975 3976 3977 3978 3979 3980 3981 3982 3983 3984 3985 3986 3987 3988 3989 3990 3991 3992 3993 3994 3995 3996 3997 3998 3999 4000 4001 4002 4003 4004 4005 4006 4007 4008 4009 4010 4011 4012 4013 4014 4015 4016 4017 4018 4019 4020 4021 4022 4023 4024 4025 4026 4027 4028 4029 4030 4031 4032 4033 4034 4035 4036 4037 4038 4039 4040 4041 4042 4043 4044 4045 4046 4047 4048 4049 4050 4051 4052 4053 4054 4055 4056 4057 4058 4059 4060 4061 4062 4063 4064 4065 4066 4067 4068 4069 4070 4071 4072 4073 4074 4075 4076 4077 4078 4079 4080 4081 4082 4083 4084 4085 4086 4087 4088 4089 4090 4091 4092 4093 4094 4095 4096 4097 4098 4099 4100 4101 4102 4103 4104 4105 4106 4107 4108 4109 4110 4111 4112 4113 4114 4115 4116 4117 4118 4119 4120 4121 4122 4123 4124 4125 4126 4127 4128 4129 4130 4131 4132 4133 4134 4135 4136 4137 4138 4139 4140 4141 4142 4143 4144 4145 4146 4147 4148 4149 4150 4151 4152 4153 4154 4155 4156 4157 4158 4159 4160 4161 4162 4163 4164 4165 4166 4167 4168 4169 4170 4171 4172 4173 4174 4175 4176 4177 4178 4179 4180 4181 4182 4183 4184 4185 4186 4187 4188 4189 4190 4191 4192 4193 4194 4195 4196 4197 4198 4199 4200 4201 4202 4203 4204 4205 4206 4207 4208 4209 4210 4211 4212 4213 4214 4215 4216 4217 4218 4219 4220 4221 4222 4223 4224 4225 4226 4227 4228 4229 4230 4231 4232 4233 4234 4235 4236 4237 4238 4239 4240 4241 4242 4243 4244 4245 4246 4247 4248 4249 4250 4251 4252 4253 4254 4255 4256 4257 4258 4259 4260 4261 4262 4263 4264 4265 4266 4267 4268 4269 4270 4271 4272 4273 4274 4275 4276 4277 4278 4279 4280 4281 4282 4283 4284 4285 4286 4287 4288 4289 4290 4291 4292 4293 4294 4295 4296 4297 4298 4299 4300 4301 4302 4303 4304 4305 4306 4307 4308 4309 4310 4311 4312 4313 4314 4315 4316 4317 4318 4319 4320 4321 4322 4323 4324 4325 4326 4327 4328 4329 4330 4331 4332 4333 4334 4335 4336 4337 4338 4339 4340 4341 4342 4343 4344 4345 4346 4347 4348 4349 4350 4351 4352 4353 4354 4355 4356 4357 4358 4359 4360 4361 4362 4363 4364 4365 4366 4367 4368 4369 4370 4371 4372 4373 4374 4375 4376 4377 4378 4379 4380 4381 4382 4383 4384 4385 4386 4387 4388 4389 4390 4391 4392 4393 4394 4395 4396 4397 4398 4399 4400 4401 4402 4403 4404 4405 4406 4407 4408 4409 4410 4411 4412 4413 4414 4415 4416 4417 4418 4419 4420 4421 4422 4423 4424 4425 4426 4427 4428 4429 4430 4431 4432 4433 4434 4435 4436 4437 4438 4439 4440 4441 4442 4443 4444 4445 4446 4447 4448 4449 4450 4451 4452 4453 4454 4455 4456 4457 4458 4459 4460 4461 4462 4463 4464 4465 4466 4467 4468 4469 4470 4471 4472 4473 4474 4475 4476 4477 4478 4479 4480 4481 4482 4483 4484 4485 4486 4487 4488 4489 4490 4491 4492 4493 4494 4495 4496 4497 4498 4499 4500 4501 4502 4503 4504 4505 4506 4507 4508 4509 4510 4511 4512 4513 4514 4515 4516 4517 4518 4519 4520 4521 4522 4523 4524 4525 4526 4527 4528 4529 4530 4531 4532 4533 4534 4535 4536 4537 4538 4539 4540 4541 4542 4543 4544 4545 4546 4547 4548 4549 4550 4551 4552 4553 4554 4555 4556 4557 4558 4559 4560 4561 4562 4563 4564 4565 4566 4567 4568 4569 4570 4571 4572 4573 4574 4575 4576 4577 4578 4579 4580 4581 4582 4583 4584 4585 4586 4587 4588 4589 4590 4591 4592 4593 4594 4595 4596 4597 4598 4599 4600 4601 4602 4603 4604 4605 4606 4607 4608 4609 4610 4611 4612 4613 4614 4615 4616 4617 4618 4619 4620 4621 4622 4623 4624 4625 4626 4627 4628 4629 4630 4631 4632 4633 4634 4635 4636 4637 4638 4639 4640 4641 4642 4643 4644 4645 4646 4647 4648 4649 4650 4651 4652 4653 4654 4655 4656 4657 4658 4659 4660 4661 4662 4663 4664 4665 4666 4667 4668 4669 4670 4671 4672 4673 4674 4675 4676 4677 4678 4679 4680 4681 4682 4683 4684 4685 4686 4687 4688 4689 4690 4691 4692 4693 4694 4695 4696 4697 4698 4699 4700 4701 4702 4703 4704 4705 4706 4707 4708 4709 4710 4711 4712 4713 4714 4715 4716 4717 4718 4719 4720 4721 4722 4723 4724 4725 4726 4727 4728 4729 4730 4731 4732 4733 4734 4735 4736 4737 4738 4739 4740 4741 4742 4743 4744 4745 4746 4747 4748 4749 4750 4751 4752 4753 4754 4755 4756 4757 4758 4759 4760 4761 4762 4763 4764 4765 4766 4767 4768 4769 4770 4771 4772 4773 4774 4775 4776 4777 4778 4779 4780 4781 4782 4783 4784 4785 4786 4787 4788 4789 4790 4791 4792 4793 4794 4795 4796 4797 4798 4799 4800 4801 4802 4803 4804 4805 4806 4807 4808 4809 4810 4811 4812 4813 4814 4815 4816 4817 4818 4819 4820 4821 4822 4823 4824 4825 4826 4827 4828 4829 4830 4831 4832 4833 4834 4835 4836 4837 4838 4839 4840 4841 4842 4843 4844 4845 4846 4847 4848 4849 4850 4851 4852 4853 4854 4855 4856 4857 4858 4859 4860 4861 4862 4863 4864 4865 4866 4867 4868 4869 4870 4871 4872 4873 4874 4875 4876 4877 4878 4879 4880 4881 4882 4883 4884 4885 4886 4887 4888 4889 4890 4891 4892 4893 4894 4895 4896 4897 4898 4899 4900 4901 4902 4903 4904 4905 4906 4907 4908 4909 4910 4911 4912 4913 4914 4915 4916 4917 4918 4919 4920 4921 4922 4923 4924 4925 4926 4927 4928 4929 4930 4931 4932 4933 4934 4935 4936 4937 4938 4939 4940 4941 4942 4943 4944 4945 4946 4947 4948 4949 4950 4951 4952 4953 4954 4955 4956 4957 4958 4959 4960 4961 4962 4963 4964 4965 4966 4967 4968 4969 4970 4971 4972 4973 4974 4975 4976 4977 4978 4979 4980 4981 4982 4983 4984 4985 4986 4987 4988 4989 4990 4991 4992 4993 4994 4995 4996 4997 4998 4999 5000 5001 5002 5003 5004 5005 5006 5007 5008 5009 5010 5011 5012 5013 5014 5015 5016 5017 5018 5019 5020 5021 5022 5023 5024 5025 5026 5027 5028 5029 5030 5031 5032 5033 5034 5035 5036 5037 5038 5039 5040 5041 5042 5043 5044 5045 5046 5047 5048 5049 5050 5051 5052 5053 5054 5055 5056 5057 5058 5059 5060 5061 5062 5063 5064 5065 5066 5067 5068 5069 5070 5071 5072 5073 5074 5075 5076 5077 5078 5079 5080 5081 5082 5083 5084 5085 5086 5087 5088 5089 5090 5091 5092 5093 5094 5095 5096 5097 5098 5099 5100 5101 5102 5103 5104 5105 5106 5107 5108 5109 5110 5111 5112 5113 5114 5115 5116 5117 5118 5119 5120 5121 5122 5123 5124 5125 5126 5127 5128 5129 5130 5131 5132 5133 5134 5135 5136 5137 5138 5139 5140 5141 5142 5143 5144 5145 5146 5147 5148 5149 5150 5151 5152 5153 5154 5155 5156 5157 5158 5159 5160 5161 5162 5163 5164 5165 5166 5167 5168 5169 5170 5171 5172 5173 5174 5175 5176 5177 5178 5179 5180 5181 5182 5183 5184 5185 5186 5187 5188 5189 5190 5191 5192 5193 5194 5195 5196 5197 5198 5199 5200 5201 5202 5203 5204 5205 5206 5207 5208 5209 5210 5211 5212 5213 5214 5215 5216 5217 5218 5219 5220 5221 5222 5223 5224 5225 5226 5227 5228 5229 5230 5231 5232 5233 5234 5235 5236 5237 5238 5239 5240 5241 5242 5243 5244 5245 5246 5247 5248 5249 5250 5251 5252 5253 5254 5255 5256 5257 5258 5259 5260 5261 5262 5263 5264 5265 5266 5267 5268 5269 5270 5271 5272 5273 5274 5275 5276 5277 5278 5279 5280 5281 5282 5283 5284 5285 5286 5287 5288 5289 5290 5291 5292 5293 5294 5295 5296 5297 5298 5299 5300 5301 5302 5303 5304 5305 5306 5307 5308 5309 5310 5311 5312 5313 5314 5315 5316 5317 5318 5319 5320 5321 5322 5323 5324 5325 5326 5327 5328 5329 5330 5331 5332 5333 5334 5335 5336 5337 5338 5339 5340 5341 5342 5343 5344 5345 5346 5347 5348 5349 5350 5351 5352 5353 5354 5355 5356 5357 5358 5359 5360 5361 5362 5363 5364 5365 5366 5367 5368 5369 5370 5371 5372 5373 5374 5375 5376 5377 5378 5379 5380 5381 5382 5383 5384 5385 5386 5387 5388 5389 5390 5391 5392 5393 5394 5395 5396 5397 5398 5399 5400 5401 5402 5403 5404 5405 5406 5407 5408 5409 5410 5411 5412 5413 5414 5415 5416 5417 5418 5419 5420 5421 5422 5423 5424 5425 5426 5427 5428 5429 5430 5431 5432 5433 5434 5435 5436 5437 5438 5439 5440 5441 5442 5443 5444 5445 5446 5447 5448 5449 5450 5451 5452 5453 5454 5455 5456 5457 5458 5459 5460 5461 5462 5463 5464 5465 5466 5467 5468 5469 5470 5471 5472 5473 5474 5475 5476 5477 5478 5479 5480 5481 5482 5483 5484 5485 5486 5487 5488 5489 5490 5491 5492 5493 5494 5495 5496 5497 5498 5499 5500 5501 5502 5503 5504 5505 5506 5507 5508 5509 5510 5511 5512 5513 5514 5515 5516 5517 5518 5519 5520 5521 5522 5523 5524 5525 5526 5527 5528 5529 5530 5531 5532 5533 5534 5535 5536 5537 5538 5539 5540 5541 5542 5543 5544 5545 5546 5547 5548 5549 5550 5551 5552 5553 5554 5555 5556 5557 5558 5559 5560 5561 5562 5563 5564 5565 5566 5567 5568 5569 5570 5571 5572 5573 5574 5575 5576 5577 5578 5579 5580 5581 5582 5583 5584 5585 5586 5587 5588 5589 5590 5591 5592 5593 5594 5595 5596 5597 5598 5599 5600 5601 5602 5603 5604 5605 5606 5607 5608 5609 5610 5611 5612 5613 5614 5615 5616 5617 5618 5619 5620 5621 5622 5623 5624 5625 5626 5627 5628 5629 5630 5631 5632 5633 5634 5635 5636 5637 5638 5639 5640 5641 5642 5643 5644 5645 5646 5647 5648 5649 5650 5651 5652 5653 5654 5655 5656 5657 5658 5659 5660 5661 5662 5663 5664 5665 5666 5667 5668 5669 5670 5671 5672 5673 5674 5675 5676 5677 5678 5679 5680 5681 5682 5683 5684 5685 5686 5687 5688 5689 5690 5691 5692 5693 5694 5695 5696 5697 5698 5699 5700 5701 5702 5703 5704 5705 5706 5707 5708 5709 5710 5711 5712 5713 5714 5715 5716 5717 5718 5719 5720 5721 5722 5723 5724 5725 5726 5727 5728 5729 5730 5731 5732 5733 5734 5735 5736 5737 5738 5739 5740 5741 5742 5743 5744 5745 5746 5747 5748 5749 5750 5751 5752 5753 5754 5755 5756 5757 5758 5759 5760 5761 5762 5763 5764 5765 5766 5767 5768 5769 5770 5771 5772 5773 5774 5775 5776 5777 5778 5779 5780 5781 5782 5783 5784 5785 5786 5787 5788 5789 5790 5791 5792 5793 5794 5795 5796 5797 5798 5799 5800 5801 5802 5803 5804 5805 5806 5807 5808 5809 5810 5811 5812 5813 5814 5815 5816 5817 5818 5819 5820 5821 5822 5823 5824 5825 5826 5827 5828 5829 5830 5831 5832 5833 5834 5835 5836 5837 5838 5839 5840 5841 5842 5843 5844 5845 5846 5847 5848 5849 5850 5851 5852 5853 5854 5855 5856 5857 5858 5859 5860 5861 5862 5863 5864 5865 5866 5867 5868 5869 5870 5871 5872 5873 5874 5875 5876 5877 5878 5879 5880 5881 5882 5883 5884 5885 5886 5887 5888 5889 5890 5891 5892 5893 5894 5895 5896 5897 5898 5899 5900 5901 5902 5903 5904 5905 5906 5907 5908 5909 5910 5911 5912 5913 5914 5915 5916 5917 5918 5919 5920 5921 5922 5923 5924 5925 5926 5927 5928 5929 5930 5931 5932 5933 5934 5935 5936 5937 5938 5939 5940 5941 5942 5943 5944 5945 5946 5947 5948 5949 5950 5951 5952 5953 5954 5955 5956 5957 5958 5959 5960 5961 5962 5963 5964 5965 5966 5967 5968 5969 5970 5971 5972 5973 5974 5975 5976 5977 5978 5979 5980 5981 5982 5983 5984 5985 5986 5987 5988 5989 5990 5991 5992 5993 5994 5995 5996 5997 5998 5999 6000 6001 6002 6003 6004 6005 6006 6007 6008 6009 6010 6011 6012 6013 6014 6015 6016 6017 6018 6019 6020 6021 6022 6023 6024 6025 6026 6027 6028 6029 6030 6031 6032 6033 6034 6035 6036 6037 6038 6039 6040 6041 6042 6043 6044 6045 6046 6047 6048 6049 6050 6051 6052 6053 6054 6055 6056 6057 6058 6059 6060 6061 6062 6063 6064 6065 6066 6067 6068 6069 6070 6071 6072 6073 6074 6075 6076 6077 6078 6079 6080 6081 6082 6083 6084 6085 6086 6087 6088 6089 6090 6091 6092 6093 6094 6095 6096 6097 6098 6099 6100 6101 6102 6103 6104 6105 6106 6107 6108 6109 6110 6111 6112 6113 6114 6115 6116 6117 6118 6119 6120 6121 6122 6123 6124 6125 6126 6127 6128 6129 6130 6131 6132 6133 6134 6135 6136 6137 6138 6139 6140 6141 6142 6143 6144 6145 6146 6147 6148 6149 6150 6151 6152 6153 6154 6155 6156 6157 6158 6159 6160 6161 6162 6163 6164 6165 6166 6167 6168 6169 6170 6171 6172 6173 6174 6175 6176 6177 6178 6179 6180 6181 6182 6183 6184 6185 6186 6187 6188 6189 6190 6191 6192 6193 6194 6195 6196 6197 6198 6199 6200 6201 6202 6203 6204 6205 6206 6207 6208 6209 6210 6211 6212 6213 6214 6215 6216 6217 6218 6219 6220 6221 6222 6223 6224 6225 6226 6227 6228 6229 6230 6231 6232 6233 6234 6235 6236 6237 6238 6239 6240 6241 6242 6243 6244 6245 6246 6247 6248 6249 6250 6251 6252 6253 6254 6255 6256 6257 6258 6259 6260 6261 6262 6263 6264 6265 6266 6267 6268 6269 6270 6271 6272 6273 6274 6275 6276 6277 6278 6279 6280 6281 6282 6283 6284 6285 6286 6287 6288 6289 6290 6291 6292 6293 6294 6295 6296 6297 6298 6299 6300 6301 6302 6303 6304 6305 6306 6307 6308 6309 6310 6311 6312 6313 6314 6315 6316 6317 6318 6319 6320 6321 6322 6323 6324 6325 6326 6327 6328 6329 6330 6331 6332 6333 6334 6335 6336 6337 6338 6339 6340 6341 6342 6343 6344 6345 6346 6347 6348 6349 6350 6351 6352 6353 6354 6355 6356 6357 6358 6359 6360 6361 6362 6363 6364 6365 6366 6367 6368 6369 6370 6371 6372 6373 6374 6375 6376 6377 6378 6379 6380 6381 6382 6383 6384 6385 6386 6387 6388 6389 6390 6391 6392 6393 6394 6395 6396 6397 6398 6399 6400 6401 6402 6403 6404 6405 6406 6407 6408 6409 6410 6411 6412 6413 6414 6415 6416 6417 6418 6419 6420 6421 6422 6423 6424 6425 6426 6427 6428 6429 6430 6431 6432 6433 6434 6435 6436 6437 6438 6439 6440 6441 6442 6443 6444 6445 6446 6447 6448 6449 6450 6451 6452 6453 6454 6455 6456 6457 6458 6459 6460 6461 6462 6463 6464 6465 6466 6467 6468 6469 6470 6471 6472 6473 6474 6475 6476 6477 6478 6479 6480 6481 6482 6483 6484 6485 6486 6487 6488 6489 6490 6491 6492 6493 6494 6495 6496 6497 6498 6499 6500 6501 6502 6503 6504 6505 6506 6507 6508 6509 6510 6511 6512 6513 6514 6515 6516 6517 6518 6519 6520 6521 6522 6523 6524 6525 6526 6527 6528 6529 6530 6531 6532 6533 6534 6535 6536 6537 6538 6539 6540 6541 6542 6543 6544 6545 6546 6547 6548 6549 6550 6551 6552 6553 6554 6555 6556 6557 6558 6559 6560 6561 6562 6563 6564 6565 6566 6567 6568 6569 6570 6571 6572 6573 6574 6575 6576 6577 6578 6579 6580 6581 6582 6583 6584 6585 6586 6587 6588 6589 6590 6591 6592 6593 6594 6595 6596 6597 6598 6599 6600 6601 6602 6603 6604 6605 6606 6607 6608 6609 6610 6611 6612 6613 6614 6615 6616 6617 6618 6619 6620 6621 6622 6623 6624 6625 6626 6627 6628 6629 6630 6631 6632 6633 6634 6635 6636 6637 6638 6639 6640 6641 6642 6643 6644 6645 6646 6647 6648 6649 6650 6651 6652 6653 6654 6655 6656 6657 6658 6659 6660 6661 6662 6663 6664 6665 6666 6667 6668 6669 6670 6671 6672 6673 6674 6675 6676 6677 6678 6679 6680 6681 6682 6683 6684 6685 6686 6687 6688 6689 6690 6691 6692 6693 6694 6695 6696 6697 6698 6699 6700 6701 6702 6703 6704 6705 6706 6707 6708 6709 6710 6711 6712 6713 6714 6715 6716 6717 6718 6719 6720 6721 6722 6723 6724 6725 6726 6727 6728 6729 6730 6731 6732 6733 6734 6735 6736 6737 6738 6739 6740 6741 6742 6743 6744 6745 6746 6747 6748 6749 6750 6751 6752 6753 6754 6755 6756 6757 6758 6759 6760 6761 6762 6763 6764 6765 6766 6767 6768 6769 6770 6771 6772 6773 6774 6775 6776 6777 6778 6779 6780 6781 6782 6783 6784 6785 6786 6787 6788 6789 6790 6791 6792 6793 6794 6795 6796 6797 6798 6799 6800 6801 6802 6803 6804 6805 6806 6807 6808 6809 6810 6811 6812 6813 6814 6815 6816 6817 6818 6819 6820 6821 6822 6823 6824 6825 6826 6827 6828 6829 6830 6831 6832 6833 6834 6835 6836 6837 6838 6839 6840 6841 6842 6843 6844 6845 6846 6847 6848 6849 6850 6851 6852 6853 6854 6855 6856 6857 6858 6859 6860 6861 6862 6863 6864 6865 6866 6867 6868 6869 6870 6871 6872 6873 6874 6875 6876 6877 6878 6879 6880 6881 6882 6883 6884 6885 6886 6887 6888 6889 6890 6891 6892 6893 6894 6895 6896 6897 6898 6899 6900 6901 6902 6903 6904 6905 6906 6907 6908 6909 6910 6911 6912 6913 6914 6915 6916 6917 6918 6919 6920 6921 6922 6923 6924 6925 6926 6927 6928 6929 6930 6931 6932 6933 6934 6935 6936 6937 6938 6939 6940 6941 6942 6943 6944 6945 6946 6947 6948 6949 6950 6951 6952 6953 6954 6955 6956 6957 6958 6959 6960 6961 6962 6963 6964 6965 6966 6967 6968 6969 6970 6971 6972 6973 6974 6975 6976 6977 6978 6979 6980 6981 6982 6983 6984 6985 6986 6987 6988 6989 6990 6991 6992 6993 6994 6995 6996 6997 6998 6999 7000 7001 7002 7003 7004 7005 7006 7007 7008 7009 7010 7011 7012 7013 7014 7015 7016 7017 7018 7019 7020 7021 7022 7023 7024 7025 7026 7027 7028 7029 7030 7031 7032 7033 7034 7035 7036 7037 7038 7039 7040 7041 7042 7043 7044 7045 7046 7047 7048 7049 7050 7051 7052 7053 7054 7055 7056 7057 7058 7059 7060 7061 7062 7063 7064 7065 7066 7067 7068 7069 7070 7071 7072 7073 7074 7075 7076 7077 7078 7079 7080 7081 7082 7083 7084 7085 7086 7087 7088 7089 7090 7091 7092 7093 7094 7095 7096 7097 7098 7099 7100 7101 7102 7103 7104 7105 7106 7107 7108 7109 7110 7111 7112 7113 7114 7115 7116 7117 7118 7119 7120 7121 7122 7123 7124 7125 7126 7127 7128 7129 7130 7131 7132 7133 7134 7135 7136 7137 7138 7139 7140 7141 7142 7143 7144 7145 7146 7147 7148 7149 7150 7151 7152 7153 7154 7155 7156 7157 7158 7159 7160 7161 7162 7163 7164 7165 7166 7167 7168 7169 7170 7171 7172 7173 7174 7175 7176 7177 7178 7179 7180 7181 7182 7183 7184 7185 7186 7187 7188 7189 7190 7191 7192 7193 7194 7195 7196 7197 7198 7199 7200 7201 7202 7203 7204 7205 7206 7207 7208 7209 7210 7211 7212 7213 7214 7215 7216 7217 7218 7219 7220 7221 7222 7223 7224 7225 7226 7227 7228 7229 7230 7231 7232 7233 7234 7235 7236 7237 7238 7239 7240 7241 7242 7243 7244 7245 7246 7247 7248 7249 7250 7251 7252 7253 7254 7255 7256 7257 7258 7259 7260 7261 7262 7263 7264 7265 7266 7267 7268 7269 7270 7271 7272 7273 7274 7275 7276 7277 7278 7279 7280 7281 7282 7283 7284 7285 7286 7287 7288 7289 7290 7291 7292 7293 7294 7295 7296 7297 7298 7299 7300 7301 7302 7303 7304 7305 7306 7307 7308 7309 7310 7311 7312 7313 7314 7315 7316 7317 7318 7319 7320 7321 7322 7323 7324 7325 7326 7327 7328 7329 7330 7331 7332 7333 7334 7335 7336 7337 7338 7339 7340 7341 7342 7343 7344 7345 7346 7347 7348 7349 7350 7351 7352 7353 7354 7355 7356 7357 7358 7359 7360 7361 7362 7363 7364 7365 7366 7367 7368 7369 7370 7371 7372 7373 7374 7375 7376 7377 7378 7379 7380 7381 7382 7383 7384 7385 7386 7387 7388 7389 7390 7391 7392 7393 7394 7395 7396 7397 7398 7399 7400 7401 7402 7403 7404 7405 7406 7407 7408 7409 7410 7411 7412 7413 7414 7415 7416 7417 7418 7419 7420 7421 7422 7423 7424 7425 7426 7427 7428 7429 7430 7431 7432 7433 7434 7435 7436 7437 7438 7439 7440 7441 7442 7443 7444 7445 7446 7447 7448 7449 7450 7451 7452 7453 7454 7455 7456 7457 7458 7459 7460 7461 7462 7463 7464 7465 7466 7467 7468 7469 7470 7471 7472 7473 7474 7475 7476 7477 7478 7479 7480 7481 7482 7483 7484 7485 7486 7487 7488 7489 7490 7491 7492 7493 7494 7495 7496 7497 7498 7499 7500 7501 7502 7503 7504 7505 7506 7507 7508 7509 7510 7511 7512 7513 7514 7515 7516 7517 7518 7519 7520 7521 7522 7523 7524 7525 7526 7527 7528 7529 7530 7531 7532 7533 7534 7535 7536 7537 7538 7539 7540 7541 7542 7543 7544 7545 7546 7547 7548 7549 7550 7551 7552 7553 7554 7555 7556 7557 7558 7559 7560 7561 7562 7563 7564 7565 7566 7567 7568 7569 7570 7571 7572 7573 7574 7575 7576 7577 7578 7579 7580 7581 7582 7583 7584 7585 7586 7587 7588 7589 7590 7591 7592 7593 7594 7595 7596 7597 7598 7599 7600 7601 7602 7603 7604 7605 7606 7607 7608 7609 7610 7611 7612 7613 7614 7615 7616 7617 7618 7619 7620 7621 7622 7623 7624 7625 7626 7627 7628 7629 7630 7631 7632 7633 7634 7635 7636 7637 7638 7639 7640 7641 7642 7643 7644 7645 7646 7647 7648 7649 7650 7651 7652 7653 7654 7655 7656 7657 7658 7659 7660 7661 7662 7663 7664 7665 7666 7667 7668 7669 7670 7671 7672 7673 7674 7675 7676 7677 7678 7679 7680 7681 7682 7683 7684 7685 7686 7687 7688 7689 7690 7691 7692 7693 7694 7695 7696 7697 7698 7699 7700 7701 7702 7703 7704 7705 7706 7707 7708 7709 7710 7711 7712 7713 7714 7715 7716 7717 7718 7719 7720 7721 7722 7723 7724 7725 7726 7727 7728 7729 7730 7731 7732 7733 7734 7735 7736 7737 7738 7739 7740 7741 7742 7743 7744 7745 7746 7747 7748 7749 7750 7751 7752 7753 7754 7755 7756 7757 7758 7759 7760 7761 7762 7763 7764 7765 7766 7767 7768 7769 7770 7771 7772 7773 7774 7775 7776 7777 7778 7779 7780 7781 7782 7783 7784 7785 7786 7787 7788 7789 7790 7791 7792 7793 7794 7795 7796 7797 7798 7799 7800 7801 7802 7803 7804 7805 7806 7807 7808 7809 7810 7811 7812 7813 7814 7815 7816 7817 7818 7819 7820 7821 7822 7823 7824 7825 7826 7827 7828 7829 7830 7831 7832 7833 7834 7835 7836 7837 7838 7839 7840 7841 7842 7843 7844 7845 7846 7847 7848 7849 7850 7851 7852 7853 7854 7855 7856 7857 7858 7859 7860 7861 7862 7863 7864 7865 7866 7867 7868 7869 7870 7871 7872 7873 7874 7875 7876 7877 7878 7879 7880 7881 7882 7883 7884 7885 7886 7887 7888 7889 7890 7891 7892 7893 7894 7895 7896 7897 7898 7899 7900 7901 7902 7903 7904 7905 7906 7907 7908 7909 7910 7911 7912 7913 7914 7915 7916 7917 7918 7919 7920 7921 7922 7923 7924 7925 7926 7927 7928 7929 7930 7931 7932 7933 7934 7935 7936 7937 7938 7939 7940 7941 7942 7943 7944 7945 7946 7947 7948 7949 7950 7951 7952 7953 7954 7955 7956 7957 7958 7959 7960 7961 7962 7963 7964 7965 7966 7967 7968 7969 7970 7971 7972 7973 7974 7975 7976 7977 7978 7979 7980 7981 7982 7983 7984 7985 7986 7987 7988 7989 7990 7991 7992 7993 7994 7995 7996 7997 7998 7999 8000 8001 8002 8003 8004 8005 8006 8007 8008 8009 8010 8011 8012 8013 8014 8015 8016 8017 8018 8019 8020 8021 8022 8023 8024 8025 8026 8027 8028 8029 8030 8031 8032 8033 8034 8035 8036 8037 8038 8039 8040 8041 8042 8043 8044 8045 8046 8047 8048 8049 8050 8051 8052 8053 8054 8055 8056 8057 8058 8059 8060 8061 8062 8063 8064 8065 8066 8067 8068 8069 8070 8071 8072 8073 8074 8075 8076 8077 8078 8079 8080 8081 8082 8083 8084 8085 8086 8087 8088 8089 8090 8091 8092 8093 8094 8095 8096 8097 8098 8099 8100 8101 8102 8103 8104 8105 8106 8107 8108 8109 8110 8111 8112 8113 8114 8115 8116 8117 8118 8119 8120 8121 8122 8123 8124 8125 8126 8127 8128 8129 8130 8131 8132 8133 8134 8135 8136 8137 8138 8139 8140 8141 8142 8143 8144 8145 8146 8147 8148 8149 8150 8151 8152 8153 8154 8155 8156 8157 8158 8159 8160 8161 8162 8163 8164 8165 8166 8167 8168 8169 8170 8171 8172 8173 8174 8175 8176 8177 8178 8179 8180 8181 8182 8183 8184 8185 8186 8187 8188 8189 8190 8191 8192 8193 8194 8195 8196 8197 8198 8199 8200 8201 8202 8203 8204 8205 8206 8207 8208 8209 8210 8211 8212 8213 8214 8215 8216 8217 8218 8219 8220 8221 8222 8223 8224 8225 8226 8227 8228 8229 8230 8231 8232 8233 8234 8235 8236 8237 8238 8239 8240 8241 8242 8243 8244 8245 8246 8247 8248 8249 8250 8251 8252 8253 8254 8255 8256 8257 8258 8259 8260 8261 8262 8263 8264 8265 8266 8267 8268 8269 8270 8271 8272 8273 8274 8275 8276 8277 8278 8279 8280 8281 8282 8283 8284 8285 8286 8287 8288 8289 8290 8291 8292 8293 8294 8295 8296 8297 8298 8299 8300 8301 8302 8303 8304 8305 8306 8307 8308 8309 8310 8311 8312 8313 8314 8315 8316 8317 8318 8319 8320 8321 8322 8323 8324 8325 8326 8327 8328 8329 8330 8331 8332 8333 8334 8335 8336 8337 8338 8339 8340 8341 8342 8343 8344 8345 8346 8347 8348 8349 8350 8351 8352 8353 8354 8355 8356 8357 8358 8359 8360 8361 8362 8363 8364 8365 8366 8367 8368 8369 8370 8371 8372 8373 8374 8375 8376 8377 8378 8379 8380 8381 8382 8383 8384 8385 8386 8387 8388 8389 8390 8391 8392 8393 8394 8395 8396 8397 8398 8399 8400 8401 8402 8403 8404 8405 8406 8407 8408 8409 8410 8411 8412 8413 8414 8415 8416 8417 8418 8419 8420 8421 8422 8423 8424 8425 8426 8427 8428 8429 8430 8431 8432 8433 8434 8435 8436 8437 8438 8439 8440 8441 8442 8443 8444 8445 8446 8447 8448 8449 8450 8451 8452 8453 8454 8455 8456 8457 8458 8459 8460 8461 8462 8463 8464 8465 8466 8467 8468 8469 8470 8471 8472 8473 8474 8475 8476 8477 8478 8479 8480 8481 8482 8483 8484 8485 8486 8487 8488 8489 8490 8491 8492 8493 8494 8495 8496 8497 8498 8499 8500 8501 8502 8503 8504 8505 8506 8507 8508 8509 8510 8511 8512 8513 8514 8515 8516 8517 8518 8519 8520 8521 8522 8523 8524 8525 8526 8527 8528 8529 8530 8531 8532 8533 8534 8535 8536 8537 8538 8539 8540 8541 8542 8543 8544 8545 8546 8547 8548 8549 8550 8551 8552 8553 8554 8555 8556 8557 8558 8559 8560 8561 8562 8563 8564 8565 8566 8567 8568 8569 8570 8571 8572 8573 8574 8575 8576 8577 8578 8579 8580 8581 8582 8583 8584 8585 8586 8587 8588 8589 8590 8591 8592 8593 8594 8595 8596 8597 8598 8599 8600 8601 8602 8603 8604 8605 8606 8607 8608 8609 8610 8611 8612 8613 8614 8615 8616 8617 8618 8619 8620 8621 8622 8623 8624 8625 8626 8627 8628 8629 8630 8631 8632 8633 8634 8635 8636 8637 8638 8639 8640 8641 8642 8643 8644 8645 8646 8647 8648 8649 8650 8651 8652 8653 8654 8655 8656 8657 8658 8659 8660 8661 8662 8663 8664 8665 8666 8667 8668 8669 8670 8671 8672 8673 8674 8675 8676 8677 8678 8679 8680 8681 8682 8683 8684 8685 8686 8687 8688 8689 8690 8691 8692 8693 8694 8695 8696 8697 8698 8699 8700 8701 8702 8703 8704 8705 8706 8707 8708 8709 8710 8711 8712 8713 8714 8715 8716 8717 8718 8719 8720 8721 8722 8723 8724 8725 8726 8727 8728 8729 8730 8731 8732 8733 8734 8735 8736 8737 8738 8739 8740 8741 8742 8743 8744 8745 8746 8747 8748 8749 8750 8751 8752 8753 8754 8755 8756 8757 8758 8759 8760 8761 8762 8763 8764 8765 8766 8767 8768 8769 8770 8771 8772 8773 8774 8775 8776 8777 8778 8779 8780 8781 8782 8783 8784 8785 8786 8787 8788 8789 8790 8791 8792 8793 8794 8795 8796 8797 8798 8799 8800 8801 8802 8803 8804 8805 8806 8807 8808 8809 8810 8811 8812 8813 8814 8815 8816 8817 8818 8819 8820 8821 8822 8823 8824 8825 8826 8827 8828 8829 8830 8831 8832 8833 8834 8835 8836 8837 8838 8839 8840 8841 8842 8843 8844 8845 8846 8847 8848 8849 8850 8851 8852 8853 8854 8855 8856 8857 8858 8859 8860 8861 8862 8863 8864 8865 8866 8867 8868 8869 8870 8871 8872 8873 8874 8875 8876 8877 8878 8879 8880 8881 8882 8883 8884 8885 8886 8887 8888 8889 8890 8891 8892 8893 8894 8895 8896 8897 8898 8899 8900 8901 8902 8903 8904 8905 8906 8907 8908 8909 8910 8911 8912 8913 8914 8915 8916 8917 8918 8919 8920 8921 8922 8923 8924 8925 8926 8927 8928 8929 8930 8931 8932 8933 8934 8935 8936 8937 8938 8939 8940 8941 8942 8943 8944 8945 8946 8947 8948 8949 8950 8951 8952 8953 8954 8955 8956 8957 8958 8959 8960 8961 8962 8963 8964 8965 8966 8967 8968 8969 8970 8971 8972 8973 8974 8975 8976 8977 8978 8979 8980 8981 8982 8983 8984 8985 8986 8987 8988 8989 8990 8991 8992 8993 8994 8995 8996 8997 8998 8999 9000 9001 9002 9003 9004 9005 9006 9007 9008 9009 9010 9011 9012 9013 9014 9015 9016 9017 9018 9019 9020 9021 9022 9023 9024 9025 9026 9027 9028 9029 9030 9031 9032 9033 9034 9035 9036 9037 9038 9039 9040 9041 9042 9043 9044 9045 9046 9047 9048 9049 9050 9051 9052 9053 9054 9055 9056 9057 9058 9059 9060 9061 9062 9063 9064 9065 9066 9067 9068 9069 9070 9071 9072 9073 9074 9075 9076 9077 9078 9079 9080 9081 9082 9083 9084 9085 9086 9087 9088 9089 9090 9091 9092 9093 9094 9095 9096 9097 9098 9099 9100 9101 9102 9103 9104 9105 9106 9107 9108 9109 9110 9111 9112 9113 9114 9115 9116 9117 9118 9119 9120 9121 9122 9123 9124 9125 9126 9127 9128 9129 9130 9131 9132 9133 9134 9135 9136 9137 9138 9139 9140 9141 9142 9143 9144 9145 9146 9147 9148 9149 9150 9151 9152 9153 9154 9155 9156 9157 9158 9159 9160 9161 9162 9163 9164 9165 9166 9167 9168 9169 9170 9171 9172 9173 9174 9175 9176 9177 9178 9179 9180 9181 9182 9183 9184 9185 9186 9187 9188 9189 9190 9191 9192 9193 9194 9195 9196 9197 9198 9199 9200 9201 9202 9203 9204 9205 9206 9207 9208 9209 9210 9211 9212 9213 9214 9215 9216 9217 9218 9219 9220 9221 9222 9223 9224 9225 9226 9227 9228 9229 9230 9231 9232 9233 9234 9235 9236 9237 9238 9239 9240 9241 9242 9243 9244 9245 9246 9247 9248 9249 9250 9251 9252 9253 9254 9255 9256 9257 9258 9259 9260 9261 9262 9263 9264 9265 9266 9267 9268 9269 9270 9271 9272 9273 9274 9275 9276 9277 9278 9279 9280 9281 9282 9283 9284 9285 9286 9287 9288 9289 9290 9291 9292 9293 9294 9295 9296 9297 9298 9299 9300 9301 9302 9303 9304 9305 9306 9307 9308 9309 9310 9311 9312 9313 9314 9315 9316 9317 9318 9319 9320 9321 9322 9323 9324 9325 9326 9327 9328 9329 9330 9331 9332 9333 9334 9335 9336 9337 9338 9339 9340 9341 9342 9343 9344 9345 9346 9347 9348 9349 9350 9351 9352 9353 9354 9355 9356 9357 9358 9359 9360 9361 9362 9363 9364 9365 9366 9367 9368 9369 9370 9371 9372 9373 9374 9375 9376 9377 9378 9379 9380 9381 9382 9383 9384 9385 9386 9387 9388 9389 9390 9391 9392 9393 9394 9395 9396 9397 9398 9399 9400 9401 9402 9403 9404 9405 9406 9407 9408 9409 9410 9411 9412 9413 9414 9415 9416 9417 9418 9419 9420 9421 9422 9423 9424 9425 9426 9427 9428 9429 9430 9431 9432 9433 9434 9435 9436 9437 9438 9439 9440 9441 9442 9443 9444 9445 9446 9447 9448 9449 9450 9451 9452 9453 9454 9455 9456 9457 9458 9459 9460 9461 9462 9463 9464 9465 9466 9467 9468 9469 9470 9471 9472 9473 9474 9475 9476 9477 9478 9479 9480 9481 9482 9483 9484 9485 9486 9487 9488 9489 9490 9491 9492 9493 9494 9495 9496 9497 9498 9499 9500 9501 9502 9503 9504 9505 9506 9507 9508 9509 9510 9511 9512 9513 9514 9515 9516 9517 9518 9519 9520 9521 9522 9523 9524 9525 9526 9527 9528 9529 9530 9531 9532 9533 9534 9535 9536 9537 9538 9539 9540 9541 9542 9543 9544 9545 9546 9547 9548 9549 9550 9551 9552 9553 9554 9555 9556 9557 9558 9559 9560 9561 9562 9563 9564 9565 9566 9567 9568 9569 9570 9571 9572 9573 9574 9575 9576 9577 9578 9579 9580 9581 9582 9583 9584 9585 9586 9587 9588 9589 9590 9591 9592 9593 9594 9595 9596 9597 9598 9599 9600 9601 9602 9603 9604 9605 9606 9607 9608 9609 9610 9611 9612 9613 9614 9615 9616 9617 9618 9619 9620 9621 9622 9623 9624 9625 9626 9627 9628 9629 9630 9631 9632 9633 9634 9635 9636 9637 9638 9639 9640 9641 9642 9643 9644 9645 9646 9647 9648 9649 9650 9651 9652 9653 9654 9655 9656 9657 9658 9659 9660 9661 9662 9663 9664 9665 9666 9667 9668 9669 9670 9671 9672 9673 9674 9675 9676 9677 9678 9679 9680 9681 9682 9683 9684 9685 9686 9687 9688 9689 9690 9691 9692 9693 9694 9695 9696 9697 9698 9699 9700 9701 9702 9703 9704 9705 9706 9707 9708 9709 9710 9711 9712 9713 9714 9715 9716 9717 9718 9719 9720 9721 9722 9723 9724 9725 9726 9727 9728 9729 9730 9731 9732 9733 9734 9735 9736 9737 9738 9739 9740 9741 9742 9743 9744 9745 9746 9747 9748 9749 9750 9751 9752 9753 9754 9755 9756 9757 9758 9759 9760 9761 9762 9763 9764 9765 9766 9767 9768 9769 9770 9771 9772 9773 9774 9775 9776 9777 9778 9779 9780 9781 9782 9783 9784 9785 9786 9787 9788 9789 9790 9791 9792 9793 9794 9795 9796 9797 9798 9799 9800 9801 9802 9803 9804 9805 9806 9807 9808 9809 9810 9811 9812 9813 9814 9815 9816 9817 9818 9819 9820 9821 9822 9823 9824 9825 9826 9827 9828 9829 9830 9831 9832 9833 9834 9835 9836 9837 9838 9839 9840 9841 9842 9843 9844 9845 9846 9847 9848 9849 9850 9851 9852 9853 9854 9855 9856 9857 9858 9859 9860 9861 9862 9863 9864 9865 9866 9867 9868 9869 9870 9871 9872 9873 9874 9875 9876 9877 9878 9879 9880 9881 9882 9883 9884 9885 9886 9887 9888 9889 9890 9891 9892 9893 9894 9895 9896 9897 9898 9899 9900 9901 9902 9903 9904 9905 9906 9907 9908 9909 9910 9911 9912 9913 9914 9915 9916 9917 9918 9919 9920 9921 9922 9923 9924 9925 9926 9927 9928 9929 9930 9931 9932 9933 9934 9935 9936 9937 9938 9939 9940 9941 9942 9943 9944 9945 9946 9947 9948 9949 9950 9951 9952 9953 9954 9955 9956 9957 9958 9959 9960 9961 9962 9963 9964 9965 9966 9967 9968 9969 9970 9971 9972 9973 9974 9975 9976 9977 9978 9979 9980 9981 9982 9983 9984 9985 9986 9987 9988 9989 9990 9991 9992 9993 9994 9995 9996 9997 9998 9999 10000 10001 10002 10003 10004 10005 10006 10007 10008 10009 10010 10011 10012 10013 10014 10015 10016 10017 10018 10019 10020 10021 10022 10023 10024 10025 10026 10027 10028 10029 10030 10031 10032 10033 10034 10035 10036 10037 10038 10039 10040 10041 10042 10043 10044 10045 10046 10047 10048 10049 10050 10051 10052 10053 10054 10055 10056 10057 10058 10059 10060 10061 10062 10063 10064 10065 10066 10067 10068 10069 10070 10071 10072 10073 10074 10075 10076 10077 10078 10079 10080 10081 10082 10083 10084 10085 10086 10087 10088 10089 10090 10091 10092 10093 10094 10095 10096 10097 10098 10099 10100 10101 10102 10103 10104 10105 10106 10107 10108 10109 10110 10111 10112 10113 10114 10115 10116 10117 10118 10119 10120 10121 10122 10123 10124 10125 10126 10127 10128 10129 10130 10131 10132 10133 10134 10135 10136 10137 10138 10139 10140 10141 10142 10143 10144 10145 10146 10147 10148 10149 10150 10151 10152 10153 10154 10155 10156 10157 10158 10159 10160 10161 10162 10163 10164 10165 10166 10167 10168 10169 10170 10171 10172 10173 10174 10175 10176 10177 10178 10179 10180 10181 10182 10183 10184 10185 10186 10187 10188 10189 10190 10191 10192 10193 10194 10195 10196 10197 10198 10199 10200 10201 10202 10203 10204 10205 10206 10207 10208 10209 10210 10211 10212 10213 10214 10215 10216 10217 10218 10219 10220 10221 10222 10223 10224 10225 10226 10227 10228 10229 10230 10231 10232 10233 10234 10235 10236 10237 10238 10239 10240 10241 10242 10243 10244 10245 10246 10247 10248 10249 10250 10251 10252 10253 10254 10255 10256 10257 10258 10259 10260 10261 10262 10263 10264 10265 10266 10267 10268 10269 10270 10271 10272 10273 10274 10275 10276 10277 10278 10279 10280 10281 10282 10283 10284 10285 10286 10287 10288 10289 10290 10291 10292 10293 10294 10295 10296 10297 10298 10299 10300 10301 10302 10303 10304 10305 10306 10307 10308 10309 10310 10311 10312 10313 10314 10315 10316 10317 10318 10319 10320 10321 10322 10323 10324 10325 10326 10327 10328 10329 10330 10331 10332 10333 10334 10335 10336 10337 10338 10339 10340 10341 10342 10343 10344 10345 10346 10347 10348 10349 10350 10351 10352 10353 10354 10355 10356 10357 10358 10359 10360 10361 10362 10363 10364 10365 10366 10367 10368 10369 10370 10371 10372 10373 10374 10375 10376 10377 10378 10379 10380 10381 10382 10383 10384 10385 10386 10387 10388 10389 10390 10391 10392 10393 10394 10395 10396 10397 10398 10399 10400 10401 10402 10403 10404 10405 10406 10407 10408 10409 10410 10411 10412 10413 10414 10415 10416 10417 10418 10419 10420 10421 10422 10423 10424 10425 10426 10427 10428 10429 10430 10431 10432 10433 10434 10435 10436 10437 10438 10439 10440 10441 10442 10443 10444 10445 10446 10447 10448 10449 10450 10451 10452 10453 10454 10455 10456 10457 10458 10459 10460 10461 10462 10463 10464 10465 10466 10467 10468 10469 10470 10471 10472 10473 10474 10475 10476 10477 10478 10479 10480 10481 10482 10483 10484 10485 10486 10487 10488 10489 10490 10491 10492 10493 10494 10495 10496 10497 10498 10499 10500 10501 10502 10503 10504 10505 10506 10507 10508 10509 10510 10511 10512 10513 10514 10515 10516 10517 10518 10519 10520 10521 10522 10523 10524 10525 10526 10527 10528 10529 10530 10531 10532 10533 10534 10535 10536 10537 10538 10539 10540 10541 10542 10543 10544 10545 10546 10547 10548 10549 10550 10551 10552 10553 10554 10555 10556 10557 10558 10559 10560 10561 10562 10563 10564 10565 10566 10567 10568 10569 10570 10571 10572 10573 10574 10575 10576 10577 10578 10579 10580 10581 10582 10583 10584 10585 10586 10587 10588 10589 10590 10591 10592 10593 10594 10595 10596 10597 10598 10599 10600 10601 10602 10603 10604 10605 10606 10607 10608 10609 10610 10611 10612 10613 10614 10615 10616 10617 10618 10619 10620 10621 10622 10623 10624 10625 10626 10627 10628 10629 10630 10631 10632 10633 10634 10635 10636 10637 10638 10639 10640 10641 10642 10643 10644 10645 10646 10647 10648 10649 10650 10651 10652 10653 10654 10655 10656 10657 10658 10659 10660 10661 10662 10663 10664 10665 10666 10667 10668 10669 10670 10671 10672 10673 10674 10675 10676 10677 10678 10679 10680 10681 10682 10683 10684 10685 10686 10687 10688 10689 10690 10691 10692 10693 10694 10695 10696 10697 10698 10699 10700 10701 10702 10703 10704 10705 10706 10707 10708 10709 10710 10711 10712 10713 10714 10715 10716 10717 10718 10719 10720 10721 10722 10723 10724 10725 10726 10727 10728 10729 10730 10731 10732 10733 10734 10735 10736 10737 10738 10739 10740 10741 10742 10743 10744 10745 10746 10747 10748 10749 10750 10751 10752 10753 10754 10755 10756 10757 10758 10759 10760 10761 10762 10763 10764 10765 10766 10767 10768 10769 10770 10771 10772 10773 10774 10775 10776 10777 10778 10779 10780 10781 10782 10783 10784 10785 10786 10787 10788 10789 10790 10791 10792 10793 10794 10795 10796 10797 10798 10799 10800 10801 10802 10803 10804 10805 10806 10807 10808 10809 10810 10811 10812 10813 10814 10815 10816 10817 10818 10819 10820 10821 10822 10823 10824 10825 10826 10827 10828 10829 10830 10831 10832 10833 10834 10835 10836 10837 10838 10839 10840 10841 10842 10843 10844 10845 10846 10847 10848 10849 10850 10851 10852 10853 10854 10855 10856 10857 10858 10859 10860 10861 10862 10863 10864 10865 10866 10867 10868 10869 10870 10871 10872 10873 10874 10875 10876 10877 10878 10879 10880 10881 10882 10883 10884 10885 10886 10887 10888 10889 10890 10891 10892 10893 10894 10895 10896 10897 10898 10899 10900 10901 10902 10903 10904 10905 10906 10907 10908 10909 10910 10911 10912 10913 10914 10915 10916 10917 10918 10919 10920 10921 10922 10923 10924 10925 10926 10927 10928 10929 10930 10931 10932 10933 10934 10935 10936 10937 10938 10939 10940 10941 10942 10943 10944 10945 10946 10947 10948 10949 10950 10951 10952 10953 10954 10955 10956 10957 10958 10959 10960 10961 10962 10963 10964 10965 10966 10967 10968 10969 10970 10971 10972 10973 10974 10975 10976 10977 10978 10979 10980 10981 10982 10983 10984 10985 10986 10987 10988 10989 10990 10991 10992 10993 10994 10995 10996 10997 10998 10999 11000 11001 11002 11003 11004 11005 11006 11007 11008 11009 11010 11011 11012 11013 11014 11015 11016 11017 11018 11019 11020 11021 11022 11023 11024 11025 11026 11027 11028 11029 11030 11031 11032 11033 11034 11035 11036 11037 11038 11039 11040 11041 11042 11043 11044 11045 11046 11047 11048 11049 11050 11051 11052 11053 11054 11055 11056 11057 11058 11059 11060 11061 11062 11063 11064 11065 11066 11067 11068 11069 11070 11071 11072 11073 11074 11075 11076 11077 11078 11079 11080 11081 11082 11083 11084 11085 11086 11087 11088 11089 11090 11091 11092 11093 11094 11095 11096 11097 11098 11099 11100 11101 11102 11103 11104 11105 11106 11107 11108 11109 11110 11111 11112 11113 11114 11115 11116 11117 11118 11119 11120 11121 11122 11123 11124 11125 11126 11127 11128 11129 11130 11131 11132 11133 11134 11135 11136 11137 11138 11139 11140 11141 11142 11143 11144 11145 11146 11147 11148 11149 11150 11151 11152 11153 11154 11155 11156 11157 11158 11159 11160 11161 11162 11163 11164 11165 11166 11167 11168 11169 11170 11171 11172 11173 11174 11175 11176 11177 11178 11179 11180 11181 11182 11183 11184 11185 11186 11187 11188 11189 11190 11191 11192 11193 11194 11195 11196 11197 11198 11199 11200 11201 11202 11203 11204 11205 11206 11207 11208 11209 11210 11211 11212 11213 11214 11215 11216 11217 11218 11219 11220 11221 11222 11223 11224 11225 11226 11227 11228 11229 11230 11231 11232 11233 11234 11235 11236 11237 11238 11239 11240 11241 11242 11243 11244 11245 11246 11247 11248 11249 11250 11251 11252 11253 11254 11255 11256 11257 11258 11259 11260 11261 11262 11263 11264 11265 11266 11267 11268 11269 11270 11271 11272 11273 11274 11275 11276 11277 11278 11279 11280 11281 11282 11283 11284 11285 11286 11287 11288 11289 11290 11291 11292 11293 11294 11295 11296 11297 11298 11299 11300 11301 11302 11303 11304 11305 11306 11307 11308 11309 11310 11311 11312 11313 11314 11315 11316 11317 11318 11319 11320 11321 11322 11323 11324 11325 11326 11327 11328 11329 11330 11331 11332 11333 11334 11335 11336 11337 11338 11339 11340 11341 11342 11343 11344 11345 11346 11347 11348 11349 11350 11351 11352 11353 11354 11355 11356 11357 11358 11359 11360 11361 11362 11363 11364 11365 11366 11367 11368 11369 11370 11371 11372 11373 11374 11375 11376 11377 11378 11379 11380 11381 11382 11383 11384 11385 11386 11387 11388 11389 11390 11391 11392 11393 11394 11395 11396 11397 11398 11399 11400 11401 11402 11403 11404 11405 11406 11407 11408 11409 11410 11411 11412 11413 11414 11415 11416 11417 11418 11419 11420 11421 11422 11423 11424 11425 11426 11427 11428 11429 11430 11431 11432 11433 11434 11435 11436 11437 11438 11439 11440 11441 11442 11443 11444 11445 11446 11447 11448 11449 11450 11451 11452 11453 11454 11455 11456 11457 11458 11459 11460 11461 11462 11463 11464 11465 11466 11467 11468 11469 11470 11471 11472 11473 11474 11475 11476 11477 11478 11479 11480 11481 11482 11483 11484 11485 11486 11487 11488 11489 11490 11491 11492 11493 11494 11495 11496 11497 11498 11499 11500 11501 11502 11503 11504 11505 11506 11507 11508 11509 11510 11511 11512 11513 11514 11515 11516 11517 11518 11519 11520 11521 11522 11523 11524 11525 11526 11527 11528 11529 11530 11531 11532 11533 11534 11535 11536 11537 11538 11539 11540 11541 11542 11543 11544 11545 11546 11547 11548 11549 11550 11551 11552 11553 11554 11555 11556 11557 11558 11559 11560 11561 11562 11563 11564 11565 11566 11567 11568 11569 11570 11571 11572 11573 11574 11575 11576 11577 11578 11579 11580 11581 11582 11583 11584 11585 11586 11587 11588 11589 11590 11591 11592 11593 11594 11595 11596 11597 11598 11599 11600 11601 11602 11603 11604 11605 11606 11607 11608 11609 11610 11611 11612 11613 11614 11615 11616 11617 11618 11619 11620 11621 11622 11623 11624 11625 11626 11627 11628 11629 11630 11631 11632 11633 11634 11635 11636 11637 11638 11639 11640 11641 11642 11643 11644 11645 11646 11647 11648 11649 11650 11651 11652 11653 11654 11655 11656 11657 11658 11659 11660 11661 11662 11663 11664 11665 11666 11667 11668 11669 11670 11671 11672 11673 11674 11675 11676 11677 11678 11679 11680 11681 11682 11683 11684 11685 11686 11687 11688 11689 11690 11691 11692 11693 11694 11695 11696 11697 11698 11699 11700 11701 11702 11703 11704 11705 11706 11707 11708 11709 11710 11711 11712 11713 11714 11715 11716 11717 11718 11719 11720 11721 11722 11723 11724 11725 11726 11727 11728 11729 11730 11731 11732 11733 11734 11735 11736 11737 11738 11739 11740 11741 11742 11743 11744 11745 11746 11747 11748 11749 11750 11751 11752 11753 11754 11755 11756 11757 11758 11759 11760 11761 11762 11763 11764 11765 11766 11767 11768 11769 11770 11771 11772 11773 11774 11775 11776 11777 11778 11779 11780 11781 11782 11783 11784 11785 11786 11787 11788 11789 11790 11791 11792 11793 11794 11795 11796 11797 11798 11799 11800 11801 11802 11803 11804 11805 11806 11807 11808 11809 11810 11811 11812 11813 11814 11815 11816 11817 11818 11819 11820 11821 11822 11823 11824 11825 11826 11827 11828 11829 11830 11831 11832 11833 11834 11835 11836 11837 11838 11839 11840 11841 11842 11843 11844 11845 11846 11847 11848 11849 11850 11851 11852 11853 11854 11855 11856 11857 11858 11859 11860 11861 11862 11863 11864 11865 11866 11867 11868 11869 11870 11871 11872 11873 11874 11875 11876 11877 11878 11879 11880 11881 11882 11883 11884 11885 11886 11887 11888 11889 11890 11891 11892 11893 11894 11895 11896 11897 11898 11899 11900 11901 11902 11903 11904 11905 11906 11907 11908 11909 11910 11911 11912 11913 11914 11915 11916 11917 11918 11919 11920 11921 11922 11923 11924 11925 11926 11927 11928 11929 11930 11931 11932 11933 11934 11935 11936 11937 11938 11939 11940 11941 11942 11943 11944 11945 11946 11947 11948 11949 11950 11951 11952 11953 11954 11955 11956 11957 11958 11959 11960 11961 11962 11963 11964 11965 11966 11967 11968 11969 11970 11971 11972 11973 11974 11975 11976 11977 11978 11979 11980 11981 11982 11983 11984 11985 11986 11987 11988 11989 11990 11991 11992 11993 11994 11995 11996 11997 11998 11999 12000 12001 12002 12003 12004 12005 12006 12007 12008 12009 12010 12011 12012 12013 12014 12015 12016 12017 12018 12019 12020 12021 12022 12023 12024 12025 12026 12027 12028 12029 12030 12031 12032 12033 12034 12035 12036 12037 12038 12039 12040 12041 12042 12043 12044 12045 12046 12047 12048 12049 12050 12051 12052 12053 12054 12055 12056 12057 12058 12059 12060 12061 12062 12063 12064 12065 12066 12067 12068 12069 12070 12071 12072 12073 12074 12075 12076 12077 12078 12079 12080 12081 12082 12083 12084 12085 12086 12087 12088 12089 12090 12091 12092 12093 12094 12095 12096 12097 12098 12099 12100 12101 12102 12103 12104 12105 12106 12107 12108 12109 12110 12111 12112 12113 12114 12115 12116 12117 12118 12119 12120 12121 12122 12123 12124 12125 12126 12127 12128 12129 12130 12131 12132 12133 12134 12135 12136 12137 12138 12139 12140 12141 12142 12143 12144 12145 12146 12147 12148 12149 12150 12151 12152 12153 12154 12155 12156 12157 12158 12159 12160 12161 12162 12163 12164 12165 12166 12167 12168 12169 12170 12171 12172 12173 12174 12175 12176 12177 12178 12179 12180 12181 12182 12183 12184 12185 12186 12187 12188 12189 12190 12191 12192 12193 12194 12195 12196 12197 12198 12199 12200 12201 12202 12203 12204 12205 12206 12207 12208 12209 12210 12211 12212 12213 12214 12215 12216 12217 12218 12219 12220 12221 12222 12223 12224 12225 12226 12227 12228 12229 12230 12231 12232 12233 12234 12235 12236 12237 12238 12239 12240 12241 12242 12243 12244 12245 12246 12247 12248 12249 12250 12251 12252 12253 12254 12255 12256 12257 12258 12259 12260 12261 12262 12263 12264 12265 12266 12267 12268 12269 12270 12271 12272 12273 12274 12275 12276 12277 12278 12279 12280 12281 12282 12283 12284 12285 12286 12287 12288 12289 12290 12291 12292 12293 12294 12295 12296 12297 12298 12299 12300 12301 12302 12303 12304 12305 12306 12307 12308 12309 12310 12311 12312 12313 12314 12315 12316 12317 12318 12319 12320 12321 12322 12323 12324 12325 12326 12327 12328 12329 12330 12331 12332 12333 12334 12335 12336 12337 12338 12339 12340 12341 12342 12343 12344 12345 12346 12347 12348 12349 12350 12351 12352 12353 12354 12355 12356 12357 12358 12359 12360 12361 12362 12363 12364 12365 12366 12367 12368 12369 12370 12371 12372 12373 12374 12375 12376 12377 12378 12379 12380 12381 12382 12383 12384 12385 12386 12387 12388 12389 12390 12391 12392 12393 12394 12395 12396 12397 12398 12399 12400 12401 12402 12403 12404 12405 12406 12407 12408 12409 12410 12411 12412 12413 12414 12415 12416 12417 12418 12419 12420 12421 12422 12423 12424 12425 12426 12427 12428 12429 12430 12431 12432 12433 12434 12435 12436 12437 12438 12439 12440 12441 12442 12443 12444 12445 12446 12447 12448 12449 12450 12451 12452 12453 12454 12455 12456 12457 12458 12459 12460 12461 12462 12463 12464 12465 12466 12467 12468 12469 12470 12471 12472 12473 12474 12475 12476 12477 12478 12479 12480 12481 12482 12483 12484 12485 12486 12487 12488 12489 12490 12491 12492 12493 12494 12495 12496 12497 12498 12499 12500 12501 12502 12503 12504 12505 12506 12507 12508 12509 12510 12511 12512 12513 12514 12515 12516 12517 12518 12519 12520 12521 12522 12523 12524 12525 12526 12527 12528 12529 12530 12531 12532 12533 12534 12535 12536 12537 12538 12539 12540 12541 12542 12543 12544 12545 12546 12547 12548 12549 12550 12551 12552 12553 12554 12555 12556 12557 12558 12559 12560 12561 12562 12563 12564 12565 12566 12567 12568 12569 12570 12571 12572 12573 12574 12575 12576 12577 12578 12579 12580 12581 12582 12583 12584 12585 12586 12587 12588 12589 12590 12591 12592 12593 12594 12595 12596 12597 12598 12599 12600 12601 12602 12603 12604 12605 12606 12607 12608 12609 12610 12611 12612 12613 12614 12615 12616 12617 12618 12619 12620 12621 12622 12623 12624 12625 12626 12627 12628 12629 12630 12631 12632 12633 12634 12635 12636 12637 12638 12639 12640 12641 12642 12643 12644 12645 12646 12647 12648 12649 12650 12651 12652 12653 12654 12655 12656 12657 12658 12659 12660 12661 12662 12663 12664 12665 12666 12667 12668 12669 12670 12671 12672 12673 12674 12675 12676 12677 12678 12679 12680 12681 12682 12683 12684 12685 12686 12687 12688 12689 12690 12691 12692 12693 12694 12695 12696 12697 12698 12699 12700 12701 12702 12703 12704 12705 12706 12707 12708 12709 12710 12711 12712 12713 12714 12715 12716 12717 12718 12719 12720 12721 12722 12723 12724 12725 12726 12727 12728 12729 12730 12731 12732 12733 12734 12735 12736 12737 12738 12739 12740 12741 12742 12743 12744 12745 12746 12747 12748 12749 12750 12751 12752 12753 12754 12755 12756 12757 12758 12759 12760 12761 12762 12763 12764 12765 12766 12767 12768 12769 12770 12771 12772 12773 12774 12775 12776 12777 12778 12779 12780 12781 12782 12783 12784 12785 12786 12787 12788 12789 12790 12791 12792 12793 12794 12795 12796 12797 12798 12799 12800 12801 12802 12803 12804 12805 12806 12807 12808 12809 12810 12811 12812 12813 12814 12815 12816 12817 12818 12819 12820 12821 12822 12823 12824 12825 12826 12827 12828 12829 12830 12831 12832 12833 12834 12835 12836 12837 12838 12839 12840 12841 12842 12843 12844 12845 12846 12847 12848 12849 12850 12851 12852 12853 12854 12855 12856 12857 12858 12859 12860 12861 12862 12863 12864 12865 12866 12867 12868 12869 12870 12871 12872 12873 12874 12875 12876 12877 12878 12879 12880 12881 12882 12883 12884 12885 12886 12887 12888 12889 12890 12891 12892 12893 12894 12895 12896 12897 12898 12899 12900 12901 12902 12903 12904 12905 12906 12907 12908 12909 12910 12911 12912 12913 12914 12915 12916 12917 12918 12919 12920 12921 12922 12923 12924 12925 12926 12927 12928 12929 12930 12931 12932 12933 12934 12935 12936 12937 12938 12939 12940 12941 12942 12943 12944 12945 12946 12947 12948 12949 12950 12951 12952 12953 12954 12955 12956 12957 12958 12959 12960 12961 12962 12963 12964 12965 12966 12967 12968 12969 12970 12971 12972 12973 12974 12975 12976 12977 12978 12979 12980 12981 12982 12983 12984 12985 12986 12987 12988 12989 12990 12991 12992 12993 12994 12995 12996 12997 12998 12999 13000 13001 13002 13003 13004 13005 13006 13007 13008 13009 13010 13011 13012 13013 13014 13015 13016 13017 13018 13019 13020 13021 13022 13023 13024 13025 13026 13027 13028 13029 13030 13031 13032 13033 13034 13035 13036 13037 13038 13039 13040 13041 13042 13043 13044 13045 13046 13047 13048 13049 13050 13051 13052 13053 13054 13055 13056 13057 13058 13059 13060 13061 13062 13063 13064 13065 13066 13067 13068 13069 13070 13071 13072 13073 13074 13075 13076 13077 13078 13079 13080 13081 13082 13083 13084 13085 13086 13087 13088 13089 13090 13091 13092 13093 13094 13095 13096 13097 13098 13099 13100 13101 13102 13103 13104 13105 13106 13107 13108 13109 13110 13111 13112 13113 13114 13115 13116 13117 13118 13119 13120 13121 13122 13123 13124 13125 13126 13127 13128 13129 13130 13131 13132 13133 13134 13135 13136 13137 13138 13139 13140 13141 13142 13143 13144 13145 13146 13147 13148 13149 13150 13151 13152 13153 13154 13155 13156 13157 13158 13159 13160 13161 13162 13163 13164 13165 13166 13167 13168 13169 13170 13171 13172 13173 13174 13175 13176 13177 13178 13179 13180 13181 13182 13183 13184 13185 13186 13187 13188 13189 13190 13191 13192 13193 13194 13195 13196 13197 13198 13199 13200 13201 13202 13203 13204 13205 13206 13207 13208 13209 13210 13211 13212 13213 13214 13215 13216 13217 13218 13219 13220 13221 13222 13223 13224 13225 13226 13227 13228 13229 13230 13231 13232 13233 13234 13235 13236 13237 13238 13239 13240 13241 13242 13243 13244 13245 13246 13247 13248 13249 13250 13251 13252 13253 13254 13255 13256 13257 13258 13259 13260 13261 13262 13263 13264 13265 13266 13267 13268 13269 13270 13271 13272 13273 13274 13275 13276 13277 13278 13279 13280 13281 13282 13283 13284 13285 13286 13287 13288 13289 13290 13291 13292 13293 13294 13295 13296 13297 13298 13299 13300 13301 13302 13303 13304 13305 13306 13307 13308 13309 13310 13311 13312 13313 13314 13315 13316 13317 13318 13319 13320 13321 13322 13323 13324 13325 13326 13327 13328 13329 13330 13331 13332 13333 13334 13335 13336 13337 13338 13339 13340 13341 13342 13343 13344 13345 13346 13347 13348 13349 13350 13351 13352 13353 13354 13355 13356 13357 13358 13359 13360 13361 13362 13363 13364 13365 13366 13367 13368 13369 13370 13371 13372 13373 13374 13375 13376 13377 13378 13379 13380 13381 13382 13383 13384 13385 13386 13387 13388 13389 13390 13391 13392 13393 13394 13395 13396 13397 13398 13399 13400 13401 13402 13403 13404 13405 13406 13407 13408 13409 13410 13411 13412 13413 13414 13415 13416 13417 13418 13419 13420 13421 13422 13423 13424 13425 13426 13427 13428 13429 13430 13431 13432 13433 13434 13435 13436 13437 13438 13439 13440 13441 13442 13443 13444 13445 13446 13447 13448 13449 13450 13451 13452 13453 13454 13455 13456 13457 13458 13459 13460 13461 13462 13463 13464 13465 13466 13467 13468 13469 13470 13471 13472 13473 13474 13475 13476 13477 13478 13479 13480 13481 13482 13483 13484 13485 13486 13487 13488 13489 13490 13491 13492 13493 13494 13495 13496 13497 13498 13499 13500 13501 13502 13503 13504 13505 13506 13507 13508 13509 13510 13511 13512 13513 13514 13515 13516 13517 13518 13519 13520 13521 13522 13523 13524 13525 13526 13527 13528 13529 13530 13531 13532 13533 13534 13535 13536 13537 13538 13539 13540 13541 13542 13543 13544 13545 13546 13547 13548 13549 13550 13551 13552 13553 13554 13555 13556 13557 13558 13559 13560 13561 13562 13563 13564 13565 13566 13567 13568 13569 13570 13571 13572 13573 13574 13575 13576 13577 13578 13579 13580 13581 13582 13583 13584 13585 13586 13587 13588 13589 13590 13591 13592 13593 13594 13595 13596 13597 13598 13599 13600 13601 13602 13603 13604 13605 13606 13607 13608 13609 13610 13611 13612 13613 13614 13615 13616 13617 13618 13619 13620 13621 13622 13623 13624 13625 13626 13627 13628 13629 13630 13631 13632 13633 13634 13635 13636 13637 13638 13639 13640 13641 13642 13643 13644 13645 13646 13647 13648 13649 13650 13651 13652 13653 13654 13655 13656 13657 13658 13659 13660 13661 13662 13663 13664 13665 13666 13667 13668 13669 13670 13671 13672 13673 13674 13675 13676 13677 13678 13679 13680 13681 13682 13683 13684 13685 13686 13687 13688 13689 13690 13691 13692 13693 13694 13695 13696 13697 13698 13699 13700 13701 13702 13703 13704 13705 13706 13707 13708 13709 13710 13711 13712 13713 13714 13715 13716 13717 13718 13719 13720 13721 13722 13723 13724 13725 13726 13727 13728 13729 13730 13731 13732 13733 13734 13735 13736 13737 13738 13739 13740 13741 13742 13743 13744 13745 13746 13747 13748 13749 13750 13751 13752 13753 13754 13755 13756 13757 13758 13759 13760 13761 13762 13763 13764 13765 13766 13767 13768 13769 13770 13771 13772 13773 13774 13775 13776 13777 13778 13779 13780 13781 13782 13783 13784 13785 13786 13787 13788 13789 13790 13791 13792 13793 13794 13795 13796 13797 13798 13799 13800 13801 13802 13803 13804 13805 13806 13807 13808 13809 13810 13811 13812 13813 13814 13815 13816 13817 13818 13819 13820 13821 13822 13823 13824 13825 13826 13827 13828 13829 13830 13831 13832 13833 13834 13835 13836 13837 13838 13839 13840 13841 13842 13843 13844 13845 13846 13847 13848 13849 13850 13851 13852 13853 13854 13855 13856 13857 13858 13859 13860 13861 13862 13863 13864 13865 13866 13867 13868 13869 13870 13871 13872 13873 13874 13875 13876 13877 13878 13879 13880 13881 13882 13883 13884 13885 13886 13887 13888 13889 13890 13891 13892 13893 13894 13895 13896 13897 13898 13899 13900 13901 13902 13903 13904 13905 13906 13907 13908 13909 13910 13911 13912 13913 13914 13915 13916 13917 13918 13919 13920 13921 13922 13923 13924 13925 13926 13927 13928 13929 13930 13931 13932 13933 13934 13935 13936 13937 13938 13939 13940 13941 13942 13943 13944 13945 13946 13947 13948 13949 13950 13951 13952 13953 13954 13955 13956 13957 13958 13959 13960 13961 13962 13963 13964 13965 13966 13967 13968 13969 13970 13971 13972 13973 13974 13975 13976 13977 13978 13979 13980 13981 13982 13983 13984 13985 13986 13987 13988 13989 13990 13991 13992 13993 13994 13995 13996 13997 13998 13999 14000 14001 14002 14003 14004 14005 14006 14007 14008 14009 14010 14011 14012 14013 14014 14015 14016 14017 14018 14019 14020 14021 14022 14023 14024 14025 14026 14027 14028 14029 14030 14031 14032 14033 14034 14035 14036 14037 14038 14039 14040 14041 14042 14043 14044 14045 14046 14047 14048 14049 14050 14051 14052 14053 14054 14055 14056 14057 14058 14059 14060 14061 14062 14063 14064 14065 14066 14067 14068 14069 14070 14071 14072 14073 14074 14075 14076 14077 14078 14079 14080 14081 14082 14083 14084 14085 14086 14087 14088 14089 14090 14091 14092 14093 14094 14095 14096 14097 14098 14099 14100 14101 14102 14103 14104 14105 14106 14107 14108 14109 14110 14111 14112 14113 14114 14115 14116 14117 14118 14119 14120 14121 14122 14123 14124 14125 14126 14127 14128 14129 14130 14131 14132 14133 14134 14135 14136 14137 14138 14139 14140 14141 14142 14143 14144 14145 14146 14147 14148 14149 14150 14151 14152 14153 14154 14155 14156 14157 14158 14159 14160 14161 14162 14163 14164 14165 14166 14167 14168 14169 14170 14171 14172 14173 14174 14175 14176 14177 14178 14179 14180 14181 14182 14183 14184 14185 14186 14187 14188 14189 14190 14191 14192 14193 14194 14195 14196 14197 14198 14199 14200 14201 14202 14203 14204 14205 14206 14207 14208 14209 14210 14211 14212 14213 14214 14215 14216 14217 14218 14219 14220 14221 14222 14223 14224 14225 14226 14227 14228 14229 14230 14231 14232 14233 14234 14235 14236 14237 14238 14239 14240 14241 14242 14243 14244 14245 14246 14247 14248 14249 14250 14251 14252 14253 14254 14255 14256 14257 14258 14259 14260 14261 14262 14263 14264 14265 14266 14267 14268 14269 14270 14271 14272 14273 14274 14275 14276 14277 14278 14279 14280 14281 14282 14283 14284 14285 14286 14287 14288 14289 14290 14291 14292 14293 14294 14295 14296 14297 14298 14299 14300 14301 14302 14303 14304 14305 14306 14307 14308 14309 14310 14311 14312 14313 14314 14315 14316 14317 14318 14319 14320 14321 14322 14323 14324 14325 14326 14327 14328 14329 14330 14331 14332 14333 14334 14335 14336 14337 14338 14339 14340 14341 14342 14343 14344 14345 14346 14347 14348 14349 14350 14351 14352 14353 14354 14355 14356 14357 14358 14359 14360 14361 14362 14363 14364 14365 14366 14367 14368 14369 14370 14371 14372 14373 14374 14375 14376 14377 14378 14379 14380 14381 14382 14383 14384 14385 14386 14387 14388 14389 14390 14391 14392 14393 14394 14395 14396 14397 14398 14399 14400 14401 14402 14403 14404 14405 14406 14407 14408 14409 14410 14411 14412 14413 14414 14415 14416 14417 14418 14419 14420 14421 14422 14423 14424 14425 14426 14427 14428 14429 14430 14431 14432 14433 14434 14435 14436 14437 14438 14439 14440 14441 14442 14443 14444 14445 14446 14447 14448 14449 14450 14451 14452 14453 14454 14455 14456 14457 14458 14459 14460 14461 14462 14463 14464 14465 14466 14467 14468 14469 14470 14471 14472 14473 14474 14475 14476 14477 14478 14479 14480 14481 14482 14483 14484 14485 14486 14487 14488 14489 14490 14491 14492 14493 14494 14495 14496 14497 14498 14499 14500 14501 14502 14503 14504 14505 14506 14507 14508 14509 14510 14511 14512 14513 14514 14515 14516 14517 14518 14519 14520 14521 14522 14523 14524 14525 14526 14527 14528 14529 14530 14531 14532 14533 14534 14535 14536 14537 14538 14539 14540 14541 14542 14543 14544 14545 14546 14547 14548 14549 14550 14551 14552 14553 14554 14555 14556 14557 14558 14559 14560 14561 14562 14563 14564 14565 14566 14567 14568 14569 14570 14571 14572 14573 14574 14575 14576 14577 14578 14579 14580 14581 14582 14583 14584 14585 14586 14587 14588 14589 14590 14591 14592 14593 14594 14595 14596 14597 14598 14599 14600 14601 14602 14603 14604 14605 14606 14607 14608 14609 14610 14611 14612 14613 14614 14615 14616 14617 14618 14619 14620 14621 14622 14623 14624 14625 14626 14627 14628 14629 14630 14631 14632 14633 14634 14635 14636 14637 14638 14639 14640 14641 14642 14643 14644 14645 14646 14647 14648 14649 14650 14651 14652 14653 14654 14655 14656 14657 14658 14659 14660 14661 14662 14663 14664 14665 14666 14667 14668 14669 14670 14671 14672 14673 14674 14675 14676 14677 14678 14679 14680 14681 14682 14683 14684 14685 14686 14687 14688 14689 14690 14691 14692 14693 14694 14695 14696 14697 14698 14699 14700 14701 14702 14703 14704 14705 14706 14707 14708 14709 14710 14711 14712 14713 14714 14715 14716 14717 14718 14719 14720 14721 14722 14723 14724 14725 14726 14727 14728 14729 14730 14731 14732 14733 14734 14735 14736 14737 14738 14739 14740 14741 14742 14743 14744 14745 14746 14747 14748 14749 14750 14751 14752 14753 14754 14755 14756 14757 14758 14759 14760 14761 14762 14763 14764 14765 14766 14767 14768 14769 14770 14771 14772 14773 14774 14775 14776 14777 14778 14779 14780 14781 14782 14783 14784 14785 14786 14787 14788 14789 14790 14791 14792 14793 14794 14795 14796 14797 14798 14799 14800 14801 14802 14803 14804 14805 14806 14807 14808 14809 14810 14811 14812 14813 14814 14815 14816 14817 14818 14819 14820 14821 14822 14823 14824 14825 14826 14827 14828 14829 14830 14831 14832 14833 14834 14835 14836 14837 14838 14839 14840 14841 14842 14843 14844 14845 14846 14847 14848 14849 14850 14851 14852 14853 14854 14855 14856 14857 14858 14859 14860 14861 14862 14863 14864 14865 14866 14867 14868 14869 14870 14871 14872 14873 14874 14875 14876 14877 14878 14879 14880 14881 14882 14883 14884 14885 14886 14887 14888 14889 14890 14891 14892 14893 14894 14895 14896 14897 14898 14899 14900 14901 14902 14903 14904 14905 14906 14907 14908 14909 14910 14911 14912 14913 14914 14915 14916 14917 14918 14919 14920 14921 14922 14923 14924 14925 14926 14927 14928 14929 14930 14931 14932 14933 14934 14935 14936 14937 14938 14939 14940 14941 14942 14943 14944 14945 14946 14947 14948 14949 14950 14951 14952 14953 14954 14955 14956 14957 14958 14959 14960 14961 14962 14963 14964 14965 14966 14967 14968 14969 14970 14971 14972 14973 14974 14975 14976 14977 14978 14979 14980 14981 14982 14983 14984 14985 14986 14987 14988 14989 14990 14991 14992 14993 14994 14995 14996 14997 14998 14999 15000 15001 15002 15003 15004 15005 15006 15007 15008 15009 15010 15011 15012 15013 15014 15015 15016 15017 15018 15019 15020 15021 15022 15023 15024 15025 15026 15027 15028 15029 15030 15031 15032 15033 15034 15035 15036 15037 15038 15039 15040 15041 15042 15043 15044 15045 15046 15047 15048 15049 15050 15051 15052 15053 15054 15055 15056 15057 15058 15059 15060 15061 15062 15063 15064 15065 15066 15067 15068 15069 15070 15071 15072 15073 15074 15075 15076 15077 15078 15079 15080 15081 15082 15083 15084 15085 15086 15087 15088 15089 15090 15091 15092 15093 15094 15095 15096 15097 15098 15099 15100 15101 15102 15103 15104 15105 15106 15107 15108 15109 15110 15111 15112 15113 15114 15115 15116 15117 15118 15119 15120 15121 15122 15123 15124 15125 15126 15127 15128 15129 15130 15131 15132 15133 15134 15135 15136 15137 15138 15139 15140 15141 15142 15143 15144 15145 15146 15147 15148 15149 15150 15151 15152 15153 15154 15155 15156 15157 15158 15159 15160 15161 15162 15163 15164 15165 15166 15167 15168 15169 15170 15171 15172 15173 15174 15175 15176 15177 15178 15179 15180 15181 15182 15183 15184 15185 15186 15187 15188 15189 15190 15191 15192 15193 15194 15195 15196 15197 15198 15199 15200 15201 15202 15203 15204 15205 15206 15207 15208 15209 15210 15211 15212 15213 15214 15215 15216 15217 15218 15219 15220 15221 15222 15223 15224 15225 15226 15227 15228 15229 15230 15231 15232 15233 15234 15235 15236 15237 15238 15239 15240 15241 15242 15243 15244 15245 15246 15247 15248 15249 15250 15251 15252 15253 15254 15255 15256 15257 15258 15259 15260 15261 15262 15263 15264 15265 15266 15267 15268 15269 15270 15271 15272 15273 15274 15275 15276 15277 15278 15279 15280 15281 15282 15283 15284 15285 15286 15287 15288 15289 15290 15291 15292 15293 15294 15295 15296 15297 15298 15299 15300 15301 15302 15303 15304 15305 15306 15307 15308 15309 15310 15311 15312 15313 15314 15315 15316 15317 15318 15319 15320 15321 15322 15323 15324 15325 15326 15327 15328 15329 15330 15331 15332 15333 15334 15335 15336 15337 15338 15339 15340 15341 15342 15343 15344 15345 15346 15347 15348 15349 15350 15351 15352 15353 15354 15355 15356 15357 15358 15359 15360 15361 15362 15363 15364 15365 15366 15367 15368 15369 15370 15371 15372 15373 15374 15375 15376 15377 15378 15379 15380 15381 15382 15383 15384 15385 15386 15387 15388 15389 15390 15391 15392 15393 15394 15395 15396 15397 15398 15399 15400 15401 15402 15403 15404 15405 15406 15407 15408 15409 15410 15411 15412 15413 15414 15415 15416 15417 15418 15419 15420 15421 15422 15423 15424 15425 15426 15427 15428 15429 15430 15431 15432 15433 15434 15435 15436 15437 15438 15439 15440 15441 15442 15443 15444 15445 15446 15447 15448 15449 15450 15451 15452 15453 15454 15455 15456 15457 15458 15459 15460 15461 15462 15463 15464 15465 15466 15467 15468 15469 15470 15471 15472 15473 15474 15475 15476 15477 15478 15479 15480 15481 15482 15483 15484 15485 15486 15487 15488 15489 15490 15491 15492 15493 15494 15495 15496 15497 15498 15499 15500 15501 15502 15503 15504 15505 15506 15507 15508 15509 15510 15511 15512 15513 15514 15515 15516 15517 15518 15519 15520 15521 15522 15523 15524 15525 15526 15527 15528 15529 15530 15531 15532 15533 15534 15535 15536 15537 15538 15539 15540 15541 15542 15543 15544 15545 15546 15547 15548 15549 15550 15551 15552 15553 15554 15555 15556 15557 15558 15559 15560 15561 15562 15563 15564 15565 15566 15567 15568 15569 15570 15571 15572 15573 15574 15575 15576 15577 15578 15579 15580 15581 15582 15583 15584 15585 15586 15587 15588 15589 15590 15591 15592 15593 15594 15595 15596 15597 15598 15599 15600 15601 15602 15603 15604 15605 15606 15607 15608 15609 15610 15611 15612 15613 15614 15615 15616 15617 15618 15619 15620 15621 15622 15623 15624 15625 15626 15627 15628 15629 15630 15631 15632 15633 15634 15635 15636 15637 15638 15639 15640 15641 15642 15643 15644 15645 15646 15647 15648 15649 15650 15651 15652 15653 15654 15655 15656 15657 15658 15659 15660 15661 15662 15663 15664 15665 15666 15667 15668 15669 15670 15671 15672 15673 15674 15675 15676 15677 15678 15679 15680 15681 15682 15683 15684 15685 15686 15687 15688 15689 15690 15691 15692 15693 15694 15695 15696 15697 15698 15699 15700 15701 15702 15703 15704 15705 15706 15707 15708 15709 15710 15711 15712 15713 15714 15715 15716 15717 15718 15719 15720 15721 15722 15723 15724 15725 15726 15727 15728 15729 15730 15731 15732 15733 15734 15735 15736 15737 15738 15739 15740 15741 15742 15743 15744 15745 15746 15747 15748 15749 15750 15751 15752 15753 15754 15755 15756 15757 15758 15759 15760 15761 15762 15763 15764 15765 15766 15767 15768 15769 15770 15771 15772 15773 15774 15775 15776 15777 15778 15779 15780 15781 15782 15783 15784 15785 15786 15787 15788 15789 15790 15791 15792 15793 15794 15795 15796 15797 15798 15799 15800 15801 15802 15803 15804 15805 15806 15807 15808 15809 15810 15811 15812 15813 15814 15815 15816 15817 15818 15819 15820 15821 15822 15823 15824 15825 15826 15827 15828 15829 15830 15831 15832 15833 15834 15835 15836 15837 15838 15839 15840 15841 15842 15843 15844 15845 15846 15847 15848 15849 15850 15851 15852 15853 15854 15855 15856 15857 15858 15859 15860 15861 15862 15863 15864 15865 15866 15867 15868 15869 15870 15871 15872 15873 15874 15875 15876 15877 15878 15879 15880 15881 15882 15883 15884 15885 15886 15887 15888 15889 15890 15891 15892 15893 15894 15895 15896 15897 15898 15899 15900 15901 15902 15903 15904 15905 15906 15907 15908 15909 15910 15911 15912 15913 15914 15915 15916 15917 15918 15919 15920 15921 15922 15923 15924 15925 15926 15927 15928 15929 15930 15931 15932 15933 15934 15935 15936 15937 15938 15939 15940 15941 15942 15943 15944 15945 15946 15947 15948 15949 15950 15951 15952 15953 15954 15955 15956 15957 15958 15959 15960 15961 15962 15963 15964 15965 15966 15967 15968 15969 15970 15971 15972 15973 15974 15975 15976 15977 15978 15979 15980 15981 15982 15983 15984 15985 15986 15987 15988 15989 15990 15991 15992 15993 15994 15995 15996 15997 15998 15999 16000 16001 16002 16003 16004 16005 16006 16007 16008 16009 16010 16011 16012 16013 16014 16015 16016 16017 16018 16019 16020 16021 16022 16023 16024 16025 16026 16027 16028 16029 16030 16031 16032 16033 16034 16035 16036 16037 16038 16039 16040 16041 16042 16043 16044 16045 16046 16047 16048 16049 16050 16051 16052 16053 16054 16055 16056 16057 16058 16059 16060 16061 16062 16063 16064 16065 16066 16067 16068 16069 16070 16071 16072 16073 16074 16075 16076 16077 16078 16079 16080 16081 16082 16083 16084 16085 16086 16087 16088 16089 16090 16091 16092 16093 16094 16095 16096 16097 16098 16099 16100 16101 16102 16103 16104 16105 16106 16107 16108 16109 16110 16111 16112 16113 16114 16115 16116 16117 16118 16119 16120 16121 16122 16123 16124 16125 16126 16127 16128 16129 16130 16131 16132 16133 16134 16135 16136 16137 16138 16139 16140 16141 16142 16143 16144 16145 16146 16147 16148 16149 16150 16151 16152 16153 16154 16155 16156 16157 16158 16159 16160 16161 16162 16163 16164 16165 16166 16167 16168 16169 16170 16171 16172 16173 16174 16175 16176 16177 16178 16179 16180 16181 16182 16183 16184 16185 16186 16187 16188 16189 16190 16191 16192 16193 16194 16195 16196 16197 16198 16199 16200 16201 16202 16203 16204 16205 16206 16207 16208 16209 16210 16211 16212 16213 16214 16215 16216 16217 16218 16219 16220 16221 16222 16223 16224 16225 16226 16227 16228 16229 16230 16231 16232 16233 16234 16235 16236 16237 16238 16239 16240 16241 16242 16243 16244 16245 16246 16247 16248 16249 16250 16251 16252 16253 16254 16255 16256 16257 16258 16259 16260 16261 16262 16263 16264 16265 16266 16267 16268 16269 16270 16271 16272 16273 16274 16275 16276 16277 16278 16279 16280 16281 16282 16283 16284 16285 16286 16287 16288 16289 16290 16291 16292 16293 16294 16295 16296 16297 16298 16299 16300 16301 16302 16303 16304 16305 16306 16307 16308 16309 16310 16311 16312 16313 16314 16315 16316 16317 16318 16319 16320 16321 16322 16323 16324 16325 16326 16327 16328 16329 16330 16331 16332 16333 16334 16335 16336 16337 16338 16339 16340 16341 16342 16343 16344 16345 16346 16347 16348 16349 16350 16351 16352 16353 16354 16355 16356 16357 16358 16359 16360 16361 16362 16363 16364 16365 16366 16367 16368 16369 16370 16371 16372 16373 16374 16375 16376 16377 16378 16379 16380 16381 16382 16383 16384 16385 16386 16387 16388 16389 16390 16391 16392 16393 16394 16395 16396 16397 16398 16399 16400 16401 16402 16403 16404 16405 16406 16407 16408 16409 16410 16411 16412 16413 16414 16415 16416 16417 16418 16419 16420 16421 16422 16423 16424 16425 16426 16427 16428 16429 16430 16431 16432 16433 16434 16435 16436 16437 16438 16439 16440 16441 16442 16443 16444 16445 16446 16447 16448 16449 16450 16451 16452 16453 16454 16455 16456 16457 16458 16459 16460 16461 16462 16463 16464 16465 16466 16467 16468 16469 16470 16471 16472 16473 16474 16475 16476 16477 16478 16479 16480 16481 16482 16483 16484 16485 16486 16487 16488 16489 16490 16491 16492 16493 16494 16495 16496 16497 16498 16499 16500 16501 16502 16503 16504 16505 16506 16507 16508 16509 16510 16511 16512 16513 16514 16515 16516 16517 16518 16519 16520 16521 16522 16523 16524 16525 16526 16527 16528 16529 16530 16531 16532 16533 16534 16535 16536 16537 16538 16539 16540 16541 16542 16543 16544 16545 16546 16547 16548 16549 16550 16551 16552 16553 16554 16555 16556 16557 16558 16559 16560 16561 16562 16563 16564 16565 16566 16567 16568 16569 16570 16571 16572 16573 16574 16575 16576 16577 16578 16579 16580 16581 16582 16583 16584 16585 16586 16587 16588 16589 16590 16591 16592 16593 16594 16595 16596 16597 16598 16599 16600 16601 16602 16603 16604 16605 16606 16607 16608 16609 16610 16611 16612 16613 16614 16615 16616 16617 16618 16619 16620 16621 16622 16623 16624 16625 16626 16627 16628 16629 16630 16631 16632 16633 16634 16635 16636 16637 16638 16639 16640 16641 16642 16643 16644 16645 16646 16647 16648 16649 16650 16651 16652 16653 16654 16655 16656 16657 16658 16659 16660 16661 16662 16663 16664 16665 16666 16667 16668 16669 16670 16671 16672 16673 16674 16675 16676 16677 16678 16679 16680 16681 16682 16683 16684 16685 16686 16687 16688 16689 16690 16691 16692 16693 16694 16695 16696 16697 16698 16699 16700 16701 16702 16703 16704 16705 16706 16707 16708 16709 16710 16711 16712 16713 16714 16715 16716 16717 16718 16719 16720 16721 16722 16723 16724 16725 16726 16727 16728 16729 16730 16731 16732 16733 16734 16735 16736 16737 16738 16739 16740 16741 16742 16743 16744 16745 16746 16747 16748 16749 16750 16751 16752 16753 16754 16755 16756 16757 16758 16759 16760 16761 16762 16763 16764 16765 16766 16767 16768 16769 16770 16771 16772 16773 16774 16775 16776 16777 16778 16779 16780 16781 16782 16783 16784 16785 16786 16787 16788 16789 16790 16791 16792 16793 16794 16795 16796 16797 16798 16799 16800 16801 16802 16803 16804 16805 16806 16807 16808 16809 16810 16811 16812 16813 16814 16815 16816 16817 16818 16819 16820 16821 16822 16823 16824 16825 16826 16827 16828 16829 16830 16831 16832 16833 16834 16835 16836 16837 16838 16839 16840 16841 16842 16843 16844 16845 16846 16847 16848 16849 16850 16851 16852 16853 16854 16855 16856 16857 16858 16859 16860 16861 16862 16863 16864 16865 16866 16867 16868 16869 16870 16871 16872 16873 16874 16875 16876 16877 16878 16879 16880 16881 16882 16883 16884 16885 16886 16887 16888 16889 16890 16891 16892 16893 16894 16895 16896 16897 16898 16899 16900 16901 16902 16903 16904 16905 16906 16907 16908 16909 16910 16911 16912 16913 16914 16915 16916 16917 16918 16919 16920 16921 16922 16923 16924 16925 16926 16927 16928 16929 16930 16931 16932 16933 16934 16935 16936 16937 16938 16939 16940 16941 16942 16943 16944 16945 16946 16947 16948 16949 16950 16951 16952 16953 16954 16955 16956 16957 16958 16959 16960 16961 16962 16963 16964 16965 16966 16967 16968 16969 16970 16971 16972 16973 16974 16975 16976 16977 16978 16979 16980 16981 16982 16983 16984 16985 16986 16987 16988 16989 16990 16991 16992 16993 16994 16995 16996 16997 16998 16999 17000 17001 17002 17003 17004 17005 17006 17007 17008 17009 17010 17011 17012 17013 17014 17015 17016 17017 17018 17019 17020 17021 17022 17023 17024 17025 17026 17027 17028 17029 17030 17031 17032 17033 17034 17035 17036 17037 17038 17039 17040 17041 17042 17043 17044 17045 17046 17047 17048 17049 17050 17051 17052 17053 17054 17055 17056 17057 17058 17059 17060 17061 17062 17063 17064 17065 17066 17067 17068 17069 17070 17071 17072 17073 17074 17075 17076 17077 17078 17079 17080 17081 17082 17083 17084 17085 17086 17087 17088 17089 17090 17091 17092 17093 17094 17095 17096 17097 17098 17099 17100 17101 17102 17103 17104 17105 17106 17107 17108 17109 17110 17111 17112 17113 17114 17115 17116 17117 17118 17119 17120 17121 17122 17123 17124 17125 17126 17127 17128 17129 17130 17131 17132 17133 17134 17135 17136 17137 17138 17139 17140 17141 17142 17143 17144 17145 17146 17147 17148 17149 17150 17151 17152 17153 17154 17155 17156 17157 17158 17159 17160 17161 17162 17163 17164 17165 17166 17167 17168 17169 17170 17171 17172 17173 17174 17175 17176 17177 17178 17179 17180 17181 17182 17183 17184 17185 17186 17187 17188 17189 17190 17191 17192 17193 17194 17195 17196 17197 17198 17199 17200 17201 17202 17203 17204 17205 17206 17207 17208 17209 17210 17211 17212 17213 17214 17215 17216 17217 17218 17219 17220 17221 17222 17223 17224 17225 17226 17227 17228 17229 17230 17231 17232 17233 17234 17235 17236 17237 17238 17239 17240 17241 17242 17243 17244 17245 17246 17247 17248 17249 17250 17251 17252 17253 17254 17255 17256 17257 17258 17259 17260 17261 17262 17263 17264 17265 17266 17267 17268 17269 17270 17271 17272 17273 17274 17275 17276 17277 17278 17279 17280 17281 17282 17283 17284 17285 17286 17287 17288 17289 17290 17291 17292 17293 17294 17295 17296 17297 17298 17299 17300 17301 17302 17303 17304 17305 17306 17307 17308 17309 17310 17311 17312 17313 17314 17315 17316 17317 17318 17319 17320 17321 17322 17323 17324 17325 17326 17327 17328 17329 17330 17331 17332 17333 17334 17335 17336 17337 17338 17339 17340 17341 17342 17343 17344 17345 17346 17347 17348 17349 17350 17351 17352 17353 17354 17355 17356 17357 17358 17359 17360 17361 17362 17363 17364 17365 17366 17367 17368 17369 17370 17371 17372 17373 17374 17375 17376 17377 17378 17379 17380 17381 17382 17383 17384 17385 17386 17387 17388 17389 17390 17391 17392 17393 17394 17395 17396 17397 17398 17399 17400 17401 17402 17403 17404 17405 17406 17407 17408 17409 17410 17411 17412 17413 17414 17415 17416 17417 17418 17419 17420 17421 17422 17423 17424 17425 17426 17427 17428 17429 17430 17431 17432 17433 17434 17435 17436 17437 17438 17439 17440 17441 17442 17443 17444 17445 17446 17447 17448 17449 17450 17451 17452 17453 17454 17455 17456 17457 17458 17459 17460 17461 17462 17463 17464 17465 17466 17467 17468 17469 17470 17471 17472 17473 17474 17475 17476 17477 17478 17479 17480 17481 17482 17483 17484 17485 17486 17487 17488 17489 17490 17491 17492 17493 17494 17495 17496 17497 17498 17499 17500 17501 17502 17503 17504 17505 17506 17507 17508 17509 17510 17511 17512 17513 17514 17515 17516 17517 17518 17519 17520 17521 17522 17523 17524 17525 17526 17527 17528 17529 17530 17531 17532 17533 17534 17535 17536 17537 17538 17539 17540 17541 17542 17543 17544 17545 17546 17547 17548 17549 17550 17551 17552 17553 17554 17555 17556 17557 17558 17559 17560 17561 17562 17563 17564 17565 17566 17567 17568 17569 17570 17571 17572 17573 17574 17575 17576 17577 17578 17579 17580 17581 17582 17583 17584 17585 17586 17587 17588 17589 17590 17591 17592 17593 17594 17595 17596 17597 17598 17599 17600 17601 17602 17603 17604 17605 17606 17607 17608 17609 17610 17611 17612 17613 17614 17615 17616 17617 17618 17619 17620 17621 17622 17623 17624 17625 17626 17627 17628 17629 17630 17631 17632 17633 17634 17635 17636 17637 17638 17639 17640 17641 17642 17643 17644 17645 17646 17647 17648 17649 17650 17651 17652 17653 17654 17655 17656 17657 17658 17659 17660 17661 17662 17663 17664 17665 17666 17667 17668 17669 17670 17671 17672 17673 17674 17675 17676 17677 17678 17679 17680 17681 17682 17683 17684 17685 17686 17687 17688 17689 17690 17691 17692 17693 17694 17695 17696 17697 17698 17699 17700 17701 17702 17703 17704 17705 17706 17707 17708 17709 17710 17711 17712 17713 17714 17715 17716 17717 17718 17719 17720 17721 17722 17723 17724 17725 17726 17727 17728 17729 17730 17731 17732 17733 17734 17735 17736 17737 17738 17739 17740 17741 17742 17743 17744 17745 17746 17747 17748 17749 17750 17751 17752 17753 17754 17755 17756 17757 17758 17759 17760 17761 17762 17763 17764 17765 17766 17767 17768 17769 17770 17771 17772 17773 17774 17775 17776 17777 17778 17779 17780 17781 17782 17783 17784 17785 17786 17787 17788 17789 17790 17791 17792 17793 17794 17795 17796 17797 17798 17799 17800 17801 17802 17803 17804 17805 17806 17807 17808 17809 17810 17811 17812 17813 17814 17815 17816 17817 17818 17819 17820 17821 17822 17823 17824 17825 17826 17827 17828 17829 17830 17831 17832 17833 17834 17835 17836 17837 17838 17839 17840 17841 17842 17843 17844 17845 17846 17847 17848 17849 17850 17851 17852 17853 17854 17855 17856 17857 17858 17859 17860 17861 17862 17863 17864 17865 17866 17867 17868 17869 17870 17871 17872 17873 17874 17875 17876 17877 17878 17879 17880 17881 17882 17883 17884 17885 17886 17887 17888 17889 17890 17891 17892 17893 17894 17895 17896 17897 17898 17899 17900 17901 17902 17903 17904 17905 17906 17907 17908 17909 17910 17911 17912 17913 17914 17915 17916 17917 17918 17919 17920 17921 17922 17923 17924 17925 17926 17927 17928 17929 17930 17931 17932 17933 17934 17935 17936 17937 17938 17939 17940 17941 17942 17943 17944 17945 17946 17947 17948 17949 17950 17951 17952 17953 17954 17955 17956 17957 17958 17959 17960 17961 17962 17963 17964 17965 17966 17967 17968 17969 17970 17971 17972 17973 17974 17975 17976 17977 17978 17979 17980 17981 17982 17983 17984 17985 17986 17987 17988 17989 17990 17991 17992 17993 17994 17995 17996 17997 17998 17999 18000 18001 18002 18003 18004 18005 18006 18007 18008 18009 18010 18011 18012 18013 18014 18015 18016 18017 18018 18019 18020 18021 18022 18023 18024 18025 18026 18027 18028 18029 18030 18031 18032 18033 18034 18035 18036 18037 18038 18039 18040 18041 18042 18043 18044 18045 18046 18047 18048 18049 18050 18051 18052 18053 18054 18055 18056 18057 18058 18059 18060 18061 18062 18063 18064 18065 18066 18067 18068 18069 18070 18071 18072 18073 18074 18075 18076 18077 18078 18079 18080 18081 18082 18083 18084 18085 18086 18087 18088 18089 18090 18091 18092 18093 18094 18095 18096 18097 18098 18099 18100 18101 18102 18103 18104 18105 18106 18107 18108 18109 18110 18111 18112 18113 18114 18115 18116 18117 18118 18119 18120 18121 18122 18123 18124 18125 18126 18127 18128 18129 18130 18131 18132 18133 18134 18135 18136 18137 18138 18139 18140 18141 18142 18143 18144 18145 18146 18147 18148 18149 18150 18151 18152 18153 18154 18155 18156 18157 18158 18159 18160 18161 18162 18163 18164 18165 18166 18167 18168 18169 18170 18171 18172 18173 18174 18175 18176 18177 18178 18179 18180 18181 18182 18183 18184 18185 18186 18187 18188 18189 18190 18191 18192 18193 18194 18195 18196 18197 18198 18199 18200 18201 18202 18203 18204 18205 18206 18207 18208 18209 18210 18211 18212 18213 18214 18215 18216 18217 18218 18219 18220 18221 18222 18223 18224 18225 18226 18227 18228 18229 18230 18231 18232 18233 18234 18235 18236 18237 18238 18239 18240 18241 18242 18243 18244 18245 18246 18247 18248 18249 18250 18251 18252 18253 18254 18255 18256 18257 18258 18259 18260 18261 18262 18263 18264 18265 18266 18267 18268 18269 18270 18271 18272 18273 18274 18275 18276 18277 18278 18279 18280 18281 18282 18283 18284 18285 18286 18287 18288 18289 18290 18291 18292 18293 18294 18295 18296 18297 18298 18299 18300 18301 18302 18303 18304 18305 18306 18307 18308 18309 18310 18311 18312 18313 18314 18315 18316 18317 18318 18319 18320 18321 18322 18323 18324 18325 18326 18327 18328 18329 18330 18331 18332 18333 18334 18335 18336 18337 18338 18339 18340 18341 18342 18343 18344 18345 18346 18347 18348 18349 18350 18351 18352 18353 18354 18355 18356 18357 18358 18359 18360 18361 18362 18363 18364 18365 18366 18367 18368 18369 18370 18371 18372 18373 18374 18375 18376 18377 18378 18379 18380 18381 18382 18383 18384 18385 18386 18387 18388 18389 18390 18391 18392 18393 18394 18395 18396 18397 18398 18399 18400 18401 18402 18403 18404 18405 18406 18407 18408 18409 18410 18411 18412 18413 18414 18415 18416 18417 18418 18419 18420 18421 18422 18423 18424 18425 18426 18427 18428 18429 18430 18431 18432 18433 18434 18435 18436 18437 18438 18439 18440 18441 18442 18443 18444 18445 18446 18447 18448 18449 18450 18451 18452 18453 18454 18455 18456 18457 18458 18459 18460 18461 18462 18463 18464 18465 18466 18467 18468 18469 18470 18471 18472 18473 18474 18475 18476 18477 18478 18479 18480 18481 18482 18483 18484 18485 18486 18487 18488 18489 18490 18491 18492 18493 18494 18495 18496 18497 18498 18499 18500 18501 18502 18503 18504 18505 18506 18507 18508 18509 18510 18511 18512 18513 18514 18515 18516 18517 18518 18519 18520 18521 18522 18523 18524 18525 18526 18527 18528 18529 18530 18531 18532 18533 18534 18535 18536 18537 18538 18539 18540 18541 18542 18543 18544 18545 18546 18547 18548 18549 18550 18551 18552 18553 18554 18555 18556 18557 18558 18559 18560 18561 18562 18563 18564 18565 18566 18567 18568 18569 18570 18571 18572 18573 18574 18575 18576 18577 18578 18579 18580 18581 18582 18583 18584 18585 18586 18587 18588 18589 18590 18591 18592 18593 18594 18595 18596 18597 18598 18599 18600 18601 18602 18603 18604 18605 18606 18607 18608 18609 18610 18611 18612 18613 18614 18615 18616 18617 18618 18619 18620 18621 18622 18623 18624 18625 18626 18627 18628 18629 18630 18631 18632 18633 18634 18635 18636 18637 18638 18639 18640 18641 18642 18643 18644 18645 18646 18647 18648 18649 18650 18651 18652 18653 18654 18655 18656 18657 18658 18659 18660 18661 18662 18663 18664 18665 18666 18667 18668 18669 18670 18671 18672 18673 18674 18675 18676 18677 18678 18679 18680 18681 18682 18683 18684 18685 18686 18687 18688 18689 18690 18691 18692 18693 18694 18695 18696 18697 18698 18699 18700 18701 18702 18703 18704 18705 18706 18707 18708 18709 18710 18711 18712 18713 18714 18715 18716 18717 18718 18719 18720 18721 18722 18723 18724 18725 18726 18727 18728 18729 18730 18731 18732 18733 18734 18735 18736 18737 18738 18739 18740 18741 18742 18743 18744 18745 18746 18747 18748 18749 18750 18751 18752 18753 18754 18755 18756 18757 18758 18759 18760 18761 18762 18763 18764 18765 18766 18767 18768 18769 18770 18771 18772 18773 18774 18775 18776 18777 18778 18779 18780 18781 18782 18783 18784 18785 18786 18787 18788 18789 18790 18791 18792 18793 18794 18795 18796 18797 18798 18799 18800 18801 18802 18803 18804 18805 18806 18807 18808 18809 18810 18811 18812 18813 18814 18815 18816 18817 18818 18819 18820 18821 18822 18823 18824 18825 18826 18827 18828 18829 18830 18831 18832 18833 18834 18835 18836 18837 18838 18839 18840 18841 18842 18843 18844 18845 18846 18847 18848 18849 18850 18851 18852 18853 18854 18855 18856 18857 18858 18859 18860 18861 18862 18863 18864 18865 18866 18867 18868 18869 18870 18871 18872 18873 18874 18875 18876 18877 18878 18879 18880 18881 18882 18883 18884 18885 18886 18887 18888 18889 18890 18891 18892 18893 18894 18895 18896 18897 18898 18899 18900 18901 18902 18903 18904 18905 18906 18907 18908 18909 18910 18911 18912 18913 18914 18915 18916 18917 18918 18919 18920 18921 18922 18923 18924 18925 18926 18927 18928 18929 18930 18931 18932 18933 18934 18935 18936 18937 18938 18939 18940 18941 18942 18943 18944 18945 18946 18947 18948 18949 18950 18951 18952 18953 18954 18955 18956 18957 18958 18959 18960 18961 18962 18963 18964 18965 18966 18967 18968 18969 18970 18971 18972 18973 18974 18975 18976 18977 18978 18979 18980 18981 18982 18983 18984 18985 18986 18987 18988 18989 18990 18991 18992 18993 18994 18995 18996 18997 18998 18999 19000 19001 19002 19003 19004 19005 19006 19007 19008 19009 19010 19011 19012 19013 19014 19015 19016 19017 19018 19019 19020 19021 19022 19023 19024 19025 19026 19027 19028 19029 19030 19031 19032 19033 19034 19035 19036 19037 19038 19039 19040 19041 19042 19043 19044 19045 19046 19047 19048 19049 19050 19051 19052 19053 19054 19055 19056 19057 19058 19059 19060 19061 19062 19063 19064 19065 19066 19067 19068 19069 19070 19071 19072 19073 19074 19075 19076 19077 19078 19079 19080 19081 19082 19083 19084 19085 19086 19087 19088 19089 19090 19091 19092 19093 19094 19095 19096 19097 19098 19099 19100 19101 19102 19103 19104 19105 19106 19107 19108 19109 19110 19111 19112 19113 19114 19115 19116 19117 19118 19119 19120 19121 19122 19123 19124 19125 19126 19127 19128 19129 19130 19131 19132 19133 19134 19135 19136 19137 19138 19139 19140 19141 19142 19143 19144 19145 19146 19147 19148 19149 19150 19151 19152 19153 19154 19155 19156 19157 19158 19159 19160 19161 19162 19163 19164 19165 19166 19167 19168 19169 19170 19171 19172 19173 19174 19175 19176 19177 19178 19179 19180 19181 19182 19183 19184 19185 19186 19187 19188 19189 19190 19191 19192 19193 19194 19195 19196 19197 19198 19199 19200 19201 19202 19203 19204 19205 19206 19207 19208 19209 19210 19211 19212 19213 19214 19215 19216 19217 19218 19219 19220 19221 19222 19223 19224 19225 19226 19227 19228 19229 19230 19231 19232 19233 19234 19235 19236 19237 19238 19239 19240 19241 19242 19243 19244 19245 19246 19247 19248 19249 19250 19251 19252 19253 19254 19255 19256 19257 19258 19259 19260 19261 19262 19263 19264 19265 19266 19267 19268 19269 19270 19271 19272 19273 19274 19275 19276 19277 19278 19279 19280 19281 19282 19283 19284 19285 19286 19287 19288 19289 19290 19291 19292 19293 19294 19295 19296 19297 19298 19299 19300 19301 19302 19303 19304 19305 19306 19307 19308 19309 19310 19311 19312 19313 19314 19315 19316 19317 19318 19319 19320 19321 19322 19323 19324 19325 19326 19327 19328 19329 19330 19331 19332 19333 19334 19335 19336 19337 19338 19339 19340 19341 19342 19343 19344 19345 19346 19347 19348 19349 19350 19351 19352 19353 19354 19355 19356 19357 19358 19359 19360 19361 19362 19363 19364 19365 19366 19367 19368 19369 19370 19371 19372 19373 19374 19375 19376 19377 19378 19379 19380 19381 19382 19383 19384 19385 19386 19387 19388 19389 19390 19391 19392 19393 19394 19395 19396 19397 19398 19399 19400 19401 19402 19403 19404 19405 19406 19407 19408 19409 19410 19411 19412 19413 19414 19415 19416 19417 19418 19419 19420 19421 19422 19423 19424 19425 19426 19427 19428 19429 19430 19431 19432 19433 19434 19435 19436 19437 19438 19439 19440 19441 19442 19443 19444 19445 19446 19447 19448 19449 19450 19451 19452 19453 19454 19455 19456 19457 19458 19459 19460 19461 19462 19463 19464 19465 19466 19467 19468 19469 19470 19471 19472 19473 19474 19475 19476 19477 19478 19479 19480 19481 19482 19483 19484 19485 19486 19487 19488 19489 19490 19491 19492 19493 19494 19495 19496 19497 19498 19499 19500 19501 19502 19503 19504 19505 19506 19507 19508 19509 19510 19511 19512 19513 19514 19515 19516 19517 19518 19519 19520 19521 19522 19523 19524 19525 19526 19527 19528 19529 19530 19531 19532 19533 19534 19535 19536 19537 19538 19539 19540 19541 19542 19543 19544 19545 19546 19547 19548 19549 19550 19551 19552 19553 19554 19555 19556 19557 19558 19559 19560 19561 19562 19563 19564 19565 19566 19567 19568 19569 19570 19571 19572 19573 19574 19575 19576 19577 19578 19579 19580 19581 19582 19583 19584 19585 19586 19587 19588 19589 19590 19591 19592 19593 19594 19595 19596 19597 19598 19599 19600 19601 19602 19603 19604 19605 19606 19607 19608 19609 19610 19611 19612 19613 19614 19615 19616 19617 19618 19619 19620 19621 19622 19623 19624 19625 19626 19627 19628 19629 19630 19631 19632 19633 19634 19635 19636 19637 19638 19639 19640 19641 19642 19643 19644 19645 19646 19647 19648 19649 19650 19651 19652 19653 19654 19655 19656 19657 19658 19659 19660 19661 19662 19663 19664 19665 19666 19667 19668 19669 19670 19671 19672 19673 19674 19675 19676 19677 19678 19679 19680 19681 19682 19683 19684 19685 19686 19687 19688 19689 19690 19691 19692 19693 19694 19695 19696 19697 19698 19699 19700 19701 19702 19703 19704 19705 19706 19707 19708 19709 19710 19711 19712 19713 19714 19715 19716 19717 19718 19719 19720 19721 19722 19723 19724 19725 19726 19727 19728 19729 19730 19731 19732 19733 19734 19735 19736 19737 19738 19739 19740 19741 19742 19743 19744 19745 19746 19747 19748 19749 19750 19751 19752 19753 19754 19755 19756 19757 19758 19759 19760 19761 19762 19763 19764 19765 19766 19767 19768 19769 19770 19771 19772 19773 19774 19775 19776 19777 19778 19779 19780 19781 19782 19783 19784 19785 19786 19787 19788 19789 19790 19791 19792 19793 19794 19795 19796 19797 19798 19799 19800 19801 19802 19803 19804 19805 19806 19807 19808 19809 19810 19811 19812 19813 19814 19815 19816 19817 19818 19819 19820 19821 19822 19823 19824 19825 19826 19827 19828 19829 19830 19831 19832 19833 19834 19835 19836 19837 19838 19839 19840 19841 19842 19843 19844 19845 19846 19847 19848 19849 19850 19851 19852 19853 19854 19855 19856 19857 19858 19859 19860 19861 19862 19863 19864 19865 19866 19867 19868 19869 19870 19871 19872 19873 19874 19875 19876 19877 19878 19879 19880 19881 19882 19883 19884 19885 19886 19887 19888 19889 19890 19891 19892 19893 19894 19895 19896 19897 19898 19899 19900 19901 19902 19903 19904 19905 19906 19907 19908 19909 19910 19911 19912 19913 19914 19915 19916 19917 19918 19919 19920 19921 19922 19923 19924 19925 19926 19927 19928 19929 19930 19931 19932 19933 19934 19935 19936 19937 19938 19939 19940 19941 19942 19943 19944 19945 19946 19947 19948 19949 19950 19951 19952 19953 19954 19955 19956 19957 19958 19959 19960 19961 19962 19963 19964 19965 19966 19967 19968 19969 19970 19971 19972 19973 19974 19975 19976 19977 19978 19979 19980 19981 19982 19983 19984 19985 19986 19987 19988 19989 19990 19991 19992 19993 19994 19995 19996 19997 19998 19999 20000 20001 20002 20003 20004 20005 20006 20007 20008 20009 20010 20011 20012 20013 20014 20015 20016 20017 20018 20019 20020 20021 20022 20023 20024 20025 20026 20027 20028 20029 20030 20031 20032 20033 20034 20035 20036 20037 20038 20039 20040 20041 20042 20043 20044 20045 20046 20047 20048 20049 20050 20051 20052 20053 20054 20055 20056 20057 20058 20059 20060 20061 20062 20063 20064 20065 20066 20067 20068 20069 20070 20071 20072 20073 20074 20075 20076 20077 20078 20079 20080 20081 20082 20083 20084 20085 20086 20087 20088 20089 20090 20091 20092 20093 20094 20095 20096 20097 20098 20099 20100 20101 20102 20103 20104 20105 20106 20107 20108 20109 20110 20111 20112 20113 20114 20115 20116 20117 20118 20119 20120 20121 20122 20123 20124 20125 20126 20127 20128 20129 20130 20131 20132 20133 20134 20135 20136 20137 20138 20139 20140 20141 20142 20143 20144 20145 20146 20147 20148 20149 20150 20151 20152 20153 20154 20155 20156 20157 20158 20159 20160 20161 20162 20163 20164 20165 20166 20167 20168 20169 20170 20171 20172 20173 20174 20175 20176 20177 20178 20179 20180 20181 20182 20183 20184 20185 20186 20187 20188 20189 20190 20191 20192 20193 20194 20195 20196 20197 20198 20199 20200 20201 20202 20203 20204 20205 20206 20207 20208 20209 20210 20211 20212 20213 20214 20215 20216 20217 20218 20219 20220 20221 20222 20223 20224 20225 20226 20227 20228 20229 20230 20231 20232 20233 20234 20235 20236 20237 20238 20239 20240 20241 20242 20243 20244 20245 20246 20247 20248 20249 20250 20251 20252 20253 20254 20255 20256 20257 20258 20259 20260 20261 20262 20263 20264 20265 20266 20267 20268 20269 20270 20271 20272 20273 20274 20275 20276 20277 20278 20279 20280 20281 20282 20283 20284 20285 20286 20287 20288 20289 20290 20291 20292 20293 20294 20295 20296 20297 20298 20299 20300 20301 20302 20303 20304 20305 20306 20307 20308 20309 20310 20311 20312 20313 20314 20315 20316 20317 20318 20319 20320 20321 20322 20323 20324 20325 20326 20327 20328 20329 20330 20331 20332 20333 20334 20335 20336 20337 20338 20339 20340 20341 20342 20343 20344 20345 20346 20347 20348 20349 20350 20351 20352 20353 20354 20355 20356 20357 20358 20359 20360 20361 20362 20363 20364 20365 20366 20367 20368 20369 20370 20371 20372 20373 20374 20375 20376 20377 20378 20379 20380 20381 20382 20383 20384 20385 20386 20387 20388 20389 20390 20391 20392 20393 20394 20395 20396 20397 20398 20399 20400 20401 20402 20403 20404 20405 20406 20407 20408 20409 20410 20411 20412 20413 20414 20415 20416 20417 20418 20419 20420 20421 20422 20423 20424 20425 20426 20427 20428 20429 20430 20431 20432 20433 20434 20435 20436 20437 20438 20439 20440 20441 20442 20443 20444 20445 20446 20447 20448 20449 20450 20451 20452 20453 20454 20455 20456 20457 20458 20459 20460 20461 20462 20463 20464 20465 20466 20467 20468 20469 20470 20471 20472 20473 20474 20475 20476 20477 20478 20479 20480 20481 20482 20483 20484 20485 20486 20487 20488 20489 20490 20491 20492 20493 20494 20495 20496 20497 20498 20499 20500 20501 20502 20503 20504 20505 20506 20507 20508 20509 20510 20511 20512 20513 20514 20515 20516 20517 20518 20519 20520 20521 20522 20523 20524 20525 20526 20527 20528 20529 20530 20531 20532 20533 20534 20535 20536 20537 20538 20539 20540 20541 20542 20543 20544 20545 20546 20547 20548 20549 20550 20551 20552 20553 20554 20555 20556 20557 20558 20559 20560 20561 20562 20563 20564 20565 20566 20567 20568 20569 20570 20571 20572 20573 20574 20575 20576 20577 20578 20579 20580 20581 20582 20583 20584 20585 20586 20587 20588 20589 20590 20591 20592 20593 20594 20595 20596 20597 20598 20599 20600 20601 20602 20603 20604 20605 20606 20607 20608 20609 20610 20611 20612 20613 20614 20615 20616 20617 20618 20619 20620 20621 20622 20623 20624 20625 20626 20627 20628 20629 20630 20631 20632 20633 20634 20635 20636 20637 20638 20639 20640 20641 20642 20643 20644 20645 20646 20647 20648 20649 20650 20651 20652 20653 20654 20655 20656 20657 20658 20659 20660 20661 20662 20663 20664 20665 20666 20667 20668 20669 20670 20671 20672 20673 20674 20675 20676 20677 20678 20679 20680 20681 20682 20683 20684 20685 20686 20687 20688 20689 20690 20691 20692 20693 20694 20695 20696 20697 20698 20699 20700 20701 20702 20703 20704 20705 20706 20707 20708 20709 20710 20711 20712 20713 20714 20715 20716 20717 20718 20719 20720 20721 20722 20723 20724 20725 20726 20727 20728 20729 20730 20731 20732 20733 20734 20735 20736 20737 20738 20739 20740 20741 20742 20743 20744 20745 20746 20747 20748 20749 20750 20751 20752 20753 20754 20755 20756 20757 20758 20759 20760 20761 20762 20763 20764 20765 20766 20767 20768 20769 20770 20771 20772 20773 20774 20775 20776 20777 20778 20779 20780 20781 20782 20783 20784 20785 20786 20787 20788 20789 20790 20791 20792 20793 20794 20795 20796 20797 20798 20799 20800 20801 20802 20803 20804 20805 20806 20807 20808 20809 20810 20811 20812 20813 20814 20815 20816 20817 20818 20819 20820 20821 20822 20823 20824 20825 20826 20827 20828 20829 20830 20831 20832 20833 20834 20835 20836 20837 20838 20839 20840 20841 20842 20843 20844 20845 20846 20847 20848 20849 20850 20851 20852 20853 20854 20855 20856 20857 20858 20859 20860 20861 20862 20863 20864 20865 20866 20867 20868 20869 20870 20871 20872 20873 20874 20875 20876 20877 20878 20879 20880 20881 20882 20883 20884 20885 20886 20887 20888 20889 20890 20891 20892 20893 20894 20895 20896 20897 20898 20899 20900 20901 20902 20903 20904 20905 20906 20907 20908 20909 20910 20911 20912 20913 20914 20915 20916 20917 20918 20919 20920 20921 20922 20923 20924 20925 20926 20927 20928 20929 20930 20931 20932 20933 20934 20935 20936 20937 20938 20939 20940 20941 20942 20943 20944 20945 20946 20947 20948 20949 20950 20951 20952 20953 20954 20955 20956 20957 20958 20959 20960 20961 20962 20963 20964 20965 20966 20967 20968 20969 20970 20971 20972 20973 20974 20975 20976 20977 20978 20979 20980 20981 20982 20983 20984 20985 20986 20987 20988 20989 20990 20991 20992 20993 20994 20995 20996 20997 20998 20999 21000 21001 21002 21003 21004 21005 21006 21007 21008 21009 21010 21011 21012 21013 21014 21015 21016 21017 21018 21019 21020 21021 21022 21023 21024 21025 21026 21027 21028 21029 21030 21031 21032 21033 21034 21035 21036 21037 21038 21039 21040 21041 21042 21043 21044 21045 21046 21047 21048 21049 21050 21051 21052 21053 21054 21055 21056 21057 21058 21059 21060 21061 21062 21063 21064 21065 21066 21067 21068 21069 21070 21071 21072 21073 21074 21075 21076 21077 21078 21079 21080 21081 21082 21083 21084 21085 21086 21087 21088 21089 21090 21091 21092 21093 21094 21095 21096 21097 21098 21099 21100 21101 21102 21103 21104 21105 21106 21107 21108 21109 21110 21111 21112 21113 21114 21115 21116 21117 21118 21119 21120 21121 21122 21123 21124 21125 21126 21127 21128 21129 21130 21131 21132 21133 21134 21135 21136 21137 21138 21139 21140 21141 21142 21143 21144 21145 21146 21147 21148 21149 21150 21151 21152 21153 21154 21155 21156 21157 21158 21159 21160 21161 21162 21163 21164 21165 21166 21167 21168 21169 21170 21171 21172 21173 21174 21175 21176 21177 21178 21179 21180 21181 21182 21183 21184 21185 21186 21187 21188 21189 21190 21191 21192 21193 21194 21195 21196 21197 21198 21199 21200 21201 21202 21203 21204 21205 21206 21207 21208 21209 21210 21211 21212 21213 21214 21215 21216 21217 21218 21219 21220 21221 21222 21223 21224 21225 21226 21227 21228 21229 21230 21231 21232 21233 21234 21235 21236 21237 21238 21239 21240 21241 21242 21243 21244 21245 21246 21247 21248 21249 21250 21251 21252 21253 21254 21255 21256 21257 21258 21259 21260 21261 21262 21263 21264 21265 21266 21267 21268 21269 21270 21271 21272 21273 21274 21275 21276 21277 21278 21279 21280 21281 21282 21283 21284 21285 21286 21287 21288 21289 21290 21291 21292 21293 21294 21295 21296 21297 21298 21299 21300 21301 21302 21303 21304 21305 21306 21307 21308 21309 21310 21311 21312 21313 21314 21315 21316 21317 21318 21319 21320 21321 21322 21323 21324 21325 21326 21327 21328 21329 21330 21331 21332 21333 21334 21335 21336 21337 21338 21339 21340 21341 21342 21343 21344 21345 21346 21347 21348 21349 21350 21351 21352 21353 21354 21355 21356 21357 21358 21359 21360 21361 21362 21363 21364 21365 21366 21367 21368 21369 21370 21371 21372 21373 21374 21375 21376 21377 21378 21379 21380 21381 21382 21383 21384 21385 21386 21387 21388 21389 21390 21391 21392 21393 21394 21395 21396 21397 21398 21399 21400 21401 21402 21403 21404 21405 21406 21407 21408 21409 21410 21411 21412 21413 21414 21415 21416 21417 21418 21419 21420 21421 21422 21423 21424 21425 21426 21427 21428 21429 21430 21431 21432 21433 21434 21435 21436 21437 21438 21439 21440 21441 21442 21443 21444 21445 21446 21447 21448 21449 21450 21451 21452 21453 21454 21455 21456 21457 21458 21459 21460 21461 21462 21463 21464 21465 21466 21467 21468 21469 21470 21471 21472 21473 21474 21475 21476 21477 21478 21479 21480 21481 21482 21483 21484 21485 21486 21487 21488 21489 21490 21491 21492 21493 21494 21495 21496 21497 21498 21499 21500 21501 21502 21503 21504 21505 21506 21507 21508 21509 21510 21511 21512 21513 21514 21515 21516 21517 21518 21519 21520 21521 21522 21523 21524 21525 21526 21527 21528 21529 21530 21531 21532 21533 21534 21535 21536 21537 21538 21539 21540 21541 21542 21543 21544 21545 21546 21547 21548 21549 21550 21551 21552 21553 21554 21555 21556 21557 21558 21559 21560 21561 21562 21563 21564 21565 21566 21567 21568 21569 21570 21571 21572 21573 21574 21575 21576 21577 21578 21579 21580 21581 21582 21583 21584 21585 21586 21587 21588 21589 21590 21591 21592 21593 21594 21595 21596 21597 21598 21599 21600 21601 21602 21603 21604 21605 21606 21607 21608 21609 21610 21611 21612 21613 21614 21615 21616 21617 21618 21619 21620 21621 21622 21623 21624 21625 21626 21627 21628 21629 21630 21631 21632 21633 21634 21635 21636 21637 21638 21639 21640 21641 21642 21643 21644 21645 21646 21647 21648 21649 21650 21651 21652 21653 21654 21655 21656 21657 21658 21659 21660 21661 21662 21663 21664 21665 21666 21667 21668 21669 21670 21671 21672 21673 21674 21675 21676 21677 21678 21679 21680 21681 21682 21683 21684 21685 21686 21687 21688 21689 21690 21691 21692 21693 21694 21695 21696 21697 21698 21699 21700 21701 21702 21703 21704 21705 21706 21707 21708 21709 21710 21711 21712 21713 21714 21715 21716 21717 21718 21719 21720 21721 21722 21723 21724 21725 21726 21727 21728 21729 21730 21731 21732 21733 21734 21735 21736 21737 21738 21739 21740 21741 21742 21743 21744 21745 21746 21747 21748 21749 21750 21751 21752 21753 21754 21755 21756 21757 21758 21759 21760 21761 21762 21763 21764 21765 21766 21767 21768 21769 21770 21771 21772 21773 21774 21775 21776 21777 21778 21779 21780 21781 21782 21783 21784 21785 21786 21787 21788 21789 21790 21791 21792 21793 21794 21795 21796 21797 21798 21799 21800 21801 21802 21803 21804 21805 21806 21807 21808 21809 21810 21811 21812 21813 21814 21815 21816 21817 21818 21819 21820 21821 21822 21823 21824 21825 21826 21827 21828 21829 21830 21831 21832 21833 21834 21835 21836 21837 21838 21839 21840 21841 21842 21843 21844 21845 21846 21847 21848 21849 21850 21851 21852 21853 21854 21855 21856 21857 21858 21859 21860 21861 21862 21863 21864 21865 21866 21867 21868 21869 21870 21871 21872 21873 21874 21875 21876 21877 21878 21879 21880 21881 21882 21883 21884 21885 21886 21887 21888 21889 21890 21891 21892 21893 21894 21895 21896 21897 21898 21899 21900 21901 21902 21903 21904 21905 21906 21907 21908 21909 21910 21911 21912 21913 21914 21915 21916 21917 21918 21919 21920 21921 21922 21923 21924 21925 21926 21927 21928 21929 21930 21931 21932 21933 21934 21935 21936 21937 21938 21939 21940 21941 21942 21943 21944 21945 21946 21947 21948 21949 21950 21951 21952 21953 21954 21955 21956 21957 21958 21959 21960 21961 21962 21963 21964 21965 21966 21967 21968 21969 21970 21971 21972 21973 21974 21975 21976 21977 21978 21979 21980 21981 21982 21983 21984 21985 21986 21987 21988 21989 21990 21991 21992 21993 21994 21995 21996 21997 21998 21999 22000 22001 22002 22003 22004 22005 22006 22007 22008 22009 22010 22011 22012 22013 22014 22015 22016 22017 22018 22019 22020 22021 22022 22023 22024 22025 22026 22027 22028 22029 22030 22031 22032 22033 22034 22035 22036 22037 22038 22039 22040 22041 22042 22043 22044 22045 22046 22047 22048 22049 22050 22051 22052 22053 22054 22055 22056 22057 22058 22059 22060 22061 22062 22063 22064 22065 22066 22067 22068 22069 22070 22071 22072 22073 22074 22075 22076 22077 22078 22079 22080 22081 22082 22083 22084 22085 22086 22087 22088 22089 22090 22091 22092 22093 22094 22095 22096 22097 22098 22099 22100 22101 22102 22103 22104 22105 22106 22107 22108 22109 22110 22111 22112 22113 22114 22115 22116 22117 22118 22119 22120 22121 22122 22123 22124 22125 22126 22127 22128 22129 22130 22131 22132 22133 22134 22135 22136 22137 22138 22139 22140 22141 22142 22143 22144 22145 22146 22147 22148 22149 22150 22151 22152 22153 22154 22155 22156 22157 22158 22159 22160 22161 22162 22163 22164 22165 22166 22167 22168 22169 22170 22171 22172 22173 22174 22175 22176 22177 22178 22179 22180 22181 22182 22183 22184 22185 22186 22187 22188 22189 22190 22191 22192 22193 22194 22195 22196 22197 22198 22199 22200 22201 22202 22203 22204 22205 22206 22207 22208 22209 22210 22211 22212 22213 22214 22215 22216 22217 22218 22219 22220 22221 22222 22223 22224 22225 22226 22227 22228 22229 22230 22231 22232 22233 22234 22235 22236 22237 22238 22239 22240 22241 22242 22243 22244 22245 22246 22247 22248 22249 22250 22251 22252 22253 22254 22255 22256 22257 22258 22259 22260 22261 22262 22263 22264 22265 22266 22267 22268 22269 22270 22271 22272 22273 22274 22275 22276 22277 22278 22279 22280 22281 22282 22283 22284 22285 22286 22287 22288 22289 22290 22291 22292 22293 22294 22295 22296 22297 22298 22299 22300 22301 22302 22303 22304 22305 22306 22307 22308 22309 22310 22311 22312 22313 22314 22315 22316 22317 22318 22319 22320 22321 22322 22323 22324 22325 22326 22327 22328 22329 22330 22331 22332 22333 22334 22335 22336 22337 22338 22339 22340 22341 22342 22343 22344 22345 22346 22347 22348 22349 22350 22351 22352 22353 22354 22355 22356 22357 22358 22359 22360 22361 22362 22363 22364 22365 22366 22367 22368 22369 22370 22371 22372 22373 22374 22375 22376 22377 22378 22379 22380 22381 22382 22383 22384 22385 22386 22387 22388 22389 22390 22391 22392 22393 22394 22395 22396 22397 22398 22399 22400 22401 22402 22403 22404 22405 22406 22407 22408 22409 22410 22411 22412 22413 22414 22415 22416 22417 22418 22419 22420 22421 22422 22423 22424 22425 22426 22427 22428 22429 22430 22431 22432 22433 22434 22435 22436 22437 22438 22439 22440 22441 22442 22443 22444 22445 22446 22447 22448 22449 22450 22451 22452 22453 22454 22455 22456 22457 22458 22459 22460 22461 22462 22463 22464 22465 22466 22467 22468 22469 22470 22471 22472 22473 22474 22475 22476 22477 22478 22479 22480 22481 22482 22483 22484 22485 22486 22487 22488 22489 22490 22491 22492 22493 22494 22495 22496 22497 22498 22499 22500 22501 22502 22503 22504 22505 22506 22507 22508 22509 22510 22511 22512 22513 22514 22515 22516 22517 22518 22519 22520 22521 22522 22523 22524 22525 22526 22527 22528 22529 22530 22531 22532 22533 22534 22535 22536 22537 22538 22539 22540 22541 22542 22543 22544 22545 22546 22547 22548 22549 22550 22551 22552 22553 22554 22555 22556 22557 22558 22559 22560 22561 22562 22563 22564 22565 22566 22567 22568 22569 22570 22571 22572 22573 22574 22575 22576 22577 22578 22579 22580 22581 22582 22583 22584 22585 22586 22587 22588 22589 22590 22591 22592 22593 22594 22595 22596 22597 22598 22599 22600 22601 22602 22603 22604 22605 22606 22607 22608 22609 22610 22611 22612 22613 22614 22615 22616 22617 22618 22619 22620 22621 22622 22623 22624 22625 22626 22627 22628 22629 22630 22631 22632 22633 22634 22635 22636 22637 22638 22639 22640 22641 22642 22643 22644 22645 22646 22647 22648 22649 22650 22651 22652 22653 22654 22655 22656 22657 22658 22659 22660 22661 22662 22663 22664 22665 22666 22667 22668 22669 22670 22671 22672 22673 22674 22675 22676 22677 22678 22679 22680 22681 22682 22683 22684 22685 22686 22687 22688 22689 22690 22691 22692 22693 22694 22695 22696 22697 22698 22699 22700 22701 22702 22703 22704 22705 22706 22707 22708 22709 22710 22711 22712 22713 22714 22715 22716 22717 22718 22719 22720 22721 22722 22723 22724 22725 22726 22727 22728 22729 22730 22731 22732 22733 22734 22735 22736 22737 22738 22739 22740 22741 22742 22743 22744 22745 22746 22747 22748 22749 22750 22751 22752 22753 22754 22755 22756 22757 22758 22759 22760 22761 22762 22763 22764 22765 22766 22767 22768 22769 22770 22771 22772 22773 22774 22775 22776 22777 22778 22779 22780 22781 22782 22783 22784 22785 22786 22787 22788 22789 22790 22791 22792 22793 22794 22795 22796 22797 22798 22799 22800 22801 22802 22803 22804 22805 22806 22807 22808 22809 22810 22811 22812 22813 22814 22815 22816 22817 22818 22819 22820 22821 22822 22823 22824 22825 22826 22827 22828 22829 22830 22831 22832 22833 22834 22835 22836 22837 22838 22839 22840 22841 22842 22843 22844 22845 22846 22847 22848 22849 22850 22851 22852 22853 22854 22855 22856 22857 22858 22859 22860 22861 22862 22863 22864 22865 22866 22867 22868 22869 22870 22871 22872 22873 22874 22875 22876 22877 22878 22879 22880 22881 22882 22883 22884 22885 22886 22887 22888 22889 22890 22891 22892 22893 22894 22895 22896 22897 22898 22899 22900 22901 22902 22903 22904 22905 22906 22907 22908 22909 22910 22911 22912 22913 22914 22915 22916 22917 22918 22919 22920 22921 22922 22923 22924 22925 22926 22927 22928 22929 22930 22931 22932 22933 22934 22935 22936 22937 22938 22939 22940 22941 22942 22943 22944 22945 22946 22947 22948 22949 22950 22951 22952 22953 22954 22955 22956 22957 22958 22959 22960 22961 22962 22963 22964 22965 22966 22967 22968 22969 22970 22971 22972 22973 22974 22975 22976 22977 22978 22979 22980 22981 22982 22983 22984 22985 22986 22987 22988 22989 22990 22991 22992 22993 22994 22995 22996 22997 22998 22999 23000 23001 23002 23003 23004 23005 23006 23007 23008 23009 23010 23011 23012 23013 23014 23015 23016 23017 23018 23019 23020 23021 23022 23023 23024 23025 23026 23027 23028 23029 23030 23031 23032 23033 23034 23035 23036 23037 23038 23039 23040 23041 23042 23043 23044 23045 23046 23047 23048 23049 23050 23051 23052 23053 23054 23055 23056 23057 23058 23059 23060 23061 23062 23063 23064 23065 23066 23067 23068 23069 23070 23071 23072 23073 23074 23075 23076 23077 23078 23079 23080 23081 23082 23083 23084 23085 23086 23087 23088 23089 23090 23091 23092 23093 23094 23095 23096 23097 23098 23099 23100 23101 23102 23103 23104 23105 23106 23107 23108 23109 23110 23111 23112 23113 23114 23115 23116 23117 23118 23119 23120 23121 23122 23123 23124 23125 23126 23127 23128 23129 23130 23131 23132 23133 23134 23135 23136 23137 23138 23139 23140 23141 23142 23143 23144 23145 23146 23147 23148 23149 23150 23151 23152 23153 23154 23155 23156 23157 23158 23159 23160 23161 23162 23163 23164 23165 23166 23167 23168 23169 23170 23171 23172 23173 23174 23175 23176 23177 23178 23179 23180 23181 23182 23183 23184 23185 23186 23187 23188 23189 23190 23191 23192 23193 23194 23195 23196 23197 23198 23199 23200 23201 23202 23203 23204 23205 23206 23207 23208 23209 23210 23211 23212 23213 23214 23215 23216 23217 23218 23219 23220 23221 23222 23223 23224 23225 23226 23227 23228 23229 23230 23231 23232 23233 23234 23235 23236 23237 23238 23239 23240 23241 23242 23243 23244 23245 23246 23247 23248 23249 23250 23251 23252 23253 23254 23255 23256 23257 23258 23259 23260 23261 23262 23263 23264 23265 23266 23267 23268 23269 23270 23271 23272 23273 23274 23275 23276 23277 23278 23279 23280 23281 23282 23283 23284 23285 23286 23287 23288 23289 23290 23291 23292 23293 23294 23295 23296 23297 23298 23299 23300 23301 23302 23303 23304 23305 23306 23307 23308 23309 23310 23311 23312 23313 23314 23315 23316 23317 23318 23319 23320 23321 23322 23323 23324 23325 23326 23327 23328 23329 23330 23331 23332 23333 23334 23335 23336 23337 23338 23339 23340 23341 23342 23343 23344 23345 23346 23347 23348 23349 23350 23351 23352 23353 23354 23355 23356 23357 23358 23359 23360 23361 23362 23363 23364 23365 23366 23367 23368 23369 23370 23371 23372 23373 23374 23375 23376 23377 23378 23379 23380 23381 23382 23383 23384 23385 23386 23387 23388 23389 23390 23391 23392 23393 23394 23395 23396 23397 23398 23399 23400 23401 23402 23403 23404 23405 23406 23407 23408 23409 23410 23411 23412 23413 23414 23415 23416 23417 23418 23419 23420 23421 23422 23423 23424 23425 23426 23427 23428 23429 23430 23431 23432 23433 23434 23435 23436 23437 23438 23439 23440 23441 23442 23443 23444 23445 23446 23447 23448 23449 23450 23451 23452 23453 23454 23455 23456 23457 23458 23459 23460 23461 23462 23463 23464 23465 23466 23467 23468 23469 23470 23471 23472 23473 23474 23475 23476 23477 23478 23479 23480 23481 23482 23483 23484 23485 23486 23487 23488 23489 23490 23491 23492 23493 23494 23495 23496 23497 23498 23499 23500 23501 23502 23503 23504 23505 23506 23507 23508 23509 23510 23511 23512 23513 23514 23515 23516 23517 23518 23519 23520 23521 23522 23523 23524 23525 23526 23527 23528 23529 23530 23531 23532 23533 23534 23535 23536 23537 23538 23539 23540 23541 23542 23543 23544 23545 23546 23547 23548 23549 23550 23551 23552 23553 23554 23555 23556 23557 23558 23559 23560 23561 23562 23563 23564 23565 23566 23567 23568 23569 23570 23571 23572 23573 23574 23575 23576 23577 23578 23579 23580 23581 23582 23583 23584 23585 23586 23587 23588 23589 23590 23591 23592 23593 23594 23595 23596 23597 23598 23599 23600 23601 23602 23603 23604 23605 23606 23607 23608 23609 23610 23611 23612 23613 23614 23615 23616 23617 23618 23619 23620 23621 23622 23623 23624 23625 23626 23627 23628 23629 23630 23631 23632 23633 23634 23635 23636 23637 23638 23639 23640 23641 23642 23643 23644 23645 23646 23647 23648 23649 23650 23651 23652 23653 23654 23655 23656 23657 23658 23659 23660 23661 23662 23663 23664 23665 23666 23667 23668 23669 23670 23671 23672 23673 23674 23675 23676 23677 23678 23679 23680 23681 23682 23683 23684 23685 23686 23687 23688 23689 23690 23691 23692 23693 23694 23695 23696 23697 23698 23699 23700 23701 23702 23703 23704 23705 23706 23707 23708 23709 23710 23711 23712 23713 23714 23715 23716 23717 23718 23719 23720 23721 23722 23723 23724 23725 23726 23727 23728 23729 23730 23731 23732 23733 23734 23735 23736 23737 23738 23739 23740 23741 23742 23743 23744 23745 23746 23747 23748 23749 23750 23751 23752 23753 23754 23755 23756 23757 23758 23759 23760 23761 23762 23763 23764 23765 23766 23767 23768 23769 23770 23771 23772 23773 23774 23775 23776 23777 23778 23779 23780 23781 23782 23783 23784 23785 23786 23787 23788 23789 23790 23791 23792 23793 23794 23795 23796 23797 23798 23799 23800 23801 23802 23803 23804 23805 23806 23807 23808 23809 23810 23811 23812 23813 23814 23815 23816 23817 23818 23819 23820 23821 23822 23823 23824 23825 23826 23827 23828 23829 23830 23831 23832 23833 23834 23835 23836 23837 23838 23839 23840 23841 23842 23843 23844 23845 23846 23847 23848 23849 23850 23851 23852 23853 23854 23855 23856 23857 23858 23859 23860 23861 23862 23863 23864 23865 23866 23867 23868 23869 23870 23871 23872 23873 23874 23875 23876 23877 23878 23879 23880 23881 23882 23883 23884 23885 23886 23887 23888 23889 23890 23891 23892 23893 23894 23895 23896 23897 23898 23899 23900 23901 23902 23903 23904 23905 23906 23907 23908 23909 23910 23911 23912 23913 23914 23915 23916 23917 23918 23919 23920 23921 23922 23923 23924 23925 23926 23927 23928 23929 23930 23931 23932 23933 23934 23935 23936 23937 23938 23939 23940 23941 23942 23943 23944 23945 23946 23947 23948 23949 23950 23951 23952 23953 23954 23955 23956 23957 23958 23959 23960 23961 23962 23963 23964 23965 23966 23967 23968 23969 23970 23971 23972 23973 23974 23975 23976 23977 23978 23979 23980 23981 23982 23983 23984 23985 23986 23987 23988 23989 23990 23991 23992 23993 23994 23995 23996 23997 23998 23999 24000 24001 24002 24003 24004 24005 24006 24007 24008 24009 24010 24011 24012 24013 24014 24015 24016 24017 24018 24019 24020 24021 24022 24023 24024 24025 24026 24027 24028 24029 24030 24031 24032 24033 24034 24035 24036 24037 24038 24039 24040 24041 24042 24043 24044 24045 24046 24047 24048 24049 24050 24051 24052 24053 24054 24055 24056 24057 24058 24059 24060 24061 24062 24063 24064 24065 24066 24067 24068 24069 24070 24071 24072 24073 24074 24075 24076 24077 24078 24079 24080 24081 24082 24083 24084 24085 24086 24087 24088 24089 24090 24091 24092 24093 24094 24095 24096 24097 24098 24099 24100 24101 24102 24103 24104 24105 24106 24107 24108 24109 24110 24111 24112 24113 24114 24115 24116 24117 24118 24119 24120 24121 24122 24123 24124 24125 24126 24127 24128 24129 24130 24131 24132 24133 24134 24135 24136 24137 24138 24139 24140 24141 24142 24143 24144 24145 24146 24147 24148 24149 24150 24151 24152 24153 24154 24155 24156 24157 24158 24159 24160 24161 24162 24163 24164 24165 24166 24167 24168 24169 24170 24171 24172 24173 24174 24175 24176 24177 24178 24179 24180 24181 24182 24183 24184 24185 24186 24187 24188 24189 24190 24191 24192 24193 24194 24195 24196 24197 24198 24199 24200 24201 24202 24203 24204 24205 24206 24207 24208 24209 24210 24211 24212 24213 24214 24215 24216 24217 24218 24219 24220 24221 24222 24223 24224 24225 24226 24227 24228 24229 24230 24231 24232 24233 24234 24235 24236 24237 24238 24239 24240 24241 24242 24243 24244 24245 24246 24247 24248 24249 24250 24251 24252 24253 24254 24255 24256 24257 24258 24259 24260 24261 24262 24263 24264 24265 24266 24267 24268 24269 24270 24271 24272 24273 24274 24275 24276 24277 24278 24279 24280 24281 24282 24283 24284 24285 24286 24287 24288 24289 24290 24291 24292 24293 24294 24295 24296 24297 24298 24299 24300 24301 24302 24303 24304 24305 24306 24307 24308 24309 24310 24311 24312 24313 24314 24315 24316 24317 24318 24319 24320 24321 24322 24323 24324 24325 24326 24327 24328 24329 24330 24331 24332 24333 24334 24335 24336 24337 24338 24339 24340 24341 24342 24343 24344 24345 24346 24347 24348 24349 24350 24351 24352 24353 24354 24355 24356 24357 24358 24359 24360 24361 24362 24363 24364 24365 24366 24367 24368 24369 24370 24371 24372 24373 24374 24375 24376 24377 24378 24379 24380 24381 24382 24383 24384 24385 24386 24387 24388 24389 24390 24391 24392 24393 24394 24395 24396 24397 24398 24399 24400 24401 24402 24403 24404 24405 24406 24407 24408 24409 24410 24411 24412 24413 24414 24415 24416 24417 24418 24419 24420 24421 24422 24423 24424 24425 24426 24427 24428 24429 24430 24431 24432 24433 24434 24435 24436 24437 24438 24439 24440 24441 24442 24443 24444 24445 24446 24447 24448 24449 24450 24451 24452 24453 24454 24455 24456 24457 24458 24459 24460 24461 24462 24463 24464 24465 24466 24467 24468 24469 24470 24471 24472 24473 24474 24475 24476 24477 24478 24479 24480 24481 24482 24483 24484 24485 24486 24487 24488 24489 24490 24491 24492 24493 24494 24495 24496 24497 24498 24499 24500 24501 24502 24503 24504 24505 24506 24507 24508 24509 24510 24511 24512 24513 24514 24515 24516 24517 24518 24519 24520 24521 24522 24523 24524 24525 24526 24527 24528 24529 24530 24531 24532 24533 24534 24535 24536 24537 24538 24539 24540 24541 24542 24543 24544 24545 24546 24547 24548 24549 24550 24551 24552 24553 24554 24555 24556 24557 24558 24559 24560 24561 24562 24563 24564 24565 24566 24567 24568 24569 24570 24571 24572 24573 24574 24575 24576 24577 24578 24579 24580 24581 24582 24583 24584 24585 24586 24587 24588 24589 24590 24591 24592 24593 24594 24595 24596 24597 24598 24599 24600 24601 24602 24603 24604 24605 24606 24607 24608 24609 24610 24611 24612 24613 24614 24615 24616 24617 24618 24619 24620 24621 24622 24623 24624 24625 24626 24627 24628 24629 24630 24631 24632 24633 24634 24635 24636 24637 24638 24639 24640 24641 24642 24643 24644 24645 24646 24647 24648 24649 24650 24651 24652 24653 24654 24655 24656 24657 24658 24659 24660 24661 24662 24663 24664 24665 24666 24667 24668 24669 24670 24671 24672 24673 24674 24675 24676 24677 24678 24679 24680 24681 24682 24683 24684 24685 24686 24687 24688 24689 24690 24691 24692 24693 24694 24695 24696 24697 24698 24699 24700 24701 24702 24703 24704 24705 24706 24707 24708 24709 24710 24711 24712 24713 24714 24715 24716 24717 24718 24719 24720 24721 24722 24723 24724 24725 24726 24727 24728 24729 24730 24731 24732 24733 24734 24735 24736 24737 24738 24739 24740 24741 24742 24743 24744 24745 24746 24747 24748 24749 24750 24751 24752 24753 24754 24755 24756 24757 24758 24759 24760 24761 24762 24763 24764 24765 24766 24767 24768 24769 24770 24771 24772 24773 24774 24775 24776 24777 24778 24779 24780 24781 24782 24783 24784 24785 24786 24787 24788 24789 24790 24791 24792 24793 24794 24795 24796 24797 24798 24799 24800 24801 24802 24803 24804 24805 24806 24807 24808 24809 24810 24811 24812 24813 24814 24815 24816 24817 24818 24819 24820 24821 24822 24823 24824 24825 24826 24827 24828 24829 24830 24831 24832 24833 24834 24835 24836 24837 24838 24839 24840 24841 24842 24843 24844 24845 24846 24847 24848 24849 24850 24851 24852 24853 24854 24855 24856 24857 24858 24859 24860 24861 24862 24863 24864 24865 24866 24867 24868 24869 24870 24871 24872 24873 24874 24875 24876 24877 24878 24879 24880 24881 24882 24883 24884 24885 24886 24887 24888 24889 24890 24891 24892 24893 24894 24895 24896 24897 24898 24899 24900 24901 24902 24903 24904 24905 24906 24907 24908 24909 24910 24911 24912 24913 24914 24915 24916 24917 24918 24919 24920 24921 24922 24923 24924 24925 24926 24927 24928 24929 24930 24931 24932 24933 24934 24935 24936 24937 24938 24939 24940 24941 24942 24943 24944 24945 24946 24947 24948 24949 24950 24951 24952 24953 24954 24955 24956 24957 24958 24959 24960 24961 24962 24963 24964 24965 24966 24967 24968 24969 24970 24971 24972 24973 24974 24975 24976 24977 24978 24979 24980 24981 24982 24983 24984 24985 24986 24987 24988 24989 24990 24991 24992 24993 24994 24995 24996 24997 24998 24999 25000 25001 25002 25003 25004 25005 25006 25007 25008 25009 25010 25011 25012 25013 25014 25015 25016 25017 25018 25019 25020 25021 25022 25023 25024 25025 25026 25027 25028 25029 25030 25031 25032 25033 25034 25035 25036 25037 25038 25039 25040 25041 25042 25043 25044 25045 25046 25047 25048 25049 25050 25051 25052 25053 25054 25055 25056 25057 25058 25059 25060 25061 25062 25063 25064 25065 25066 25067 25068 25069 25070 25071 25072 25073 25074 25075 25076 25077 25078 25079 25080 25081 25082 25083 25084 25085 25086 25087 25088 25089 25090 25091 25092 25093 25094 25095 25096 25097 25098 25099 25100 25101 25102 25103 25104 25105 25106 25107 25108 25109 25110 25111 25112 25113 25114 25115 25116 25117 25118 25119 25120 25121 25122 25123 25124 25125 25126 25127 25128 25129 25130 25131 25132 25133 25134 25135 25136 25137 25138 25139 25140 25141 25142 25143 25144 25145 25146 25147 25148 25149 25150 25151 25152 25153 25154 25155 25156 25157 25158 25159 25160 25161 25162 25163 25164 25165 25166 25167 25168 25169 25170 25171 25172 25173 25174 25175 25176 25177 25178 25179 25180 25181 25182 25183 25184 25185 25186 25187 25188 25189 25190 25191 25192 25193 25194 25195 25196 25197 25198 25199 25200 25201 25202 25203 25204 25205 25206 25207 25208 25209 25210 25211 25212 25213 25214 25215 25216 25217 25218 25219 25220 25221 25222 25223 25224 25225 25226 25227 25228 25229 25230 25231 25232 25233 25234 25235 25236 25237 25238 25239 25240 25241 25242 25243 25244 25245 25246 25247 25248 25249 25250 25251 25252 25253 25254 25255 25256 25257 25258 25259 25260 25261 25262 25263 25264 25265 25266 25267 25268 25269 25270 25271 25272 25273 25274 25275 25276 25277 25278 25279 25280 25281 25282 25283 25284 25285 25286 25287 25288 25289 25290 25291 25292 25293 25294 25295 25296 25297 25298 25299 25300 25301 25302 25303 25304 25305 25306 25307 25308 25309 25310 25311 25312 25313 25314 25315 25316 25317 25318 25319 25320 25321 25322 25323 25324 25325 25326 25327 25328 25329 25330 25331 25332 25333 25334 25335 25336 25337 25338 25339 25340 25341 25342 25343 25344 25345 25346 25347 25348 25349 25350 25351 25352 25353 25354 25355 25356 25357 25358 25359 25360 25361 25362 25363 25364 25365 25366 25367 25368 25369 25370 25371 25372 25373 25374 25375 25376 25377 25378 25379 25380 25381 25382 25383 25384 25385 25386 25387 25388 25389 25390 25391 25392 25393 25394 25395 25396 25397 25398 25399 25400 25401 25402 25403 25404 25405 25406 25407 25408 25409 25410 25411 25412 25413 25414 25415 25416 25417 25418 25419 25420 25421 25422 25423 25424 25425 25426 25427 25428 25429 25430 25431 25432 25433 25434 25435 25436 25437 25438 25439 25440 25441 25442 25443 25444 25445 25446 25447 25448 25449 25450 25451 25452 25453 25454 25455 25456 25457 25458 25459 25460 25461 25462 25463 25464 25465 25466 25467 25468 25469 25470 25471 25472 25473 25474 25475 25476 25477 25478 25479 25480 25481 25482 25483 25484 25485 25486 25487 25488 25489 25490 25491 25492 25493 25494 25495 25496 25497 25498 25499 25500 25501 25502 25503 25504 25505 25506 25507 25508 25509 25510 25511 25512 25513 25514 25515 25516 25517 25518 25519 25520 25521 25522 25523 25524 25525 25526 25527 25528 25529 25530 25531 25532 25533 25534 25535 25536 25537 25538 25539 25540 25541 25542 25543 25544 25545 25546 25547 25548 25549 25550 25551 25552 25553 25554 25555 25556 25557 25558 25559 25560 25561 25562 25563 25564 25565 25566 25567 25568 25569 25570 25571 25572 25573 25574 25575 25576 25577 25578 25579 25580 25581 25582 25583 25584 25585 25586 25587 25588 25589 25590 25591 25592 25593 25594 25595 25596 25597 25598 25599 25600 25601 25602 25603 25604 25605 25606 25607 25608 25609 25610 25611 25612 25613 25614 25615 25616 25617 25618 25619 25620 25621 25622 25623 25624 25625 25626 25627 25628 25629 25630 25631 25632 25633 25634 25635 25636 25637 25638 25639 25640 25641 25642 25643 25644 25645 25646 25647 25648 25649 25650 25651 25652 25653 25654 25655 25656 25657 25658 25659 25660 25661 25662 25663 25664 25665 25666 25667 25668 25669 25670 25671 25672 25673 25674 25675 25676 25677 25678 25679 25680 25681 25682 25683 25684 25685 25686 25687 25688 25689 25690 25691 25692 25693 25694 25695 25696 25697 25698 25699 25700 25701 25702 25703 25704 25705 25706 25707 25708 25709 25710 25711 25712 25713 25714 25715 25716 25717 25718 25719 25720 25721 25722 25723 25724 25725 25726 25727 25728 25729 25730 25731 25732 25733 25734 25735 25736 25737 25738 25739 25740 25741 25742 25743 25744 25745 25746 25747 25748 25749 25750 25751 25752 25753 25754 25755 25756 25757 25758 25759 25760 25761 25762 25763 25764 25765 25766 25767 25768 25769 25770 25771 25772 25773 25774 25775 25776 25777 25778 25779 25780 25781 25782 25783 25784 25785 25786 25787 25788 25789 25790 25791 25792 25793 25794 25795 25796 25797 25798 25799 25800 25801 25802 25803 25804 25805 25806 25807 25808 25809 25810 25811 25812 25813 25814 25815 25816 25817 25818 25819 25820 25821 25822 25823 25824 25825 25826 25827 25828 25829 25830 25831 25832 25833 25834 25835 25836 25837 25838 25839 25840 25841 25842 25843 25844 25845 25846 25847 25848 25849 25850 25851 25852 25853 25854 25855 25856 25857 25858 25859 25860 25861 25862 25863 25864 25865 25866 25867 25868 25869 25870 25871 25872 25873 25874 25875 25876 25877 25878 25879 25880 25881 25882 25883 25884 25885 25886 25887 25888 25889 25890 25891 25892 25893 25894 25895 25896 25897 25898 25899 25900 25901 25902 25903 25904 25905 25906 25907 25908 25909 25910 25911 25912 25913 25914 25915 25916 25917 25918 25919 25920 25921 25922 25923 25924 25925 25926 25927 25928 25929 25930 25931 25932 25933 25934 25935 25936 25937 25938 25939 25940 25941 25942 25943 25944 25945 25946 25947 25948 25949 25950 25951 25952 25953 25954 25955 25956 25957 25958 25959 25960 25961 25962 25963 25964 25965 25966 25967 25968 25969 25970 25971 25972 25973 25974 25975 25976 25977 25978 25979 25980 25981 25982 25983 25984 25985 25986 25987 25988 25989 25990 25991 25992 25993 25994 25995 25996 25997 25998 25999 26000 26001 26002 26003 26004 26005 26006 26007 26008 26009 26010 26011 26012 26013 26014 26015 26016 26017 26018 26019 26020 26021 26022 26023 26024 26025 26026 26027 26028 26029 26030 26031 26032 26033 26034 26035 26036 26037 26038 26039 26040 26041 26042 26043 26044 26045 26046 26047 26048 26049 26050 26051 26052 26053 26054 26055 26056 26057 26058 26059 26060 26061 26062 26063 26064 26065 26066 26067 26068 26069 26070 26071 26072 26073 26074 26075 26076 26077 26078 26079 26080 26081 26082 26083 26084 26085 26086 26087 26088 26089 26090 26091 26092 26093 26094 26095 26096 26097 26098 26099 26100 26101 26102 26103 26104 26105 26106 26107 26108 26109 26110 26111 26112 26113 26114 26115 26116 26117 26118 26119 26120 26121 26122 26123 26124 26125 26126 26127 26128 26129 26130 26131 26132 26133 26134 26135 26136 26137 26138 26139 26140 26141 26142 26143 26144 26145 26146 26147 26148 26149 26150 26151 26152 26153 26154 26155 26156 26157 26158 26159 26160 26161 26162 26163 26164 26165 26166 26167 26168 26169 26170 26171 26172 26173 26174 26175 26176 26177 26178 26179 26180 26181 26182 26183 26184 26185 26186 26187 26188 26189 26190 26191 26192 26193 26194 26195 26196 26197 26198 26199 26200 26201 26202 26203 26204 26205 26206 26207 26208 26209 26210 26211 26212 26213 26214 26215 26216 26217 26218 26219 26220 26221 26222 26223 26224 26225 26226 26227 26228 26229 26230 26231 26232 26233 26234 26235 26236 26237 26238 26239 26240 26241 26242 26243 26244 26245 26246 26247 26248 26249 26250 26251 26252 26253 26254 26255 26256 26257 26258 26259 26260 26261 26262 26263 26264 26265 26266 26267 26268 26269 26270 26271 26272 26273 26274 26275 26276 26277 26278 26279 26280 26281 26282 26283 26284 26285 26286 26287 26288 26289 26290 26291 26292 26293 26294 26295 26296 26297 26298 26299 26300 26301 26302 26303 26304 26305 26306 26307 26308 26309 26310 26311 26312 26313 26314 26315 26316 26317 26318 26319 26320 26321 26322 26323 26324 26325 26326 26327 26328 26329 26330 26331 26332 26333 26334 26335 26336 26337 26338 26339 26340 26341 26342 26343 26344 26345 26346 26347 26348 26349 26350 26351 26352 26353 26354 26355 26356 26357 26358 26359 26360 26361 26362 26363 26364 26365 26366 26367 26368 26369 26370 26371 26372 26373 26374 26375 26376 26377 26378 26379 26380 26381 26382 26383 26384 26385 26386 26387 26388 26389 26390 26391 26392 26393 26394 26395 26396 26397 26398 26399 26400 26401 26402 26403 26404 26405 26406 26407 26408 26409 26410 26411 26412 26413 26414 26415 26416 26417 26418 26419 26420 26421 26422 26423 26424 26425 26426 26427 26428 26429 26430 26431 26432 26433 26434 26435 26436 26437 26438 26439 26440 26441 26442 26443 26444 26445 26446 26447 26448 26449 26450 26451 26452 26453 26454 26455 26456 26457 26458 26459 26460 26461 26462 26463 26464 26465 26466 26467 26468 26469 26470 26471 26472 26473 26474 26475 26476 26477 26478 26479 26480 26481 26482 26483 26484 26485 26486 26487 26488 26489 26490 26491 26492 26493 26494 26495 26496 26497 26498 26499 26500 26501 26502 26503 26504 26505 26506 26507 26508 26509 26510 26511 26512 26513 26514 26515 26516 26517 26518 26519 26520 26521 26522 26523 26524 26525 26526 26527 26528 26529 26530 26531 26532 26533 26534 26535 26536 26537 26538 26539 26540 26541 26542 26543 26544 26545 26546 26547 26548 26549 26550 26551 26552 26553 26554 26555 26556 26557 26558 26559 26560 26561 26562 26563 26564 26565 26566 26567 26568 26569 26570 26571 26572 26573 26574 26575 26576 26577 26578 26579 26580 26581 26582 26583 26584 26585 26586 26587 26588 26589 26590 26591 26592 26593 26594 26595 26596 26597 26598 26599 26600 26601 26602 26603 26604 26605 26606 26607 26608 26609 26610 26611 26612 26613 26614 26615 26616 26617 26618 26619 26620 26621 26622 26623 26624 26625 26626 26627 26628 26629 26630 26631 26632 26633 26634 26635 26636 26637 26638 26639 26640 26641 26642 26643 26644 26645 26646 26647 26648 26649 26650 26651 26652 26653 26654 26655 26656 26657 26658 26659 26660 26661 26662 26663 26664 26665 26666 26667 26668 26669 26670 26671 26672 26673 26674 26675 26676 26677 26678 26679 26680 26681 26682 26683 26684 26685 26686 26687 26688 26689 26690 26691 26692 26693 26694 26695 26696 26697 26698 26699 26700 26701 26702 26703 26704 26705 26706 26707 26708 26709 26710 26711 26712 26713 26714 26715 26716 26717 26718 26719 26720 26721 26722 26723 26724 26725 26726 26727 26728 26729 26730 26731 26732 26733 26734 26735 26736 26737 26738 26739 26740 26741 26742 26743 26744 26745 26746 26747 26748 26749 26750 26751 26752 26753 26754 26755 26756 26757 26758 26759 26760 26761 26762 26763 26764 26765 26766 26767 26768 26769 26770 26771 26772 26773 26774 26775 26776 26777 26778 26779 26780 26781 26782 26783 26784 26785 26786 26787 26788 26789 26790 26791 26792 26793 26794 26795 26796 26797 26798 26799 26800 26801 26802 26803 26804 26805 26806 26807 26808 26809 26810 26811 26812 26813 26814 26815 26816 26817 26818 26819 26820 26821 26822 26823 26824 26825 26826 26827 26828 26829 26830 26831 26832 26833 26834 26835 26836 26837 26838 26839 26840 26841 26842 26843 26844 26845 26846 26847 26848 26849 26850 26851 26852 26853 26854 26855 26856 26857 26858 26859 26860 26861 26862 26863 26864 26865 26866 26867 26868 26869 26870 26871 26872 26873 26874 26875 26876 26877 26878 26879 26880 26881 26882 26883 26884 26885 26886 26887 26888 26889 26890 26891 26892 26893 26894 26895 26896 26897 26898 26899 26900 26901 26902 26903 26904 26905 26906 26907 26908 26909 26910 26911 26912 26913 26914 26915 26916 26917 26918 26919 26920 26921 26922 26923 26924 26925 26926 26927 26928 26929 26930 26931 26932 26933 26934 26935 26936 26937 26938 26939 26940 26941 26942 26943 26944 26945 26946 26947 26948 26949 26950 26951 26952 26953 26954 26955 26956 26957 26958 26959 26960 26961 26962 26963 26964 26965 26966 26967 26968 26969 26970 26971 26972 26973 26974 26975 26976 26977 26978 26979 26980 26981 26982 26983 26984 26985 26986 26987 26988 26989 26990 26991 26992 26993 26994 26995 26996 26997 26998 26999 27000 27001 27002 27003 27004 27005 27006 27007 27008 27009 27010 27011 27012 27013 27014 27015 27016 27017 27018 27019 27020 27021 27022 27023 27024 27025 27026 27027 27028 27029 27030 27031 27032 27033 27034 27035 27036 27037 27038 27039 27040 27041 27042 27043 27044 27045 27046 27047 27048 27049 27050 27051 27052 27053 27054 27055 27056 27057 27058 27059 27060 27061 27062 27063 27064 27065 27066 27067 27068 27069 27070 27071 27072 27073 27074 27075 27076 27077 27078 27079 27080 27081 27082 27083 27084 27085 27086 27087 27088 27089 27090 27091 27092 27093 27094 27095 27096 27097 27098 27099 27100 27101 27102 27103 27104 27105 27106 27107 27108 27109 27110 27111 27112 27113 27114 27115 27116 27117 27118 27119 27120 27121 27122 27123 27124 27125 27126 27127 27128 27129 27130 27131 27132 27133 27134 27135 27136 27137 27138 27139 27140 27141 27142 27143 27144 27145 27146 27147 27148 27149 27150 27151 27152 27153 27154 27155 27156 27157 27158 27159 27160 27161 27162 27163 27164 27165 27166 27167 27168 27169 27170 27171 27172 27173 27174 27175 27176 27177 27178 27179 27180 27181 27182 27183 27184 27185 27186 27187 27188 27189 27190 27191 27192 27193 27194 27195 27196 27197 27198 27199 27200 27201 27202 27203 27204 27205 27206 27207 27208 27209 27210 27211 27212 27213 27214 27215 27216 27217 27218 27219 27220 27221 27222 27223 27224 27225 27226 27227 27228 27229 27230 27231 27232 27233 27234 27235 27236 27237 27238 27239 27240 27241 27242 27243 27244 27245 27246 27247 27248 27249 27250 27251 27252 27253 27254 27255 27256 27257 27258 27259 27260 27261 27262 27263 27264 27265 27266 27267 27268 27269 27270 27271 27272 27273 27274 27275 27276 27277 27278 27279 27280 27281 27282 27283 27284 27285 27286 27287 27288 27289 27290 27291 27292 27293 27294 27295 27296 27297 27298 27299 27300 27301 27302 27303 27304 27305 27306 27307 27308 27309 27310 27311 27312 27313 27314 27315 27316 27317 27318 27319 27320 27321 27322 27323 27324 27325 27326 27327 27328 27329 27330 27331 27332 27333 27334 27335 27336 27337 27338 27339 27340 27341 27342 27343 27344 27345 27346 27347 27348 27349 27350 27351 27352 27353 27354 27355 27356 27357 27358 27359 27360 27361 27362 27363 27364 27365 27366 27367 27368 27369 27370 27371 27372 27373 27374 27375 27376 27377 27378 27379 27380 27381 27382 27383 27384 27385 27386 27387 27388 27389 27390 27391 27392 27393 27394 27395 27396 27397 27398 27399 27400 27401 27402 27403 27404 27405 27406 27407 27408 27409 27410 27411 27412 27413 27414 27415 27416 27417 27418 27419 27420 27421 27422 27423 27424 27425 27426 27427 27428 27429 27430 27431 27432 27433 27434 27435 27436 27437 27438 27439 27440 27441 27442 27443 27444 27445 27446 27447 27448 27449 27450 27451 27452 27453 27454 27455 27456 27457 27458 27459 27460 27461 27462 27463 27464 27465 27466 27467 27468 27469 27470 27471 27472 27473 27474 27475 27476 27477 27478 27479 27480 27481 27482 27483 27484 27485 27486 27487 27488 27489 27490 27491 27492 27493 27494 27495 27496 27497 27498 27499 27500 27501 27502 27503 27504 27505 27506 27507 27508 27509 27510 27511 27512 27513 27514 27515 27516 27517 27518 27519 27520 27521 27522 27523 27524 27525 27526 27527 27528 27529 27530 27531 27532 27533 27534 27535 27536 27537 27538 27539 27540 27541 27542 27543 27544 27545 27546 27547 27548 27549 27550 27551 27552 27553 27554 27555 27556 27557 27558 27559 27560 27561 27562 27563 27564 27565 27566 27567 27568 27569 27570 27571 27572 27573 27574 27575 27576 27577 27578 27579 27580 27581 27582 27583 27584 27585 27586 27587 27588 27589 27590 27591 27592 27593 27594 27595 27596 27597 27598 27599 27600 27601 27602 27603 27604 27605 27606 27607 27608 27609 27610 27611 27612 27613 27614 27615 27616 27617 27618 27619 27620 27621 27622 27623 27624 27625 27626 27627 27628 27629 27630 27631 27632 27633 27634 27635 27636 27637 27638 27639 27640 27641 27642 27643 27644 27645 27646 27647 27648 27649 27650 27651 27652 27653 27654 27655 27656 27657 27658 27659 27660 27661 27662 27663 27664 27665 27666 27667 27668 27669 27670 27671 27672 27673 27674 27675 27676 27677 27678 27679 27680 27681 27682 27683 27684 27685 27686 27687 27688 27689 27690 27691 27692 27693 27694 27695 27696 27697 27698 27699 27700 27701 27702 27703 27704 27705 27706 27707 27708 27709 27710 27711 27712 27713 27714 27715 27716 27717 27718 27719 27720 27721 27722 27723 27724 27725 27726 27727 27728 27729 27730 27731 27732 27733 27734 27735 27736 27737 27738 27739 27740 27741 27742 27743 27744 27745 27746 27747 27748 27749 27750 27751 27752 27753 27754 27755 27756 27757 27758 27759 27760 27761 27762 27763 27764 27765 27766 27767 27768 27769 27770 27771 27772 27773 27774 27775 27776 27777 27778 27779 27780 27781 27782 27783 27784 27785 27786 27787 27788 27789 27790 27791 27792 27793 27794 27795 27796 27797 27798 27799 27800 27801 27802 27803 27804 27805 27806 27807 27808 27809 27810 27811 27812 27813 27814 27815 27816 27817 27818 27819 27820 27821 27822 27823 27824 27825 27826 27827 27828 27829 27830 27831 27832 27833 27834 27835 27836 27837 27838 27839 27840 27841 27842 27843 27844 27845 27846 27847 27848 27849 27850 27851 27852 27853 27854 27855 27856 27857 27858 27859 27860 27861 27862 27863 27864 27865 27866 27867 27868 27869 27870 27871 27872 27873 27874 27875 27876 27877 27878 27879 27880 27881 27882 27883 27884 27885 27886 27887 27888 27889 27890 27891 27892 27893 27894 27895 27896 27897 27898 27899 27900 27901 27902 27903 27904 27905 27906 27907 27908 27909 27910 27911 27912 27913 27914 27915 27916 27917 27918 27919 27920 27921 27922 27923 27924 27925 27926 27927 27928 27929 27930 27931 27932 27933 27934 27935 27936 27937 27938 27939 27940 27941 27942 27943 27944 27945 27946 27947 27948 27949 27950 27951 27952 27953 27954 27955 27956 27957 27958 27959 27960 27961 27962 27963 27964 27965 27966 27967 27968 27969 27970 27971 27972 27973 27974 27975 27976 27977 27978 27979 27980 27981 27982 27983 27984 27985 27986 27987 27988 27989 27990 27991 27992 27993 27994 27995 27996 27997 27998 27999 28000 28001 28002 28003 28004 28005 28006 28007 28008 28009 28010 28011 28012 28013 28014 28015 28016 28017 28018 28019 28020 28021 28022 28023 28024 28025 28026 28027 28028 28029 28030 28031 28032 28033 28034 28035 28036 28037 28038 28039 28040 28041 28042 28043 28044 28045 28046 28047 28048 28049 28050 28051 28052 28053 28054 28055 28056 28057 28058 28059 28060 28061 28062 28063 28064 28065 28066 28067 28068 28069 28070 28071 28072 28073 28074 28075 28076 28077 28078 28079 28080 28081 28082 28083 28084 28085 28086 28087 28088 28089 28090 28091 28092 28093 28094 28095 28096 28097 28098 28099 28100 28101 28102 28103 28104 28105 28106 28107 28108 28109 28110 28111 28112 28113 28114 28115 28116 28117 28118 28119 28120 28121 28122 28123 28124 28125 28126 28127 28128 28129 28130 28131 28132 28133 28134 28135 28136 28137 28138 28139 28140 28141 28142 28143 28144 28145 28146 28147 28148 28149 28150 28151 28152 28153 28154 28155 28156 28157 28158 28159 28160 28161 28162 28163 28164 28165 28166 28167 28168 28169 28170 28171 28172 28173 28174 28175 28176 28177 28178 28179 28180 28181 28182 28183 28184 28185 28186 28187 28188 28189 28190 28191 28192 28193 28194 28195 28196 28197 28198 28199 28200 28201 28202 28203 28204 28205 28206 28207 28208 28209 28210 28211 28212 28213 28214 28215 28216 28217 28218 28219 28220 28221 28222 28223 28224 28225 28226 28227 28228 28229 28230 28231 28232 28233 28234 28235 28236 28237 28238 28239 28240 28241 28242 28243 28244 28245 28246 28247 28248 28249 28250 28251 28252 28253 28254 28255 28256 28257 28258 28259 28260 28261 28262 28263 28264 28265 28266 28267 28268 28269 28270 28271 28272 28273 28274 28275 28276 28277 28278 28279 28280 28281 28282 28283 28284 28285 28286 28287 28288 28289 28290 28291 28292 28293 28294 28295 28296 28297 28298 28299 28300 28301 28302 28303 28304 28305 28306 28307 28308 28309 28310 28311 28312 28313 28314 28315 28316 28317 28318 28319 28320 28321 28322 28323 28324 28325 28326 28327 28328 28329 28330 28331 28332 28333 28334 28335 28336 28337 28338 28339 28340 28341 28342 28343 28344 28345 28346 28347 28348 28349 28350 28351 28352 28353 28354 28355 28356 28357 28358 28359 28360 28361 28362 28363 28364 28365 28366 28367 28368 28369 28370 28371 28372 28373 28374 28375 28376 28377 28378 28379 28380 28381 28382 28383 28384 28385 28386 28387 28388 28389 28390 28391 28392 28393 28394 28395 28396 28397 28398 28399 28400 28401 28402 28403 28404 28405 28406 28407 28408 28409 28410 28411 28412 28413 28414 28415 28416 28417 28418 28419 28420 28421 28422 28423 28424 28425 28426 28427 28428 28429 28430 28431 28432 28433 28434 28435 28436 28437 28438 28439 28440 28441 28442 28443 28444 28445 28446 28447 28448 28449 28450 28451 28452 28453 28454 28455 28456 28457 28458 28459 28460 28461 28462 28463 28464 28465 28466 28467 28468 28469 28470 28471 28472 28473 28474 28475 28476 28477 28478 28479 28480 28481 28482 28483 28484 28485 28486 28487 28488 28489 28490 28491 28492 28493 28494 28495 28496 28497 28498 28499 28500 28501 28502 28503 28504 28505 28506 28507 28508 28509 28510 28511 28512 28513 28514 28515 28516 28517 28518 28519 28520 28521 28522 28523 28524 28525 28526 28527 28528 28529 28530 28531 28532 28533 28534 28535 28536 28537 28538 28539 28540 28541 28542 28543 28544 28545 28546 28547 28548 28549 28550 28551 28552 28553 28554 28555 28556 28557 28558 28559 28560 28561 28562 28563 28564 28565 28566 28567 28568 28569 28570 28571 28572 28573 28574 28575 28576 28577 28578 28579 28580 28581 28582 28583 28584 28585 28586 28587 28588 28589 28590 28591 28592 28593 28594 28595 28596 28597 28598 28599 28600 28601 28602 28603 28604 28605 28606 28607 28608 28609 28610 28611 28612 28613 28614 28615 28616 28617 28618 28619 28620 28621 28622 28623 28624 28625 28626 28627 28628 28629 28630 28631 28632 28633 28634 28635 28636 28637 28638 28639 28640 28641 28642 28643 28644 28645 28646 28647 28648 28649 28650 28651 28652 28653 28654 28655 28656 28657 28658 28659 28660 28661 28662 28663 28664 28665 28666 28667 28668 28669 28670 28671 28672 28673 28674 28675 28676 28677 28678 28679 28680 28681 28682 28683 28684 28685 28686 28687 28688 28689 28690 28691 28692 28693 28694 28695 28696 28697 28698 28699 28700 28701 28702 28703 28704 28705 28706 28707 28708 28709 28710 28711 28712 28713 28714 28715 28716 28717 28718 28719 28720 28721 28722 28723 28724 28725 28726 28727 28728 28729 28730 28731 28732 28733 28734 28735 28736 28737 28738 28739 28740 28741 28742 28743 28744 28745 28746 28747 28748 28749 28750 28751 28752 28753 28754 28755 28756 28757 28758 28759 28760 28761 28762 28763 28764 28765 28766 28767 28768 28769 28770 28771 28772 28773 28774 28775 28776 28777 28778 28779 28780 28781 28782 28783 28784 28785 28786 28787 28788 28789 28790 28791 28792 28793 28794 28795 28796 28797 28798 28799 28800 28801 28802 28803 28804 28805 28806 28807 28808 28809 28810 28811 28812 28813 28814 28815 28816 28817 28818 28819 28820 28821 28822 28823 28824 28825 28826 28827 28828 28829 28830 28831 28832 28833 28834 28835 28836 28837 28838 28839 28840 28841 28842 28843 28844 28845 28846 28847 28848 28849 28850 28851 28852 28853 28854 28855 28856 28857 28858 28859 28860 28861 28862 28863 28864 28865 28866 28867 28868 28869 28870 28871 28872 28873 28874 28875 28876 28877 28878 28879 28880 28881 28882 28883 28884 28885 28886 28887 28888 28889 28890 28891 28892 28893 28894 28895 28896 28897 28898 28899 28900 28901 28902 28903 28904 28905 28906 28907 28908 28909 28910 28911 28912 28913 28914 28915 28916 28917 28918 28919 28920 28921 28922 28923 28924 28925 28926 28927 28928 28929 28930 28931 28932 28933 28934 28935 28936 28937 28938 28939 28940 28941 28942 28943 28944 28945 28946 28947 28948 28949 28950 28951 28952 28953 28954 28955 28956 28957 28958 28959 28960 28961 28962 28963 28964 28965 28966 28967 28968 28969 28970 28971 28972 28973 28974 28975 28976 28977 28978 28979 28980 28981 28982 28983 28984 28985 28986 28987 28988 28989 28990 28991 28992 28993 28994 28995 28996 28997 28998 28999 29000 29001 29002 29003 29004 29005 29006 29007 29008 29009 29010 29011 29012 29013 29014 29015 29016 29017 29018 29019 29020 29021 29022 29023 29024 29025 29026 29027 29028 29029 29030 29031 29032 29033 29034 29035 29036 29037 29038 29039 29040 29041 29042 29043 29044 29045 29046 29047 29048 29049 29050 29051 29052 29053 29054 29055 29056 29057 29058 29059 29060 29061 29062 29063 29064 29065 29066 29067 29068 29069 29070 29071 29072 29073 29074 29075 29076 29077 29078 29079 29080 29081 29082 29083 29084 29085 29086 29087 29088 29089 29090 29091 29092 29093 29094 29095 29096 29097 29098 29099 29100 29101 29102 29103 29104 29105 29106 29107 29108 29109 29110 29111 29112 29113 29114 29115 29116 29117 29118 29119 29120 29121 29122 29123 29124 29125 29126 29127 29128 29129 29130 29131 29132 29133 29134 29135 29136 29137 29138 29139 29140 29141 29142 29143 29144 29145 29146 29147 29148 29149 29150 29151 29152 29153 29154 29155 29156 29157 29158 29159 29160 29161 29162 29163 29164 29165 29166 29167 29168 29169 29170 29171 29172 29173 29174 29175 29176 29177 29178 29179 29180 29181 29182 29183 29184 29185 29186 29187 29188 29189 29190 29191 29192 29193 29194 29195 29196 29197 29198 29199 29200 29201 29202 29203 29204 29205 29206 29207 29208 29209 29210 29211 29212 29213 29214 29215 29216 29217 29218 29219 29220 29221 29222 29223 29224 29225 29226 29227 29228 29229 29230 29231 29232 29233 29234 29235 29236 29237 29238 29239 29240 29241 29242 29243 29244 29245 29246 29247 29248 29249 29250 29251 29252 29253 29254 29255 29256 29257 29258 29259 29260 29261 29262 29263 29264 29265 29266 29267 29268 29269 29270 29271 29272 29273 29274 29275 29276 29277 29278 29279 29280 29281 29282 29283 29284 29285 29286 29287 29288 29289 29290 29291 29292 29293 29294 29295 29296 29297 29298 29299 29300 29301 29302 29303 29304 29305 29306 29307 29308 29309 29310 29311 29312 29313 29314 29315 29316 29317 29318 29319 29320 29321 29322 29323 29324 29325 29326 29327 29328 29329 29330 29331 29332 29333 29334 29335 29336 29337 29338 29339 29340 29341 29342 29343 29344 29345 29346 29347 29348 29349 29350 29351 29352 29353 29354 29355 29356 29357 29358 29359 29360 29361 29362 29363 29364 29365 29366 29367 29368 29369 29370 29371 29372 29373 29374 29375 29376 29377 29378 29379 29380 29381 29382 29383 29384 29385 29386 29387 29388 29389 29390 29391 29392 29393 29394 29395 29396 29397 29398 29399 29400 29401 29402 29403 29404 29405 29406 29407 29408 29409 29410 29411 29412 29413 29414 29415 29416 29417 29418 29419 29420 29421 29422 29423 29424 29425 29426 29427 29428 29429 29430 29431 29432 29433 29434 29435 29436 29437 29438 29439 29440 29441 29442 29443 29444 29445 29446 29447 29448 29449 29450 29451 29452 29453 29454 29455 29456 29457 29458 29459 29460 29461 29462 29463 29464 29465 29466 29467 29468 29469 29470 29471 29472 29473 29474 29475 29476 29477 29478 29479 29480 29481 29482 29483 29484 29485 29486 29487 29488 29489 29490 29491 29492 29493 29494 29495 29496 29497 29498 29499 29500 29501 29502 29503 29504 29505 29506 29507 29508 29509 29510 29511 29512 29513 29514 29515 29516 29517 29518 29519 29520 29521 29522 29523 29524 29525 29526 29527 29528 29529 29530 29531 29532 29533 29534 29535 29536 29537 29538 29539 29540 29541 29542 29543 29544 29545 29546 29547 29548 29549 29550 29551 29552 29553 29554 29555 29556 29557 29558 29559 29560 29561 29562 29563 29564 29565 29566 29567 29568 29569 29570 29571 29572 29573 29574 29575 29576 29577 29578 29579 29580 29581 29582 29583 29584 29585 29586 29587 29588 29589 29590 29591 29592 29593 29594 29595 29596 29597 29598 29599 29600 29601 29602 29603 29604 29605 29606 29607 29608 29609 29610 29611 29612 29613 29614 29615 29616 29617 29618 29619 29620 29621 29622 29623 29624 29625 29626 29627 29628 29629 29630 29631 29632 29633 29634 29635 29636 29637 29638 29639 29640 29641 29642 29643 29644 29645 29646 29647 29648 29649 29650 29651 29652 29653 29654 29655 29656 29657 29658 29659 29660 29661 29662 29663 29664 29665 29666 29667 29668 29669 29670 29671 29672 29673 29674 29675 29676 29677 29678 29679 29680 29681 29682 29683 29684 29685 29686 29687 29688 29689 29690 29691 29692 29693 29694 29695 29696 29697 29698 29699 29700 29701 29702 29703 29704 29705 29706 29707 29708 29709 29710 29711 29712 29713 29714 29715 29716 29717 29718 29719 29720 29721 29722 29723 29724 29725 29726 29727 29728 29729 29730 29731 29732 29733 29734 29735 29736 29737 29738 29739 29740 29741 29742 29743 29744 29745 29746 29747 29748 29749 29750 29751 29752 29753 29754 29755 29756 29757 29758 29759 29760 29761 29762 29763 29764 29765 29766 29767 29768 29769 29770 29771 29772 29773 29774 29775 29776 29777 29778 29779 29780 29781 29782 29783 29784 29785 29786 29787 29788 29789 29790 29791 29792 29793 29794 29795 29796 29797 29798 29799 29800 29801 29802 29803 29804 29805 29806 29807 29808 29809 29810 29811 29812 29813 29814 29815 29816 29817 29818 29819 29820 29821 29822 29823 29824 29825 29826 29827 29828 29829 29830 29831 29832 29833 29834 29835 29836 29837 29838 29839 29840 29841 29842 29843 29844 29845 29846 29847 29848 29849 29850 29851 29852 29853 29854 29855 29856 29857 29858 29859 29860 29861 29862 29863 29864 29865 29866 29867 29868 29869 29870 29871 29872 29873 29874 29875 29876 29877 29878 29879 29880 29881 29882 29883 29884 29885 29886 29887 29888 29889 29890 29891 29892 29893 29894 29895 29896 29897 29898 29899 29900 29901 29902 29903 29904 29905 29906 29907 29908 29909 29910 29911 29912 29913 29914 29915 29916 29917 29918 29919 29920 29921 29922 29923 29924 29925 29926 29927 29928 29929 29930 29931 29932 29933 29934 29935 29936 29937 29938 29939 29940 29941 29942 29943 29944 29945 29946 29947 29948 29949 29950 29951 29952 29953 29954 29955 29956 29957 29958 29959 29960 29961 29962 29963 29964 29965 29966 29967 29968 29969 29970 29971 29972 29973 29974 29975 29976 29977 29978 29979 29980 29981 29982 29983 29984 29985 29986 29987 29988 29989 29990 29991 29992 29993 29994 29995 29996 29997 29998 29999 30000 30001 30002 30003 30004 30005 30006 30007 30008 30009 30010 30011 30012 30013 30014 30015 30016 30017 30018 30019 30020 30021 30022 30023 30024 30025 30026 30027 30028 30029 30030 30031 30032 30033 30034 30035 30036 30037 30038 30039 30040 30041 30042 30043 30044 30045 30046 30047 30048 30049 30050 30051 30052 30053 30054 30055 30056 30057 30058 30059 30060 30061 30062 30063 30064 30065 30066 30067 30068 30069 30070 30071 30072 30073 30074 30075 30076 30077 30078 30079 30080 30081 30082 30083 30084 30085 30086 30087 30088 30089 30090 30091 30092 30093 30094 30095 30096 30097 30098 30099 30100 30101 30102 30103 30104 30105 30106 30107 30108 30109 30110 30111 30112 30113 30114 30115 30116 30117 30118 30119 30120 30121 30122 30123 30124 30125 30126 30127 30128 30129 30130 30131 30132 30133 30134 30135 30136 30137 30138 30139 30140 30141 30142 30143 30144 30145 30146 30147 30148 30149 30150 30151 30152 30153 30154 30155 30156 30157 30158 30159 30160 30161 30162 30163 30164 30165 30166 30167 30168 30169 30170 30171 30172 30173 30174 30175 30176 30177 30178 30179 30180 30181 30182 30183 30184 30185 30186 30187 30188 30189 30190 30191 30192 30193 30194 30195 30196 30197 30198 30199 30200 30201 30202 30203 30204 30205 30206 30207 30208 30209 30210 30211 30212 30213 30214 30215 30216 30217 30218 30219 30220 30221 30222 30223 30224 30225 30226 30227 30228 30229 30230 30231 30232 30233 30234 30235 30236 30237 30238 30239 30240 30241 30242 30243 30244 30245 30246 30247 30248 30249 30250 30251 30252 30253 30254 30255 30256 30257 30258 30259 30260 30261 30262 30263 30264 30265 30266 30267 30268 30269 30270 30271 30272 30273 30274 30275 30276 30277 30278 30279 30280 30281 30282 30283 30284 30285 30286 30287 30288 30289 30290 30291 30292 30293 30294 30295 30296 30297 30298 30299 30300 30301 30302 30303 
</DataArray>
<DataArray type="UInt32" Name="offsets" format="ascii">
3 6 9 12 15 18 21 23 26 29 31 34 37 40 42 45 47 50 53 56 58 61 64 67 69 72 75 78 81 84 86 89 92 95 98 101 104 107 110 113 115 118 121 124 127 130 133 136 139 142 145 148 151 154 156 159 162 165 168 170 173 176 179 182 185 188 191 194 197 200 203 206 209 212 215 218 221 224 227 230 233 235 238 241 244 247 249 251 254 257 260 262 265 268 271 274 277 280 283 285 288 291 294 297 300 303 306 309 312 315 318 321 324 327 329 332 335 338 341 344 347 350 353 356 359 362 365 368 371 374 377 380 383 386 389 392 395 398 401 404 407 410 413 416 419 422 425 428 431 434 437 440 443 446 449 452 455 458 461 464 467 469 472 475 478 481 484 487 490 493 496 499 502 505 508 511 514 517 520 523 526 529 532 535 537 540 543 546 549 551 553 556 559 562 565 567 570 572 575 578 581 584 587 590 593 596 599 602 605 608 611 614 617 620 623 626 629 632 635 638 641 644 647 650 653 656 659 662 665 668 671 674 677 680 683 686 689 692 695 698 701 704 707 709 712 715 718 721 724 727 730 732 735 738 741 744 747 750 753 756 759 761 764 767 769 772 775 777 780 783 786 789 792 795 798 800 802 805 807 810 813 815 818 821 824 827 829 832 835 838 840 843 846 849 852 855 858 861 864 867 869 872 874 877 879 881 884 887 890 893 896 899 902 904 907 909 911 914 917 919 922 925 927 930 933 936 939 942 945 948 951 954 957 959 962 965 967 970 973 976 979 982 985 988 991 994 997 999 1002 1005 1007 1010 1013 1016 1019 1022 1025 1028 1031 1034 1036 1039 1042 1045 1048 1051 1054 1056 1059 1062 1065 1068 1071 1073 1076 1079 1082 1085 1087 1090 1093 1095 1098 1101 1104 1106 1109 1112 1115 1117 1120 1122 1125 1128 1131 1134 1136 1139 1141 1143 1146 1148 1151 1154 1157 1160 1162 1165 1168 1171 1174 1177 1180 1183 1186 1189 1192 1195 1198 1201 1204 1207 1210 1213 1216 1219 1222 1225 1228 1231 1233 1236 1239 1241 1244 1247 1250 1253 1256 1259 1262 1265 1268 1271 1274 1277 1280 1283 1286 1289 1292 1295 1298 1301 1304 1307 1309 1312 1314 1317 1320 1322 1325 1327 1330 1333 1335 1338 1340 1343 1345 1348 1351 1354 1357 1360 1362 1365 1368 1370 1372 1375 1378 1381 1384 1386 1388 1391 1394 1397 1399 1402 1405 1408 1411 1414 1417 1420 1423 1426 1429 1432 1434 1436 1439 1442 1445 1448 1451 1454 1457 1460 1463 1466 1469 1472 1475 1478 1481 1484 1487 1490 1493 1496 1499 1502 1504 1507 1510 1513 1516 1519 1522 1525 1528 1531 1534 1537 1540 1543 1546 1549 1552 1555 1558 1561 1564 1567 1570 1573 1576 1579 1582 1585 1588 1591 1594 1597 1600 1603 1606 1609 1612 1615 1618 1621 1624 1626 1629 1632 1634 1637 1640 1642 1645 1648 1651 1654 1657 1660 1663 1666 1669 1671 1674 1677 1680 1682 1684 1687 1689 1691 1694 1697 1700 1703 1706 1709 1712 1715 1718 1721 1724 1727 1730 1733 1736 1739 1742 1745 1748 1751 1754 1757 1760 1763 1766 1769 1772 1775 1778 1781 1784 1787 1789 1792 1795 1798 1800 1803 1806 1809 1812 1815 1817 1820 1823 1826 1828 1831 1834 1836 1839 1842 1845 1848 1851 1853 1856 1859 1862 1864 1867 1869 1872 1875 1877 1880 1883 1885 1888 1891 1894 1897 1899 1902 1905 1907 1910 1912 1915 1918 1921 1924 1926 1929 1932 1935 1938 1941 1944 1947 1950 1953 1955 1958 1961 1963 1966 1968 1971 1973 1976 1978 1981 1983 1986 1988 1991 1994 1996 1998 2000 2003 2005 2008 2010 2013 2015 2017 2020 2023 2026 2029 2032 2035 2038 2041 2044 2046 2049 2052 2055 2057 2060 2063 2066 2068 2071 2074 2077 2080 2083 2086 2088 2091 2094 2097 2100 2103 2106 2109 2112 2114 2117 2120 2122 2124 2127 2130 2133 2135 2137 2140 2143 2145 2148 2150 2153 2156 2159 2162 2165 2168 2171 2174 2177 2180 2183 2186 2189 2192 2195 2198 2201 2204 2207 2210 2213 2216 2219 2222 2225 2228 2230 2233 2236 2239 2242 2245 2248 2250 2253 2256 2259 2262 2265 2268 2271 2274 2276 2279 2282 2284 2287 2290 2293 2296 2299 2302 2305 2308 2311 2314 2317 2320 2323 2325 2328 2331 2334 2337 2339 2342 2345 2348 2351 2354 2357 2360 2363 2365 2368 2371 2373 2376 2379 2382 2384 2387 2390 2393 2396 2399 2402 2405 2407 2410 2413 2415 2417 2420 2423 2426 2429 2432 2435 2438 2440 2442 2445 2447 2450 2453 2456 2459 2461 2464 2467 2470 2473 2476 2479 2482 2484 2487 2490 2493 2496 2499 2502 2505 2508 2511 2514 2517 2520 2523 2526 2528 2531 2534 2536 2539 2542 2545 2548 2551 2554 2557 2560 2563 2566 2569 2572 2575 2578 2581 2584 2587 2590 2593 2596 2598 2601 2604 2607 2610 2613 2616 2619 2622 2625 2627 2630 2633 2636 2638 2641 2644 2646 2649 2652 2655 2658 2661 2664 2666 2669 2672 2675 2678 2681 2683 2685 2688 2691 2694 2697 2700 2703 2706 2709 2712 2715 2718 2721 2724 2727 2730 2733 2736 2739 2742 2745 2748 2751 2754 2757 2760 2763 2765 2768 2771 2774 2777 2779 2781 2784 2786 2789 2792 2795 2798 2801 2804 2807 2810 2813 2816 2818 2821 2824 2827 2830 2833 2836 2838 2841 2844 2847 2849 2852 2854 2857 2860 2863 2866 2869 2872 2875 2878 2881 2884 2887 2890 2893 2896 2899 2902 2905 2908 2911 2914 2917 2920 2923 2926 2929 2931 2934 2937 2940 2942 2945 2948 2951 2954 2957 2960 2963 2965 2968 2971 2974 2977 2980 2983 2986 2989 2992 2995 2998 3001 3003 3006 3009 3012 3014 3016 3019 3022 3025 3028 3030 3033 3036 3039 3042 3045 3048 3050 3053 3055 3058 3061 3064 3067 3069 3072 3075 3078 3081 3084 3086 3088 3091 3094 3097 3100 3103 3106 3109 3112 3115 3118 3121 3124 3127 3130 3133 3136 3138 3141 3144 3146 3149 3151 3154 3157 3160 3163 3166 3169 3172 3175 3178 3180 3183 3186 3189 3192 3195 3198 3200 3203 3206 3209 3212 3215 3218 3221 3224 3227 3230 3233 3236 3239 3242 3245 3248 3250 3253 3256 3259 3262 3265 3268 3271 3274 3277 3280 3283 3286 3289 3292 3295 3298 3301 3304 3306 3309 3312 3315 3318 3321 3324 3327 3330 3333 3336 3339 3342 3345 3348 3351 3354 3357 3360 3363 3366 3369 3372 3375 3378 3381 3384 3387 3390 3393 3396 3399 3402 3405 3408 3411 3414 3416 3418 3421 3424 3427 3430 3433 3436 3439 3441 3444 3447 3450 3453 3456 3459 3462 3465 3468 3471 3474 3477 3480 3483 3485 3488 3491 3494 3496 3499 3502 3505 3508 3511 3514 3517 3520 3523 3526 3529 3532 3535 3537 3540 3543 3546 3548 3550 3553 3556 3559 3562 3564 3566 3569 3572 3575 3577 3580 3583 3585 3588 3591 3593 3596 3599 3602 3605 3608 3611 3614 3616 3619 3622 3625 3628 3631 3634 3636 3638 3641 3643 3645 3648 3651 3654 3657 3659 3662 3665 3667 3669 3672 3674 3676 3679 3682 3685 3687 3690 3692 3695 3698 3701 3703 3706 3708 3711 3714 3716 3719 3722 3725 3727 3730 3733 3735 3737 3739 3742 3745 3747 3749 3752 3755 3758 3761 3764 3767 3770 3772 3774 3777 3780 3783 3786 3789 3792 3795 3798 3801 3804 3806 3809 3812 3814 3816 3819 3822 3825 3828 3831 3834 3837 3840 3843 3846 3849 3852 3855 3858 3861 3864 3866 3869 3872 3874 3877 3879 3882 3884 3886 3888 3891 3894 3897 3900 3903 3905 3908 3910 3913 3915 3918 3920 3922 3925 3928 3930 3933 3935 3938 3941 3944 3947 3950 3953 3955 3958 3960 3963 3966 3968 3971 3973 3976 3979 3982 3984 3987 3990 3992 3995 3998 4000 4002 4005 4008 4010 4012 4015 4018 4021 4024 4026 4029 4032 4035 4038 4041 4044 4047 4050 4053 4055 4057 4059 4061 4064 4067 4069 4071 4074 4076 4078 4081 4083 4086 4089 4092 4094 4096 4098 4101 4104 4107 4110 4112 4115 4118 4120 4123 4126 4129 4131 4134 4136 4139 4142 4145 4148 4151 4154 4156 4159 4162 4165 4168 4170 4173 4175 4178 4181 4184 4187 4190 4192 4195 4198 4201 4204 4207 4210 4212 4215 4218 4221 4223 4226 4229 4232 4235 4237 4239 4242 4244 4247 4250 4253 4255 4258 4260 4263 4266 4269 4272 4275 4278 4281 4284 4286 4289 4292 4294 4296 4299 4302 4305 4307 4310 4313 4316 4318 4320 4323 4326 4328 4331 4333 4335 4338 4341 4344 4346 4349 4351 4354 4356 4359 4362 4365 4368 4370 4372 4375 4377 4380 4383 4386 4389 4391 4394 4397 4399 4402 4404 4407 4409 4411 4413 4416 4419 4421 4424 4426 4429 4431 4433 4435 4438 4441 4443 4446 4449 4452 4454 4457 4460 4462 4465 4468 4471 4474 4477 4480 4482 4485 4488 4491 4494 4496 4498 4501 4504 4507 4510 4513 4516 4518 4521 4524 4526 4529 4531 4534 4537 4539 4541 4544 4547 4549 4551 4554 4557 4559 4562 4565 4568 4571 4574 4577 4580 4583 4586 4589 4592 4595 4598 4601 4604 4607 4609 4611 4614 4617 4620 4623 4626 4628 4631 4634 4637 4640 4643 4646 4649 4651 4653 4656 4658 4661 4664 4667 4670 4673 4675 4678 4681 4683 4685 4688 4690 4693 4696 4698 4701 4704 4707 4710 4713 4716 4719 4721 4724 4727 4730 4733 4736 4739 4742 4745 4748 4751 4754 4757 4760 4763 4766 4768 4771 4774 4777 4779 4782 4785 4787 4790 4793 4795 4797 4800 4803 4805 4807 4810 4813 4816 4819 4822 4825 4828 4831 4834 4837 4839 4841 4844 4846 4849 4852 4854 4856 4859 4862 4864 4867 4869 4871 4874 4877 4879 4882 4885 4888 4891 4894 4897 4900 4902 4905 4908 4911 4914 4917 4920 4923 4926 4929 4932 4935 4938 4941 4944 4947 4950 4953 4956 4959 4962 4965 4968 4971 4974 4977 4980 4983 4986 4989 4992 4995 4998 5001 5004 5006 5009 5012 5014 5017 5020 5023 5026 5028 5031 5034 5037 5040 5042 5045 5048 5051 5054 5057 5060 5063 5065 5068 5071 5074 5077 5080 5083 5086 5089 5092 5095 5098 5101 5104 5107 5110 5113 5116 5119 5121 5124 5126 5129 5132 5134 5137 5140 5143 5146 5149 5152 5155 5158 5160 5163 5166 5169 5172 5175 5177 5180 5183 5186 5189 5192 5195 5198 5201 5204 5207 5210 5213 5216 5219 5222 5225 5228 5231 5234 5237 5240 5243 5246 5249 5252 5255 5258 5261 5263 5266 5269 5272 5275 5277 5280 5283 5286 5289 5292 5294 5297 5300 5303 5306 5309 5312 5315 5318 5321 5324 5327 5329 5331 5334 5337 5340 5343 5346 5349 5352 5355 5358 5360 5363 5366 5369 5372 5375 5378 5380 5383 5386 5388 5391 5394 5397 5400 5403 5406 5409 5412 5415 5418 5421 5424 5427 5429 5432 5435 5438 5440 5443 5446 5448 5451 5453 5456 5459 5462 5465 5468 5471 5474 5477 5480 5483 5486 5489 5492 5495 5498 5501 5504 5507 5510 5513 5516 5519 5522 5524 5527 5530 5533 5536 5539 5542 5545 5548 5551 5554 5557 5559 5562 5564 5567 5570 5573 5575 5578 5580 5583 5586 5589 5591 5594 5597 5600 5603 5606 5609 5612 5615 5618 5621 5624 5627 5630 5633 5636 5639 5642 5644 5647 5650 5653 5656 5659 5662 5665 5668 5671 5673 5676 5679 5682 5685 5688 5691 5693 5696 5699 5702 5705 5708 5711 5714 5717 5720 5723 5725 5728 5731 5734 5737 5740 5743 5746 5748 5751 5754 5756 5759 5761 5764 5767 5770 5772 5774 5777 5780 5783 5786 5789 5792 5794 5797 5800 5803 5806 5809 5812 5815 5818 5820 5823 5825 5827 5830 5833 5836 5839 5842 5845 5848 5851 5854 5856 5859 5862 5865 5868 5870 5873 5876 5879 5882 5885 5887 5890 5893 5896 5899 5902 5905 5908 5911 5913 5916 5918 5921 5924 5927 5930 5933 5936 5938 5941 5944 5947 5950 5953 5955 5958 5961 5964 5967 5969 5972 5975 5978 5981 5983 5986 5989 5992 5995 5998 6001 6004 6006 6009 6012 6015 6018 6021 6024 6027 6030 6033 6036 6039 6042 6045 6048 6051 6054 6056 6059 6062 6064 6066 6069 6072 6075 6078 6081 6084 6086 6089 6092 6095 6097 6100 6103 6105 6108 6111 6114 6117 6120 6123 6126 6128 6131 6134 6137 6140 6143 6146 6149 6152 6155 6157 6160 6163 6166 6169 6172 6175 6178 6181 6184 6187 6190 6193 6195 6198 6201 6204 6206 6209 6212 6215 6218 6221 6223 6226 6228 6231 6234 6237 6239 6242 6245 6247 6250 6253 6256 6259 6262 6264 6267 6270 6273 6275 6278 6281 6283 6286 6289 6292 6295 6297 6300 6303 6305 6308 6311 6314 6316 6318 6321 6324 6327 6330 6333 6336 6338 6340 6343 6346 6349 6352 6355 6358 6361 6364 6367 6370 6373 6376 6379 6382 6385 6388 6391 6394 6397 6400 6403 6406 6409 6412 6415 6418 6421 6424 6427 6430 6433 6436 6439 6441 6444 6447 6450 6453 6456 6458 6461 6464 6467 6470 6472 6474 6477 6480 6482 6484 6487 6490 6493 6496 6498 6501 6503 6506 6509 6511 6513 6516 6518 6521 6524 6527 6530 6533 6536 6538 6541 6544 6546 6549 6552 6555 6558 6561 6564 6567 6570 6573 6575 6578 6581 6583 6586 6588 6590 6592 6595 6598 6601 6603 6606 6608 6611 6614 6617 6620 6622 6625 6628 6631 6633 6636 6638 6641 6644 6647 6649 6652 6655 6657 6660 6663 6666 6669 6672 6675 6678 6681 6684 6687 6690 6693 6696 6698 6701 6703 6706 6709 6712 6715 6717 6720 6723 6726 6729 6731 6734 6737 6740 6743 6746 6749 6752 6755 6758 6761 6764 6766 6769 6772 6775 6778 6781 6784 6786 6789 6792 6795 6798 6801 6804 6807 6810 6812 6814 6817 6820 6823 6826 6829 6832 6835 6838 6841 6844 6847 6850 6853 6855 6858 6861 6863 6866 6868 6871 6874 6876 6879 6882 6884 6887 6890 6893 6896 6899 6902 6905 6908 6911 6913 6916 6919 6922 6925 6928 6931 6934 6937 6940 6943 6946 6949 6952 6954 6957 6960 6963 6966 6969 6972 6975 6978 6981 6984 6987 6990 6993 6996 6999 7002 7005 7008 7011 7014 7017 7020 7023 7026 7029 7032 7035 7038 7041 7044 7047 7050 7053 7056 7059 7062 7065 7068 7071 7074 7077 7080 7083 7086 7089 7092 7095 7098 7101 7104 7107 7110 7113 7116 7119 7122 7125 7128 7131 7134 7137 7140 7143 7146 7149 7152 7155 7158 7161 7164 7167 7170 7173 7176 7179 7182 7185 7188 7191 7194 7197 7200 7203 7206 7209 7212 7215 7217 7220 7223 7225 7228 7231 7234 7237 7240 7243 7246 7249 7252 7255 7258 7261 7264 7267 7270 7273 7276 7279 7281 7284 7287 7290 7293 7295 7298 7301 7304 7307 7310 7313 7316 7319 7322 7325 7328 7331 7334 7337 7340 7343 7346 7349 7352 7355 7358 7361 7364 7367 7370 7372 7375 7378 7381 7384 7387 7389 7392 7395 7398 7401 7403 7406 7409 7412 7415 7418 7421 7424 7427 7430 7433 7436 7439 7442 7445 7448 7451 7454 7456 7459 7462 7465 7468 7470 7472 7475 7478 7481 7484 7486 7488 7491 7494 7497 7500 7503 7506 7509 7512 7515 7518 7521 7524 7527 7530 7533 7536 7538 7541 7544 7547 7550 7553 7556 7559 7562 7564 7567 7570 7573 7576 7578 7581 7584 7587 7590 7593 7596 7599 7602 7605 7608 7611 7613 7616 7619 7622 7624 7627 7630 7633 7635 7638 7641 7644 7646 7649 7652 7655 7658 7661 7663 7665 7668 7671 7674 7677 7680 7683 7686 7689 7692 7695 7698 7701 7704 7707 7710 7713 7716 7719 7722 7725 7728 7731 7734 7737 7740 7743 7746 7749 7752 7755 7757 7760 7763 7766 7769 7772 7774 7777 7780 7782 7785 7788 7791 7794 7797 7800 7803 7806 7808 7811 7814 7816 7819 7822 7825 7828 7831 7834 7836 7839 7842 7845 7848 7850 7853 7855 7858 7861 7864 7867 7869 7872 7875 7878 7881 7884 7887 7889 7891 7894 7896 7899 7902 7905 7908 7910 7913 7916 7919 7922 7925 7928 7930 7933 7936 7939 7942 7944 7947 7950 7953 7956 7959 7962 7965 7967 7970 7973 7976 7979 7982 7985 7988 7990 7993 7996 7999 8002 8005 8008 8011 8014 8017 8020 8023 8026 8029 8032 8035 8038 8041 8044 8047 8050 8053 8056 8059 8062 8065 8068 8071 8074 8077 8080 8083 8085 8088 8091 8093 8096 8098 8101 8104 8107 8110 8113 8116 8118 8121 8124 8127 8130 8132 8135 8138 8141 8143 8146 8149 8152 8154 8157 8160 8163 8165 8168 8170 8173 8176 8179 8182 8184 8187 8190 8193 8196 8199 8202 8205 8208 8211 8213 8216 8218 8221 8224 8227 8230 8233 8236 8239 8242 8245 8248 8251 8254 8257 8259 8262 8265 8268 8271 8273 8276 8278 8281 8283 8285 8288 8291 8294 8297 8300 8303 8306 8309 8311 8314 8316 8318 8321 8324 8327 8330 8333 8336 8339 8342 8345 8348 8351 8354 8357 8360 8362 8365 8368 8371 8374 8377 8380 8382 8385 8388 8391 8394 8397 8399 8402 8405 8407 8410 8413 8415 8417 8420 8422 8425 8428 8431 8434 8436 8439 8442 8445 8448 8451 8453 8455 8458 8461 8464 8466 8468 8470 8473 8475 8478 8480 8483 8486 8489 8492 8494 8497 8500 8503 8506 8509 8512 8515 8517 8520 8523 8526 8529 8532 8535 8538 8541 8544 8547 8550 8553 8556 8559 8562 8565 8567 8569 8572 8575 8578 8581 8584 8587 8590 8593 8596 8599 8602 8605 8608 8611 8614 8617 8620 8623 8626 8629 8632 8635 8638 8641 8644 8647 8650 8653 8656 8659 8662 8665 8667 8670 8673 8676 8679 8682 8685 8687 8690 8693 8696 8699 8702 8705 8708 8711 8714 8717 8720 8723 8726 8729 8732 8735 8738 8741 8744 8747 8750 8753 8756 8759 8762 8765 8767 8770 8773 8776 8779 8782 8784 8787 8789 8792 8795 8798 8801 8804 8807 8809 8812 8815 8818 8821 8824 8827 8829 8832 8835 8837 8840 8843 8845 8848 8851 8853 8856 8859 8862 8865 8868 8870 8873 8876 8879 8881 8884 8887 8890 8893 8896 8899 8901 8904 8906 8909 8912 8914 8917 8919 8922 8925 8927 8930 8933 8936 8939 8942 8945 8948 8951 8954 8957 8959 8962 8965 8968 8971 8974 8977 8980 8983 8986 8988 8991 8994 8997 9000 9003 9006 9009 9011 9014 9017 9020 9023 9025 9028 9031 9034 9036 9039 9042 9045 9048 9051 9054 9057 9060 9063 9066 9069 9072 9075 9077 9080 9083 9085 9088 9091 9093 9096 9099 9101 9104 9107 9110 9113 9115 9118 9121 9124 9127 9129 9132 9135 9138 9141 9144 9147 9150 9153 9156 9159 9162 9165 9168 9171 9173 9176 9179 9182 9185 9188 9191 9194 9197 9200 9203 9206 9209 9212 9215 9218 9220 9223 9225 9228 9231 9234 9237 9240 9243 9246 9249 9251 9254 9257 9260 9263 9265 9268 9271 9274 9277 9280 9283 9286 9289 9292 9295 9298 9301 9304 9307 9310 9313 9316 9319 9322 9325 9328 9331 9334 9337 9340 9342 9345 9348 9351 9354 9357 9360 9363 9365 9368 9371 9374 9377 9380 9383 9386 9389 9392 9394 9397 9400 9403 9406 9409 9412 9415 9418 9421 9424 9427 9430 9433 9436 9439 9442 9445 9448 9451 9454 9457 9460 9462 9465 9468 9471 9474 9477 9480 9483 9486 9489 9492 9495 9498 9501 9503 9506 9509 9512 9515 9517 9520 9523 9526 9529 9531 9534 9537 9540 9543 9546 9548 9551 9553 9556 9558 9561 9564 9566 9569 9572 9574 9577 9580 9582 9585 9588 9591 9594 9597 9600 9602 9605 9608 9611 9614 9617 9620 9622 9625 9628 9631 9634 9636 9639 9641 9644 9647 9650 9653 9656 9659 9662 9665 9667 9670 9672 9675 9678 9681 9684 9687 9690 9693 9696 9699 9702 9705 9708 9711 9714 9717 9720 9722 9725 9728 9730 9732 9735 9737 9740 9743 9745 9748 9751 9754 9757 9760 9763 9766 9769 9772 9774 9777 9780 9782 9785 9787 9790 9792 9795 9798 9800 9803 9806 9809 9811 9814 9817 9820 9823 9826 9829 9831 9833 9836 9839 9842 9845 9848 9851 9854 9857 9859 9862 9865 9867 9869 9872 9875 9877 9880 9883 9886 9889 9892 9895 9898 9901 9903 9906 9909 9911 9914 9917 9919 9922 9925 9928 9931 9934 9937 9940 9943 9946 9949 9951 9954 9957 9960 9963 9966 9969 9972 9975 9978 9981 9984 9987 9990 9993 9996 9999 10002 10004 10007 10010 10013 10016 10019 10022 10025 10027 10030 10033 10035 10038 10041 10043 10046 10049 10052 10054 10057 10060 10063 10066 10069 10072 10075 10078 10081 10084 10087 10090 10093 10096 10099 10101 10104 10107 10109 10112 10115 10118 10121 10124 10127 10130 10133 10136 10138 10141 10144 10147 10150 10153 10156 10159 10162 10165 10168 10171 10174 10177 10180 10183 10186 10189 10192 10194 10197 10200 10203 10206 10209 10212 10214 10217 10220 10222 10225 10228 10231 10234 10237 10240 10243 10246 10248 10251 10254 10257 10260 10263 10266 10269 10272 10275 10278 10281 10283 10286 10289 10292 10294 10297 10300 10303 10306 10309 10312 10315 10318 10321 10324 10327 10330 10333 10336 10339 10342 10345 10348 10351 10353 10356 10358 10361 10364 10366 10369 10372 10375 10377 10380 10383 10386 10389 10392 10395 10398 10401 10404 10407 10410 10413 10416 10419 10422 10425 10428 10431 10434 10436 10439 10442 10444 10447 10450 10453 10456 10458 10461 10464 10467 10470 10473 10476 10479 10482 10485 10488 10491 10494 10497 10499 10502 10505 10508 10511 10513 10516 10519 10522 10524 10527 10530 10533 10536 10539 10542 10545 10548 10551 10554 10557 10560 10563 10566 10569 10572 10575 10578 10581 10584 10587 10590 10593 10596 10599 10602 10605 10608 10611 10614 10617 10620 10623 10626 10629 10632 10635 10638 10641 10644 10647 10650 10653 10656 10659 10662 10665 10668 10671 10674 10677 10680 10683 10686 10689 10692 10695 10698 10701 10704 10707 10710 10713 10716 10719 10722 10725 10728 10731 10734 10737 10740 10743 10746 10749 10752 10755 10758 10761 10764 10767 10770 10773 10776 10779 10781 10784 10787 10790 10793 10796 10799 10802 10805 10808 10810 10813 10816 10819 10822 10825 10828 10831 10834 10837 10840 10843 10846 10848 10851 10854 10857 10860 10863 10866 10869 10871 10874 10876 10879 10882 10885 10888 10891 10893 10896 10899 10902 10905 10908 10910 10913 10916 10919 10922 10925 10928 10931 10934 10937 10940 10943 10946 10949 10952 10955 10958 10961 10964 10967 10970 10973 10976 10979 10982 10984 10987 10990 10993 10996 10999 11002 11005 11007 11010 11012 11015 11017 11020 11023 11025 11028 11031 11034 11036 11038 11041 11044 11047 11049 11052 11055 11058 11060 11063 11066 11069 11071 11074 11077 11080 11083 11086 11089 11092 11095 11098 11100 11103 11106 11108 11111 11114 11117 11119 11122 11124 11127 11130 11133 11136 11139 11142 11145 11148 11151 11154 11157 11159 11162 11164 11167 11170 11173 11176 11178 11181 11184 11187 11190 11193 11196 11198 11201 11204 11206 11209 11212 11215 11218 11221 11224 11227 11229 11231 11234 11236 11239 11242 11245 11248 11250 11253 11256 11259 11262 11265 11268 11271 11274 11277 11280 11283 11285 11288 11291 11294 11297 11300 11303 11306 11309 11312 11315 11318 11321 11324 11327 11330 11333 11336 11339 11342 11345 11348 11351 11354 11357 11360 11363 11366 11369 11372 11374 11376 11379 11382 11385 11387 11389 11392 11395 11398 11401 11404 11406 11408 11411 11414 11416 11419 11422 11425 11427 11430 11432 11435 11438 11441 11444 11447 11450 11453 11456 11459 11462 11465 11468 11471 11474 11477 11480 11482 11485 11487 11490 11492 11495 11498 11501 11504 11507 11510 11513 11516 11519 11522 11525 11528 11531 11534 11536 11539 11542 11545 11548 11550 11553 11556 11558 11561 11564 11567 11570 11573 11576 11579 11581 11584 11587 11590 11593 11596 11598 11601 11604 11607 11609 11612 11615 11618 11621 11624 11627 11630 11632 11635 11638 11640 11643 11646 11649 11652 11655 11658 11661 11664 11667 11670 11673 11676 11679 11682 11685 11688 11691 11694 11697 11700 11703 11705 11708 11711 11714 11717 11720 11723 11726 11729 11731 11734 11737 11740 11743 11746 11749 11752 11755 11758 11761 11764 11767 11769 11772 11775 11777 11780 11783 11786 11789 11791 11793 11796 11799 11802 11805 11808 11811 11814 11817 11820 11823 11826 11829 11832 11835 11838 11841 11844 11847 11850 11853 11856 11859 11862 11865 11868 11871 11874 11877 11880 11883 11886 11888 11891 11894 11896 11899 11902 11905 11908 11910 11913 11916 11919 11922 11925 11928 11931 11934 11937 11940 11943 11946 11949 11952 11955 11958 11961 11964 11967 11970 11973 11976 11979 11982 11985 11988 11991 11994 11997 12000 12003 12006 12009 12012 12015 12018 12021 12024 12027 12030 12033 12036 12039 12042 12044 12047 12050 12053 12056 12059 12062 12065 12067 12070 12073 12076 12079 12082 12084 12086 12089 12091 12094 12097 12099 12102 12105 12108 12111 12114 12117 12120 12123 12126 12129 12131 12134 12137 12140 12143 12146 12149 12152 12155 12158 12161 12164 12167 12170 12173 12176 12179 12182 12185 12188 12190 12193 12196 12198 12201 12204 12206 12208 12211 12214 12217 12219 12222 12225 12228 12231 12234 12237 12239 12242 12245 12248 12250 12253 12256 12259 12262 12265 12268 12271 12274 12277 12280 12283 12285 12288 12291 12294 12296 12299 12302 12305 12307 12310 12313 12316 12319 12322 12325 12327 12330 12333 12336 12339 12342 12345 12348 12351 12354 12357 12360 12363 12366 12369 12372 12375 12378 12381 12384 12387 12390 12393 12396 12399 12402 12405 12408 12411 12414 12417 12420 12423 12425 12427 12430 12433 12436 12439 12442 12445 12448 12450 12453 12456 12459 12462 12465 12468 12470 12473 12476 12479 12482 12485 12488 12491 12494 12497 12500 12503 12506 12509 12512 12515 12518 12521 12524 12527 12530 12533 12535 12538 12541 12543 12546 12549 12552 12555 12557 12560 12563 12566 12569 12572 12575 12578 12581 12583 12586 12589 12591 12594 12597 12600 12603 12606 12609 12611 12614 12617 12620 12623 12626 12629 12632 12635 12638 12641 12644 12647 12650 12653 12656 12659 12662 12665 12668 12671 12674 12677 12680 12682 12685 12688 12691 12694 12697 12700 12703 12706 12709 12712 12715 12718 12721 12724 12727 12729 12732 12735 12737 12740 12743 12746 12749 12752 12755 12758 12761 12764 12767 12770 12773 12776 12779 12782 12785 12788 12790 12793 12796 12799 12802 12805 12808 12811 12814 12817 12820 12823 12826 12829 12832 12835 12838 12841 12844 12847 12850 12852 12855 12858 12861 12864 12867 12870 12873 12876 12879 12881 12884 12887 12890 12893 12896 12899 12902 12905 12908 12911 12914 12917 12920 12922 12925 12928 12930 12933 12935 12938 12941 12943 12946 12949 12952 12955 12958 12961 12964 12966 12969 12972 12975 12978 12981 12984 12987 12990 12992 12995 12998 13001 13004 13007 13010 13013 13016 13019 13022 13025 13028 13031 13034 13037 13040 13043 13046 13049 13052 13054 13057 13060 13063 13066 13068 13071 13074 13076 13079 13082 13085 13088 13091 13094 13097 13100 13103 13106 13109 13112 13115 13118 13121 13124 13127 13129 13132 13135 13138 13141 13144 13147 13150 13152 13155 13158 13161 13164 13167 13170 13173 13176 13179 13182 13185 13188 13191 13194 13197 13200 13203 13206 13208 13211 13214 13217 13220 13223 13225 13228 13230 13233 13235 13238 13240 13242 13244 13246 13249 13252 13254 13257 13259 13262 13265 13268 13271 13274 13277 13280 13283 13285 13287 13289 13291 13294 13297 13300 13303 13306 13309 13312 13315 13318 13321 13324 13327 13329 13332 13335 13338 13341 13344 13347 13349 13352 13355 13358 13361 13364 13367 13370 13373 13376 13379 13382 13385 13388 13391 13394 13397 13400 13403 13406 13409 13412 13415 13418 13421 13424 13427 13430 13433 13436 13439 13442 13445 13448 13451 13454 13457 13460 13463 13466 13469 13472 13475 13478 13481 13484 13487 13489 13492 13495 13497 13500 13503 13506 13509 13512 13515 13518 13521 13524 13527 13530 13533 13536 13539 13542 13545 13548 13551 13554 13557 13560 13562 13565 13568 13571 13574 13577 13580 13583 13586 13589 13592 13595 13598 13601 13604 13607 13610 13613 13616 13618 13620 13623 13625 13628 13631 13633 13636 13639 13642 13645 13648 13651 13654 13657 13659 13662 13665 13668 13671 13674 13677 13680 13683 13686 13689 13692 13695 13698 13701 13704 13707 13710 13713 13716 13719 13722 13725 13728 13731 13734 13737 13740 13743 13746 13749 13752 13755 13758 13761 13764 13766 13769 13772 13775 13778 13781 13784 13787 13790 13793 13795 13798 13801 13804 13807 13810 13812 13815 13818 13821 13824 13827 13830 13833 13835 13838 13841 13844 13847 13850 13853 13856 13858 13861 13864 13867 13870 13873 13876 13878 13881 13884 13886 13889 13892 13895 13898 13901 13904 13907 13910 13913 13916 13919 13922 13925 13928 13931 13934 13937 13940 13943 13946 13949 13951 13954 13956 13959 13962 13964 13967 13970 13973 13976 13979 13982 13985 13988 13991 13994 13997 14000 14003 14006 14009 14012 14015 14018 14021 14024 14026 14029 14032 14035 14038 14040 14043 14046 14049 14052 14055 14058 14061 14064 14067 14070 14073 14076 14079 14082 14085 14088 14091 14094 14097 14100 14103 14106 14109 14112 14115 14118 14121 14124 14127 14130 14133 14136 14139 14142 14145 14148 14151 14154 14157 14160 14163 14166 14169 14172 14175 14178 14181 14184 14187 14190 14193 14196 14199 14202 14205 14208 14210 14213 14216 14219 14222 14225 14228 14231 14234 14237 14240 14243 14246 14249 14252 14254 14256 14259 14262 14265 14268 14270 14273 14276 14278 14281 14284 14286 14289 14292 14295 14298 14301 14304 14307 14310 14313 14316 14318 14321 14324 14327 14330 14333 14336 14339 14341 14344 14346 14348 14351 14354 14357 14360 14362 14365 14367 14370 14373 14376 14378 14381 14384 14387 14390 14393 14396 14399 14402 14405 14407 14410 14413 14415 14418 14420 14423 14425 14428 14430 14433 14436 14439 14441 14443 14446 14449 14452 14455 14457 14460 14462 14465 14468 14471 14474 14476 14479 14482 14485 14488 14491 14494 14497 14500 14503 14506 14509 14512 14515 14518 14521 14524 14526 14529 14532 14535 14538 14541 14543 14546 14549 14552 14554 14556 14558 14561 14564 14566 14569 14572 14574 14577 14580 14582 14585 14588 14591 14594 14597 14600 14602 14605 14608 14611 14613 14615 14618 14620 14623 14626 14629 14632 14634 14637 14640 14643 14646 14649 14652 14654 14656 14659 14662 14664 14667 14670 14672 14675 14678 14681 14684 14687 14689 14692 14695 14698 14701 14704 14707 14710 14713 14716 14719 14722 14725 14727 14730 14733 14736 14739 14742 14745 14748 14751 14754 14757 14759 14762 14764 14767 14769 14772 14775 14777 14780 14783 14785 14787 14789 14792 14794 14797 14800 14802 14805 14807 14810 14812 14815 14818 14821 14824 14827 14830 14833 14836 14839 14842 14845 14848 14851 14854 14857 14859 14862 14865 14867 14870 14873 14876 14878 14880 14883 14886 14888 14890 14892 14895 14898 14901 14904 14907 14909 14912 14915 14917 14920 14923 14925 14928 14931 14934 14937 14939 14942 14945 14948 14951 14954 14957 14960 14963 14966 14969 14972 14975 14978 14981 14984 14987 14990 14992 14995 14997 15000 15003 15006 15009 15012 15015 15018 15021 15024 15027 15030 15032 15035 15038 15041 15043 15046 15049 15052 15055 15058 15061 15064 15067 15070 15073 15076 15079 15082 15085 15088 15090 15093 15096 15099 15102 15105 15108 15111 15114 15116 15119 15121 15124 15127 15130 15133 15136 15139 15142 15145 15148 15151 15153 15156 15159 15162 15165 15168 15171 15174 15177 15179 15182 15185 15188 15191 15193 15196 15199 15202 15205 15208 15211 15213 15216 15219 15222 15225 15228 15231 15234 15237 15240 15243 15246 15249 15252 15255 15258 15261 15264 15267 15270 15273 15276 15279 15282 15285 15288 15291 15294 15297 15300 15303 15306 15309 15312 15315 15318 15320 15323 15326 15329 15332 15335 15338 15341 15344 15346 15349 15352 15355 15358 15360 15363 15365 15368 15371 15374 15377 15380 15383 15386 15389 15392 15394 15397 15400 15403 15406 15408 15411 15414 15417 15420 15423 15426 15429 15432 15435 15438 15441 15444 15447 15450 15452 15455 15458 15461 15463 15465 15468 15471 15474 15477 15480 15483 15486 15488 15490 15493 15496 15499 15502 15504 15506 15509 15511 15514 15517 15520 15522 15525 15528 15531 15533 15535 15538 15541 15543 15545 15548 15551 15554 15557 15560 15563 15566 15569 15572 15575 15577 15580 15583 15586 15589 15591 15594 15597 15600 15602 15605 15608 15611 15614 15617 15619 15621 15623 15625 15628 15631 15634 15637 15640 15643 15646 15649 15652 15655 15658 15661 15663 15666 15668 15671 15674 15677 15680 15683 15686 15689 15692 15695 15698 15700 15703 15706 15708 15711 15714 15717 15720 15723 15726 15729 15732 15735 15738 15741 15744 15747 15750 15753 15756 15759 15762 15765 15768 15771 15774 15777 15780 15783 15786 15789 15792 15794 15796 15799 15802 15805 15808 15811 15814 15816 15819 15822 15825 15828 15830 15833 15836 15839 15842 15845 15847 15850 15853 15856 15859 15862 15864 15867 15869 15872 15875 15878 15880 15883 15886 15888 15891 15893 15896 15898 15901 15903 15906 15909 15911 15914 15917 15919 15922 15924 15927 15930 15932 15934 15937 15940 15943 15946 15948 15951 15954 15957 15960 15963 15966 15969 15971 15974 15977 15980 15983 15986 15989 15992 15995 15998 16001 16004 16006 16009 16012 16015 16017 16020 16023 16026 16029 16032 16034 16037 16040 16042 16045 16048 16051 16054 16057 16059 16062 16065 16068 16071 16074 16077 16080 16083 16086 16088 16091 16094 16097 16100 16102 16105 16108 16111 16114 16117 16120 16123 16126 16129 16132 16135 16138 16141 16144 16147 16150 16153 16156 16159 16162 16165 16168 16171 16174 16177 16180 16183 16186 16189 16192 16194 16197 16200 16203 16206 16209 16212 16215 16218 16221 16224 16227 16229 16232 16235 16238 16241 16244 16247 16250 16253 16256 16259 16262 16265 16268 16271 16274 16276 16278 16281 16284 16287 16289 16292 16295 16298 16301 16304 16307 16310 16313 16316 16319 16322 16325 16328 16331 16334 16337 16340 16343 16346 16349 16352 16355 16357 16360 16363 16366 16369 16372 16375 16378 16381 16384 16387 16390 16393 16396 16399 16402 16405 16408 16410 16412 16415 16418 16421 16424 16427 16429 16432 16434 16437 16440 16443 16445 16448 16450 16453 16456 16459 16462 16465 16468 16471 16474 16477 16480 16483 16486 16488 16491 16494 16497 16499 16502 16505 16508 16511 16514 16517 16520 16523 16526 16529 16532 16535 16538 16541 16544 16547 16550 16552 16555 16558 16561 16564 16567 16569 16572 16575 16578 16581 16584 16587 16590 16593 16596 16599 16602 16605 16608 16610 16613 16616 16619 16622 16625 16628 16631 16634 16637 16640 16643 16646 16649 16652 16655 16658 16661 16664 16667 16670 16673 16675 16678 16681 16684 16687 16690 16692 16695 16697 16700 16703 16706 16709 16712 16715 16718 16721 16724 16727 16730 16733 16736 16739 16742 16745 16748 16751 16754 16756 16759 16762 16765 16768 16771 16773 16776 16779 16782 16784 16787 16790 16793 16796 16799 16802 16805 16808 16811 16814 16817 16820 16822 16825 16827 16830 16833 16836 16839 16842 16844 16847 16850 16853 16856 16859 16861 16864 16867 16870 16873 16876 16879 16882 16885 16888 16891 16894 16897 16900 16903 16906 16909 16912 16914 16917 16920 16923 16926 16929 16931 16934 16937 16940 16943 16946 16949 16952 16955 16958 16961 16964 16967 16970 16973 16975 16978 16980 16982 16985 16988 16991 16994 16996 16999 17002 17005 17008 17011 17014 17016 17019 17022 17024 17027 17030 17033 17036 17039 17042 17045 17047 17050 17053 17056 17059 17062 17065 17068 17071 17073 17076 17079 17081 17084 17086 17089 17092 17095 17098 17101 17104 17107 17110 17113 17116 17119 17122 17125 17128 17131 17134 17137 17140 17143 17146 17149 17151 17154 17156 17159 17162 17165 17168 17171 17174 17177 17180 17183 17186 17189 17192 17195 17198 17201 17204 17207 17210 17213 17216 17218 17221 17224 17226 17229 17232 17235 17238 17241 17244 17247 17250 17253 17255 17258 17261 17263 17266 17269 17272 17274 17277 17280 17283 17286 17289 17292 17295 17298 17301 17304 17307 17310 17313 17316 17319 17322 17325 17328 17331 17333 17336 17339 17342 17345 17348 17351 17354 17357 17360 17363 17366 17369 17372 17375 17378 17381 17384 17387 17389 17392 17395 17398 17401 17403 17406 17409 17412 17415 17417 17420 17423 17426 17429 17432 17435 17438 17441 17444 17447 17450 17453 17456 17459 17462 17465 17468 17471 17474 17477 17480 17483 17486 17489 17492 17495 17498 17501 17504 17507 17510 17513 17516 17519 17522 17525 17527 17530 17533 17536 17539 17542 17545 17548 17551 17554 17556 17559 17562 17565 17567 17570 17573 17575 17578 17581 17584 17587 17590 17593 17596 17598 17601 17603 17606 17609 17612 17614 17616 17619 17622 17625 17628 17631 17634 17636 17639 17642 17644 17647 17650 17653 17656 17659 17662 17665 17667 17670 17673 17676 17679 17682 17684 17687 17690 17693 17696 17699 17702 17705 17708 17711 17714 17717 17720 17723 17725 17728 17731 17734 17737 17740 17743 17746 17748 17751 17753 17756 17759 17762 17764 17767 17770 17773 17776 17779 17782 17785 17787 17790 17793 17796 17799 17802 17805 17807 17810 17813 17816 17818 17821 17824 17827 17830 17833 17836 17839 17842 17845 17848 17851 17854 17857 17860 17863 17866 17869 17871 17874 17877 17880 17883 17886 17889 17892 17895 17898 17901 17904 17907 17909 17912 17914 17917 17920 17923 17926 17928 17931 17933 17936 17939 17942 17945 17948 17951 17954 17956 17959 17962 17965 17968 17971 17974 17977 17980 17983 17985 17988 17990 17993 17995 17998 18000 18003 18006 18008 18011 18013 18015 18018 18020 18023 18025 18028 18031 18034 18036 18039 18041 18044 18046 18048 18051 18054 18057 18060 18063 18066 18069 18072 18075 18078 18080 18083 18086 18089 18091 18094 18097 18100 18102 18105 18108 18111 18113 18116 18119 18122 18125 18127 18129 18132 18135 18138 18141 18143 18146 18149 18152 18155 18157 18160 18163 18166 18169 18172 18174 18177 18180 18182 18185 18188 18191 18194 18196 18199 18201 18204 18206 18209 18212 18215 18218 18221 18224 18227 18230 18233 18236 18239 18242 18245 18248 18251 18254 18257 18260 18263 18266 18269 18272 18275 18278 18281 18284 18287 18290 18293 18296 18299 18302 18305 18308 18311 18313 18316 18319 18322 18325 18328 18331 18334 18337 18340 18343 18346 18349 18352 18355 18358 18361 18364 18366 18369 18372 18375 18378 18381 18384 18386 18389 18392 18395 18398 18401 18404 18407 18409 18412 18415 18418 18420 18422 18424 18427 18430 18433 18436 18439 18441 18444 18447 18449 18451 18454 18457 18460 18463 18466 18469 18472 18475 18478 18481 18483 18486 18489 18492 18495 18498 18501 18504 18507 18510 18513 18516 18519 18522 18525 18528 18531 18534 18537 18540 18542 18545 18548 18551 18553 18555 18558 18561 18564 18566 18569 18572 18575 18578 18581 18584 18586 18589 18591 18594 18597 18600 18602 18605 18607 18610 18613 18616 18619 18622 18625 18628 18631 18634 18637 18640 18643 18646 18648 18651 18654 18656 18659 18662 18665 18668 18671 18673 18676 18679 18682 18685 18688 18691 18694 18697 18700 18703 18706 18709 18712 18715 18718 18720 18722 18725 18728 18731 18734 18736 18739 18742 18745 18748 18751 18754 18757 18760 18763 18766 18769 18772 18775 18778 18780 18783 18785 18788 18791 18794 18797 18800 18803 18806 18809 18812 18815 18818 18820 18823 18826 18829 18832 18835 18837 18839 18842 18845 18848 18851 18854 18857 18860 18863 18865 18868 18870 18873 18876 18879 18882 18885 18888 18891 18894 18897 18899 18902 18905 18908 18911 18914 18917 18920 18923 18926 18929 18932 18935 18938 18940 18943 18945 18948 18951 18954 18957 18960 18963 18966 18969 18971 18974 18977 18980 18983 18986 18989 18992 18995 18998 19001 19004 19007 19010 19013 19015 19018 19021 19024 19027 19030 19033 19036 19039 19041 19043 19046 19049 19052 19055 19058 19061 19064 19067 19069 19072 19075 19078 19080 19083 19086 19089 19092 19095 19097 19100 19103 19106 19109 19112 19115 19118 19121 19124 19127 19130 19133 19136 19139 19142 19145 19147 19150 19153 19155 19158 19161 19163 19166 19169 19172 19175 19178 19181 19184 19187 19190 19193 19196 19199 19202 19205 19207 19210 19213 19216 19219 19222 19224 19227 19230 19232 19235 19238 19241 19244 19247 19250 19253 19256 19259 19262 19265 19268 19271 19274 19277 19280 19283 19286 19289 19292 19295 19298 19301 19304 19307 19310 19313 19316 19319 19322 19325 19327 19330 19333 19336 19339 19341 19344 19347 19350 19353 19356 19359 19361 19363 19366 19369 19372 19375 19378 19381 19384 19387 19389 19392 19394 19397 19400 19403 19405 19408 19411 19414 19417 19420 19423 19426 19429 19432 19435 19438 19441 19444 19447 19450 19453 19456 19459 19462 19465 19468 19471 19474 19477 19480 19483 19486 19489 19492 19494 19497 19500 19503 19506 19509 19512 19515 19518 19521 19524 19527 19530 19533 19536 19539 19542 19545 19548 19551 19554 19557 19560 19563 19565 19568 19570 19573 19576 19579 19582 19584 19587 19590 19593 19596 19598 19601 19604 19607 19610 19613 19616 19619 19622 19625 19628 19631 19634 19637 19639 19642 19645 19648 19651 19654 19657 19660 19663 19666 19669 19672 19675 19677 19680 19683 19686 19689 19691 19694 19697 19700 19702 19705 19708 19711 19714 19717 19720 19723 19726 19729 19732 19734 19737 19740 19743 19746 19749 19751 19754 19757 19760 19763 19766 19769 19772 19775 19778 19781 19784 19786 19789 19792 19795 19797 19800 19803 19806 19809 19812 19815 19818 19820 19823 19826 19829 19832 19835 19837 19840 19843 19846 19849 19852 19855 19858 19861 19864 19866 19869 19872 19874 19877 19880 19882 19885 19887 19889 19892 19895 19898 19901 19904 19907 19910 19913 19916 19919 19922 19925 19928 19931 19934 19937 19940 19943 19946 19949 19952 19955 19958 19961 19964 19967 19970 19973 19976 19979 19982 19985 19988 19991 19994 19997 20000 20003 20006 20009 20012 20015 20018 20021 20024 20026 20029 20032 20035 20038 20040 20043 20046 20049 20052 20055 20058 20061 20064 20067 20069 20072 20075 20077 20079 20082 20085 20088 20091 20093 20096 20099 20102 20104 20107 20110 20112 20115 20118 20121 20123 20126 20129 20132 20135 20137 20140 20142 20145 20148 20151 20154 20157 20159 20161 20164 20167 20170 20173 20176 20179 20182 20185 20188 20191 20194 20197 20200 20203 20206 20209 20212 20215 20218 20221 20224 20227 20230 20232 20235 20238 20241 20244 20247 20250 20253 20256 20259 20262 20265 20268 20270 20273 20276 20279 20282 20285 20287 20289 20292 20295 20298 20301 20304 20307 20310 20313 20316 20319 20321 20324 20327 20330 20333 20336 20339 20342 20345 20348 20350 20352 20355 20358 20361 20364 20367 20370 20372 20374 20377 20380 20383 20385 20388 20390 20392 20395 20397 20400 20402 20405 20408 20411 20414 20417 20420 20423 20426 20429 20432 20434 20437 20440 20443 20446 20448 20451 20453 20456 20459 20462 20465 20468 20471 20474 20477 20480 20483 20486 20489 20491 20494 20497 20500 20503 20506 20509 20512 20515 20518 20521 20524 20527 20530 20532 20535 20538 20540 20543 20546 20549 20552 20555 20558 20561 20563 20566 20569 20572 20575 20578 20581 20584 20587 20590 20593 20596 20599 20602 20605 20607 20610 20613 20616 20619 20621 20624 20626 20629 20631 20634 20637 20640 20643 20645 20648 20651 20654 20657 20660 20663 20666 20669 20672 20675 20678 20681 20684 20687 20690 20692 20695 20697 20700 20703 20706 20709 20712 20715 20718 20720 20723 20726 20729 20732 20735 20738 20741 20744 20747 20750 20753 20756 20759 20762 20765 20768 20771 20774 20777 20780 20783 20786 20789 20792 20795 20798 20801 20804 20807 20810 20813 20815 20817 20820 20823 20825 20828 20831 20834 20837 20840 20843 20846 20848 20851 20854 20857 20860 20863 20866 20869 20872 20875 20878 20881 20884 20887 20889 20892 20895 20898 20900 20902 20905 20908 20911 20914 20917 20920 20923 20926 20929 20932 20935 20938 20941 20944 20947 20950 20952 20955 20958 20960 20963 20966 20968 20971 20974 20977 20980 20983 20985 20988 20991 20994 20997 20999 21002 21005 21007 21010 21013 21016 21019 21022 21024 21027 21030 21033 21036 21039 21042 21044 21047 21050 21053 21056 21059 21062 21065 21068 21071 21074 21077 21080 21083 21086 21089 21092 21095 21098 21101 21104 21107 21110 21113 21115 21118 21121 21124 21127 21130 21133 21135 21138 21141 21144 21147 21150 21153 21156 21158 21161 21164 21167 21169 21172 21175 21178 21181 21184 21187 21190 21193 21196 21199 21202 21205 21208 21211 21214 21217 21220 21223 21226 21228 21231 21233 21236 21239 21242 21244 21247 21249 21252 21255 21258 21260 21263 21266 21269 21272 21275 21278 21281 21284 21287 21290 21293 21296 21298 21301 21304 21307 21310 21313 21316 21319 21322 21324 21327 21330 21333 21336 21339 21342 21345 21348 21351 21354 21357 21360 21363 21366 21369 21371 21374 21377 21380 21383 21385 21388 21391 21394 21396 21399 21402 21405 21408 21411 21414 21417 21420 21423 21426 21429 21432 21435 21438 21441 21444 21447 21450 21453 21456 21459 21462 21464 21467 21470 21473 21476 21479 21482 21485 21488 21491 21494 21497 21500 21503 21506 21508 21511 21514 21517 21520 21523 21526 21529 21532 21535 21538 21541 21544 21547 21550 21553 21556 21559 21562 21565 21568 21571 21574 21577 21580 21582 21585 21588 21591 21594 21597 21599 21602 21605 21608 21611 21614 21617 21620 21623 21626 21629 21632 21634 21637 21640 21643 21646 21648 21651 21654 21657 21660 21662 21664 21667 21670 21672 21675 21678 21681 21683 21686 21689 21691 21694 21697 21700 21703 21706 21709 21712 21715 21718 21721 21724 21727 21730 21733 21736 21739 21742 21745 21748 21751 21754 21757 21760 21763 21766 21769 21772 21775 21778 21781 21784 21786 21789 21792 21795 21798 21801 21804 21807 21809 21812 21815 21818 21821 21824 21826 21829 21832 21835 21837 21840 21843 21846 21849 21852 21855 21857 21860 21862 21865 21868 21870 21873 21876 21879 21881 21884 21886 21889 21891 21894 21897 21899 21902 21905 21908 21911 21914 21917 21920 21922 21925 21928 21930 21933 21935 21937 21940 21942 21945 21948 21950 21953 21955 21958 21961 21964 21966 21969 21972 21975 21978 21981 21984 21987 21990 21993 21996 21999 22002 22005 22008 22011 22014 22017 22020 22022 22025 22028 22031 22034 22037 22040 22043 22046 22049 22052 22055 22057 22059 22062 22065 22068 22071 22073 22076 22079 22081 22084 22087 22090 22092 22095 22098 22101 22104 22107 22110 22113 22115 22118 22121 22124 22127 22129 22132 22135 22138 22141 22144 22147 22150 22153 22155 22158 22161 22163 22166 22169 22171 22174 22177 22180 22182 22185 22188 22191 22194 22197 22200 22203 22206 22209 22212 22215 22218 22221 22224 22227 22230 22233 22236 22239 22242 22245 22247 22250 22253 22255 22258 22261 22264 22267 22269 22272 22275 22278 22281 22284 22287 22290 22293 22296 22299 22302 22305 22308 22311 22313 22316 22318 22321 22324 22327 22330 22333 22336 22338 22341 22344 22347 22350 22353 22355 22357 22360 22363 22366 22369 22372 22375 22378 22381 22384 22387 22390 22393 22396 22399 22402 22405 22408 22411 22414 22417 22420 22423 22426 22429 22432 22435 22438 22441 22443 22446 22449 22452 22454 22457 22460 22463 22466 22469 22472 22475 22478 22481 22483 22486 22489 22492 22495 22498 22501 22504 22506 22509 22512 22515 22518 22520 22523 22526 22529 22532 22534 22537 22540 22543 22546 22549 22552 22554 22557 22560 22563 22565 22568 22571 22574 22577 22580 22583 22586 22589 22591 22594 22597 22600 22603 22606 22609 22612 22615 22618 22621 22624 22627 22630 22633 22636 22639 22642 22644 22647 22649 22651 22654 22657 22659 22662 22664 22667 22670 22673 22676 22679 22682 22684 22687 22690 22693 22696 22699 22702 22705 22707 22710 22713 22716 22719 22722 22725 22728 22731 22734 22737 22740 22743 22746 22749 22752 22755 22758 22761 22764 22767 22770 22773 22776 22779 22782 22784 22787 22789 22792 22795 22798 22801 22804 22807 22810 22813 22816 22819 22822 22825 22828 22831 22834 22837 22839 22842 22844 22846 22849 22852 22855 22858 22861 22864 22867 22870 22873 22876 22879 22882 22885 22888 22891 22894 22897 22899 22902 22904 22906 22909 22912 22915 22918 22921 22923 22925 22928 22931 22934 22937 22940 22942 22944 22947 22949 22952 22954 22956 22958 22961 22963 22966 22969 22972 22974 22977 22980 22982 22985 22987 22990 22992 22995 22998 23001 23004 23007 23010 23013 23015 23018 23021 23023 23025 23028 23030 23033 23036 23039 23041 23044 23046 23049 23052 23055 23058 23061 23063 23065 23067 23070 23073 23076 23079 23081 23084 23087 23090 23092 23095 23097 23099 23102 23105 23108 23111 23114 23117 23120 23123 23126 23129 23131 23134 23136 23139 23141 23144 23147 23150 23153 23156 23159 23162 23165 23168 23171 23174 23177 23180 23183 23186 23189 23192 23194 23197 23200 23203 23206 23209 23211 23214 23217 23220 23223 23226 23229 23232 23235 23238 23241 23244 23247 23250 23252 23254 23257 23260 23263 23266 23269 23272 23275 23278 23281 23284 23287 23290 23293 23296 23299 23302 23305 23308 23311 23314 23317 23320 23323 23326 23329 23332 23335 23338 23341 23344 23347 23350 23353 23355 23358 23361 23364 23367 23369 23372 23374 23377 23379 23382 23385 23388 23391 23394 23397 23399 23402 23404 23407 23410 23413 23415 23418 23420 23423 23426 23429 23432 23435 23438 23441 23444 23447 23450 23453 23456 23459 23462 23464 23467 23469 23472 23475 23478 23480 23483 23486 23488 23491 23493 23496 23499 23502 23505 23508 23511 23514 23517 23520 23523 23526 23529 23532 23535 23538 23541 23544 23547 23550 23553 23556 23559 23562 23565 23568 23571 23574 23576 23579 23582 23585 23588 23590 23593 23596 23599 23602 23605 23608 23611 23614 23616 23619 23622 23625 23627 23630 23633 23636 23639 23641 23644 23647 23650 23653 23656 23659 23662 23665 23668 23671 23674 23677 23680 23683 23686 23689 23692 23694 23697 23699 23702 23704 23707 23709 23711 23713 23716 23719 23722 23725 23727 23730 23732 23735 23738 23740 23743 23745 23748 23751 23754 23756 23759 23762 23765 23767 23770 23773 23776 23779 23782 23785 23788 23791 23794 23797 23800 23802 23805 23808 23811 23814 23817 23820 23823 23826 23829 23832 23835 23838 23841 23844 23847 23850 23853 23856 23859 23862 23865 23868 23871 23874 23877 23880 23883 23886 23888 23891 23894 23896 23899 23902 23905 23908 23911 23914 23916 23919 23921 23924 23927 23929 23931 23934 23937 23940 23943 23946 23949 23952 23955 23958 23961 23963 23965 23968 23971 23974 23977 23980 23983 23986 23989 23992 23995 23998 24001 24004 24007 24010 24012 24014 24017 24020 24022 24025 24028 24031 24034 24037 24040 24043 24045 24048 24051 24053 24056 24059 24062 24065 24067 24070 24073 24075 24078 24081 24083 24086 24089 24092 24095 24097 24100 24102 24105 24108 24111 24114 24117 24120 24123 24126 24128 24131 24134 24136 24139 24142 24145 24148 24151 24153 24156 24159 24162 24165 24168 24171 24173 24176 24178 24180 24182 24185 24187 24190 24193 24196 24198 24201 24204 24207 24210 24213 24216 24219 24221 24224 24227 24230 24233 24236 24239 24242 24245 24248 24251 24254 24257 24260 24263 24265 24268 24271 24274 24276 24279 24282 24285 24288 24291 24294 24297 24300 24303 24306 24308 24310 24313 24316 24319 24322 24325 24328 24331 24333 24336 24339 24342 24345 24347 24350 24353 24356 24359 24362 24365 24368 24371 24374 24377 24380 24383 24386 24389 24392 24395 24398 24401 24404 24407 24410 24412 24415 24418 24421 24424 24427 24430 24433 24436 24438 24441 24444 24447 24449 24452 24455 24458 24460 24463 24465 24468 24471 24474 24477 24480 24483 24486 24489 24492 24495 24498 24501 24504 24507 24510 24513 24516 24519 24522 24525 24528 24531 24534 24537 24540 24543 24546 24549 24552 24555 24558 24561 24564 24567 24570 24573 24576 24579 24582 24585 24588 24591 24594 24597 24600 24603 24606 24609 24612 24615 24618 24621 24624 24627 24630 24633 24636 24639 24642 24645 24648 24651 24654 24657 24660 24663 24666 24669 24672 24675 24678 24681 24684 24687 24690 24693 24696 24699 24702 24705 24708 24711 24714 24716 24719 24722 24725 24728 24731 24734 24737 24740 24742 24745 24748 24751 24754 24756 24759 24762 24765 24768 24771 24773 24776 24779 24781 24784 24787 24790 24793 24795 24798 24801 24804 24807 24810 24813 24816 24818 24821 24824 24827 24829 24832 24835 24838 24841 24844 24847 24850 24853 24856 24859 24862 24864 24867 24869 24872 24875 24878 24881 24884 24887 24890 24893 24896 24899 24902 24905 24908 24910 24913 24915 24918 24921 24923 24926 24929 24932 24935 24938 24941 24944 24946 24948 24951 24954 24956 24959 24962 24965 24968 24971 24974 24977 24980 24983 24986 24989 24992 24995 24998 25000 25003 25006 25008 25011 25014 25016 25019 25022 25025 25028 25030 25033 25035 25038 25041 25044 25047 25049 25052 25055 25057 25060 25063 25066 25069 25071 25074 25077 25080 25083 25086 25088 25091 25094 25096 25099 25102 25105 25108 25111 25114 25116 25119 25122 25124 25127 25129 25132 25135 25138 25141 25144 25147 25150 25153 25156 25159 25162 25165 25168 25171 25174 25177 25180 25183 25186 25188 25191 25194 25197 25199 25202 25204 25207 25210 25213 25216 25218 25220 25223 25225 25228 25230 25233 25236 25239 25242 25245 25247 25250 25252 25254 25257 25260 25263 25265 25268 25270 25273 25276 25279 25282 25285 25288 25291 25294 25297 25300 25303 25306 25309 25312 25315 25318 25321 25324 25327 25330 25333 25336 25339 25342 25345 25348 25351 25354 25357 25360 25362 25365 25368 25371 25373 25375 25378 25381 25383 25386 25389 25391 25394 25397 25400 25403 25405 25407 25410 25413 25415 25418 25421 25424 25426 25429 25432 25434 25437 25440 25443 25446 25449 25452 25455 25458 25461 25464 25467 25470 25473 25476 25479 25482 25485 25488 25491 25494 25497 25500 25502 25505 25508 25510 25513 25516 25519 25522 25525 25528 25531 25533 25536 25539 25542 25545 25548 25551 25554 25557 25560 25563 25566 25569 25572 25574 25576 25579 25582 25585 25588 25591 25594 25597 25600 25603 25606 25609 25611 25614 25617 25620 25623 25626 25629 25631 25634 25637 25640 25643 25646 25649 25652 25654 25657 25660 25663 25666 25669 25671 25674 25677 25680 25683 25685 25688 25691 25694 25697 25700 25703 25705 25708 25711 25714 25717 25720 25722 25725 25728 25731 25733 25736 25738 25741 25744 25746 25749 25752 25754 25757 25760 25763 25766 25768 25771 25774 25776 25779 25782 25785 25788 25791 25794 25797 25799 25802 25805 25808 25811 25814 25817 25820 25823 25826 25828 25831 25834 25837 25840 25843 25846 25849 25852 25855 25858 25861 25864 25867 25870 25872 25875 25878 25880 25882 25885 25888 25891 25894 25897 25900 25902 25905 25908 25910 25912 25915 25918 25921 25924 25927 25930 25933 25936 25939 25942 25945 25947 25950 25953 25956 25958 25961 25964 25967 25970 25973 25975 25978 25981 25984 25987 25990 25993 25996 25998 26001 26004 26007 26009 26012 26015 26018 26020 26023 26026 26029 26032 26035 26037 26040 26043 26046 26048 26051 26054 26057 26060 26063 26066 26068 26071 26073 26076 26079 26082 26085 26088 26090 26093 26096 26099 26102 26105 26108 26111 26114 26117 26120 26122 26125 26128 26130 26133 26135 26138 26141 26143 26146 26149 26152 26155 26158 26161 26164 26167 26170 26173 26176 26179 26182 26185 26188 26191 26194 26197 26200 26203 26206 26209 26212 26214 26217 26220 26223 26226 26228 26231 26234 26237 26239 26242 26245 26248 26251 26254 26257 26260 26263 26266 26269 26272 26275 26278 26280 26283 26286 26289 26292 26294 26297 26299 26302 26305 26308 26311 26314 26317 26320 26323 26326 26329 26332 26335 26338 26341 26344 26347 26349 26352 26355 26358 26361 26364 26367 26370 26373 26375 26378 26381 26384 26387 26389 26392 26395 26398 26401 26404 26407 26410 26412 26415 26418 26421 26424 26427 26430 26433 26436 26439 26442 26444 26447 26450 26453 26455 26458 26461 26464 26467 26470 26473 26476 26479 26482 26485 26488 26490 26493 26496 26499 26501 26503 26506 26509 26512 26515 26517 26520 26523 26526 26529 26532 26535 26537 26540 26543 26546 26549 26552 26555 26557 26560 26563 26566 26569 26572 26575 26578 26581 26584 26587 26590 26593 26596 26598 26601 26603 26606 26609 26611 26614 26617 26620 26623 26626 26629 26632 26634 26637 26640 26642 26645 26647 26650 26652 26654 26657 26659 26662 26664 26667 26670 26673 26676 26679 26682 26685 26688 26691 26694 26697 26700 26702 26705 26708 26710 26713 26716 26719 26722 26725 26727 26730 26733 26735 26737 26739 26742 26745 26748 26751 26753 26756 26759 26762 26765 26768 26771 26774 26777 26779 26782 26784 26787 26790 26793 26796 26799 26802 26805 26808 26810 26813 26815 26818 26821 26823 26825 26828 26831 26834 26836 26839 26842 26845 26848 26851 26853 26856 26859 26862 26864 26867 26869 26872 26874 26877 26880 26883 26886 26889 26892 26895 26898 26901 26904 26907 26910 26913 26916 26919 26922 26925 26928 26931 26934 26937 26940 26943 26946 26948 26951 26954 26957 26959 26962 26965 26968 26971 26974 26977 26980 26982 26985 26988 26991 26994 26997 27000 27003 27005 27008 27011 27014 27016 27019 27022 27024 27026 27029 27032 27035 27038 27041 27044 27047 27050 27053 27056 27059 27062 27065 27068 27071 27074 27076 27078 27081 27084 27087 27090 27093 27096 27099 27102 27105 27108 27110 27113 27116 27118 27121 27124 27127 27130 27133 27135 27138 27140 27143 27146 27148 27151 27154 27157 27159 27162 27165 27167 27170 27173 27176 27179 27181 27184 27186 27189 27192 27195 27198 27201 27204 27207 27210 27213 27216 27219 27222 27225 27228 27231 27233 27236 27239 27242 27245 27248 27250 27253 27256 27259 27262 27265 27267 27270 27273 27275 27278 27281 27284 27287 27290 27293 27296 27298 27301 27304 27307 27310 27312 27315 27318 27321 27324 27327 27330 27333 27336 27339 27342 27345 27348 27351 27354 27357 27360 27363 27366 27369 27372 27374 27376 27379 27382 27385 27387 27390 27393 27395 27398 27401 27404 27407 27409 27412 27415 27417 27420 27423 27426 27429 27432 27435 27438 27441 27444 27447 27450 27453 27456 27459 27461 27464 27467 27470 27473 27476 27478 27481 27484 27487 27490 27492 27495 27498 27501 27504 27507 27510 27513 27516 27519 27521 27524 27527 27530 27532 27535 27538 27541 27544 27547 27550 27552 27555 27558 27561 27564 27567 27570 27573 27575 27578 27581 27584 27586 27589 27592 27595 27598 27601 27604 27607 27610 27613 27616 27619 27622 27625 27628 27630 27633 27636 27639 27642 27645 27648 27651 27654 27657 27659 27662 27665 27668 27671 27674 27676 27679 27681 27684 27687 27690 27693 27696 27699 27702 27705 27708 27711 27714 27716 27719 27722 27725 27728 27731 27733 27735 27738 27741 27744 27747 27749 27752 27755 27757 27760 27763 27766 27769 27771 27774 27777 27780 27782 27785 27788 27791 27794 27797 27800 27802 27804 27807 27810 27812 27815 27818 27820 27823 27826 27829 27831 27833 27836 27839 27842 27845 27848 27851 27854 27857 27860 27862 27865 27868 27871 27873 27876 27879 27882 27885 27888 27891 27894 27897 27899 27902 27905 27907 27910 27913 27915 27918 27921 27924 27927 27930 27933 27936 27939 27942 27945 27948 27951 27954 27957 27960 27963 27966 27969 27971 27974 27977 27979 27982 27985 27988 27991 27993 27996 27999 28002 28005 28007 28010 28013 28016 28019 28022 28025 28027 28030 28033 28035 28038 28041 28044 28047 28050 28053 28056 28059 28062 28065 28068 28071 28074 28077 28080 28083 28086 28089 28092 28095 28098 28100 28103 28106 28109 28112 28115 28118 28121 28124 28126 28129 28132 28134 28136 28139 28142 28144 28147 28149 28152 28154 28156 28159 28162 28165 28168 28171 28174 28177 28180 28183 28186 28189 28192 28194 28197 28200 28203 28205 28207 28210 28213 28216 28219 28222 28224 28227 28229 28232 28235 28238 28241 28244 28247 28250 28252 28255 28258 28260 28263 28266 28269 28272 28275 28278 28281 28284 28286 28289 28292 28295 28298 28301 28304 28307 28310 28313 28316 28319 28321 28324 28327 28329 28332 28335 28338 28341 28344 28347 28350 28353 28355 28358 28361 28364 28366 28369 28372 28375 28378 28380 28383 28385 28388 28391 28394 28397 28399 28402 28405 28407 28410 28413 28415 28418 28421 28423 28426 28428 28430 28433 28436 28439 28442 28445 28448 28451 28454 28456 28459 28462 28464 28467 28470 28473 28475 28478 28480 28483 28486 28489 28492 28495 28497 28500 28503 28506 28509 28512 28515 28518 28521 28524 28527 28530 28533 28535 28538 28541 28544 28547 28550 28553 28556 28559 28562 28565 28568 28571 28574 28577 28580 28583 28586 28589 28592 28595 28598 28601 28604 28607 28610 28613 28616 28618 28621 28624 28626 28629 28632 28635 28638 28641 28644 28646 28649 28652 28655 28658 28661 28664 28667 28670 28673 28676 28679 28682 28684 28687 28690 28692 28695 28698 28700 28703 28706 28709 28711 28714 28717 28719 28722 28725 28727 28730 28732 28735 28738 28740 28743 28746 28748 28751 28753 28756 28759 28762 28765 28768 28771 28774 28777 28779 28782 28784 28787 28789 28792 28795 28797 28800 28803 28805 28808 28811 28814 28817 28819 28822 28825 28828 28831 28834 28837 28840 28843 28846 28849 28852 28855 28857 28860 28862 28865 28867 28870 28873 28876 28879 28882 28885 28888 28890 28893 28895 28898 28901 28904 28907 28910 28912 28914 28917 28920 28923 28926 28929 28932 28935 28938 28941 28944 28947 28950 28953 28956 28959 28962 28965 28968 28971 28974 28977 28980 28983 28986 28989 28992 28995 28998 29001 29004 29006 29009 29012 29015 29018 29020 29023 29026 29028 29031 29034 29037 29040 29043 29046 29049 29052 29055 29058 29061 29064 29067 29070 29073 29076 29079 29082 29085 29088 29091 29094 29097 29100 29103 29106 29109 29112 29115 29118 29121 29123 29126 29129 29132 29134 29137 29140 29143 29146 29149 29151 29154 29157 29160 29163 29165 29168 29171 29174 29177 29180 29183 29186 29188 29191 29194 29197 29200 29203 29206 29209 29212 29214 29216 29219 29222 29225 29228 29231 29234 29237 29240 29243 29246 29249 29252 29255 29258 29261 29264 29267 29270 29273 29276 29279 29281 29284 29287 29290 29293 29296 29299 29302 29305 29307 29310 29313 29316 29318 29320 29323 29326 29329 29332 29335 29338 29340 29342 29345 29348 29350 29353 29356 29358 29361 29364 29367 29370 29373 29376 29378 29381 29384 29387 29389 29392 29395 29398 29401 29404 29407 29410 29413 29416 29419 29422 29425 29428 29431 29434 29437 29440 29443 29446 29449 29452 29455 29458 29461 29464 29467 29470 29473 29476 29479 29482 29485 29488 29491 29494 29497 29500 29503 29505 29508 29511 29513 29516 29519 29522 29525 29528 29531 29534 29537 29539 29542 29545 29548 29550 29553 29556 29559 29562 29565 29568 29571 29574 29576 29579 29582 29585 29588 29591 29593 29596 29599 29602 29605 29608 29611 29614 29617 29619 29622 29625 29628 29630 29633 29636 29639 29642 29645 29648 29651 29653 29656 29659 29662 29665 29668 29671 29674 29677 29680 29683 29686 29689 29692 29695 29698 29701 29704 29707 29710 29712 29715 29718 29721 29724 29727 29730 29733 29735 29737 29740 29743 29746 29749 29752 29755 29758 29761 29764 29767 29770 29773 29776 29779 29782 29785 29788 29791 29794 29797 29800 29803 29806 29809 29812 29815 29818 29821 29824 29827 29830 29833 29836 29839 29842 29845 29848 29850 29853 29856 29859 29862 29865 29868 29871 29874 29877 29880 29883 29885 29888 29891 29894 29897 29900 29903 29906 29908 29911 29914 29916 29919 29922 29925 29928 29931 29934 29937 29940 29943 29946 29949 29952 29955 29958 29961 29964 29967 29970 29973 29976 29979 29982 29984 29986 29989 29992 29995 29997 30000 30003 30005 30008 30011 30014 30017 30019 30022 30025 30028 30030 30033 30036 30039 30042 30045 30047 30050 30053 30056 30058 30061 30064 30067 30070 30073 30076 30079 30081 30084 30087 30090 30093 30096 30099 30102 30105 30108 30111 30114 30116 30119 30122 30125 30128 30131 30134 30137 30140 30143 30146 30149 30151 30154 30157 30160 30163 30166 30169 30172 30174 30177 30180 30182 30185 30188 30191 30193 30195 30198 30201 30204 30207 30210 30213 30216 30219 30222 30225 30228 30231 30234 30237 30240 30243 30246 30249 30252 30255 30258 30261 30264 30267 30270 30273 30276 30279 30281 30283 30286 30289 30292 30295 30298 30301 30304 
</DataArray>
<DataArray type="UInt32" Name="types" format="ascii">
5 5 5 5 5 5 5 3 5 5 3 5 5 5 3 5 3 5 5 5 3 5 5 5 3 5 5 5 5 5 3 5 5 5 5 5 5 5 5 5 3 5 5 5 5 5 5 5 5 5 5 5 5 5 3 5 5 5 5 3 5 5 5 5 5 5 5 5 5 5 5 5 5 5 5 5 5 5 5 5 5 3 5 5 5 5 3 3 5 5 5 3 5 5 5 5 5 5 5 3 5 5 5 5 5 5 5 5 5 5 5 5 5 5 3 5 5 5 5 5 5 5 5 5 5 5 5 5 5 5 5 5 5 5 5 5 5 5 5 5 5 5 5 5 5 5 5 5 5 5 5 5 5 5 5 5 5 5 5 5 5 3 5 5 5 5 5 5 5 5 5 5 5 5 5 5 5 5 5 5 5 5 5 5 3 5 5 5 5 3 3 5 5 5 5 3 5 3 5 5 5 5 5 5 5 5 5 5 5 5 5 5 5 5 5 5 5 5 5 5 5 5 5 5 5 5 5 5 5 5 5 5 5 5 5 5 5 5 5 5 5 5 5 3 5 5 5 5 5 5 5 3 5 5 5 5 5 5 5 5 5 3 5 5 3 5 5 3 5 5 5 5 5 5 5 3 3 5 3 5 5 3 5 5 5 5 3 5 5 5 3 5 5 5 5 5 5 5 5 5 3 5 3 5 3 3 5 5 5 5 5 5 5 3 5 3 3 5 5 3 5 5 3 5 5 5 5 5 5 5 5 5 5 3 5 5 3 5 5 5 5 5 5 5 5 5 5 3 5 5 3 5 5 5 5 5 5 5 5 5 3 5 5 5 5 5 5 3 5 5 5 5 5 3 5 5 5 5 3 5 5 3 5 5 5 3 5 5 5 3 5 3 5 5 5 5 3 5 3 3 5 3 5 5 5 5 3 5 5 5 5 5 5 5 5 5 5 5 5 5 5 5 5 5 5 5 5 5 5 5 3 5 5 3 5 5 5 5 5 5 5 5 5 5 5 5 5 5 5 5 5 5 5 5 5 5 3 5 3 5 5 3 5 3 5 5 3 5 3 5 3 5 5 5 5 5 3 5 5 3 3 5 5 5 5 3 3 5 5 5 3 5 5 5 5 5 5 5 5 5 5 5 3 3 5 5 5 5 5 5 5 5 5 5 5 5 5 5 5 5 5 5 5 5 5 5 3 5 5 5 5 5 5 5 5 5 5 5 5 5 5 5 5 5 5 5 5 5 5 5 5 5 5 5 5 5 5 5 5 5 5 5 5 5 5 5 5 3 5 5 3 5 5 3 5 5 5 5 5 5 5 5 5 3 5 5 5 3 3 5 3 3 5 5 5 5 5 5 5 5 5 5 5 5 5 5 5 5 5 5 5 5 5 5 5 5 5 5 5 5 5 5 5 5 3 5 5 5 3 5 5 5 5 5 3 5 5 5 3 5 5 3 5 5 5 5 5 3 5 5 5 3 5 3 5 5 3 5 5 3 5 5 5 5 3 5 5 3 5 3 5 5 5 5 3 5 5 5 5 5 5 5 5 5 3 5 5 3 5 3 5 3 5 3 5 3 5 3 5 5 3 3 3 5 3 5 3 5 3 3 5 5 5 5 5 5 5 5 5 3 5 5 5 3 5 5 5 3 5 5 5 5 5 5 3 5 5 5 5 5 5 5 5 3 5 5 3 3 5 5 5 3 3 5 5 3 5 3 5 5 5 5 5 5 5 5 5 5 5 5 5 5 5 5 5 5 5 5 5 5 5 5 5 5 3 5 5 5 5 5 5 3 5 5 5 5 5 5 5 5 3 5 5 3 5 5 5 5 5 5 5 5 5 5 5 5 5 3 5 5 5 5 3 5 5 5 5 5 5 5 5 3 5 5 3 5 5 5 3 5 5 5 5 5 5 5 3 5 5 3 3 5 5 5 5 5 5 5 3 3 5 3 5 5 5 5 3 5 5 5 5 5 5 5 3 5 5 5 5 5 5 5 5 5 5 5 5 5 5 3 5 5 3 5 5 5 5 5 5 5 5 5 5 5 5 5 5 5 5 5 5 5 5 3 5 5 5 5 5 5 5 5 5 3 5 5 5 3 5 5 3 5 5 5 5 5 5 3 5 5 5 5 5 3 3 5 5 5 5 5 5 5 5 5 5 5 5 5 5 5 5 5 5 5 5 5 5 5 5 5 5 3 5 5 5 5 3 3 5 3 5 5 5 5 5 5 5 5 5 5 3 5 5 5 5 5 5 3 5 5 5 3 5 3 5 5 5 5 5 5 5 5 5 5 5 5 5 5 5 5 5 5 5 5 5 5 5 5 5 3 5 5 5 3 5 5 5 5 5 5 5 3 5 5 5 5 5 5 5 5 5 5 5 5 3 5 5 5 3 3 5 5 5 5 3 5 5 5 5 5 5 3 5 3 5 5 5 5 3 5 5 5 5 5 3 3 5 5 5 5 5 5 5 5 5 5 5 5 5 5 5 5 3 5 5 3 5 3 5 5 5 5 5 5 5 5 5 3 5 5 5 5 5 5 3 5 5 5 5 5 5 5 5 5 5 5 5 5 5 5 5 3 5 5 5 5 5 5 5 5 5 5 5 5 5 5 5 5 5 5 3 5 5 5 5 5 5 5 5 5 5 5 5 5 5 5 5 5 5 5 5 5 5 5 5 5 5 5 5 5 5 5 5 5 5 5 5 3 3 5 5 5 5 5 5 5 3 5 5 5 5 5 5 5 5 5 5 5 5 5 5 3 5 5 5 3 5 5 5 5 5 5 5 5 5 5 5 5 5 3 5 5 5 3 3 5 5 5 5 3 3 5 5 5 3 5 5 3 5 5 3 5 5 5 5 5 5 5 3 5 5 5 5 5 5 3 3 5 3 3 5 5 5 5 3 5 5 3 3 5 3 3 5 5 5 3 5 3 5 5 5 3 5 3 5 5 3 5 5 5 3 5 5 3 3 3 5 5 3 3 5 5 5 5 5 5 5 3 3 5 5 5 5 5 5 5 5 5 5 3 5 5 3 3 5 5 5 5 5 5 5 5 5 5 5 5 5 5 5 5 3 5 5 3 5 3 5 3 3 3 5 5 5 5 5 3 5 3 5 3 5 3 3 5 5 3 5 3 5 5 5 5 5 5 3 5 3 5 5 3 5 3 5 5 5 3 5 5 3 5 5 3 3 5 5 3 3 5 5 5 5 3 5 5 5 5 5 5 5 5 5 3 3 3 3 5 5 3 3 5 3 3 5 3 5 5 5 3 3 3 5 5 5 5 3 5 5 3 5 5 5 3 5 3 5 5 5 5 5 5 3 5 5 5 5 3 5 3 5 5 5 5 5 3 5 5 5 5 5 5 3 5 5 5 3 5 5 5 5 3 3 5 3 5 5 5 3 5 3 5 5 5 5 5 5 5 5 3 5 5 3 3 5 5 5 3 5 5 5 3 3 5 5 3 5 3 3 5 5 5 3 5 3 5 3 5 5 5 5 3 3 5 3 5 5 5 5 3 5 5 3 5 3 5 3 3 3 5 5 3 5 3 5 3 3 3 5 5 3 5 5 5 3 5 5 3 5 5 5 5 5 5 3 5 5 5 5 3 3 5 5 5 5 5 5 3 5 5 3 5 3 5 5 3 3 5 5 3 3 5 5 3 5 5 5 5 5 5 5 5 5 5 5 5 5 5 5 5 3 3 5 5 5 5 5 3 5 5 5 5 5 5 5 3 3 5 3 5 5 5 5 5 3 5 5 3 3 5 3 5 5 3 5 5 5 5 5 5 5 3 5 5 5 5 5 5 5 5 5 5 5 5 5 5 5 3 5 5 5 3 5 5 3 5 5 3 3 5 5 3 3 5 5 5 5 5 5 5 5 5 5 3 3 5 3 5 5 3 3 5 5 3 5 3 3 5 5 3 5 5 5 5 5 5 5 3 5 5 5 5 5 5 5 5 5 5 5 5 5 5 5 5 5 5 5 5 5 5 5 5 5 5 5 5 5 5 5 5 5 5 3 5 5 3 5 5 5 5 3 5 5 5 5 3 5 5 5 5 5 5 5 3 5 5 5 5 5 5 5 5 5 5 5 5 5 5 5 5 5 5 3 5 3 5 5 3 5 5 5 5 5 5 5 5 3 5 5 5 5 5 3 5 5 5 5 5 5 5 5 5 5 5 5 5 5 5 5 5 5 5 5 5 5 5 5 5 5 5 5 3 5 5 5 5 3 5 5 5 5 5 3 5 5 5 5 5 5 5 5 5 5 5 3 3 5 5 5 5 5 5 5 5 5 3 5 5 5 5 5 5 3 5 5 3 5 5 5 5 5 5 5 5 5 5 5 5 5 3 5 5 5 3 5 5 3 5 3 5 5 5 5 5 5 5 5 5 5 5 5 5 5 5 5 5 5 5 5 5 5 5 3 5 5 5 5 5 5 5 5 5 5 5 3 5 3 5 5 5 3 5 3 5 5 5 3 5 5 5 5 5 5 5 5 5 5 5 5 5 5 5 5 5 3 5 5 5 5 5 5 5 5 5 3 5 5 5 5 5 5 3 5 5 5 5 5 5 5 5 5 5 3 5 5 5 5 5 5 5 3 5 5 3 5 3 5 5 5 3 3 5 5 5 5 5 5 3 5 5 5 5 5 5 5 5 3 5 3 3 5 5 5 5 5 5 5 5 5 3 5 5 5 5 3 5 5 5 5 5 3 5 5 5 5 5 5 5 5 3 5 3 5 5 5 5 5 5 3 5 5 5 5 5 3 5 5 5 5 3 5 5 5 5 3 5 5 5 5 5 5 5 3 5 5 5 5 5 5 5 5 5 5 5 5 5 5 5 5 3 5 5 3 3 5 5 5 5 5 5 3 5 5 5 3 5 5 3 5 5 5 5 5 5 5 3 5 5 5 5 5 5 5 5 5 3 5 5 5 5 5 5 5 5 5 5 5 5 3 5 5 5 3 5 5 5 5 5 3 5 3 5 5 5 3 5 5 3 5 5 5 5 5 3 5 5 5 3 5 5 3 5 5 5 5 3 5 5 3 5 5 5 3 3 5 5 5 5 5 5 3 3 5 5 5 5 5 5 5 5 5 5 5 5 5 5 5 5 5 5 5 5 5 5 5 5 5 5 5 5 5 5 5 5 5 3 5 5 5 5 5 3 5 5 5 5 3 3 5 5 3 3 5 5 5 5 3 5 3 5 5 3 3 5 3 5 5 5 5 5 5 3 5 5 3 5 5 5 5 5 5 5 5 5 3 5 5 3 5 3 3 3 5 5 5 3 5 3 5 5 5 5 3 5 5 5 3 5 3 5 5 5 3 5 5 3 5 5 5 5 5 5 5 5 5 5 5 5 5 3 5 3 5 5 5 5 3 5 5 5 5 3 5 5 5 5 5 5 5 5 5 5 5 3 5 5 5 5 5 5 3 5 5 5 5 5 5 5 5 3 3 5 5 5 5 5 5 5 5 5 5 5 5 5 3 5 5 3 5 3 5 5 3 5 5 3 5 5 5 5 5 5 5 5 5 3 5 5 5 5 5 5 5 5 5 5 5 5 5 3 5 5 5 5 5 5 5 5 5 5 5 5 5 5 5 5 5 5 5 5 5 5 5 5 5 5 5 5 5 5 5 5 5 5 5 5 5 5 5 5 5 5 5 5 5 5 5 5 5 5 5 5 5 5 5 5 5 5 5 5 5 5 5 5 5 5 5 5 5 5 5 5 5 5 5 5 5 5 5 5 5 5 5 5 5 5 5 3 5 5 3 5 5 5 5 5 5 5 5 5 5 5 5 5 5 5 5 5 5 3 5 5 5 5 3 5 5 5 5 5 5 5 5 5 5 5 5 5 5 5 5 5 5 5 5 5 5 5 5 5 3 5 5 5 5 5 3 5 5 5 5 3 5 5 5 5 5 5 5 5 5 5 5 5 5 5 5 5 5 3 5 5 5 5 3 3 5 5 5 5 3 3 5 5 5 5 5 5 5 5 5 5 5 5 5 5 5 5 3 5 5 5 5 5 5 5 5 3 5 5 5 5 3 5 5 5 5 5 5 5 5 5 5 5 3 5 5 5 3 5 5 5 3 5 5 5 3 5 5 5 5 5 3 3 5 5 5 5 5 5 5 5 5 5 5 5 5 5 5 5 5 5 5 5 5 5 5 5 5 5 5 5 5 5 3 5 5 5 5 5 3 5 5 3 5 5 5 5 5 5 5 5 3 5 5 3 5 5 5 5 5 5 3 5 5 5 5 3 5 3 5 5 5 5 3 5 5 5 5 5 5 3 3 5 3 5 5 5 5 3 5 5 5 5 5 5 3 5 5 5 5 3 5 5 5 5 5 5 5 3 5 5 5 5 5 5 5 3 5 5 5 5 5 5 5 5 5 5 5 5 5 5 5 5 5 5 5 5 5 5 5 5 5 5 5 5 5 5 5 3 5 5 3 5 3 5 5 5 5 5 5 3 5 5 5 5 3 5 5 5 3 5 5 5 3 5 5 5 3 5 3 5 5 5 5 3 5 5 5 5 5 5 5 5 5 3 5 3 5 5 5 5 5 5 5 5 5 5 5 5 5 3 5 5 5 5 3 5 3 5 3 3 5 5 5 5 5 5 5 5 3 5 3 3 5 5 5 5 5 5 5 5 5 5 5 5 5 5 3 5 5 5 5 5 5 3 5 5 5 5 5 3 5 5 3 5 5 3 3 5 3 5 5 5 5 3 5 5 5 5 5 3 3 5 5 5 3 3 3 5 3 5 3 5 5 5 5 3 5 5 5 5 5 5 5 3 5 5 5 5 5 5 5 5 5 5 5 5 5 5 5 5 3 3 5 5 5 5 5 5 5 5 5 5 5 5 5 5 5 5 5 5 5 5 5 5 5 5 5 5 5 5 5 5 5 5 3 5 5 5 5 5 5 3 5 5 5 5 5 5 5 5 5 5 5 5 5 5 5 5 5 5 5 5 5 5 5 5 5 5 3 5 5 5 5 5 3 5 3 5 5 5 5 5 5 3 5 5 5 5 5 5 3 5 5 3 5 5 3 5 5 3 5 5 5 5 5 3 5 5 5 3 5 5 5 5 5 5 3 5 3 5 5 3 5 3 5 5 3 5 5 5 5 5 5 5 5 5 5 3 5 5 5 5 5 5 5 5 5 3 5 5 5 5 5 5 5 3 5 5 5 5 3 5 5 5 3 5 5 5 5 5 5 5 5 5 5 5 5 5 3 5 5 3 5 5 3 5 5 3 5 5 5 5 3 5 5 5 5 3 5 5 5 5 5 5 5 5 5 5 5 5 5 5 3 5 5 5 5 5 5 5 5 5 5 5 5 5 5 5 3 5 3 5 5 5 5 5 5 5 5 3 5 5 5 5 3 5 5 5 5 5 5 5 5 5 5 5 5 5 5 5 5 5 5 5 5 5 5 5 5 5 3 5 5 5 5 5 5 5 3 5 5 5 5 5 5 5 5 5 3 5 5 5 5 5 5 5 5 5 5 5 5 5 5 5 5 5 5 5 5 5 5 3 5 5 5 5 5 5 5 5 5 5 5 5 5 3 5 5 5 5 3 5 5 5 5 3 5 5 5 5 5 3 5 3 5 3 5 5 3 5 5 3 5 5 3 5 5 5 5 5 5 3 5 5 5 5 5 5 3 5 5 5 5 3 5 3 5 5 5 5 5 5 5 5 3 5 3 5 5 5 5 5 5 5 5 5 5 5 5 5 5 5 5 3 5 5 3 3 5 3 5 5 3 5 5 5 5 5 5 5 5 5 3 5 5 3 5 3 5 3 5 5 3 5 5 5 3 5 5 5 5 5 5 3 3 5 5 5 5 5 5 5 5 3 5 5 3 3 5 5 3 5 5 5 5 5 5 5 5 3 5 5 3 5 5 3 5 5 5 5 5 5 5 5 5 5 3 5 5 5 5 5 5 5 5 5 5 5 5 5 5 5 5 5 3 5 5 5 5 5 5 5 3 5 5 3 5 5 3 5 5 5 3 5 5 5 5 5 5 5 5 5 5 5 5 5 5 5 3 5 5 3 5 5 5 5 5 5 5 5 5 3 5 5 5 5 5 5 5 5 5 5 5 5 5 5 5 5 5 5 3 5 5 5 5 5 5 3 5 5 3 5 5 5 5 5 5 5 5 3 5 5 5 5 5 5 5 5 5 5 5 3 5 5 5 3 5 5 5 5 5 5 5 5 5 5 5 5 5 5 5 5 5 5 5 3 5 3 5 5 3 5 5 5 3 5 5 5 5 5 5 5 5 5 5 5 5 5 5 5 5 5 5 5 3 5 5 3 5 5 5 5 3 5 5 5 5 5 5 5 5 5 5 5 5 5 3 5 5 5 5 3 5 5 5 3 5 5 5 5 5 5 5 5 5 5 5 5 5 5 5 5 5 5 5 5 5 5 5 5 5 5 5 5 5 5 5 5 5 5 5 5 5 5 5 5 5 5 5 5 5 5 5 5 5 5 5 5 5 5 5 5 5 5 5 5 5 5 5 5 5 5 5 5 5 5 5 5 5 5 5 5 5 5 5 5 5 5 5 5 5 3 5 5 5 5 5 5 5 5 5 3 5 5 5 5 5 5 5 5 5 5 5 5 3 5 5 5 5 5 5 5 3 5 3 5 5 5 5 5 3 5 5 5 5 5 3 5 5 5 5 5 5 5 5 5 5 5 5 5 5 5 5 5 5 5 5 5 5 5 5 3 5 5 5 5 5 5 5 3 5 3 5 3 5 5 3 5 5 5 3 3 5 5 5 3 5 5 5 3 5 5 5 3 5 5 5 5 5 5 5 5 5 3 5 5 3 5 5 5 3 5 3 5 5 5 5 5 5 5 5 5 5 5 3 5 3 5 5 5 5 3 5 5 5 5 5 5 3 5 5 3 5 5 5 5 5 5 5 3 3 5 3 5 5 5 5 3 5 5 5 5 5 5 5 5 5 5 5 3 5 5 5 5 5 5 5 5 5 5 5 5 5 5 5 5 5 5 5 5 5 5 5 5 5 5 5 5 5 3 3 5 5 5 3 3 5 5 5 5 5 3 3 5 5 3 5 5 5 3 5 3 5 5 5 5 5 5 5 5 5 5 5 5 5 5 5 5 3 5 3 5 3 5 5 5 5 5 5 5 5 5 5 5 5 5 5 3 5 5 5 5 3 5 5 3 5 5 5 5 5 5 5 3 5 5 5 5 5 3 5 5 5 3 5 5 5 5 5 5 5 3 5 5 3 5 5 5 5 5 5 5 5 5 5 5 5 5 5 5 5 5 5 5 5 5 3 5 5 5 5 5 5 5 5 3 5 5 5 5 5 5 5 5 5 5 5 5 3 5 5 3 5 5 5 5 3 3 5 5 5 5 5 5 5 5 5 5 5 5 5 5 5 5 5 5 5 5 5 5 5 5 5 5 5 5 5 5 5 3 5 5 3 5 5 5 5 3 5 5 5 5 5 5 5 5 5 5 5 5 5 5 5 5 5 5 5 5 5 5 5 5 5 5 5 5 5 5 5 5 5 5 5 5 5 5 5 5 5 5 5 5 3 5 5 5 5 5 5 5 3 5 5 5 5 5 3 3 5 3 5 5 3 5 5 5 5 5 5 5 5 5 5 3 5 5 5 5 5 5 5 5 5 5 5 5 5 5 5 5 5 5 5 3 5 5 3 5 5 3 3 5 5 5 3 5 5 5 5 5 5 3 5 5 5 3 5 5 5 5 5 5 5 5 5 5 5 3 5 5 5 3 5 5 5 3 5 5 5 5 5 5 3 5 5 5 5 5 5 5 5 5 5 5 5 5 5 5 5 5 5 5 5 5 5 5 5 5 5 5 5 5 5 5 5 3 3 5 5 5 5 5 5 5 3 5 5 5 5 5 5 3 5 5 5 5 5 5 5 5 5 5 5 5 5 5 5 5 5 5 5 5 5 3 5 5 3 5 5 5 5 3 5 5 5 5 5 5 5 5 3 5 5 3 5 5 5 5 5 5 3 5 5 5 5 5 5 5 5 5 5 5 5 5 5 5 5 5 5 5 5 5 5 5 3 5 5 5 5 5 5 5 5 5 5 5 5 5 5 5 3 5 5 3 5 5 5 5 5 5 5 5 5 5 5 5 5 5 5 5 5 3 5 5 5 5 5 5 5 5 5 5 5 5 5 5 5 5 5 5 5 5 3 5 5 5 5 5 5 5 5 5 3 5 5 5 5 5 5 5 5 5 5 5 5 5 3 5 5 3 5 3 5 5 3 5 5 5 5 5 5 5 3 5 5 5 5 5 5 5 5 3 5 5 5 5 5 5 5 5 5 5 5 5 5 5 5 5 5 5 5 5 3 5 5 5 5 3 5 5 3 5 5 5 5 5 5 5 5 5 5 5 5 5 5 5 5 5 3 5 5 5 5 5 5 5 3 5 5 5 5 5 5 5 5 5 5 5 5 5 5 5 5 5 5 3 5 5 5 5 5 3 5 3 5 3 5 3 3 3 3 5 5 3 5 3 5 5 5 5 5 5 5 5 3 3 3 3 5 5 5 5 5 5 5 5 5 5 5 5 3 5 5 5 5 5 5 3 5 5 5 5 5 5 5 5 5 5 5 5 5 5 5 5 5 5 5 5 5 5 5 5 5 5 5 5 5 5 5 5 5 5 5 5 5 5 5 5 5 5 5 5 5 5 3 5 5 3 5 5 5 5 5 5 5 5 5 5 5 5 5 5 5 5 5 5 5 5 5 3 5 5 5 5 5 5 5 5 5 5 5 5 5 5 5 5 5 5 3 3 5 3 5 5 3 5 5 5 5 5 5 5 5 3 5 5 5 5 5 5 5 5 5 5 5 5 5 5 5 5 5 5 5 5 5 5 5 5 5 5 5 5 5 5 5 5 5 5 5 3 5 5 5 5 5 5 5 5 5 3 5 5 5 5 5 3 5 5 5 5 5 5 5 3 5 5 5 5 5 5 5 3 5 5 5 5 5 5 3 5 5 3 5 5 5 5 5 5 5 5 5 5 5 5 5 5 5 5 5 5 5 5 5 3 5 3 5 5 3 5 5 5 5 5 5 5 5 5 5 5 5 5 5 5 5 5 5 5 5 3 5 5 5 5 3 5 5 5 5 5 5 5 5 5 5 5 5 5 5 5 5 5 5 5 5 5 5 5 5 5 5 5 5 5 5 5 5 5 5 5 5 5 5 5 5 5 5 5 5 5 5 5 5 5 5 5 5 5 5 5 5 3 5 5 5 5 5 5 5 5 5 5 5 5 5 5 3 3 5 5 5 5 3 5 5 3 5 5 3 5 5 5 5 5 5 5 5 5 5 3 5 5 5 5 5 5 5 3 5 3 3 5 5 5 5 3 5 3 5 5 5 3 5 5 5 5 5 5 5 5 5 3 5 5 3 5 3 5 3 5 3 5 5 5 3 3 5 5 5 5 3 5 3 5 5 5 5 3 5 5 5 5 5 5 5 5 5 5 5 5 5 5 5 5 3 5 5 5 5 5 3 5 5 5 3 3 3 5 5 3 5 5 3 5 5 3 5 5 5 5 5 5 3 5 5 5 3 3 5 3 5 5 5 5 3 5 5 5 5 5 5 3 3 5 5 3 5 5 3 5 5 5 5 5 3 5 5 5 5 5 5 5 5 5 5 5 5 3 5 5 5 5 5 5 5 5 5 5 3 5 3 5 3 5 5 3 5 5 3 3 3 5 3 5 5 3 5 3 5 3 5 5 5 5 5 5 5 5 5 5 5 5 5 5 5 3 5 5 3 5 5 5 3 3 5 5 3 3 3 5 5 5 5 5 3 5 5 3 5 5 3 5 5 5 5 3 5 5 5 5 5 5 5 5 5 5 5 5 5 5 5 5 5 3 5 3 5 5 5 5 5 5 5 5 5 5 5 3 5 5 5 3 5 5 5 5 5 5 5 5 5 5 5 5 5 5 5 3 5 5 5 5 5 5 5 5 3 5 3 5 5 5 5 5 5 5 5 5 5 3 5 5 5 5 5 5 5 5 3 5 5 5 5 3 5 5 5 5 5 5 3 5 5 5 5 5 5 5 5 5 5 5 5 5 5 5 5 5 5 5 5 5 5 5 5 5 5 5 5 5 5 5 5 5 5 5 3 5 5 5 5 5 5 5 5 3 5 5 5 5 3 5 3 5 5 5 5 5 5 5 5 5 3 5 5 5 5 3 5 5 5 5 5 5 5 5 5 5 5 5 5 5 3 5 5 5 3 3 5 5 5 5 5 5 5 3 3 5 5 5 5 3 3 5 3 5 5 5 3 5 5 5 3 3 5 5 3 3 5 5 5 5 5 5 5 5 5 5 3 5 5 5 5 3 5 5 5 3 5 5 5 5 5 3 3 3 3 5 5 5 5 5 5 5 5 5 5 5 5 3 5 3 5 5 5 5 5 5 5 5 5 5 3 5 5 3 5 5 5 5 5 5 5 5 5 5 5 5 5 5 5 5 5 5 5 5 5 5 5 5 5 5 5 5 3 3 5 5 5 5 5 5 3 5 5 5 5 3 5 5 5 5 5 3 5 5 5 5 5 3 5 3 5 5 5 3 5 5 3 5 3 5 3 5 3 5 5 3 5 5 3 5 3 5 5 3 3 5 5 5 5 3 5 5 5 5 5 5 5 3 5 5 5 5 5 5 5 5 5 5 5 3 5 5 5 3 5 5 5 5 5 3 5 5 3 5 5 5 5 5 3 5 5 5 5 5 5 5 5 5 3 5 5 5 5 3 5 5 5 5 5 5 5 5 5 5 5 5 5 5 5 5 5 5 5 5 5 5 5 5 5 5 5 5 5 5 3 5 5 5 5 5 5 5 5 5 5 5 3 5 5 5 5 5 5 5 5 5 5 5 5 5 5 5 3 3 5 5 5 3 5 5 5 5 5 5 5 5 5 5 5 5 5 5 5 5 5 5 5 5 5 5 3 5 5 5 5 5 5 5 5 5 5 5 5 5 5 5 5 5 3 3 5 5 5 5 5 3 5 3 5 5 5 3 5 3 5 5 5 5 5 5 5 5 5 5 5 5 3 5 5 5 3 5 5 5 5 5 5 5 5 5 5 5 5 5 5 5 5 5 3 5 5 5 5 5 3 5 5 5 5 5 5 5 5 5 5 5 5 5 3 5 5 5 5 5 5 5 5 5 5 5 5 5 5 5 5 5 5 5 5 5 3 5 5 5 5 5 3 5 3 5 5 5 5 5 5 5 5 5 5 5 5 5 5 5 5 5 5 5 3 5 5 5 5 5 3 5 5 5 3 5 5 5 5 5 5 5 5 5 5 5 5 3 5 3 5 5 5 5 5 3 5 5 5 5 5 3 5 5 5 5 5 5 5 5 5 5 5 5 5 5 5 5 5 3 5 5 5 5 5 3 5 5 5 5 5 5 5 5 5 5 5 5 5 5 3 5 3 3 5 5 5 5 3 5 5 5 5 5 5 3 5 5 3 5 5 5 5 5 5 5 3 5 5 5 5 5 5 5 5 3 5 5 3 5 3 5 5 5 5 5 5 5 5 5 5 5 5 5 5 5 5 5 5 5 5 5 3 5 3 5 5 5 5 5 5 5 5 5 5 5 5 5 5 5 5 5 5 5 5 3 5 5 3 5 5 5 5 5 5 5 5 5 3 5 5 3 5 5 5 3 5 5 5 5 5 5 5 5 5 5 5 5 5 5 5 5 5 5 5 3 5 5 5 5 5 5 5 5 5 5 5 5 5 5 5 5 5 5 3 5 5 5 5 3 5 5 5 5 3 5 5 5 5 5 5 5 5 5 5 5 5 5 5 5 5 5 5 5 5 5 5 5 5 5 5 5 5 5 5 5 5 5 5 5 5 3 5 5 5 5 5 5 5 5 5 3 5 5 5 3 5 5 3 5 5 5 5 5 5 5 3 5 3 5 5 5 3 3 5 5 5 5 5 5 3 5 5 3 5 5 5 5 5 5 5 3 5 5 5 5 5 3 5 5 5 5 5 5 5 5 5 5 5 5 5 3 5 5 5 5 5 5 5 3 5 3 5 5 5 3 5 5 5 5 5 5 5 3 5 5 5 5 5 5 3 5 5 5 3 5 5 5 5 5 5 5 5 5 5 5 5 5 5 5 5 5 3 5 5 5 5 5 5 5 5 5 5 5 5 3 5 3 5 5 5 5 3 5 3 5 5 5 5 5 5 5 3 5 5 5 5 5 5 5 5 5 3 5 3 5 3 5 3 5 5 3 5 3 3 5 3 5 3 5 5 5 3 5 3 5 3 3 5 5 5 5 5 5 5 5 5 5 3 5 5 5 3 5 5 5 3 5 5 5 3 5 5 5 5 3 3 5 5 5 5 3 5 5 5 5 3 5 5 5 5 5 3 5 5 3 5 5 5 5 3 5 3 5 3 5 5 5 5 5 5 5 5 5 5 5 5 5 5 5 5 5 5 5 5 5 5 5 5 5 5 5 5 5 5 5 5 5 5 5 3 5 5 5 5 5 5 5 5 5 5 5 5 5 5 5 5 5 3 5 5 5 5 5 5 3 5 5 5 5 5 5 5 3 5 5 5 3 3 3 5 5 5 5 5 3 5 5 3 3 5 5 5 5 5 5 5 5 5 5 3 5 5 5 5 5 5 5 5 5 5 5 5 5 5 5 5 5 5 5 3 5 5 5 3 3 5 5 5 3 5 5 5 5 5 5 3 5 3 5 5 5 3 5 3 5 5 5 5 5 5 5 5 5 5 5 5 5 3 5 5 3 5 5 5 5 5 3 5 5 5 5 5 5 5 5 5 5 5 5 5 5 5 3 3 5 5 5 5 3 5 5 5 5 5 5 5 5 5 5 5 5 5 5 3 5 3 5 5 5 5 5 5 5 5 5 5 5 3 5 5 5 5 5 3 3 5 5 5 5 5 5 5 5 3 5 3 5 5 5 5 5 5 5 5 5 3 5 5 5 5 5 5 5 5 5 5 5 5 5 3 5 3 5 5 5 5 5 5 5 5 3 5 5 5 5 5 5 5 5 5 5 5 5 5 5 3 5 5 5 5 5 5 5 5 3 3 5 5 5 5 5 5 5 5 3 5 5 5 3 5 5 5 5 5 3 5 5 5 5 5 5 5 5 5 5 5 5 5 5 5 5 3 5 5 3 5 5 3 5 5 5 5 5 5 5 5 5 5 5 5 5 5 3 5 5 5 5 5 3 5 5 3 5 5 5 5 5 5 5 5 5 5 5 5 5 5 5 5 5 5 5 5 5 5 5 5 5 5 5 5 5 5 5 3 5 5 5 5 3 5 5 5 5 5 5 3 3 5 5 5 5 5 5 5 5 3 5 3 5 5 5 3 5 5 5 5 5 5 5 5 5 5 5 5 5 5 5 5 5 5 5 5 5 5 5 5 5 5 5 5 5 3 5 5 5 5 5 5 5 5 5 5 5 5 5 5 5 5 5 5 5 5 5 5 5 3 5 3 5 5 5 5 3 5 5 5 5 3 5 5 5 5 5 5 5 5 5 5 5 5 5 3 5 5 5 5 5 5 5 5 5 5 5 5 3 5 5 5 5 3 5 5 5 3 5 5 5 5 5 5 5 5 5 5 3 5 5 5 5 5 3 5 5 5 5 5 5 5 5 5 5 5 3 5 5 5 3 5 5 5 5 5 5 5 3 5 5 5 5 5 3 5 5 5 5 5 5 5 5 5 3 5 5 3 5 5 3 5 3 3 5 5 5 5 5 5 5 5 5 5 5 5 5 5 5 5 5 5 5 5 5 5 5 5 5 5 5 5 5 5 5 5 5 5 5 5 5 5 5 5 5 5 5 5 5 3 5 5 5 5 3 5 5 5 5 5 5 5 5 5 3 5 5 3 3 5 5 5 5 3 5 5 5 3 5 5 3 5 5 5 3 5 5 5 5 3 5 3 5 5 5 5 5 3 3 5 5 5 5 5 5 5 5 5 5 5 5 5 5 5 5 5 5 5 5 5 5 5 3 5 5 5 5 5 5 5 5 5 5 5 5 3 5 5 5 5 5 3 3 5 5 5 5 5 5 5 5 5 5 3 5 5 5 5 5 5 5 5 5 3 3 5 5 5 5 5 5 3 3 5 5 5 3 5 3 3 5 3 5 3 5 5 5 5 5 5 5 5 5 5 3 5 5 5 5 3 5 3 5 5 5 5 5 5 5 5 5 5 5 5 3 5 5 5 5 5 5 5 5 5 5 5 5 5 3 5 5 3 5 5 5 5 5 5 5 3 5 5 5 5 5 5 5 5 5 5 5 5 5 5 3 5 5 5 5 3 5 3 5 3 5 5 5 5 3 5 5 5 5 5 5 5 5 5 5 5 5 5 5 5 3 5 3 5 5 5 5 5 5 5 3 5 5 5 5 5 5 5 5 5 5 5 5 5 5 5 5 5 5 5 5 5 5 5 5 5 5 5 5 5 5 5 3 3 5 5 3 5 5 5 5 5 5 5 3 5 5 5 5 5 5 5 5 5 5 5 5 5 3 5 5 5 3 3 5 5 5 5 5 5 5 5 5 5 5 5 5 5 5 5 3 5 5 3 5 5 3 5 5 5 5 5 3 5 5 5 5 3 5 5 3 5 5 5 5 5 3 5 5 5 5 5 5 3 5 5 5 5 5 5 5 5 5 5 5 5 5 5 5 5 5 5 5 5 5 5 5 3 5 5 5 5 5 5 3 5 5 5 5 5 5 5 3 5 5 5 3 5 5 5 5 5 5 5 5 5 5 5 5 5 5 5 5 5 5 5 3 5 3 5 5 5 3 5 3 5 5 5 3 5 5 5 5 5 5 5 5 5 5 5 5 3 5 5 5 5 5 5 5 5 3 5 5 5 5 5 5 5 5 5 5 5 5 5 5 5 3 5 5 5 5 3 5 5 5 3 5 5 5 5 5 5 5 5 5 5 5 5 5 5 5 5 5 5 5 5 5 5 3 5 5 5 5 5 5 5 5 5 5 5 5 5 5 3 5 5 5 5 5 5 5 5 5 5 5 5 5 5 5 5 5 5 5 5 5 5 5 5 3 5 5 5 5 5 3 5 5 5 5 5 5 5 5 5 5 5 3 5 5 5 5 3 5 5 5 5 3 3 5 5 3 5 5 5 3 5 5 3 5 5 5 5 5 5 5 5 5 5 5 5 5 5 5 5 5 5 5 5 5 5 5 5 5 5 5 5 5 5 5 3 5 5 5 5 5 5 5 3 5 5 5 5 5 3 5 5 5 3 5 5 5 5 5 5 3 5 3 5 5 3 5 5 5 3 5 3 5 3 5 5 3 5 5 5 5 5 5 5 3 5 5 3 5 3 3 5 3 5 5 3 5 3 5 5 5 3 5 5 5 5 5 5 5 5 5 5 5 5 5 5 5 5 5 5 3 5 5 5 5 5 5 5 5 5 5 5 3 3 5 5 5 5 3 5 5 3 5 5 5 3 5 5 5 5 5 5 5 3 5 5 5 5 3 5 5 5 5 5 5 5 5 3 5 5 3 5 5 3 5 5 5 3 5 5 5 5 5 5 5 5 5 5 5 5 5 5 5 5 5 5 5 5 5 3 5 5 3 5 5 5 5 3 5 5 5 5 5 5 5 5 5 5 5 5 5 5 3 5 3 5 5 5 5 5 5 3 5 5 5 5 5 3 3 5 5 5 5 5 5 5 5 5 5 5 5 5 5 5 5 5 5 5 5 5 5 5 5 5 5 5 5 3 5 5 5 3 5 5 5 5 5 5 5 5 5 3 5 5 5 5 5 5 5 3 5 5 5 5 3 5 5 5 5 3 5 5 5 5 5 5 3 5 5 5 3 5 5 5 5 5 5 5 5 3 5 5 5 5 5 5 5 5 5 5 5 5 5 5 5 5 5 3 5 3 3 5 5 3 5 3 5 5 5 5 5 5 3 5 5 5 5 5 5 5 3 5 5 5 5 5 5 5 5 5 5 5 5 5 5 5 5 5 5 5 5 5 5 5 5 5 3 5 3 5 5 5 5 5 5 5 5 5 5 5 5 5 5 5 5 3 5 3 3 5 5 5 5 5 5 5 5 5 5 5 5 5 5 5 5 5 3 5 3 3 5 5 5 5 5 3 3 5 5 5 5 5 3 3 5 3 5 3 3 3 5 3 5 5 5 3 5 5 3 5 3 5 3 5 5 5 5 5 5 5 3 5 5 3 3 5 3 5 5 5 3 5 3 5 5 5 5 5 3 3 3 5 5 5 5 3 5 5 5 3 5 3 3 5 5 5 5 5 5 5 5 5 5 3 5 3 5 3 5 5 5 5 5 5 5 5 5 5 5 5 5 5 5 5 5 3 5 5 5 5 5 3 5 5 5 5 5 5 5 5 5 5 5 5 5 3 3 5 5 5 5 5 5 5 5 5 5 5 5 5 5 5 5 5 5 5 5 5 5 5 5 5 5 5 5 5 5 5 5 5 3 5 5 5 5 3 5 3 5 3 5 5 5 5 5 5 3 5 3 5 5 5 3 5 3 5 5 5 5 5 5 5 5 5 5 5 5 5 5 3 5 3 5 5 5 3 5 5 3 5 3 5 5 5 5 5 5 5 5 5 5 5 5 5 5 5 5 5 5 5 5 5 5 5 5 5 5 5 3 5 5 5 5 3 5 5 5 5 5 5 5 5 3 5 5 5 3 5 5 5 5 3 5 5 5 5 5 5 5 5 5 5 5 5 5 5 5 5 5 3 5 3 5 3 5 3 3 3 5 5 5 5 3 5 3 5 5 3 5 3 5 5 5 3 5 5 5 3 5 5 5 5 5 5 5 5 5 5 5 3 5 5 5 5 5 5 5 5 5 5 5 5 5 5 5 5 5 5 5 5 5 5 5 5 5 5 5 5 3 5 5 3 5 5 5 5 5 5 3 5 3 5 5 3 3 5 5 5 5 5 5 5 5 5 5 3 3 5 5 5 5 5 5 5 5 5 5 5 5 5 5 5 3 3 5 5 3 5 5 5 5 5 5 5 3 5 5 3 5 5 5 5 3 5 5 3 5 5 3 5 5 5 5 3 5 3 5 5 5 5 5 5 5 5 3 5 5 3 5 5 5 5 5 3 5 5 5 5 5 5 3 5 3 3 3 5 3 5 5 5 3 5 5 5 5 5 5 5 3 5 5 5 5 5 5 5 5 5 5 5 5 5 5 3 5 5 5 3 5 5 5 5 5 5 5 5 5 5 3 3 5 5 5 5 5 5 5 3 5 5 5 5 3 5 5 5 5 5 5 5 5 5 5 5 5 5 5 5 5 5 5 5 5 5 3 5 5 5 5 5 5 5 5 3 5 5 5 3 5 5 5 3 5 3 5 5 5 5 5 5 5 5 5 5 5 5 5 5 5 5 5 5 5 5 5 5 5 5 5 5 5 5 5 5 5 5 5 5 5 5 5 5 5 5 5 5 5 5 5 5 5 5 5 5 5 5 5 5 5 5 5 5 5 5 5 5 5 5 5 5 5 5 5 5 5 5 5 5 5 5 5 5 5 5 5 5 5 3 5 5 5 5 5 5 5 5 3 5 5 5 5 3 5 5 5 5 5 3 5 5 3 5 5 5 5 3 5 5 5 5 5 5 5 3 5 5 5 3 5 5 5 5 5 5 5 5 5 5 5 3 5 3 5 5 5 5 5 5 5 5 5 5 5 5 5 3 5 3 5 5 3 5 5 5 5 5 5 5 3 3 5 5 3 5 5 5 5 5 5 5 5 5 5 5 5 5 5 3 5 5 3 5 5 3 5 5 5 5 3 5 3 5 5 5 5 3 5 5 3 5 5 5 5 3 5 5 5 5 5 3 5 5 3 5 5 5 5 5 5 3 5 5 3 5 3 5 5 5 5 5 5 5 5 5 5 5 5 5 5 5 5 5 5 5 3 5 5 5 3 5 3 5 5 5 5 3 3 5 3 5 3 5 5 5 5 5 3 5 3 3 5 5 5 3 5 3 5 5 5 5 5 5 5 5 5 5 5 5 5 5 5 5 5 5 5 5 5 5 5 5 5 5 5 5 5 5 3 5 5 5 3 3 5 5 3 5 5 3 5 5 5 5 3 3 5 5 3 5 5 5 3 5 5 3 5 5 5 5 5 5 5 5 5 5 5 5 5 5 5 5 5 5 5 5 5 5 3 5 5 3 5 5 5 5 5 5 5 3 5 5 5 5 5 5 5 5 5 5 5 5 5 3 3 5 5 5 5 5 5 5 5 5 5 5 3 5 5 5 5 5 5 3 5 5 5 5 5 5 5 3 5 5 5 5 5 3 5 5 5 5 3 5 5 5 5 5 5 3 5 5 5 5 5 3 5 5 5 3 5 3 5 5 3 5 5 3 5 5 5 5 3 5 5 3 5 5 5 5 5 5 5 3 5 5 5 5 5 5 5 5 5 3 5 5 5 5 5 5 5 5 5 5 5 5 5 5 3 5 5 3 3 5 5 5 5 5 5 3 5 5 3 3 5 5 5 5 5 5 5 5 5 5 5 3 5 5 5 3 5 5 5 5 5 3 5 5 5 5 5 5 5 3 5 5 5 3 5 5 5 3 5 5 5 5 5 3 5 5 5 3 5 5 5 5 5 5 3 5 3 5 5 5 5 5 3 5 5 5 5 5 5 5 5 5 5 3 5 5 3 5 3 5 5 3 5 5 5 5 5 5 5 5 5 5 5 5 5 5 5 5 5 5 5 5 5 5 5 3 5 5 5 5 3 5 5 5 3 5 5 5 5 5 5 5 5 5 5 5 5 5 3 5 5 5 5 3 5 3 5 5 5 5 5 5 5 5 5 5 5 5 5 5 5 5 3 5 5 5 5 5 5 5 5 3 5 5 5 5 3 5 5 5 5 5 5 5 3 5 5 5 5 5 5 5 5 5 5 3 5 5 5 3 5 5 5 5 5 5 5 5 5 5 5 3 5 5 5 3 3 5 5 5 5 3 5 5 5 5 5 5 3 5 5 5 5 5 5 3 5 5 5 5 5 5 5 5 5 5 5 5 5 3 5 3 5 5 3 5 5 5 5 5 5 5 3 5 5 3 5 3 5 3 3 5 3 5 3 5 5 5 5 5 5 5 5 5 5 5 5 3 5 5 3 5 5 5 5 5 3 5 5 3 3 3 5 5 5 5 3 5 5 5 5 5 5 5 5 3 5 3 5 5 5 5 5 5 5 5 3 5 3 5 5 3 3 5 5 5 3 5 5 5 5 5 3 5 5 5 3 5 3 5 3 5 5 5 5 5 5 5 5 5 5 5 5 5 5 5 5 5 5 5 5 5 5 5 5 3 5 5 5 3 5 5 5 5 5 5 5 3 5 5 5 5 5 5 5 3 5 5 5 3 5 5 3 3 5 5 5 5 5 5 5 5 5 5 5 5 5 5 5 5 3 3 5 5 5 5 5 5 5 5 5 5 3 5 5 3 5 5 5 5 5 3 5 3 5 5 3 5 5 5 3 5 5 3 5 5 5 5 3 5 3 5 5 5 5 5 5 5 5 5 5 5 5 5 5 5 3 5 5 5 5 5 3 5 5 5 5 5 3 5 5 3 5 5 5 5 5 5 5 3 5 5 5 5 3 5 5 5 5 5 5 5 5 5 5 5 5 5 5 5 5 5 5 5 5 3 3 5 5 5 3 5 5 3 5 5 5 5 3 5 5 3 5 5 5 5 5 5 5 5 5 5 5 5 5 5 3 5 5 5 5 5 3 5 5 5 5 3 5 5 5 5 5 5 5 5 5 3 5 5 5 3 5 5 5 5 5 5 3 5 5 5 5 5 5 5 3 5 5 5 3 5 5 5 5 5 5 5 5 5 5 5 5 5 5 3 5 5 5 5 5 5 5 5 5 3 5 5 5 5 5 3 5 3 5 5 5 5 5 5 5 5 5 5 5 3 5 5 5 5 5 3 3 5 5 5 5 3 5 5 3 5 5 5 5 3 5 5 5 3 5 5 5 5 5 5 3 3 5 5 3 5 5 3 5 5 5 3 3 5 5 5 5 5 5 5 5 5 3 5 5 5 3 5 5 5 5 5 5 5 5 3 5 5 3 5 5 3 5 5 5 5 5 5 5 5 5 5 5 5 5 5 5 5 5 5 3 5 5 3 5 5 5 5 3 5 5 5 5 3 5 5 5 5 5 5 3 5 5 3 5 5 5 5 5 5 5 5 5 5 5 5 5 5 5 5 5 5 5 5 5 3 5 5 5 5 5 5 5 5 3 5 5 3 3 5 5 3 5 3 5 3 3 5 5 5 5 5 5 5 5 5 5 5 5 3 5 5 5 3 3 5 5 5 5 5 3 5 3 5 5 5 5 5 5 5 3 5 5 3 5 5 5 5 5 5 5 5 3 5 5 5 5 5 5 5 5 5 5 5 3 5 5 3 5 5 5 5 5 5 5 5 3 5 5 5 3 5 5 5 5 3 5 3 5 5 5 5 3 5 5 3 5 5 3 5 5 3 5 3 3 5 5 5 5 5 5 5 5 3 5 5 3 5 5 5 3 5 3 5 5 5 5 5 3 5 5 5 5 5 5 5 5 5 5 5 5 3 5 5 5 5 5 5 5 5 5 5 5 5 5 5 5 5 5 5 5 5 5 5 5 5 5 5 5 3 5 5 3 5 5 5 5 5 5 3 5 5 5 5 5 5 5 5 5 5 5 5 3 5 5 3 5 5 3 5 5 5 3 5 5 3 5 5 3 5 3 5 5 3 5 5 3 5 3 5 5 5 5 5 5 5 5 3 5 3 5 3 5 5 3 5 5 3 5 5 5 5 3 5 5 5 5 5 5 5 5 5 5 5 5 3 5 3 5 3 5 5 5 5 5 5 5 3 5 3 5 5 5 5 5 3 3 5 5 5 5 5 5 5 5 5 5 5 5 5 5 5 5 5 5 5 5 5 5 5 5 5 5 5 5 5 5 3 5 5 5 5 3 5 5 3 5 5 5 5 5 5 5 5 5 5 5 5 5 5 5 5 5 5 5 5 5 5 5 5 5 5 5 5 5 5 5 3 5 5 5 3 5 5 5 5 5 3 5 5 5 5 3 5 5 5 5 5 5 5 3 5 5 5 5 5 5 5 5 3 3 5 5 5 5 5 5 5 5 5 5 5 5 5 5 5 5 5 5 5 5 5 3 5 5 5 5 5 5 5 5 3 5 5 5 3 3 5 5 5 5 5 5 3 3 5 5 3 5 5 3 5 5 5 5 5 5 3 5 5 5 3 5 5 5 5 5 5 5 5 5 5 5 5 5 5 5 5 5 5 5 5 5 5 5 5 5 5 5 5 5 5 5 5 5 5 5 5 5 5 3 5 5 3 5 5 5 5 5 5 5 5 3 5 5 5 3 5 5 5 5 5 5 5 5 3 5 5 5 5 5 3 5 5 5 5 5 5 5 5 3 5 5 5 3 5 5 5 5 5 5 5 3 5 5 5 5 5 5 5 5 5 5 5 5 5 5 5 5 5 5 5 3 5 5 5 5 5 5 5 3 3 5 5 5 5 5 5 5 5 5 5 5 5 5 5 5 5 5 5 5 5 5 5 5 5 5 5 5 5 5 5 5 5 5 5 5 5 5 3 5 5 5 5 5 5 5 5 5 5 5 3 5 5 5 5 5 5 5 3 5 5 3 5 5 5 5 5 5 5 5 5 5 5 5 5 5 5 5 5 5 5 5 5 5 3 3 5 5 5 3 5 5 3 5 5 5 5 3 5 5 5 3 5 5 5 5 5 3 5 5 5 3 5 5 5 5 5 5 5 3 5 5 5 5 5 5 5 5 5 5 5 3 5 5 5 5 5 5 5 5 5 5 5 3 5 5 5 5 5 5 5 3 5 5 3 5 5 5 3 3 5 5 5 5 5 5 5 5 5 5 5 5 5 5 5 5 5 5 5 5 5 5 5 5 5 5 5 5 3 3 5 5 5 5 5 5 5 
</DataArray>
</Cells>
<PointData Scalars="" Vectors="displacement," Tensors="">
<DataArray type="Float64" Name="displacement" NumberOfComponents="3" format="ascii">
5.5842870417039409e-07 0.024997636696267134 0 -8.5954778106900692e-07 0.023850419243054463 0 -1.2118078148209793e-05 0.024784941470630751 0 5.5842870417039409e-07 0.024997636696267134 0 -1.2118078148209793e-05 0.024784941470630751 0 -2.1790082252131209e-07 0.025000848550089622 0 -8.5954778106900692e-07 0.023850419243054463 0 -1.2118078148209793e-05 0.024784941470630751 0 -0.00043674736357956812 0.024408880621018883 0 -1.2118078148209793e-05 0.024784941470630751 0 -0.00012559696591159789 0.025012304515914709 0 -2.1790082252131209e-07 0.025000848550089622 0 -1.2118078148209793e-05 0.024784941470630751 0 -0.00012559696591159789 0.025012304515914709 0 -0.00031421438434993425 0.024813533023091399 0 -4.6205530811972172e-05 0.024810527732750096 0 -2.8572710013281235e-05 0.024868093585995839 0 -9.301445950091193e-05 0.024731973134381243 0 -4.6205530811972172e-05 0.024810527732750096 0 -5.8057924361153309e-09 0.024999689895497459 0 -2.8572710013281235e-05 0.024868093585995839 0 -9.1924510372434456e-05 0.024901923098482704 0 -5.6771457011303571e-08 0.024999964077979948 0 -0.00010631959689005001 0.024725571694700885 0 -8.4347714285082793e-05 0.024667126500672036 0 1.1397157147269045e-06 0.024765391641394865 0 -0.00010631959689005001 0.024725571694700885 0 -8.4347714285082793e-05 0.024667126500672036 0 -9.301445950091193e-05 0.024731973134381243 0 -9.1924510372434456e-05 0.024901923098482704 0 -0.00036231178702260115 0.024984752152410632 0 -4.6205530811972172e-05 0.024810527732750096 0 -0.00010631959689005001 0.024725571694700885 0 -9.301445950091193e-05 0.024731973134381243 0 -0.00012559696591159789 0.025012304515914709 0 -0.00049390211071499821 0.024992178627102509 0 -0.00031421438434993425 0.024813533023091399 0 -0.00049390211071499821 0.024992178627102509 0 -0.00031421438434993425 0.024813533023091399 0 -0.00063418217350587997 0.024695674494729262 0 -0.00036231178702260115 0.024984752152410632 0 -3.3119353626860028e-06 0.023602988613582468 0 -0.00049390211071499821 0.024992178627102509 0 -0.00063418217350587997 0.024695674494729262 0 -0.00086491663130400373 0.024898718164516137 0 -0.00022111777988950059 0.023051981495628406 0 -0.00019402459818121945 0.023415530133557513 0 0.00028887514045132561 0.022091593814600505 0 0.00016528167933289295 0.021545994505176105 0 -0.00010392183033141007 0.022457398747322797 0 -1.2118078148209793e-05 0.024784941470630751 0 -0.00031421438434993425 0.024813533023091399 0 -0.00043674736357956812 0.024408880621018883 0 -0.00031421438434993425 0.024813533023091399 0 -0.00063418217350587997 0.024695674494729262 0 -0.00043674736357956812 0.024408880621018883 0 3.4842228529365829e-08 0.023846260115924004 0 -0.00019402459818121945 0.023415530133557513 0 0.00028887514045132561 0.022091593814600505 0 2.8162669856985513e-07 0.02307212544883543 0 -0.00010392183033141007 0.022457398747322797 0 -5.4377732926935967e-07 0.023844981855450264 0 2.8162669856985513e-07 0.02307212544883543 0 -0.00010392183033141007 0.022457398747322797 0 -4.59802312974817e-05 0.021462660792520159 0 -7.1451495178420165e-07 0.023069681386916834 0 3.6984159114360034e-07 0.021894169289954479 0 0.00015455151628331122 0.021803718333179685 0 1.6659928273590737e-08 0.023070421608595411 0 3.6984159114360034e-07 0.021894169289954479 0 0.00019394974787424621 0.02106918338268322 0 3.1673329941407355e-07 0.020717843106842913 0 -4.59802312974817e-05 0.021462660792520159 0 3.6984159114360034e-07 0.021894169289954479 0 0.00019394974787424621 0.02106918338268322 0 0.00019394974787424621 0.02106918338268322 0 3.1673329941407355e-07 0.020717843106842913 0 0.00014935129064369792 0.020598386651097884 0 0.00019394974787424621 0.02106918338268322 0 0.00022894643406837662 0.020841551669866145 0 0.00030105320545464334 0.02107883156522071 0 0.00019394974787424621 0.02106918338268322 0 0.00014935129064369792 0.020598386651097884 0 0.00022894643406837662 0.020841551669866145 0 0.00015455151628331122 0.021803718333179685 0 0.00028257133300170473 0.021192944247301327 0 0.00028887514045132561 0.022091593814600505 0 0.00016528167933289295 0.021545994505176105 0 0.00030105320545464334 0.02107883156522071 0 -4.59802312974817e-05 0.021462660792520159 0 0.00019394974787424621 0.02106918338268322 0 0.00030105320545464334 0.02107883156522071 0 4.1142013464078463e-07 0.019541173323695704 0 -0.0002093818079661245 0.02008496240849415 0 -5.0911399973854419e-05 0.0185359988647672 0 4.1142013464078463e-07 0.019541173323695704 0 2.7108922104077121e-05 0.02046108653438454 0 -0.0002093818079661245 0.02008496240849415 0 0.00014935129064369792 0.020598386651097884 0 4.1142013464078463e-07 0.019541173323695704 0 2.7108922104077121e-05 0.02046108653438454 0 3.1673329941407355e-07 0.020717843106842913 0 0.00014935129064369792 0.020598386651097884 0 4.1142013464078463e-07 0.019541173323695704 0 2.7108922104077121e-05 0.02046108653438454 0 -0.0002093818079661245 0.02008496240849415 0 6.9318694075885034e-06 0.02089550367879461 0 0.00014935129064369792 0.020598386651097884 0 0.00022894643406837662 0.020841551669866145 0 2.7108922104077121e-05 0.02046108653438454 0 0.00022894643406837662 0.020841551669866145 0 2.7108922104077121e-05 0.02046108653438454 0 6.9318694075885034e-06 0.02089550367879461 0 -0.00017526494014777374 0.02168072557649136 0 -0.00025771809744375818 0.022555438181522225 0 -0.00035415168536772278 0.023003312600335557 0 -0.00041626585639238938 0.023310273281801935 0 -0.00011451846390354374 0.023487063696222745 0 -0.00041626585639238938 0.023310273281801935 0 -0.00034572744671546068 0.023466266493316415 0 -0.00011451846390354374 0.023487063696222745 0 -0.00044656342640782206 0.02357327955317734 0 -0.00035675122183379047 0.023601826998876609 0 -0.00038813801865069866 0.023772406909440623 0 -0.00044656342640782206 0.02357327955317734 0 -0.00034572744671546068 0.023466266493316415 0 -0.00035675122183379047 0.023601826998876609 0 -0.00041626585639238938 0.023310273281801935 0 -0.00044656342640782206 0.02357327955317734 0 -0.00034572744671546068 0.023466266493316415 0 -0.00041626585639238938 0.023310273281801935 0 -0.00044656342640782206 0.02357327955317734 0 -0.00064729101806817665 0.023483054155230117 0 -0.00034572744671546068 0.023466266493316415 0 -0.00026472777158386519 0.023541731044878268 0 -0.00011451846390354374 0.023487063696222745 0 -0.00026472777158386519 0.023541731044878268 0 -0.00028468342207211596 0.023616011549881685 0 -0.00018401478693443792 0.023564830658814939 0 -0.00028468342207211596 0.023616011549881685 0 -0.00024131163060709478 0.023663874857375717 0 -0.00018401478693443792 0.023564830658814939 0 -0.00034572744671546068 0.023466266493316415 0 -0.00026472777158386519 0.023541731044878268 0 -0.00035675122183379047 0.023601826998876609 0 -0.00026472777158386519 0.023541731044878268 0 -0.00035675122183379047 0.023601826998876609 0 -0.00028468342207211596 0.023616011549881685 0 -0.00035675122183379047 0.023601826998876609 0 -0.00028468342207211596 0.023616011549881685 0 -0.00030885002723418469 0.023707950352080891 0 -0.00028468342207211596 0.023616011549881685 0 -0.00024131163060709478 0.023663874857375717 0 -0.00030885002723418469 0.023707950352080891 0 -0.00025771809744375818 0.022555438181522225 0 2.1607866712525579e-06 0.024149653273792794 0 -0.00018401478693443792 0.023564830658814939 0 -0.00011451846390354374 0.023487063696222745 0 -0.00011328102490914655 0.023761773273985293 0 -0.00024131163060709478 0.023663874857375717 0 -0.00018401478693443792 0.023564830658814939 0 -0.00020307094479622234 0.023752550422464037 0 -0.00018401478693443792 0.023564830658814939 0 -0.00011328102490914655 0.023761773273985293 0 -0.00020307094479622234 0.023752550422464037 0 -0.00026472777158386519 0.023541731044878268 0 -0.00018401478693443792 0.023564830658814939 0 -0.00011451846390354374 0.023487063696222745 0 -0.00025771809744375818 0.022555438181522225 0 5.4431802563535812e-05 0.022127731346597491 0 0.00022894643406837662 0.020841551669866145 0 6.9318694075885034e-06 0.02089550367879461 0 0.00024290385374405054 0.021017094121348643 0 -0.00011451846390354374 0.023487063696222745 0 -0.00011328102490914655 0.023761773273985293 0 4.7181009344460333e-05 0.023903088068503428 0 -0.00011328102490914655 0.023761773273985293 0 -8.6473582323899967e-05 0.023912010282840849 0 4.7181009344460333e-05 0.023903088068503428 0 -0.00011328102490914655 0.023761773273985293 0 -8.6473582323899967e-05 0.023912010282840849 0 -0.00018094613022008967 0.02390185056114932 0 -0.00018094613022008967 0.02390185056114932 0 -0.00019696624143683355 0.024039008651212671 0 -0.00011365733962735493 0.024019256431062268 0 -8.6473582323899967e-05 0.023912010282840849 0 -5.1162517015788379e-05 0.023984833851874901 0 -0.00011365733962735493 0.024019256431062268 0 -8.6473582323899967e-05 0.023912010282840849 0 -0.00018094613022008967 0.02390185056114932 0 -0.00011365733962735493 0.024019256431062268 0 -0.00018094613022008967 0.02390185056114932 0 -0.00027533693564836997 0.023833587547753707 0 -0.00029015863978606413 0.023949360492459621 0 -0.00018094613022008967 0.02390185056114932 0 -0.00029015863978606413 0.023949360492459621 0 -0.00019696624143683355 0.024039008651212671 0 -0.00018094613022008967 0.02390185056114932 0 -0.00020307094479622234 0.023752550422464037 0 -0.00027533693564836997 0.023833587547753707 0 -0.00011328102490914655 0.023761773273985293 0 -0.00018094613022008967 0.02390185056114932 0 -0.00020307094479622234 0.023752550422464037 0 -0.00027533693564836997 0.023833587547753707 0 -0.00040671088433529755 0.023879984097583309 0 -0.00038813801865069866 0.023772406909440623 0 -0.00030885002723418469 0.023707950352080891 0 -0.00027533693564836997 0.023833587547753707 0 -0.00038813801865069866 0.023772406909440623 0 -0.00035675122183379047 0.023601826998876609 0 -0.00030885002723418469 0.023707950352080891 0 -0.00038813801865069866 0.023772406909440623 0 -0.00020307094479622234 0.023752550422464037 0 -0.00030885002723418469 0.023707950352080891 0 -0.00027533693564836997 0.023833587547753707 0 -0.00024131163060709478 0.023663874857375717 0 -0.00020307094479622234 0.023752550422464037 0 -0.00030885002723418469 0.023707950352080891 0 -0.00027533693564836997 0.023833587547753707 0 -0.00029015863978606413 0.023949360492459621 0 -0.00040671088433529755 0.023879984097583309 0 -0.00029015863978606413 0.023949360492459621 0 -0.00040671088433529755 0.023879984097583309 0 -0.00037253151024440153 0.023983495016482989 0 -0.00044656342640782206 0.02357327955317734 0 -0.00038813801865069866 0.023772406909440623 0 -0.00053044713943727105 0.023786093051052747 0 -0.00040671088433529755 0.023879984097583309 0 -0.00038813801865069866 0.023772406909440623 0 -0.00053044713943727105 0.023786093051052747 0 0.00016528167933289295 0.021545994505176105 0 0.00027983715893778466 0.021032657492741913 0 0.00030105320545464334 0.02107883156522071 0 -0.00022111777988950059 0.023051981495628406 0 -3.3119353626860028e-06 0.023602988613582468 0 0.00029111305249477184 0.023199413334652797 0 -7.8024983624714933e-05 0.023122072305102898 0 -6.6535900192206041e-05 0.023505399862781932 0 0.00027983715893778466 0.021032657492741913 0 0.00030105320545464334 0.02107883156522071 0 0.00024290385374405054 0.021017094121348643 0 -0.00044870905909198168 0.023044238366191013 0 -7.8024983624714933e-05 0.023122072305102898 0 -6.6535900192206041e-05 0.023505399862781932 0 0.00022894643406837662 0.020841551669866145 0 0.00030105320545464334 0.02107883156522071 0 0.00024290385374405054 0.021017094121348643 0 -3.3119353626860028e-06 0.023602988613582468 0 5.4431802563535812e-05 0.022127731346597491 0 -3.3119353626860028e-06 0.023602988613582468 0 2.1607866712525579e-06 0.024149653273792794 0 1.1397157147269045e-06 0.024765391641394865 0 0.00015662058806092583 0.024686926916556658 0 3.1942291156974907e-06 0.024640607314088951 0 -3.5533398539962585e-06 0.023946317127303839 0 -5.1162517015788379e-05 0.023984833851874901 0 -6.0566202617735838e-05 0.02407386868716252 0 -8.6473582323899967e-05 0.023912010282840849 0 4.7181009344460333e-05 0.023903088068503428 0 -5.1162517015788379e-05 0.023984833851874901 0 2.1607866712525579e-06 0.024149653273792794 0 2.6701277506989407e-05 0.024068771931233624 0 -5.1162517015788379e-05 0.023984833851874901 0 -6.0566202617735838e-05 0.02407386868716252 0 -0.00011365733962735493 0.024019256431062268 0 -8.4347714285082793e-05 0.024667126500672036 0 1.1397157147269045e-06 0.024765391641394865 0 3.1942291156974907e-06 0.024640607314088951 0 0.00015662058806092583 0.024686926916556658 0 3.1942291156974907e-06 0.024640607314088951 0 -5.5860975126720707e-07 0.02444098113010278 0 3.1942291156974907e-06 0.024640607314088951 0 -8.2099407657746929e-05 0.02455364836661459 0 -5.5860975126720707e-07 0.02444098113010278 0 -8.4347714285082793e-05 0.024667126500672036 0 3.1942291156974907e-06 0.024640607314088951 0 -8.2099407657746929e-05 0.02455364836661459 0 -8.2099407657746929e-05 0.02455364836661459 0 -5.5860975126720707e-07 0.02444098113010278 0 -5.2086723113707743e-05 0.024443014624855063 0 -3.5533398539962585e-06 0.023946317127303839 0 -5.5860975126720707e-07 0.02444098113010278 0 -4.4138725946860035e-05 0.024226767971889118 0 2.1607866712525579e-06 0.024149653273792794 0 4.1087162536242137e-05 0.024464247959190298 0 -6.0566202617735838e-05 0.02407386868716252 0 -4.4138725946860035e-05 0.024226767971889118 0 -0.00011087099596061788 0.024119014271049375 0 -3.5533398539962585e-06 0.023946317127303839 0 -6.0566202617735838e-05 0.02407386868716252 0 -4.4138725946860035e-05 0.024226767971889118 0 -8.2717324050665615e-05 0.024245544258940672 0 -4.4138725946860035e-05 0.024226767971889118 0 -0.00011087099596061788 0.024119014271049375 0 -5.5860975126720707e-07 0.02444098113010278 0 -4.4138725946860035e-05 0.024226767971889118 0 -3.8738433791474977e-05 0.024322620750206251 0 -8.2717324050665615e-05 0.024245544258940672 0 -4.4138725946860035e-05 0.024226767971889118 0 -3.8738433791474977e-05 0.024322620750206251 0 -8.2717324050665615e-05 0.024245544258940672 0 -3.8738433791474977e-05 0.024322620750206251 0 -6.7835230973628614e-05 0.024309561250648013 0 -3.8738433791474977e-05 0.024322620750206251 0 -6.7835230973628614e-05 0.024309561250648013 0 -3.6290257682939697e-05 0.024374791469295887 0 -8.2717324050665615e-05 0.024245544258940672 0 -6.7835230973628614e-05 0.024309561250648013 0 -0.00012740819007335137 0.024257748552044173 0 -6.7835230973628614e-05 0.024309561250648013 0 -0.00012740819007335137 0.024257748552044173 0 -0.00010809369738521863 0.024299846621642161 0 -6.7835230973628614e-05 0.024309561250648013 0 -6.5662291913162543e-05 0.02432841689282143 0 -0.00010809369738521863 0.024299846621642161 0 -6.7835230973628614e-05 0.024309561250648013 0 -6.5662291913162543e-05 0.02432841689282143 0 -3.6290257682939697e-05 0.024374791469295887 0 -6.178077097278535e-05 0.024368975182782384 0 -9.0945033465676293e-05 0.024302753308368171 0 -0.00012459604336862294 0.024559022865774847 0 -6.5662291913162543e-05 0.02432841689282143 0 -5.2622683112902743e-05 0.024360860389611116 0 -3.6290257682939697e-05 0.024374791469295887 0 -5.2622683112902743e-05 0.024360860389611116 0 -6.178077097278535e-05 0.024368975182782384 0 -5.2086723113707743e-05 0.024443014624855063 0 -0.00010061522503973194 0.02473364844180935 0 -0.00013587435905060231 0.024503998872339512 0 -8.2099407657746929e-05 0.02455364836661459 0 -5.2086723113707743e-05 0.024443014624855063 0 -0.00012459604336862294 0.024559022865774847 0 -6.178077097278535e-05 0.024368975182782384 0 -5.2086723113707743e-05 0.024443014624855063 0 -0.00012459604336862294 0.024559022865774847 0 -5.2622683112902743e-05 0.024360860389611116 0 -5.2086723113707743e-05 0.024443014624855063 0 -3.6290257682939697e-05 0.024374791469295887 0 -5.5860975126720707e-07 0.02444098113010278 0 -3.8738433791474977e-05 0.024322620750206251 0 -3.6290257682939697e-05 0.024374791469295887 0 -5.5860975126720707e-07 0.02444098113010278 0 -5.2086723113707743e-05 0.024443014624855063 0 -3.6290257682939697e-05 0.024374791469295887 0 -0.00037253151024440153 0.023983495016482989 0 -0.00032242281006986676 0.024084977616968282 0 -0.00043842396071530268 0.02400568121870553 0 -0.00032242281006986676 0.024084977616968282 0 -0.00043842396071530268 0.02400568121870553 0 -0.00041007719136171175 0.024081563640714211 0 -0.00037253151024440153 0.023983495016482989 0 -0.00043842396071530268 0.02400568121870553 0 -0.00047358240851062849 0.023923571309461097 0 -0.00040671088433529755 0.023879984097583309 0 -0.00037253151024440153 0.023983495016482989 0 -0.00047358240851062849 0.023923571309461097 0 -0.00029015863978606413 0.023949360492459621 0 -0.00037253151024440153 0.023983495016482989 0 -0.00028347167180661965 0.024036130359921751 0 -0.00028347167180661965 0.024036130359921751 0 -0.00032242281006986676 0.024084977616968282 0 -0.00022348039006202497 0.024114546564134188 0 -0.00037253151024440153 0.023983495016482989 0 -0.00028347167180661965 0.024036130359921751 0 -0.00032242281006986676 0.024084977616968282 0 -0.00022348039006202497 0.024114546564134188 0 -0.00019696624143683355 0.024039008651212671 0 -0.00016937969573298684 0.024115445730186494 0 -0.00029015863978606413 0.023949360492459621 0 -0.00028347167180661965 0.024036130359921751 0 -0.00019696624143683355 0.024039008651212671 0 -0.00028347167180661965 0.024036130359921751 0 -0.00022348039006202497 0.024114546564134188 0 -0.00019696624143683355 0.024039008651212671 0 -0.00019696624143683355 0.024039008651212671 0 -0.00011087099596061788 0.024119014271049375 0 -0.00016937969573298684 0.024115445730186494 0 -0.00019696624143683355 0.024039008651212671 0 -0.00011365733962735493 0.024019256431062268 0 -0.00011087099596061788 0.024119014271049375 0 -6.0566202617735838e-05 0.02407386868716252 0 -0.00011365733962735493 0.024019256431062268 0 -0.00011087099596061788 0.024119014271049375 0 -0.00011087099596061788 0.024119014271049375 0 -0.00014855587255984179 0.024186085121989533 0 -0.00016937969573298684 0.024115445730186494 0 -8.2717324050665615e-05 0.024245544258940672 0 -0.00011087099596061788 0.024119014271049375 0 -0.00014855587255984179 0.024186085121989533 0 -0.00022348039006202497 0.024114546564134188 0 -0.00014855587255984179 0.024186085121989533 0 -0.00016937969573298684 0.024115445730186494 0 -0.00014855587255984179 0.024186085121989533 0 -0.00012740819007335137 0.024257748552044173 0 -0.00021717343945057953 0.024198551766101039 0 -8.2717324050665615e-05 0.024245544258940672 0 -0.00014855587255984179 0.024186085121989533 0 -0.00012740819007335137 0.024257748552044173 0 -0.00012740819007335137 0.024257748552044173 0 -0.0001684708822107094 0.024266837762981205 0 -0.00010809369738521863 0.024299846621642161 0 -0.00012740819007335137 0.024257748552044173 0 -0.0001684708822107094 0.024266837762981205 0 -0.00021717343945057953 0.024198551766101039 0 -0.0001684708822107094 0.024266837762981205 0 -0.00021717343945057953 0.024198551766101039 0 -0.00023432417617605649 0.024251566509175298 0 -0.00032242281006986676 0.024084977616968282 0 -0.00022348039006202497 0.024114546564134188 0 -0.00021717343945057953 0.024198551766101039 0 -0.00022348039006202497 0.024114546564134188 0 -0.00014855587255984179 0.024186085121989533 0 -0.00021717343945057953 0.024198551766101039 0 -0.00032242281006986676 0.024084977616968282 0 -0.00021717343945057953 0.024198551766101039 0 -0.00030795536976543382 0.024172149344134791 0 -0.00021717343945057953 0.024198551766101039 0 -0.00030795536976543382 0.024172149344134791 0 -0.00023432417617605649 0.024251566509175298 0 -0.00030795536976543382 0.024172149344134791 0 -0.00038077698817488582 0.024159855737897213 0 -0.00031010093175704348 0.024240335895739928 0 -0.00030795536976543382 0.024172149344134791 0 -0.00038077698817488582 0.024159855737897213 0 -0.00041007719136171175 0.024081563640714211 0 -0.00032242281006986676 0.024084977616968282 0 -0.00030795536976543382 0.024172149344134791 0 -0.00041007719136171175 0.024081563640714211 0 -0.00038077698817488582 0.024159855737897213 0 -0.00031010093175704348 0.024240335895739928 0 -0.00041846134769592638 0.024183644367200375 0 -0.00034318561184402751 0.024317658243304119 0 -0.00031010093175704348 0.024240335895739928 0 -0.00041846134769592638 0.024183644367200375 0 -0.00030795536976543382 0.024172149344134791 0 -0.00031010093175704348 0.024240335895739928 0 -0.00023432417617605649 0.024251566509175298 0 -0.00031010093175704348 0.024240335895739928 0 -0.00024510933403210636 0.024298665642314698 0 -0.00023432417617605649 0.024251566509175298 0 -0.00034318561184402751 0.024317658243304119 0 -0.00031010093175704348 0.024240335895739928 0 -0.00024510933403210636 0.024298665642314698 0 -0.00024510933403210636 0.024298665642314698 0 -0.00023432417617605649 0.024251566509175298 0 -0.00017109230180433103 0.024308319831959524 0 -0.0001684708822107094 0.024266837762981205 0 -0.00017109230180433103 0.024308319831959524 0 -0.00010809369738521863 0.024299846621642161 0 -0.0001684708822107094 0.024266837762981205 0 -0.00023432417617605649 0.024251566509175298 0 -0.00017109230180433103 0.024308319831959524 0 -0.00018769584284487778 0.02434362222303255 0 -0.00043724611046461908 0.024320983254894315 0 -0.00047015961233349169 0.024542382050934904 0 -0.00034318561184402751 0.024317658243304119 0 -0.00024510933403210636 0.024298665642314698 0 -0.00018769584284487778 0.02434362222303255 0 -0.00024510933403210636 0.024298665642314698 0 -0.00017109230180433103 0.024308319831959524 0 -0.00018769584284487778 0.02434362222303255 0 -0.00017109230180433103 0.024308319831959524 0 -0.00018769584284487778 0.02434362222303255 0 -0.00013650458865926041 0.024331018957134888 0 -0.00057262287971032169 0.024308088033776907 0 -0.00077739095698244 0.024246646146275502 0 -0.00047015961233349169 0.024542382050934904 0 -0.00040763238669222734 0.02429708481283829 0 -0.00023880847392359315 0.02430292679871866 0 -0.00060309575105752476 0.024093395002762249 0 -0.00018769584284487778 0.02434362222303255 0 -0.00043724611046461908 0.024320983254894315 0 -0.00060309575105752476 0.024093395002762249 0 -0.00057262287971032169 0.024308088033776907 0 -0.00077739095698244 0.024246646146275502 0 -0.00060309575105752476 0.024093395002762249 0 -0.00043724611046461908 0.024320983254894315 0 -0.00057262287971032169 0.024308088033776907 0 -7.3956299144575777e-05 0.02432125399666318 0 -6.9407735700433728e-05 0.024324978172523957 0 -7.7452828586178378e-05 0.024328552510039431 0 -6.9407735700433728e-05 0.024324978172523957 0 -9.156434640066574e-05 0.024333061391889049 0 -7.7452828586178378e-05 0.024328552510039431 0 -9.0945033465676293e-05 0.024302753308368171 0 -7.3956299144575777e-05 0.02432125399666318 0 -7.7452828586178378e-05 0.024328552510039431 0 -6.178077097278535e-05 0.024368975182782384 0 -9.0945033465676293e-05 0.024302753308368171 0 -7.3956299144575777e-05 0.02432125399666318 0 -6.5662291913162543e-05 0.02432841689282143 0 -5.2622683112902743e-05 0.024360860389611116 0 -6.9407735700433728e-05 0.024324978172523957 0 -6.178077097278535e-05 0.024368975182782384 0 -7.3956299144575777e-05 0.02432125399666318 0 -6.9407735700433728e-05 0.024324978172523957 0 -5.2622683112902743e-05 0.024360860389611116 0 -6.178077097278535e-05 0.024368975182782384 0 -6.9407735700433728e-05 0.024324978172523957 0 -6.5662291913162543e-05 0.02432841689282143 0 -0.00010809369738521863 0.024299846621642161 0 -0.00010092116037499992 0.024318239497785044 0 -6.5662291913162543e-05 0.02432841689282143 0 -6.9407735700433728e-05 0.024324978172523957 0 -0.00010092116037499992 0.024318239497785044 0 -0.00017109230180433103 0.024308319831959524 0 -0.00010809369738521863 0.024299846621642161 0 -0.00010092116037499992 0.024318239497785044 0 -0.00017109230180433103 0.024308319831959524 0 -0.00010092116037499992 0.024318239497785044 0 -0.00013650458865926041 0.024331018957134888 0 -6.9407735700433728e-05 0.024324978172523957 0 -0.00010092116037499992 0.024318239497785044 0 -9.156434640066574e-05 0.024333061391889049 0 -0.00010092116037499992 0.024318239497785044 0 -9.156434640066574e-05 0.024333061391889049 0 -0.00013650458865926041 0.024331018957134888 0 -9.156434640066574e-05 0.024333061391889049 0 -0.00013650458865926041 0.024331018957134888 0 -0.00012128408569985379 0.024356874160988497 0 -9.156434640066574e-05 0.024333061391889049 0 -0.00012128408569985379 0.024356874160988497 0 -8.7043009094218515e-05 0.024358425591890828 0 -8.7043009094218515e-05 0.024358425591890828 0 -4.9739464604252137e-05 0.024371673351933288 0 -0.00013718765193347792 0.024445274592011703 0 -0.00018769584284487778 0.02434362222303255 0 -0.00013650458865926041 0.024331018957134888 0 -0.00012128408569985379 0.024356874160988497 0 -0.00018769584284487778 0.02434362222303255 0 -0.00012128408569985379 0.024356874160988497 0 -0.00013718765193347792 0.024445274592011703 0 -0.00012128408569985379 0.024356874160988497 0 -8.7043009094218515e-05 0.024358425591890828 0 -0.00013718765193347792 0.024445274592011703 0 -0.00010061522503973194 0.02473364844180935 0 -0.00086009187002905217 0.023912349917024081 0 -8.7043009094218515e-05 0.024358425591890828 0 -7.7452828586178378e-05 0.024328552510039431 0 -4.9739464604252137e-05 0.024371673351933288 0 -0.00021787010785624349 0.02485114913576842 0 -0.00023001958612806027 0.02496513522335914 0 -0.00016446281645396681 0.024862289651906982 0 -9.0945033465676293e-05 0.024302753308368171 0 -7.7452828586178378e-05 0.024328552510039431 0 -4.9739464604252137e-05 0.024371673351933288 0 -9.156434640066574e-05 0.024333061391889049 0 -8.7043009094218515e-05 0.024358425591890828 0 -7.7452828586178378e-05 0.024328552510039431 0 -0.00086009187002905217 0.023912349917024081 0 -0.00071935443376730589 0.024437604424126923 0 -0.00071935443376730589 0.024437604424126923 0 -0.00012347829526269399 0.02496690565863682 0 -0.00023001958612806027 0.02496513522335914 0 -0.00016716995300444451 0.024951439943772927 0 -0.00016446281645396681 0.024862289651906982 0 -0.00011310803669870092 0.024972160891787037 0 -9.1552283343741733e-05 0.0249244458953265 0 -0.00014599145344846863 0.024883030815757802 0 -7.236920766349088e-05 0.024959511631572701 0 -7.0440390864912725e-05 0.024960164702748106 0 -6.1197446397976449e-05 0.024966472737681187 0 -0.00011310803669870092 0.024972160891787037 0 -7.0440390864912725e-05 0.024960164702748106 0 -9.1552283343741733e-05 0.0249244458953265 0 -0.00071935443376730589 0.024437604424126923 0 -0.00021431349924112407 0.024596025534031247 0 -0.00021787010785624349 0.02485114913576842 0 -0.00016446281645396681 0.024862289651906982 0 -0.00012718630191622067 0.024647573420595228 0 -0.00012347829526269399 0.02496690565863682 0 -0.00014605995783617442 0.024635673604452721 0 -0.00014599145344846863 0.024883030815757802 0 -9.7890333018592465e-05 0.024789497124078151 0 -0.00012718630191622067 0.024647573420595228 0 -9.1552283343741733e-05 0.0249244458953265 0 -0.00014599145344846863 0.024883030815757802 0 -7.6572259459699817e-05 0.024865911814148978 0 -9.1552283343741733e-05 0.0249244458953265 0 -7.6572259459699817e-05 0.024865911814148978 0 -6.3152497356877438e-05 0.024906816493984275 0 -7.6572259459699817e-05 0.024865911814148978 0 -9.7890333018592465e-05 0.024789497124078151 0 -6.3016693980168898e-05 0.024815061875042194 0 -0.00014599145344846863 0.024883030815757802 0 -7.6572259459699817e-05 0.024865911814148978 0 -9.7890333018592465e-05 0.024789497124078151 0 -4.2913185571026685e-05 0.02488973183446817 0 -1.9102735189834539e-05 0.024942964687894909 0 -2.7723058457340492e-05 0.024869743966837249 0 -4.2913185571026685e-05 0.02488973183446817 0 -2.7723058457340492e-05 0.024869743966837249 0 -6.3016693980168898e-05 0.024815061875042194 0 -7.6572259459699817e-05 0.024865911814148978 0 -4.2913185571026685e-05 0.02488973183446817 0 -6.3016693980168898e-05 0.024815061875042194 0 -6.3152497356877438e-05 0.024906816493984275 0 -4.2913185571026685e-05 0.02488973183446817 0 -3.9348189908269798e-05 0.02493392792336115 0 -7.6572259459699817e-05 0.024865911814148978 0 -6.3152497356877438e-05 0.024906816493984275 0 -4.2913185571026685e-05 0.02488973183446817 0 -4.2913185571026685e-05 0.02488973183446817 0 -3.9348189908269798e-05 0.02493392792336115 0 -1.9102735189834539e-05 0.024942964687894909 0 -3.9348189908269798e-05 0.02493392792336115 0 -3.6412808888392983e-05 0.024961399622138253 0 -1.9102735189834539e-05 0.024942964687894909 0 -3.9348189908269798e-05 0.02493392792336115 0 -5.7062396963076583e-05 0.024940517640634898 0 -3.6412808888392983e-05 0.024961399622138253 0 -7.0440390864912725e-05 0.024960164702748106 0 -9.1552283343741733e-05 0.0249244458953265 0 -5.7062396963076583e-05 0.024940517640634898 0 -9.1552283343741733e-05 0.0249244458953265 0 -6.3152497356877438e-05 0.024906816493984275 0 -5.7062396963076583e-05 0.024940517640634898 0 -6.3152497356877438e-05 0.024906816493984275 0 -3.9348189908269798e-05 0.02493392792336115 0 -5.7062396963076583e-05 0.024940517640634898 0 -7.0440390864912725e-05 0.024960164702748106 0 -3.6412808888392983e-05 0.024961399622138253 0 -4.3831673199784737e-05 0.024974192772331823 0 -7.0440390864912725e-05 0.024960164702748106 0 -5.7062396963076583e-05 0.024940517640634898 0 -3.6412808888392983e-05 0.024961399622138253 0 -3.6412808888392983e-05 0.024961399622138253 0 -7.1449155163922296e-06 0.024982777032321307 0 -1.9102735189834539e-05 0.024942964687894909 0 -7.1449155163922296e-06 0.024982777032321307 0 -1.9102735189834539e-05 0.024942964687894909 0 -2.9793092687608204e-06 0.024958414279850471 0 -7.1449155163922296e-06 0.024982777032321307 0 4.0354429321720533e-09 0.024999941658254567 0 -2.9793092687608204e-06 0.024958414279850471 0 4.0354429321720533e-09 0.024999941658254567 0 -2.9793092687608204e-06 0.024958414279850471 0 3.5924727336212905e-09 0.024999901286000985 0 -1.9102735189834539e-05 0.024942964687894909 0 -2.9793092687608204e-06 0.024958414279850471 0 -2.7723058457340492e-05 0.024869743966837249 0 -2.9793092687608204e-06 0.024958414279850471 0 -2.7723058457340492e-05 0.024869743966837249 0 -2.8572710013281235e-05 0.024868093585995839 0 -2.9793092687608204e-06 0.024958414279850471 0 3.5924727336212905e-09 0.024999901286000985 0 -2.8572710013281235e-05 0.024868093585995839 0 -5.8057924361153309e-09 0.024999689895497459 0 3.5924727336212905e-09 0.024999901286000985 0 -2.8572710013281235e-05 0.024868093585995839 0 -2.8572710013281235e-05 0.024868093585995839 0 -7.0898140996154596e-05 0.024754807075612076 0 -9.301445950091193e-05 0.024731973134381243 0 -7.0898140996154596e-05 0.024754807075612076 0 -9.301445950091193e-05 0.024731973134381243 0 -0.00010200560981572077 0.024647204460248755 0 -8.4347714285082793e-05 0.024667126500672036 0 -9.301445950091193e-05 0.024731973134381243 0 -0.00010200560981572077 0.024647204460248755 0 -8.4347714285082793e-05 0.024667126500672036 0 -8.2099407657746929e-05 0.02455364836661459 0 -0.00010200560981572077 0.024647204460248755 0 -8.2099407657746929e-05 0.02455364836661459 0 -0.00010200560981572077 0.024647204460248755 0 -0.00012459604336862294 0.024559022865774847 0 -0.00010200560981572077 0.024647204460248755 0 -9.4191857549109218e-05 0.024674074862928094 0 -0.00012459604336862294 0.024559022865774847 0 -7.0898140996154596e-05 0.024754807075612076 0 -0.00010200560981572077 0.024647204460248755 0 -9.4191857549109218e-05 0.024674074862928094 0 -0.00021787010785624349 0.02485114913576842 0 -0.00012718630191622067 0.024647573420595228 0 -0.00012459604336862294 0.024559022865774847 0 -9.4191857549109218e-05 0.024674074862928094 0 -9.0422986038366798e-05 0.024731843486653377 0 -6.6284218163963895e-05 0.024768661919736465 0 -9.4191857549109218e-05 0.024674074862928094 0 -0.00012718630191622067 0.024647573420595228 0 -9.0422986038366798e-05 0.024731843486653377 0 -9.4191857549109218e-05 0.024674074862928094 0 -0.00012718630191622067 0.024647573420595228 0 -0.00012459604336862294 0.024559022865774847 0 -9.7890333018592465e-05 0.024789497124078151 0 -0.00012718630191622067 0.024647573420595228 0 -9.0422986038366798e-05 0.024731843486653377 0 -9.7890333018592465e-05 0.024789497124078151 0 -9.0422986038366798e-05 0.024731843486653377 0 -6.3016693980168898e-05 0.024815061875042194 0 -9.0422986038366798e-05 0.024731843486653377 0 -6.3016693980168898e-05 0.024815061875042194 0 -6.6284218163963895e-05 0.024768661919736465 0 -2.7723058457340492e-05 0.024869743966837249 0 -6.3016693980168898e-05 0.024815061875042194 0 -6.6284218163963895e-05 0.024768661919736465 0 -2.7723058457340492e-05 0.024869743966837249 0 -2.8572710013281235e-05 0.024868093585995839 0 -7.0898140996154596e-05 0.024754807075612076 0 -2.7723058457340492e-05 0.024869743966837249 0 -7.0898140996154596e-05 0.024754807075612076 0 -6.6284218163963895e-05 0.024768661919736465 0 -7.0898140996154596e-05 0.024754807075612076 0 -9.4191857549109218e-05 0.024674074862928094 0 -6.6284218163963895e-05 0.024768661919736465 0 0.00010365262138841161 0.012684557094205557 0 0.00018565235627527782 0.012598785676466415 0 -3.5785414755010417e-05 0.012646909749001681 0 0.00011906472080805589 0.01279337444516627 0 0.00022957303812005687 0.012581466117332725 0 0.00010365262138841161 0.012684557094205557 0 6.8548387724633034e-05 0.012865370228138476 0 0.0002222986125964027 0.012557162276874213 0 0.00010365262138841161 0.012684557094205557 0 0.00018565235627527782 0.012598785676466415 0 0.0002222986125964027 0.012557162276874213 0 -7.925226529598549e-05 0.012785502029215605 0 -0.00020383832790281506 0.012733705538839721 0 -3.5785414755010417e-05 0.012646909749001681 0 0.00010365262138841161 0.012684557094205557 0 -7.925226529598549e-05 0.012785502029215605 0 -3.5785414755010417e-05 0.012646909749001681 0 0.00010365262138841161 0.012684557094205557 0 -7.925226529598549e-05 0.012785502029215605 0 6.8548387724633034e-05 0.012865370228138476 0 0.00021026351597069171 0.012655066263146582 0 0.00019194430632638742 0.013069074300499129 0 2.0824477447931894e-05 0.013181936124126891 0 -0.0001115743650147511 0.012903940602850265 0 6.8548387724633034e-05 0.012865370228138476 0 -0.00017978895518704823 0.013095902226470354 0 0.00011906472080805589 0.01279337444516627 0 7.6007268433740624e-06 0.012942154626920097 0 -7.925226529598549e-05 0.012785502029215605 0 -0.0001115743650147511 0.012903940602850265 0 6.8548387724633034e-05 0.012865370228138476 0 0.00021026351597069171 0.012655066263146582 0 0.00019194430632638742 0.013069074300499129 0 0.00025327514587016601 0.012511664958595963 0 0.00021026351597069171 0.012655066263146582 0 0.00025327514587016601 0.012511664958595963 0 0.0002222986125964027 0.012557162276874213 0 0.00019194430632638742 0.013069074300499129 0 0.00018383779655911748 0.012421194033166574 0 0.00025327514587016601 0.012511664958595963 0 1.8218709546199518e-07 0.012819549682987753 0 0.00019194430632638742 0.013069074300499129 0 0.00018383779655911748 0.012421194033166574 0 0.00019194430632638742 0.013069074300499129 0 6.4379707335958661e-07 0.014195356352029483 0 -1.3872496057076829e-05 0.013905320464413291 0 1.8218709546199518e-07 0.012819549682987753 0 0.00019194430632638742 0.013069074300499129 0 6.4379707335958661e-07 0.014195356352029483 0 -1.3872496057076829e-05 0.013905320464413291 0 -0.0004441798204482715 0.013954818094485242 0 2.0824477447931894e-05 0.013181936124126891 0 0.00019194430632638742 0.013069074300499129 0 -1.3872496057076829e-05 0.013905320464413291 0 2.0824477447931894e-05 0.013181936124126891 0 -0.00044747066262336161 0.015173191709761157 0 7.6007268433740624e-06 0.012942154626920097 0 6.4379707335958661e-07 0.014195356352029483 0 -1.3872496057076829e-05 0.013905320464413291 0 -1.6456865887047236e-06 0.015569397597463622 0 -1.3872496057076829e-05 0.013905320464413291 0 -1.6456865887047236e-06 0.015569397597463622 0 -0.0004441798204482715 0.013954818094485242 0 -9.4583394279934298e-08 0.015571079717380795 0 -0.00044747066262336161 0.015173191709761157 0 -0.00050621793021307052 0.017553993881852182 0 -0.00056096599944125975 0.017862350165713612 0 -0.00030611296463565818 0.017690329570223571 0 -0.00051525766184369484 0.013313658093806651 0 -0.00017978895518704823 0.013095902226470354 0 -0.00041585102773091784 0.012875876488413367 0 -0.00044747066262336161 0.015173191709761157 0 -0.00039546869062922352 0.01576385773725612 0 -0.00017978895518704823 0.013095902226470354 0 -0.00026042504471013783 0.012871712081050354 0 -0.00041585102773091784 0.012875876488413367 0 -0.0001115743650147511 0.012903940602850265 0 -0.00017978895518704823 0.013095902226470354 0 -0.00026042504471013783 0.012871712081050354 0 -0.00026042504471013783 0.012871712081050354 0 -0.00020383832790281506 0.012733705538839721 0 -0.00035140749376462254 0.012876616049319906 0 -0.00020383832790281506 0.012733705538839721 0 -0.00035140749376462254 0.012876616049319906 0 -0.00027088274317995417 0.012652451884981203 0 -7.925226529598549e-05 0.012785502029215605 0 -0.00026042504471013783 0.012871712081050354 0 -0.00020383832790281506 0.012733705538839721 0 -7.925226529598549e-05 0.012785502029215605 0 -0.0001115743650147511 0.012903940602850265 0 -0.00026042504471013783 0.012871712081050354 0 -0.00020196323024985021 0.018633383150039831 0 -0.00046441618634869298 0.018368500317198933 0 -0.00011178551665146484 0.018215654503204354 0 -0.00039546869062922352 0.01576385773725612 0 -0.00016422088909675515 0.015473365740182059 0 -0.00036687923685762924 0.014114931719789506 0 -0.00039546869062922352 0.01576385773725612 0 -0.00069322634658968449 0.018649340341004461 0 -0.0008356808028315907 0.018324268972545257 0 -0.00046441618634869298 0.018368500317198933 0 -0.00039546869062922352 0.01576385773725612 0 -0.00047152069839490377 0.018157068182582909 0 -0.00020196323024985021 0.018633383150039831 0 -0.00069322634658968449 0.018649340341004461 0 -0.00046441618634869298 0.018368500317198933 0 -0.00069322634658968449 0.018649340341004461 0 -0.0011915396496042241 0.018670288342852306 0 -0.0008356808028315907 0.018324268972545257 0 -0.00047152069839490377 0.018157068182582909 0 -0.00062358653843825262 0.021792949625884159 0 -0.00025981518983452347 0.017900743116819755 0 -9.9501522981505671e-05 0.01774654283999046 0 2.6744630487251017e-05 0.0179308705373246 0 -0.00025981518983452347 0.017900743116819755 0 -9.9501522981505671e-05 0.01774654283999046 0 -0.00030611296463565818 0.017690329570223571 0 -0.00056096599944125975 0.017862350165713612 0 -0.00025981518983452347 0.017900743116819755 0 -0.00030611296463565818 0.017690329570223571 0 -0.00050621793021307052 0.017553993881852182 0 -0.00030611296463565818 0.017690329570223571 0 -0.00032365839115058376 0.017440818649875456 0 -0.00044747066262336161 0.015173191709761157 0 -0.00017315260620261505 0.016927683422063213 0 -8.4834924668421618e-08 0.015572497451583256 0 8.0556747764086849e-05 0.016074371759189902 0 4.9722088575773109e-08 0.016911834056623564 0 -8.4834924668421618e-08 0.015572497451583256 0 -0.00020473642306205627 0.016147546420202653 0 8.0556747764086849e-05 0.016074371759189902 0 8.0556747764086849e-05 0.016074371759189902 0 -4.1951244158736459e-06 0.017149248225990489 0 4.9722088575773109e-08 0.016911834056623564 0 -0.00017315260620261505 0.016927683422063213 0 6.2408556845218403e-05 0.016976407778221295 0 -0.00032365839115058376 0.017440818649875456 0 -4.1951244158736459e-06 0.017149248225990489 0 -6.5038080054760465e-05 0.017595947989800128 0 -9.9501522981505671e-05 0.01774654283999046 0 -0.00030611296463565818 0.017690329570223571 0 -6.5038080054760465e-05 0.017595947989800128 0 -0.00030611296463565818 0.017690329570223571 0 -0.00032365839115058376 0.017440818649875456 0 -6.5038080054760465e-05 0.017595947989800128 0 -9.9501522981505671e-05 0.01774654283999046 0 -6.5038080054760465e-05 0.017595947989800128 0 5.3554632554970273e-05 0.01763380144321372 0 -6.5038080054760465e-05 0.017595947989800128 0 6.8155637781591049e-05 0.017700986372752685 0 5.3554632554970273e-05 0.01763380144321372 0 -4.1951244158736459e-06 0.017149248225990489 0 6.8155637781591049e-05 0.017700986372752685 0 -4.1120830538904722e-08 0.018250268886512992 0 -4.1951244158736459e-06 0.017149248225990489 0 4.9722088575773109e-08 0.016911834056623564 0 -4.1120830538904722e-08 0.018250268886512992 0 -4.1951244158736459e-06 0.017149248225990489 0 -6.5038080054760465e-05 0.017595947989800128 0 6.8155637781591049e-05 0.017700986372752685 0 6.8155637781591049e-05 0.017700986372752685 0 -8.9543532278399559e-05 0.018070960020269103 0 5.3554632554970273e-05 0.01763380144321372 0 -0.00017526494014777374 0.02168072557649136 0 -0.0001619149901847447 0.019278712130175471 0 4.1142013464078463e-07 0.019541173323695704 0 -1.2297965589937427e-06 0.01836640467845246 0 -5.0911399973854419e-05 0.0185359988647672 0 -0.0001619149901847447 0.019278712130175471 0 -0.00041849442081255597 0.020415718009438647 0 -2.0214281532495691e-09 0.01836423160378492 0 1.2255076410881719e-09 0.018251948900310705 0 -3.6731829072689935e-07 0.018338426732413652 0 -1.9015225855358522e-07 0.01836662513519223 0 -0.0001619149901847447 0.019278712130175471 0 -1.4355657214984818e-06 0.018254382315503914 0 -0.0001619149901847447 0.019278712130175471 0 6.8155637781591049e-05 0.017700986372752685 0 -4.1120830538904722e-08 0.018250268886512992 0 -8.9543532278399559e-05 0.018070960020269103 0 -0.00035415168536772278 0.023003312600335557 0 -0.00072027943551548814 0.022497162984997904 0 -0.00086442868059008178 0.023158197358563518 0 -0.00035415168536772278 0.023003312600335557 0 -0.00041626585639238938 0.023310273281801935 0 -0.00086442868059008178 0.023158197358563518 0 -0.00086442868059008178 0.023158197358563518 0 -0.00064729101806817665 0.023483054155230117 0 -0.00098230704981331967 0.023715328924195068 0 -0.00041626585639238938 0.023310273281801935 0 -0.00086442868059008178 0.023158197358563518 0 -0.00064729101806817665 0.023483054155230117 0 -0.00064729101806817665 0.023483054155230117 0 -0.00099947032223968472 0.023747967248845918 0 -0.00053044713943727105 0.023786093051052747 0 -0.00044656342640782206 0.02357327955317734 0 -0.00064729101806817665 0.023483054155230117 0 -0.00053044713943727105 0.023786093051052747 0 -0.0010616835838003211 0.023843120706113045 0 -0.00062358653843825262 0.021792949625884159 0 -9.9501522981505671e-05 0.01774654283999046 0 5.3554632554970273e-05 0.01763380144321372 0 2.6744630487251017e-05 0.0179308705373246 0 -0.00041849442081255597 0.020415718009438647 0 -0.00062358653843825262 0.021792949625884159 0 -0.00062358653843825262 0.021792949625884159 0 -0.00064933269666015868 0.021165182455117369 0 -0.00058694718101755293 0.023821025087070263 0 -0.00056596107474220822 0.02385097016475227 0 -0.00058591474000151773 0.023936173194852691 0 -0.00071812539115324262 0.024172024475192122 0 -0.00066179655727835267 0.023998112601428132 0 -0.00046271999948586294 0.024098719987547701 0 -0.00062358653843825262 0.021792949625884159 0 -0.00071156099490217472 0.02436774660676104 0 -0.00056596107474220822 0.02385097016475227 0 -0.00053851857751513617 0.023895121290344878 0 -0.00058591474000151773 0.023936173194852691 0 -0.00056596107474220822 0.02385097016475227 0 -0.00053851857751513617 0.023895121290344878 0 -0.00053044713943727105 0.023786093051052747 0 -0.00062358653843825262 0.021792949625884159 0 -0.00057859968147786042 0.023811703180347425 0 -0.00058694718101755293 0.023821025087070263 0 -0.00056596107474220822 0.02385097016475227 0 -0.00053044713943727105 0.023786093051052747 0 -0.00053851857751513617 0.023895121290344878 0 -0.00053044713943727105 0.023786093051052747 0 -0.00047358240851062849 0.023923571309461097 0 -0.00040671088433529755 0.023879984097583309 0 -0.00053044713943727105 0.023786093051052747 0 -0.00047358240851062849 0.023923571309461097 0 -0.00052422438663054355 0.023954811011703752 0 -0.00043842396071530268 0.02400568121870553 0 -0.00050053994953358949 0.024010996052754457 0 -0.00052422438663054355 0.023954811011703752 0 -0.00056059440628713748 0.023955153155769692 0 -0.00050053994953358949 0.024010996052754457 0 -0.00052422438663054355 0.023954811011703752 0 -0.00043842396071530268 0.02400568121870553 0 -0.00047358240851062849 0.023923571309461097 0 -0.00053851857751513617 0.023895121290344878 0 -0.00052422438663054355 0.023954811011703752 0 -0.00047358240851062849 0.023923571309461097 0 -0.00058591474000151773 0.023936173194852691 0 -0.00056059440628713748 0.023955153155769692 0 -0.00056837317347547243 0.023879355421243663 0 -0.00066179655727835267 0.023998112601428132 0 -0.00056837317347547243 0.023879355421243663 0 -0.00058426782534690841 0.023906701374301571 0 -0.00053851857751513617 0.023895121290344878 0 -0.00052422438663054355 0.023954811011703752 0 -0.00058591474000151773 0.023936173194852691 0 -0.00071156099490217472 0.02436774660676104 0 -0.00054789188086208813 0.023759204604945128 0 -0.00052422438663054355 0.023954811011703752 0 -0.00058591474000151773 0.023936173194852691 0 -0.00056059440628713748 0.023955153155769692 0 -0.00056059440628713748 0.023955153155769692 0 -0.00055364387579761177 0.023989949458277812 0 -0.00050053994953358949 0.024010996052754457 0 -0.0010443808513141142 0.023399531380957912 0 -0.00051656918016596649 0.023799514237267679 0 -0.00056059440628713748 0.023955153155769692 0 -0.00056837317347547243 0.023879355421243663 0 -0.00055364387579761177 0.023989949458277812 0 -0.00056837317347547243 0.023879355421243663 0 -0.00060463031984911257 0.024114335788611625 0 -0.00053261240824105968 0.023731335469545384 0 -0.00056837317347547243 0.023879355421243663 0 -0.00055364387579761177 0.023989949458277812 0 -0.00060463031984911257 0.024114335788611625 0 -0.00055364387579761177 0.023989949458277812 0 -0.00046798275929922834 0.024089387241794963 0 -0.00060463031984911257 0.024114335788611625 0 -0.00055364387579761177 0.023989949458277812 0 -0.00046798275929922834 0.024089387241794963 0 -0.00050053994953358949 0.024010996052754457 0 -0.00043842396071530268 0.02400568121870553 0 -0.00050053994953358949 0.024010996052754457 0 -0.00041007719136171175 0.024081563640714211 0 -0.00046798275929922834 0.024089387241794963 0 -0.00050053994953358949 0.024010996052754457 0 -0.00041007719136171175 0.024081563640714211 0 -0.00038077698817488582 0.024159855737897213 0 -0.00046798275929922834 0.024089387241794963 0 -0.00041846134769592638 0.024183644367200375 0 -0.00038077698817488582 0.024159855737897213 0 -0.00046798275929922834 0.024089387241794963 0 -0.00041007719136171175 0.024081563640714211 0 -0.00060309575105752476 0.024093395002762249 0 -0.00077739095698244 0.024246646146275502 0 -0.001107559827636218 0.023863173554144117 0 -0.00040763238669222734 0.02429708481283829 0 -0.0010443808513141142 0.023399531380957912 0 -0.00046798275929922834 0.024089387241794963 0 -0.00041846134769592638 0.024183644367200375 0 -0.00060463031984911257 0.024114335788611625 0 -0.00034318561184402751 0.024317658243304119 0 -0.00041846134769592638 0.024183644367200375 0 -0.00060463031984911257 0.024114335788611625 0 -0.001482975475592629 0.02295560764059525 0 -0.0010443808513141142 0.023399531380957912 0 -0.0021338574822941827 0.021596066927926073 0 -0.0016567411046695167 0.021471010978450021 0 -0.0014379107822066982 0.022633875274948562 0 -0.0021338574822941827 0.021596066927926073 0 -0.0016567411046695167 0.021471010978450021 0 -0.0020749707705282681 0.020982884179373228 0 -0.0011956005318473004 0.021671166709030805 0 -0.00096824095148545552 0.020800359996860831 0 -0.0013854358356797675 0.021099262843039795 0 -0.0016567411046695167 0.021471010978450021 0 -0.0011956005318473004 0.021671166709030805 0 -0.0014379107822066982 0.022633875274948562 0 -0.0016567411046695167 0.021471010978450021 0 -0.0011956005318473004 0.021671166709030805 0 -0.0013854358356797675 0.021099262843039795 0 -0.0011956005318473004 0.021671166709030805 0 -0.0014379107822066982 0.022633875274948562 0 -0.00051577290391893499 0.022213339108200763 0 -0.0014379107822066982 0.022633875274948562 0 -0.00051577290391893499 0.022213339108200763 0 -7.3304031835171653e-05 0.023345858449459019 0 -0.00051577290391893499 0.022213339108200763 0 0.00027575781633834128 0.02177146501499996 0 -0.00096824095148545552 0.020800359996860831 0 -0.0011956005318473004 0.021671166709030805 0 -0.00051577290391893499 0.022213339108200763 0 -0.00096824095148545552 0.020800359996860831 0 7.5035003745340637e-06 0.021718181715796949 0 -0.0010111518058706153 0.020676593265694102 0 -0.00052149250597194081 0.020918579354724059 0 -0.00026140286164706591 0.020881738644079315 0 -0.00047102503127793003 0.020647833730169041 0 -0.00051577290391893499 0.022213339108200763 0 0.00027575781633834128 0.02177146501499996 0 0.00031750422916571784 0.022774287417567984 0 0.00027575781633834128 0.02177146501499996 0 0.00031750422916571784 0.022774287417567984 0 0.0014846482370629765 0.022738954938613064 0 -0.00051577290391893499 0.022213339108200763 0 0.00031750422916571784 0.022774287417567984 0 -7.3304031835171653e-05 0.023345858449459019 0 0.00041164205274675487 0.023603082400381552 0 -7.3304031835171653e-05 0.023345858449459019 0 -0.00053261240824105968 0.023731335469545384 0 0.00031750422916571784 0.022774287417567984 0 0.00041164205274675487 0.023603082400381552 0 -7.3304031835171653e-05 0.023345858449459019 0 -0.0010443808513141142 0.023399531380957912 0 -0.000280002761475156 0.023129149761289273 0 -0.0012453756635615054 0.022921433040782375 0 -7.3304031835171653e-05 0.023345858449459019 0 -0.00053261240824105968 0.023731335469545384 0 -0.00056837317347547243 0.023879355421243663 0 -0.00053261240824105968 0.023731335469545384 0 -0.00058426782534690841 0.023906701374301571 0 0.00041164205274675487 0.023603082400381552 0 -0.00053261240824105968 0.023731335469545384 0 -0.00046271999948586294 0.024098719987547701 0 -0.00053261240824105968 0.023731335469545384 0 -0.00058426782534690841 0.023906701374301571 0 -0.00046271999948586294 0.024098719987547701 0 -0.00066179655727835267 0.023998112601428132 0 -0.00058426782534690841 0.023906701374301571 0 -0.00046271999948586294 0.024098719987547701 0 -1.4861746287635322e-05 0.020843288612988269 0 -0.00064933269666015868 0.021165182455117369 0 -0.00048486120945415894 0.0180144489984756 0 -0.0008356808028315907 0.018324268972545257 0 -0.00046441618634869298 0.018368500317198933 0 -0.00048486120945415894 0.0180144489984756 0 -0.00046441618634869298 0.018368500317198933 0 -0.00011178551665146484 0.018215654503204354 0 -0.00020383832790281506 0.012733705538839721 0 -0.00027088274317995417 0.012652451884981203 0 -0.00014565431356574514 0.012638537181500362 0 -0.00027088274317995417 0.012652451884981203 0 -0.00014565431356574514 0.012638537181500362 0 -0.00016848832388975172 0.012591166332323777 0 -0.00016422088909675515 0.015473365740182059 0 -0.00038063043825002906 0.014898690756254425 0 -5.2463098350137424e-05 0.012138846440914716 0 -0.00023367495684591819 0.01221741829854738 0 -0.00047280987048157623 0.011930014738719606 0 -0.00016848832388975172 0.012591166332323777 0 -0.00022030790453063834 0.012496070810677043 0 -5.7446337314617819e-05 0.012582072195779679 0 -0.00038063043825002906 0.014898690756254425 0 -0.00036724144439412353 0.011877267280181033 0 -0.00027088274317995417 0.012652451884981203 0 -0.00016848832388975172 0.012591166332323777 0 -0.00022030790453063834 0.012496070810677043 0 -0.00048486120945415894 0.0180144489984756 0 -1.9900879510001641e-05 0.017784930244011017 0 -0.00012948181515184202 0.017705406725693807 0 -0.00048486120945415894 0.0180144489984756 0 -0.00011178551665146484 0.018215654503204354 0 -1.9900879510001641e-05 0.017784930244011017 0 -1.4861746287635322e-05 0.020843288612988269 0 0.00042797443304622574 0.019818583096678399 0 0.00031750422916571784 0.022774287417567984 0 0.00041164205274675487 0.023603082400381552 0 0.0014846482370629765 0.022738954938613064 0 -0.00052149250597194081 0.020918579354724059 0 -0.00018416138233941885 0.02109688973309911 0 -0.00026140286164706591 0.020881738644079315 0 -0.00018416138233941885 0.02109688973309911 0 -0.00026140286164706591 0.020881738644079315 0 -7.4838153287871156e-05 0.021001826988419712 0 7.5035003745340637e-06 0.021718181715796949 0 0.00042797443304622574 0.019818583096678399 0 -0.00026140286164706591 0.020881738644079315 0 -0.00019455194668448908 0.020656631848981054 0 -0.00047102503127793003 0.020647833730169041 0 -7.1447425405692696e-05 0.017023533600678174 0 -0.00022394205815840198 0.017008475556213157 0 -0.00026140286164706591 0.020881738644079315 0 -2.0066388569322918e-05 0.0207645295317667 0 -7.4838153287871156e-05 0.021001826988419712 0 -0.00026140286164706591 0.020881738644079315 0 -2.0066388569322918e-05 0.0207645295317667 0 -0.00019455194668448908 0.020656631848981054 0 -8.101898721525204e-05 0.013147646067505679 0 -1.7107765927229928e-05 0.012469787478056384 0 -0.00036177582988681627 0.012556215239362211 0 -1.7107765927229928e-05 0.012469787478056384 0 -0.00023367495684591819 0.01221741829854738 0 -0.00036177582988681627 0.012556215239362211 0 -0.00038063043825002906 0.014898690756254425 0 -0.00022394205815840198 0.017008475556213157 0 -2.7971356717883856e-05 0.017405799974361921 0 4.3085012287536607e-05 0.017466984391748156 0 -5.2883965363904695e-05 0.017542987966693131 0 0.00042797443304622574 0.019818583096678399 0 -0.00022394205815840198 0.017008475556213157 0 -0.00038063043825002906 0.014898690756254425 0 0.00042797443304622574 0.019818583096678399 0 -5.2463098350137424e-05 0.012138846440914716 0 -1.7107765927229928e-05 0.012469787478056384 0 -0.00023367495684591819 0.01221741829854738 0 -0.00049796087403252418 0.012123576306298007 0 -0.00064208969600190952 0.012505801194962363 0 -0.00046978624214721301 0.01213300755079611 0 -0.00036177582988681627 0.012556215239362211 0 -0.00074749648896303299 0.012800452859270339 0 -0.00023367495684591819 0.01221741829854738 0 -0.00046978624214721301 0.01213300755079611 0 -0.00036177582988681627 0.012556215239362211 0 -0.00046978624214721301 0.01213300755079611 0 -0.00051254784713114369 0.011999593742118914 0 -0.00048808363358880062 0.012046803183517529 0 -8.101898721525204e-05 0.013147646067505679 0 -0.00036177582988681627 0.012556215239362211 0 -0.00074749648896303299 0.012800452859270339 0 -0.00064208969600190952 0.012505801194962363 0 -0.00048754116560242655 0.012214532664893927 0 -8.101898721525204e-05 0.013147646067505679 0 -0.00074749648896303299 0.012800452859270339 0 -0.00093309883583929637 0.01354146012976583 0 -0.00051254784713114369 0.011999593742118914 0 -0.00048500913090854643 0.011983357298048806 0 -0.00050188622161638507 0.011957935745179749 0 -0.00048500913090854643 0.011983357298048806 0 -0.00050188622161638507 0.011957935745179749 0 -0.00047073403003728049 0.011958635015709205 0 -0.00048500913090854643 0.011983357298048806 0 -0.00048808363358880062 0.012046803183517529 0 -0.00048797649535115993 0.012000137214234182 0 -0.00048500913090854643 0.011983357298048806 0 -0.00048797649535115993 0.012000137214234182 0 -0.00047835574888569735 0.011971765841649865 0 -0.00051254784713114369 0.011999593742118914 0 -0.00048500913090854643 0.011983357298048806 0 -0.00048808363358880062 0.012046803183517529 0 -0.00048808363358880062 0.012046803183517529 0 -0.00048797649535115993 0.012000137214234182 0 -0.0004992056983961203 0.012010621763482714 0 -0.00048797649535115993 0.012000137214234182 0 -0.0004992056983961203 0.012010621763482714 0 -0.00049401389590674209 0.011992599977232231 0 -0.0004992056983961203 0.012010621763482714 0 -0.00050088839062761544 0.011992154643733101 0 -0.00050439372290476145 0.0120021196330816 0 -0.0004992056983961203 0.012010621763482714 0 -0.00050088839062761544 0.011992154643733101 0 -0.00049401389590674209 0.011992599977232231 0 -0.00050088839062761544 0.011992154643733101 0 -0.00050444774839696678 0.01198792017781493 0 -0.00050439372290476145 0.0120021196330816 0 -0.00050088839062761544 0.011992154643733101 0 -0.00050444774839696678 0.01198792017781493 0 -0.00050211292111281849 0.011987701581169475 0 -0.00050444774839696678 0.01198792017781493 0 -0.00050208600670913119 0.011985285418110133 0 -0.00050439372290476145 0.0120021196330816 0 -0.00050208600670913119 0.011985285418110133 0 -0.00050439372290476145 0.0120021196330816 0 -0.00050264982060854236 0.012028240253557922 0 -0.00048808363358880062 0.012046803183517529 0 -0.0004992056983961203 0.012010621763482714 0 -0.00050264982060854236 0.012028240253557922 0 -0.0004992056983961203 0.012010621763482714 0 -0.00050439372290476145 0.0120021196330816 0 -0.00050264982060854236 0.012028240253557922 0 -0.00046978624214721301 0.01213300755079611 0 -0.00048808363358880062 0.012046803183517529 0 -0.00050264982060854236 0.012028240253557922 0 -0.00023367495684591819 0.01221741829854738 0 -0.00046978624214721301 0.01213300755079611 0 -0.00047280987048157623 0.011930014738719606 0 -0.00046978624214721301 0.01213300755079611 0 -0.00050264982060854236 0.012028240253557922 0 -0.00047280987048157623 0.011930014738719606 0 -0.00050208600670913119 0.011985285418110133 0 -0.00050264982060854236 0.012028240253557922 0 -0.00047280987048157623 0.011930014738719606 0 -0.00020383832790281506 0.012733705538839721 0 -0.00014565431356574514 0.012638537181500362 0 -3.5785414755010417e-05 0.012646909749001681 0 -0.00014565431356574514 0.012638537181500362 0 -0.00016848832388975172 0.012591166332323777 0 -5.7446337314617819e-05 0.012582072195779679 0 -0.00014565431356574514 0.012638537181500362 0 -5.7446337314617819e-05 0.012582072195779679 0 -3.5785414755010417e-05 0.012646909749001681 0 -9.9977643254787091e-05 0.012454940683656057 0 -0.00036724144439412353 0.011877267280181033 0 -0.0005102444203970726 0.012002224080534554 0 -0.00047280987048157623 0.011930014738719606 0 -0.00050044981835816555 0.011979597983244317 0 6.354472641751372e-05 0.012662420769357152 0 -5.7446337314617819e-05 0.012582072195779679 0 -3.5785414755010417e-05 0.012646909749001681 0 -9.9977643254787091e-05 0.012454940683656057 0 7.6618181350956893e-05 0.012662173290079799 0 -0.0005102444203970726 0.012002224080534554 0 -0.00050575607558678141 0.01199260803293031 0 -0.00050044981835816555 0.011979597983244317 0 -0.0005102444203970726 0.012002224080534554 0 -0.00050591499600386922 0.011997370445513042 0 -0.00050575607558678141 0.01199260803293031 0 -0.0005102444203970726 0.012002224080534554 0 -0.00050591499600386922 0.011997370445513042 0 -0.00050351415482226681 0.011999777284531003 0 -0.00050591499600386922 0.011997370445513042 0 -0.00050575607558678141 0.01199260803293031 0 -0.00050461308536284863 0.011989874150526198 0 -0.00050591499600386922 0.011997370445513042 0 -0.00050461308536284863 0.011989874150526198 0 -0.00050385046693319883 0.011995737281854406 0 -0.00050461308536284863 0.011989874150526198 0 -0.00050313010813029082 0.011992552774402544 0 -0.00050385046693319883 0.011995737281854406 0 -0.00050461308536284863 0.011989874150526198 0 -0.00050360080735072478 0.011987541473588324 0 -0.00050277607207754892 0.011983666657117281 0 -0.00050360080735072478 0.011987541473588324 0 -0.00050227750152032091 0.011989368088177257 0 -0.00050313010813029082 0.011992552774402544 0 -0.00050461308536284863 0.011989874150526198 0 -0.00050360080735072478 0.011987541473588324 0 -0.00050313010813029082 0.011992552774402544 0 -0.00050575607558678141 0.01199260803293031 0 -0.00050461308536284863 0.011989874150526198 0 -0.00050044981835816555 0.011979597983244317 0 -0.00050461308536284863 0.011989874150526198 0 -0.00050044981835816555 0.011979597983244317 0 -0.00050277607207754892 0.011983666657117281 0 -0.00050044981835816555 0.011979597983244317 0 -0.00050277607207754892 0.011983666657117281 0 -0.00050108992180943816 0.011976451503870464 0 -0.00050277607207754892 0.011983666657117281 0 -0.00050369306531740897 0.011985687392000229 0 -0.00050108992180943816 0.011976451503870464 0 -0.00050360080735072478 0.011987541473588324 0 -0.00050277607207754892 0.011983666657117281 0 -0.00050369306531740897 0.011985687392000229 0 -0.00050360080735072478 0.011987541473588324 0 -0.00050369306531740897 0.011985687392000229 0 -0.00050227750152032091 0.011989368088177257 0 -0.00050444774839696678 0.01198792017781493 0 -0.00050211292111281849 0.011987701581169475 0 -0.00050369306531740897 0.011985687392000229 0 -0.00050211292111281849 0.011987701581169475 0 -0.00050369306531740897 0.011985687392000229 0 -0.00050111111175592238 0.011988140753678815 0 -0.00050444774839696678 0.01198792017781493 0 -0.00050369306531740897 0.011985687392000229 0 -0.00050108992180943816 0.011976451503870464 0 -0.00050208600670913119 0.011985285418110133 0 -0.00047280987048157623 0.011930014738719606 0 -0.00050108992180943816 0.011976451503870464 0 -0.00050444774839696678 0.01198792017781493 0 -0.00050208600670913119 0.011985285418110133 0 -0.00050108992180943816 0.011976451503870464 0 -0.00047280987048157623 0.011930014738719606 0 -0.00050044981835816555 0.011979597983244317 0 -0.00050108992180943816 0.011976451503870464 0 -0.0015497181287633085 0.015814692037820509 0 -0.001663758138228659 0.015870819265229884 0 -0.0016060892899957503 0.015779764882369381 0 -0.00041049984018999233 0.012859852193063133 0 -0.0010816613515684606 0.015655393952020823 0 -0.001663758138228659 0.015870819265229884 0 -0.0016868928735480995 0.015742572347036979 0 -0.0016060892899957503 0.015779764882369381 0 -0.0010816613515684606 0.015655393952020823 0 -0.0018754572663320463 0.015927241876142126 0 -0.0017747712887387418 0.016161418359488967 0 -0.0019609972315339226 0.015873567009426711 0 -0.0016868928735480995 0.015742572347036979 0 -0.00038857156524495977 0.013692208713438887 0 -0.00026450457113358789 0.013777898889050904 0 -0.00040664709587162883 0.013803735559664325 0 -0.0010816613515684606 0.015655393952020823 0 -0.00032031787690977356 0.014968609946879869 0 -0.00022291429069616693 0.013596640447548719 0 -0.00038857156524495977 0.013692208713438887 0 -0.00026450457113358789 0.013777898889050904 0 -0.00041049984018999233 0.012859852193063133 0 0.00027758417541440755 0.011870346186803644 0 0.00047927926282098166 0.010818334526201073 0 0.00052246737690030912 0.010358896478264863 0 0.00031016301303036007 0.010697002059479139 0 0.00052246737690030912 0.010358896478264863 0 0.00052636069814881981 0.010034207788051478 0 0.00030558622082725822 0.010125629737486248 0 0.00027758417541440755 0.011870346186803644 0 -0.00048754116560242655 0.012214532664893927 0 0.00052636069814881981 0.010034207788051478 0 0.00030558622082725822 0.010125629737486248 0 0.00023013254492364134 0.0099686258921086891 0 -0.00048754116560242655 0.012214532664893927 0 -9.0793853516267194e-05 0.010866634321147144 0 -0.0003080378666365036 0.013947073837832313 0 -0.00035063966799035175 0.013861735598905214 0 -0.00042411735888879884 0.013915659416170635 0 -0.00048754116560242655 0.012214532664893927 0 -0.00011779609423663143 0.01646443969680169 0 -8.101898721525204e-05 0.013147646067505679 0 -0.00093309883583929637 0.01354146012976583 0 -0.00021586041123953839 0.013862671514480446 0 -0.00040664709587162883 0.013803735559664325 0 -0.00035063966799035175 0.013861735598905214 0 -0.00042411735888879884 0.013915659416170635 0 -0.00026450457113358789 0.013777898889050904 0 -0.0003080378666365036 0.013947073837832313 0 -0.00035063966799035175 0.013861735598905214 0 -0.00026450457113358789 0.013777898889050904 0 -0.00040664709587162883 0.013803735559664325 0 -0.00035063966799035175 0.013861735598905214 0 -0.00033528814475841754 0.016654008494422907 0 -0.00042404615254061368 0.017097792499016645 0 -0.00085964472312128465 0.016927004477333574 0 -0.00032031787690977356 0.014968609946879869 0 -0.00011779609423663143 0.01646443969680169 0 -0.00033528814475841754 0.016654008494422907 0 -0.00085964472312128465 0.016927004477333574 0 -0.00077269021916498979 0.016480733755578274 0 -2.0066388569322918e-05 0.0207645295317667 0 3.418642062356512e-05 0.020507043194989909 0 -0.00019455194668448908 0.020656631848981054 0 -7.1447425405692696e-05 0.017023533600678174 0 -0.00011779609423663143 0.01646443969680169 0 -0.00011779609423663143 0.01646443969680169 0 -0.00035245660456664259 0.018723582670734828 0 3.418642062356512e-05 0.020507043194989909 0 -0.00019455194668448908 0.020656631848981054 0 -0.00019409829752919491 0.020433102235713072 0 -0.00019455194668448908 0.020656631848981054 0 -0.00019409829752919491 0.020433102235713072 0 -0.00047102503127793003 0.020647833730169041 0 -0.00085964472312128465 0.016927004477333574 0 -0.00077269021916498979 0.016480733755578274 0 -0.0012943498993630788 0.016757784651766576 0 -0.00019409829752919491 0.020433102235713072 0 -0.00043452866139488992 0.020339105919531086 0 -0.00047102503127793003 0.020647833730169041 0 -0.0014352239922712357 0.016304917299931859 0 -0.0011104922871274061 0.018413956088855508 0 -0.00035245660456664259 0.018723582670734828 0 -0.0011104922871274061 0.018413956088855508 0 -0.0022289614139375438 0.016213961176835982 0 -0.0020386354705003054 0.016283862998722483 0 -0.0021161940265977085 0.016066276189478475 0 -0.0022289614139375438 0.016213961176835982 0 -0.0020386354705003054 0.016283862998722483 0 -0.002285686970142187 0.016404539134356917 0 -0.0017747712887387418 0.016161418359488967 0 -0.0020386354705003054 0.016283862998722483 0 -0.0021161940265977085 0.016066276189478475 0 -0.0010816613515684606 0.015655393952020823 0 -0.0014352239922712357 0.016304917299931859 0 -0.00024855289566670983 0.016207620391945884 0 -0.00033528814475841754 0.016654008494422907 0 -0.00077269021916498979 0.016480733755578274 0 -0.0017747712887387418 0.016161418359488967 0 -0.0021161940265977085 0.016066276189478475 0 -0.0019609972315339226 0.015873567009426711 0 -0.0022289614139375438 0.016213961176835982 0 -0.0021161940265977085 0.016066276189478475 0 -0.002359645912704223 0.015991678069421693 0 -0.0021161940265977085 0.016066276189478475 0 -0.0022561293748533172 0.015765480723874431 0 -0.0019609972315339226 0.015873567009426711 0 -0.0021161940265977085 0.016066276189478475 0 -0.002359645912704223 0.015991678069421693 0 -0.0022561293748533172 0.015765480723874431 0 -0.002359645912704223 0.015991678069421693 0 -0.0026099526246733803 0.015979457953426847 0 -0.0024192730250464996 0.016166229868763329 0 -0.0026099526246733803 0.015979457953426847 0 -0.0026053377903252932 0.016242234605447027 0 -0.0024192730250464996 0.016166229868763329 0 -0.0022289614139375438 0.016213961176835982 0 -0.002359645912704223 0.015991678069421693 0 -0.0024192730250464996 0.016166229868763329 0 -0.0026053377903252932 0.016242234605447027 0 -0.0024192730250464996 0.016166229868763329 0 -0.002285686970142187 0.016404539134356917 0 -0.0022289614139375438 0.016213961176835982 0 -0.0024192730250464996 0.016166229868763329 0 -0.002285686970142187 0.016404539134356917 0 -0.00043452866139488992 0.020339105919531086 0 -0.00047102503127793003 0.020647833730169041 0 -0.00075731601907507026 0.020522350033059581 0 -0.0011104922871274061 0.018413956088855508 0 -0.00064417035986475074 0.02072015441227907 0 -0.0018159692228142813 0.018017055530345705 0 -0.0011104922871274061 0.018413956088855508 0 -0.00052149250597194081 0.020918579354724059 0 -0.00047102503127793003 0.020647833730169041 0 -0.00096824095148545552 0.020800359996860831 0 -0.00047102503127793003 0.020647833730169041 0 -0.00096824095148545552 0.020800359996860831 0 -0.00075731601907507026 0.020522350033059581 0 -0.00096824095148545552 0.020800359996860831 0 -0.00075731601907507026 0.020522350033059581 0 -0.0011266288527171434 0.020412116110810848 0 -0.00097567033318370457 0.019832066206615814 0 -0.00013002061306987691 0.020186109754514375 0 -0.00075731601907507026 0.020522350033059581 0 -0.00097567033318370457 0.019832066206615814 0 -0.00075731601907507026 0.020522350033059581 0 -0.0011266288527171434 0.020412116110810848 0 -0.00097567033318370457 0.019832066206615814 0 -0.0015520454155935005 0.020184853094856476 0 -0.0011266288527171434 0.020412116110810848 0 -0.0015520454155935005 0.020184853094856476 0 -0.0014282475644425126 0.020657208765839492 0 -0.0018492536440062788 0.020586095305211934 0 -0.0015520454155935005 0.020184853094856476 0 -0.0011266288527171434 0.020412116110810848 0 -0.0014282475644425126 0.020657208765839492 0 -0.00096824095148545552 0.020800359996860831 0 -0.0011266288527171434 0.020412116110810848 0 -0.0014282475644425126 0.020657208765839492 0 -0.0014282475644425126 0.020657208765839492 0 -0.0016999860079926384 0.020952669644323178 0 -0.0018492536440062788 0.020586095305211934 0 -0.0014282475644425126 0.020657208765839492 0 -0.0013854358356797675 0.021099262843039795 0 -0.0016999860079926384 0.020952669644323178 0 -0.0016567411046695167 0.021471010978450021 0 -0.0013854358356797675 0.021099262843039795 0 -0.0016999860079926384 0.020952669644323178 0 -0.00096824095148545552 0.020800359996860831 0 -0.0014282475644425126 0.020657208765839492 0 -0.0013854358356797675 0.021099262843039795 0 -0.0021338574822941827 0.021596066927926073 0 -0.0020749707705282681 0.020982884179373228 0 -0.0027283720789046078 0.020756556824320396 0 -0.0016567411046695167 0.021471010978450021 0 -0.0016999860079926384 0.020952669644323178 0 -0.0020749707705282681 0.020982884179373228 0 -0.0016999860079926384 0.020952669644323178 0 -0.0020749707705282681 0.020982884179373228 0 -0.0018492536440062788 0.020586095305211934 0 -0.0020749707705282681 0.020982884179373228 0 -0.0018492536440062788 0.020586095305211934 0 -0.0022910669061464994 0.020657035346880383 0 -0.0018492536440062788 0.020586095305211934 0 -0.0022910669061464994 0.020657035346880383 0 -0.0020341997778519439 0.020203586807419498 0 -0.0015520454155935005 0.020184853094856476 0 -0.0018492536440062788 0.020586095305211934 0 -0.0020341997778519439 0.020203586807419498 0 -0.0020341997778519439 0.020203586807419498 0 -0.0018993432389668909 0.01947336756907837 0 -0.0025423265626610503 0.02017586699613225 0 -0.0015520454155935005 0.020184853094856476 0 -0.0020341997778519439 0.020203586807419498 0 -0.0018993432389668909 0.01947336756907837 0 -0.00097567033318370457 0.019832066206615814 0 -0.0015520454155935005 0.020184853094856476 0 -0.0018993432389668909 0.01947336756907837 0 -0.0018159692228142813 0.018017055530345705 0 -0.0023666039275468394 0.017795233873170592 0 -0.0026099526246733803 0.015979457953426847 0 -0.0026053377903252932 0.016242234605447027 0 -0.0028712017683139054 0.016092995790917525 0 -0.0026099526246733803 0.015979457953426847 0 -0.0028712017683139054 0.016092995790917525 0 -0.0028092246837405606 0.015782462264335547 0 -0.0028712017683139054 0.016092995790917525 0 -0.0028092246837405606 0.015782462264335547 0 -0.0029853331791681926 0.015821077622161173 0 -0.0028092246837405606 0.015782462264335547 0 -0.0027459005829582402 0.015532419145132207 0 -0.0025567473562478392 0.015698364037459119 0 -0.0028092246837405606 0.015782462264335547 0 -0.0029283107143375418 0.01557157348660595 0 -0.0027459005829582402 0.015532419145132207 0 -0.0028092246837405606 0.015782462264335547 0 -0.0029283107143375418 0.01557157348660595 0 -0.0029853331791681926 0.015821077622161173 0 -0.0029283107143375418 0.01557157348660595 0 -0.0028175628429804411 0.015408203059258413 0 -0.0027459005829582402 0.015532419145132207 0 -0.0029283107143375418 0.01557157348660595 0 -0.0028175628429804411 0.015408203059258413 0 -0.0029304959902689285 0.015376167489120272 0 -0.0028175628429804411 0.015408203059258413 0 -0.0029304959902689285 0.015376167489120272 0 -0.0027757544451734949 0.015266973274327683 0 -0.0026967807235767187 0.01533527173390007 0 -0.0027757544451734949 0.015266973274327683 0 -0.0026635222696485047 0.015227262509285348 0 -0.0028175628429804411 0.015408203059258413 0 -0.0026967807235767187 0.01533527173390007 0 -0.0027757544451734949 0.015266973274327683 0 -0.0028175628429804411 0.015408203059258413 0 -0.0027459005829582402 0.015532419145132207 0 -0.0026967807235767187 0.01533527173390007 0 -0.0027459005829582402 0.015532419145132207 0 -0.0025906987760458428 0.015439168129819244 0 -0.0026967807235767187 0.01533527173390007 0 -0.0026967807235767187 0.01533527173390007 0 -0.0025861222795986721 0.015189520356385685 0 -0.0026635222696485047 0.015227262509285348 0 -0.0025906987760458428 0.015439168129819244 0 -0.0026967807235767187 0.01533527173390007 0 -0.0025861222795986721 0.015189520356385685 0 -0.0025861222795986721 0.015189520356385685 0 -0.0023759683459042042 0.015436388614534424 0 -0.0024571642848854841 0.014974574153113826 0 -0.0025906987760458428 0.015439168129819244 0 -0.0025861222795986721 0.015189520356385685 0 -0.0023759683459042042 0.015436388614534424 0 -0.0025906987760458428 0.015439168129819244 0 -0.0025567473562478392 0.015698364037459119 0 -0.0023759683459042042 0.015436388614534424 0 -0.0025567473562478392 0.015698364037459119 0 -0.0022561293748533172 0.015765480723874431 0 -0.0023759683459042042 0.015436388614534424 0 -0.0027459005829582402 0.015532419145132207 0 -0.0025906987760458428 0.015439168129819244 0 -0.0025567473562478392 0.015698364037459119 0 -0.002359645912704223 0.015991678069421693 0 -0.0026099526246733803 0.015979457953426847 0 -0.0025567473562478392 0.015698364037459119 0 -0.0026099526246733803 0.015979457953426847 0 -0.0028092246837405606 0.015782462264335547 0 -0.0025567473562478392 0.015698364037459119 0 -0.002359645912704223 0.015991678069421693 0 -0.0025567473562478392 0.015698364037459119 0 -0.0022561293748533172 0.015765480723874431 0 -0.0019609972315339226 0.015873567009426711 0 -0.0019557243242134359 0.015654434201293237 0 -0.0016868928735480995 0.015742572347036979 0 -0.0022561293748533172 0.015765480723874431 0 -0.0019609972315339226 0.015873567009426711 0 -0.0019557243242134359 0.015654434201293237 0 -0.0022561293748533172 0.015765480723874431 0 -0.0019557243242134359 0.015654434201293237 0 -0.0023759683459042042 0.015436388614534424 0 -0.0019557243242134359 0.015654434201293237 0 -0.0023759683459042042 0.015436388614534424 0 -0.0020447547706240747 0.015239877853145165 0 -0.0023759683459042042 0.015436388614534424 0 -0.0024571642848854841 0.014974574153113826 0 -0.0020447547706240747 0.015239877853145165 0 -0.0024571642848854841 0.014974574153113826 0 -0.0020447547706240747 0.015239877853145165 0 -0.0017042259134469977 0.014672322468486657 0 -0.0019557243242134359 0.015654434201293237 0 -0.0020447547706240747 0.015239877853145165 0 -0.0015932488369847701 0.015302412745702921 0 -0.0020447547706240747 0.015239877853145165 0 -0.0015932488369847701 0.015302412745702921 0 -0.0017042259134469977 0.014672322468486657 0 -0.0015932488369847701 0.015302412745702921 0 -0.0010231699243450204 0.014937722186001768 0 -0.0017042259134469977 0.014672322468486657 0 -0.0010231699243450204 0.014937722186001768 0 -0.0012295331486800534 0.015452188119438316 0 -0.00089248819939761017 0.015424544705133651 0 -0.0015932488369847701 0.015302412745702921 0 -0.0010231699243450204 0.014937722186001768 0 -0.0012295331486800534 0.015452188119438316 0 -0.0012295331486800534 0.015452188119438316 0 -0.0015249177688909442 0.015548586133068358 0 -0.0013111152458665301 0.015789305459907643 0 -0.0012295331486800534 0.015452188119438316 0 -0.0013111152458665301 0.015789305459907643 0 -0.0010108303400601095 0.015647046965542758 0 -0.0012295331486800534 0.015452188119438316 0 -0.0010108303400601095 0.015647046965542758 0 -0.00089248819939761017 0.015424544705133651 0 -0.0019557243242134359 0.015654434201293237 0 -0.0015249177688909442 0.015548586133068358 0 -0.0013111152458665301 0.015789305459907643 0 -0.0015932488369847701 0.015302412745702921 0 -0.0012295331486800534 0.015452188119438316 0 -0.0015249177688909442 0.015548586133068358 0 -0.0019557243242134359 0.015654434201293237 0 -0.0015932488369847701 0.015302412745702921 0 -0.0015249177688909442 0.015548586133068358 0 -0.0019119931606312057 0.015701495807988654 0 -0.0014759847841143783 0.01557268035515365 0 -0.0019557243242134359 0.015654434201293237 0 -0.0016868928735480995 0.015742572347036979 0 -0.0015883453524335968 0.015696870217998149 0 -0.0015497181287633085 0.015814692037820509 0 -0.0016060892899957503 0.015779764882369381 0 -0.001507364953485797 0.015708128799804991 0 -0.00041049984018999233 0.012859852193063133 0 -0.00030094919114591312 0.014186534136691428 0 -0.0016060892899957503 0.015779764882369381 0 -0.0015883453524335968 0.015696870217998149 0 -0.001507364953485797 0.015708128799804991 0 -0.0016868928735480995 0.015742572347036979 0 -0.0016060892899957503 0.015779764882369381 0 -0.0015883453524335968 0.015696870217998149 0 -0.0014759847841143783 0.01557268035515365 0 -0.00030094919114591312 0.014186534136691428 0 -0.0013111152458665301 0.015789305459907643 0 -0.0010247530993238241 0.015800193040356465 0 -0.0010108303400601095 0.015647046965542758 0 -2.4767382015339567e-05 0.024988681920544303 0 -3.1485479714415653e-05 0.024985568736226836 0 -3.1327937919914769e-05 0.024985131550635479 0 -2.4767382015339567e-05 0.024988681920544303 0 -1.810847731053194e-05 0.024991808561399802 0 -2.7474983808296417e-05 0.024987516693095419 0 -1.810847731053194e-05 0.024991808561399802 0 -2.7474983808296417e-05 0.024987516693095419 0 -2.1530670849887582e-05 0.024989297377088417 0 -2.7474983808296417e-05 0.024987516693095419 0 -3.4199890464207689e-05 0.024984378180645708 0 -3.2086136164890992e-05 0.024984541293551744 0 -2.4767382015339567e-05 0.024988681920544303 0 -2.7474983808296417e-05 0.024987516693095419 0 -3.1485479714415653e-05 0.024985568736226836 0 -2.7474983808296417e-05 0.024987516693095419 0 -3.1485479714415653e-05 0.024985568736226836 0 -3.4199890464207689e-05 0.024984378180645708 0 -3.1485479714415653e-05 0.024985568736226836 0 -3.4199890464207689e-05 0.024984378180645708 0 -3.747846128329245e-05 0.02498230715956435 0 -3.1485479714415653e-05 0.024985568736226836 0 -3.747846128329245e-05 0.02498230715956435 0 -3.1327937919914769e-05 0.024985131550635479 0 -0.00074179101099468943 0.023926276344482876 0 -0.0005639390030288227 0.023927980629876795 0 -0.001902400391668443 0.02256688265229502 0 -0.001715060385345393 0.022513231120865018 0 -0.0017229474205237949 0.022684915353411352 0 -0.001902400391668443 0.02256688265229502 0 -0.001715060385345393 0.022513231120865018 0 -0.0017736235212957438 0.022358833022176113 0 -0.00097604646292409245 0.023801330288439518 0 -0.0010089750368407853 0.023525993294254671 0 -0.00073817063193183576 0.023329912085998841 0 -0.0005639390030288227 0.023927980629876795 0 -0.0011261679645662227 0.022929904899911608 0 -0.00074179101099468943 0.023926276344482876 0 -0.0011261679645662227 0.022929904899911608 0 -0.0005287907950741722 0.023129903871318955 0 -0.0006496728934798949 0.023213200117722391 0 -0.00063305566108599464 0.023364581742303357 0 -0.0005639390030288227 0.023927980629876795 0 -0.00024297474529202021 0.024216188160118068 0 -0.0011261679645662227 0.022929904899911608 0 -0.001496608225480857 0.022032202366015583 0 -0.0005287907950741722 0.023129903871318955 0 -0.00063305566108599464 0.023364581742303357 0 -0.0004840691793039139 0.023444811104705816 0 -0.0006496728934798949 0.023213200117722391 0 -0.00063305566108599464 0.023364581742303357 0 -0.00077908214204505937 0.023452840619037102 0 -0.00063305566108599464 0.023364581742303357 0 -0.00077908214204505937 0.023452840619037102 0 -0.00067640656191167968 0.023465469108842972 0 -0.00063305566108599464 0.023364581742303357 0 -0.0004840691793039139 0.023444811104705816 0 -0.00067640656191167968 0.023465469108842972 0 -2.4767382015339567e-05 0.024988681920544303 0 -1.845829643116998e-05 0.024991270064325048 0 -1.4242437183476236e-05 0.024993839878524615 0 -2.4767382015339567e-05 0.024988681920544303 0 -3.1327937919914769e-05 0.024985131550635479 0 -1.845829643116998e-05 0.024991270064325048 0 -2.4767382015339567e-05 0.024988681920544303 0 -1.810847731053194e-05 0.024991808561399802 0 -1.4242437183476236e-05 0.024993839878524615 0 -1.4242437183476236e-05 0.024993839878524615 0 -8.7174289985074194e-06 0.024996048162463966 0 -2.8811787456213299e-06 0.024999573395693218 0 -1.810847731053194e-05 0.024991808561399802 0 -1.4242437183476236e-05 0.024993839878524615 0 -8.7174289985074194e-06 0.024996048162463966 0 -8.7174289985074194e-06 0.024996048162463966 0 -6.5690410679697194e-09 0.024999995225394589 0 -2.8811787456213299e-06 0.024999573395693218 0 -6.5690410679697194e-09 0.024999995225394589 0 -9.5410922639751319e-06 0.024994979381033549 0 -6.2111906684877883e-09 0.02499999087203823 0 -8.7174289985074194e-06 0.024996048162463966 0 -6.5690410679697194e-09 0.024999995225394589 0 -9.5410922639751319e-06 0.024994979381033549 0 -1.810847731053194e-05 0.024991808561399802 0 -8.7174289985074194e-06 0.024996048162463966 0 -9.5410922639751319e-06 0.024994979381033549 0 -1.810847731053194e-05 0.024991808561399802 0 -9.5410922639751319e-06 0.024994979381033549 0 -2.1530670849887582e-05 0.024989297377088417 0 -2.1530670849887582e-05 0.024989297377088417 0 -1.3991443413063256e-05 0.024990316658729902 0 -2.8914305667276807e-05 0.024984163879916588 0 -9.5410922639751319e-06 0.024994979381033549 0 -2.1530670849887582e-05 0.024989297377088417 0 -1.3991443413063256e-05 0.024990316658729902 0 -1.3991443413063256e-05 0.024990316658729902 0 -2.4408664644218223e-05 0.024981051221388505 0 -2.8914305667276807e-05 0.024984163879916588 0 -9.5410922639751319e-06 0.024994979381033549 0 -1.3991443413063256e-05 0.024990316658729902 0 -6.2111906684877883e-09 0.02499999087203823 0 -7.1449155163922296e-06 0.024982777032321307 0 -1.3991443413063256e-05 0.024990316658729902 0 -6.2111906684877883e-09 0.02499999087203823 0 -7.1449155163922296e-06 0.024982777032321307 0 4.0354429321720533e-09 0.024999941658254567 0 -6.2111906684877883e-09 0.02499999087203823 0 -3.6412808888392983e-05 0.024961399622138253 0 -7.1449155163922296e-06 0.024982777032321307 0 -2.4408664644218223e-05 0.024981051221388505 0 -7.1449155163922296e-06 0.024982777032321307 0 -1.3991443413063256e-05 0.024990316658729902 0 -2.4408664644218223e-05 0.024981051221388505 0 -3.6412808888392983e-05 0.024961399622138253 0 -2.4408664644218223e-05 0.024981051221388505 0 -4.3831673199784737e-05 0.024974192772331823 0 -7.0440390864912725e-05 0.024960164702748106 0 -4.3831673199784737e-05 0.024974192772331823 0 -6.1197446397976449e-05 0.024966472737681187 0 -4.3831673199784737e-05 0.024974192772331823 0 -4.1822312741219051e-05 0.024979062171263607 0 -5.6347969931911651e-05 0.024973419837975745 0 -2.4408664644218223e-05 0.024981051221388505 0 -4.3831673199784737e-05 0.024974192772331823 0 -2.8914305667276807e-05 0.024984163879916588 0 -4.3831673199784737e-05 0.024974192772331823 0 -2.8914305667276807e-05 0.024984163879916588 0 -4.1822312741219051e-05 0.024979062171263607 0 -2.8914305667276807e-05 0.024984163879916588 0 -4.1822312741219051e-05 0.024979062171263607 0 -3.2086136164890992e-05 0.024984541293551744 0 -4.1822312741219051e-05 0.024979062171263607 0 -3.2086136164890992e-05 0.024984541293551744 0 -4.1684792932813006e-05 0.024980179315680674 0 -3.4199890464207689e-05 0.024984378180645708 0 -3.2086136164890992e-05 0.024984541293551744 0 -4.1684792932813006e-05 0.024980179315680674 0 -2.7474983808296417e-05 0.024987516693095419 0 -2.1530670849887582e-05 0.024989297377088417 0 -3.2086136164890992e-05 0.024984541293551744 0 -2.1530670849887582e-05 0.024989297377088417 0 -2.8914305667276807e-05 0.024984163879916588 0 -3.2086136164890992e-05 0.024984541293551744 0 -0.00074179101099468943 0.023926276344482876 0 -0.00098744391282399951 0.023853459243032882 0 -0.0017229474205237949 0.022684915353411352 0 -0.0018837721070891458 0.022909010677943632 0 -0.0015751619481523106 0.022885423875757999 0 -4.226151607467935e-05 0.024980333795274808 0 -4.1684792932813006e-05 0.024980179315680674 0 -5.6347969931911651e-05 0.024973419837975745 0 -0.001902400391668443 0.02256688265229502 0 -0.0017229474205237949 0.022684915353411352 0 -0.0018837721070891458 0.022909010677943632 0 -0.00074179101099468943 0.023926276344482876 0 -0.00063428256084679187 0.024545387276982064 0 -3.4199890464207689e-05 0.024984378180645708 0 -3.747846128329245e-05 0.02498230715956435 0 -4.1684792932813006e-05 0.024980179315680674 0 -4.1822312741219051e-05 0.024979062171263607 0 -4.1684792932813006e-05 0.024980179315680674 0 -5.6347969931911651e-05 0.024973419837975745 0 -0.0018401191828544142 0.023297907649227578 0 -0.0017188575248933019 0.023059138043141799 0 -0.0018837721070891458 0.022909010677943632 0 -7.236920766349088e-05 0.024959511631572701 0 -5.6347969931911651e-05 0.024973419837975745 0 -6.1197446397976449e-05 0.024966472737681187 0 -0.0017188575248933019 0.023059138043141799 0 -0.0018837721070891458 0.022909010677943632 0 -0.0015751619481523106 0.022885423875757999 0 -0.00071935443376730589 0.024437604424126923 0 -0.00098744391282399951 0.023853459243032882 0 -4.3831673199784737e-05 0.024974192772331823 0 -5.6347969931911651e-05 0.024973419837975745 0 -6.1197446397976449e-05 0.024966472737681187 0 -0.0015982549247697904 0.023240692220737956 0 -0.0018401191828544142 0.023297907649227578 0 -0.0017188575248933019 0.023059138043141799 0 -0.0015982549247697904 0.023240692220737956 0 -0.0017188575248933019 0.023059138043141799 0 -0.0015751619481523106 0.022885423875757999 0 -0.00086009187002905217 0.023912349917024081 0 -0.0015720693163830035 0.022691201050729758 0 -0.0016279649993616732 0.022957347007841779 0 -0.0014441959776480833 0.022735053541770519 0 -0.0016084149580994429 0.022743384967485129 0 -0.0016279649993616732 0.022957347007841779 0 -0.0013335219140783508 0.022883173920836084 0 -0.0014441959776480833 0.022735053541770519 0 -0.00086009187002905217 0.023912349917024081 0 -0.00061112164573192849 0.023773872685018495 0 -0.0013335219140783508 0.022883173920836084 0 -0.0014441959776480833 0.022735053541770519 0 -0.0012097483489280935 0.022609220977185807 0 -0.0014441959776480833 0.022735053541770519 0 -0.0014140981695026482 0.022573214062118614 0 -0.0015214253856269447 0.02267878737895665 0 -0.0014441959776480833 0.022735053541770519 0 -0.0014140981695026482 0.022573214062118614 0 -0.0012097483489280935 0.022609220977185807 0 -0.0014140981695026482 0.022573214062118614 0 -0.0015530169211147693 0.022590166794336182 0 -0.0015214253856269447 0.02267878737895665 0 -0.0015530169211147693 0.022590166794336182 0 -0.0016084149580994429 0.022743384967485129 0 -0.0015871773187802315 0.022550230756207865 0 -0.0015720693163830035 0.022691201050729758 0 -0.0015869412130012819 0.022626881221791992 0 -0.0017229474205237949 0.022684915353411352 0 -0.0015751619481523106 0.022885423875757999 0 -0.0015871773187802315 0.022550230756207865 0 -0.0014441959776480833 0.022735053541770519 0 -0.0016084149580994429 0.022743384967485129 0 -0.0015214253856269447 0.02267878737895665 0 -0.0015530169211147693 0.022590166794336182 0 -0.0016084149580994429 0.022743384967485129 0 -0.0015214253856269447 0.02267878737895665 0 -0.001482975475592629 0.02295560764059525 0 -0.0015165951980185715 0.022240440666794665 0 -0.0020749707705282681 0.020982884179373228 0 -0.0022910669061464994 0.020657035346880383 0 -0.0027283720789046078 0.020756556824320396 0 -0.0023592412341289469 0.021278880997409894 0 -0.0015165951980185715 0.022240440666794665 0 -0.00043724611046461908 0.024320983254894315 0 -0.00057262287971032169 0.024308088033776907 0 -0.00047015961233349169 0.024542382050934904 0 -0.0013335219140783508 0.022883173920836084 0 -0.001042916267471038 0.022805579168586353 0 -0.0012097483489280935 0.022609220977185807 0 -0.00061112164573192849 0.023773872685018495 0 -0.0015165951980185715 0.022240440666794665 0 -0.00018769584284487778 0.02434362222303255 0 -0.00013718765193347792 0.024445274592011703 0 -0.00047015961233349169 0.024542382050934904 0 -0.0030570415632831223 0.020165442876663265 0 -0.0025423265626610503 0.02017586699613225 0 -0.0027935887650295116 0.019698130957217442 0 -0.0015165951980185715 0.022240440666794665 0 -0.0021955566977985273 0.021304829647672555 0 -0.0022910669061464994 0.020657035346880383 0 -0.0026154092215584608 0.020721426784858048 0 -0.0025423265626610503 0.02017586699613225 0 -0.0026154092215584608 0.020721426784858048 0 -0.0030570415632831223 0.020165442876663265 0 -0.0025423265626610503 0.02017586699613225 0 -0.0022910669061464994 0.020657035346880383 0 -0.0020341997778519439 0.020203586807419498 0 -0.0025423265626610503 0.02017586699613225 0 -0.0018993432389668909 0.01947336756907837 0 -0.0025423265626610503 0.02017586699613225 0 -0.0027935887650295116 0.019698130957217442 0 -0.0021955566977985273 0.021304829647672555 0 -0.0024622708208605596 0.021007435007143829 0 -0.0030570415632831223 0.020165442876663265 0 -0.0027935887650295116 0.019698130957217442 0 -0.0034844462363368212 0.019634986947973443 0 -0.0027935887650295116 0.019698130957217442 0 -0.0027577459229346474 0.019169244164035718 0 -0.0034844462363368212 0.019634986947973443 0 -0.0029737793298113017 0.017553437817234077 0 -0.0032801828510639701 0.017491188190748189 0 -0.0027577459229346474 0.019169244164035718 0 -0.0034844462363368212 0.019634986947973443 0 -0.0035432701446867177 0.018861315819203608 0 -0.0023666039275468394 0.017795233873170592 0 -0.0029737793298113017 0.017553437817234077 0 -0.0018993432389668909 0.01947336756907837 0 -0.0027935887650295116 0.019698130957217442 0 -0.0027577459229346474 0.019169244164035718 0 -0.0028712017683139054 0.016092995790917525 0 -0.0031086544150835957 0.015983939937463085 0 -0.0029853331791681926 0.015821077622161173 0 -0.0015530169211147693 0.022590166794336182 0 -0.0016266010812430618 0.022411396956079965 0 -0.0016281140947107307 0.022270228903820639 0 -0.0015530169211147693 0.022590166794336182 0 -0.0015399114104677641 0.022344529415055974 0 -0.0016901925438926194 0.022164299023056718 0 -0.0015184916876668331 0.022695806502402518 0 -0.0017895652981399846 0.021920063144899464 0 -0.001715060385345393 0.022513231120865018 0 -0.0017736235212957438 0.022358833022176113 0 -0.0016266010812430618 0.022411396956079965 0 -0.001715060385345393 0.022513231120865018 0 -0.0016266010812430618 0.022411396956079965 0 -0.0015871773187802315 0.022550230756207865 0 -0.001715060385345393 0.022513231120865018 0 -0.0017229474205237949 0.022684915353411352 0 -0.0015871773187802315 0.022550230756207865 0 -0.0015530169211147693 0.022590166794336182 0 -0.0016266010812430618 0.022411396956079965 0 -0.0015871773187802315 0.022550230756207865 0 -0.0015530169211147693 0.022590166794336182 0 -0.0015399114104677641 0.022344529415055974 0 -0.0014693219109782425 0.022474427390845375 0 -0.0014140981695026482 0.022573214062118614 0 -0.0012097483489280935 0.022609220977185807 0 -0.0013749348562771314 0.022381988288486837 0 -0.0014140981695026482 0.022573214062118614 0 -0.0015530169211147693 0.022590166794336182 0 -0.0014693219109782425 0.022474427390845375 0 -0.0014140981695026482 0.022573214062118614 0 -0.0014693219109782425 0.022474427390845375 0 -0.0013749348562771314 0.022381988288486837 0 -0.0015399114104677641 0.022344529415055974 0 -0.0014693219109782425 0.022474427390845375 0 -0.0013749348562771314 0.022381988288486837 0 -0.0024622708208605596 0.021007435007143829 0 -0.0023464592674686899 0.020545728716953808 0 -0.0015399114104677641 0.022344529415055974 0 -0.0013749348562771314 0.022381988288486837 0 -0.001599963382924229 0.022099183840279688 0 -0.0034844462363368212 0.019634986947973443 0 -0.0039034112538998407 0.019133961157017463 0 -0.0035432701446867177 0.018861315819203608 0 -0.0023464592674686899 0.020545728716953808 0 -0.0032801828510639701 0.017491188190748189 0 -0.0015281198084360638 0.022532915303310481 0 -0.0012719494712059296 0.022346393793228475 0 -0.0013233270963559063 0.022125167179736484 0 -0.0023464592674686899 0.020545728716953808 0 -0.0017895652981399846 0.021920063144899464 0 -0.0015399114104677641 0.022344529415055974 0 -0.001599963382924229 0.022099183840279688 0 -0.0016901925438926194 0.022164299023056718 0 -0.0011261679645662227 0.022929904899911608 0 -0.0017895652981399846 0.021920063144899464 0 -0.0017736235212957438 0.022358833022176113 0 -0.0016266010812430618 0.022411396956079965 0 -0.0016281140947107307 0.022270228903820639 0 -0.0017895652981399846 0.021920063144899464 0 -0.001496608225480857 0.022032202366015583 0 -0.0019133483784519727 0.021333120009710382 0 -0.0017463138988538377 0.021216244906441705 0 -0.001677648289202305 0.021505666681981551 0 -0.0023464592674686899 0.020545728716953808 0 -0.0016031353546635092 0.021324622958435287 0 -0.0019133483784519727 0.021333120009710382 0 -0.001677648289202305 0.021505666681981551 0 -0.0017089143846357219 0.021566724618135396 0 -0.001496608225480857 0.022032202366015583 0 -0.0011492737074122292 0.022197263384305905 0 -0.00077908214204505937 0.023452840619037102 0 -0.00076561571080066364 0.023516141642723979 0 -0.00067640656191167968 0.023465469108842972 0 -0.0013760731104190147 0.021558456920555639 0 -0.0014267828541516378 0.021658674767881733 0 -0.0013235514479136225 0.021775745040523126 0 -0.0016031353546635092 0.021324622958435287 0 -0.0011492737074122292 0.022197263384305905 0 -0.001496608225480857 0.022032202366015583 0 -0.0016031353546635092 0.021324622958435287 0 -0.0016031353546635092 0.021324622958435287 0 -0.001955843818808227 0.019585434141364082 0 -0.0013914745079467979 0.021099639560629681 0 -0.0013096127614209622 0.021192934623646357 0 -0.0015522021795911396 0.021410664709686889 0 -0.0011492737074122292 0.022197263384305905 0 -0.00083258138150088198 0.022688078179884753 0 -0.0013096127614209622 0.021192934623646357 0 -0.0012234006281709152 0.02155105239945675 0 -0.0015522021795911396 0.021410664709686889 0 -0.0011492737074122292 0.022197263384305905 0 -0.00044341657530863799 0.022965235643824237 0 -0.00077032133944147203 0.023512243282338006 0 -0.00073640277495331499 0.023652194815815843 0 -0.00072483725948470075 0.023565449475162564 0 -0.00044341657530863799 0.022965235643824237 0 -0.001955843818808227 0.019585434141364082 0 -0.001955843818808227 0.019585434141364082 0 -0.0032801828510639701 0.017491188190748189 0 -0.0022766403192352449 0.019720943765375164 0 -0.0023584558533073161 0.019548046208715274 0 -0.0026364934984884742 0.019563888775505894 0 -0.0023377358837128686 0.019365536213158112 0 -0.0023584558533073161 0.019548046208715274 0 -0.0026364934984884742 0.019563888775505894 0 -0.0021832169476435144 0.019542342047600216 0 -0.0022766403192352449 0.019720943765375164 0 -0.0023584558533073161 0.019548046208715274 0 -0.0023377358837128686 0.019365536213158112 0 -0.0021832169476435144 0.019542342047600216 0 -0.0023584558533073161 0.019548046208715274 0 -0.0032386557705126788 0.015984033663951295 0 -0.0031988043735025722 0.015800307732940031 0 -0.0030479484030951709 0.015779310047844407 0 -0.0033885643119726467 0.015934634269401234 0 -0.0032386557705126788 0.015984033663951295 0 -0.0031988043735025722 0.015800307732940031 0 -0.0033885643119726467 0.015934634269401234 0 -0.0031988043735025722 0.015800307732940031 0 -0.0032544106855231232 0.015653004259993424 0 -0.0031988043735025722 0.015800307732940031 0 -0.0030686915290202565 0.015592287711241767 0 -0.0032544106855231232 0.015653004259993424 0 -0.00011098398747797007 0.022800003746548787 0 -0.00020592494913587587 0.022756456444582795 0 -0.00017503501794333731 0.022981800983944874 0 -0.001955843818808227 0.019585434141364082 0 -0.0017461993461005119 0.01929287760357893 0 -0.00011098398747797007 0.022800003746548787 0 -0.00017503501794333731 0.022981800983944874 0 -5.8949260282759356e-05 0.023140122675154234 0 -0.00020592494913587587 0.022756456444582795 0 -0.00017503501794333731 0.022981800983944874 0 -0.00030824580433768821 0.023043721192448966 0 -0.0031086544150835957 0.015983939937463085 0 -0.0029853331791681926 0.015821077622161173 0 -0.0031590012153897297 0.015722976515095501 0 -0.0032801828510639701 0.017491188190748189 0 -0.003021279541827529 0.015525388116891069 0 -0.0031086544150835957 0.015983939937463085 0 -0.0033685667295241342 0.015889340277076121 0 -0.0031590012153897297 0.015722976515095501 0 -0.0031988043735025722 0.015800307732940031 0 -0.0030479484030951709 0.015779310047844407 0 -0.0030686915290202565 0.015592287711241767 0 -0.0029283107143375418 0.01557157348660595 0 -0.0030479484030951709 0.015779310047844407 0 -0.0030686915290202565 0.015592287711241767 0 -0.0029916504462747903 0.015661806651269976 0 -0.003021279541827529 0.015525388116891069 0 -0.0029283107143375418 0.01557157348660595 0 -0.0029853331791681926 0.015821077622161173 0 -0.0031590012153897297 0.015722976515095501 0 -0.0029283107143375418 0.01557157348660595 0 -0.0030686915290202565 0.015592287711241767 0 -0.0029304959902689285 0.015376167489120272 0 -0.0030686915290202565 0.015592287711241767 0 -0.0031122247473142663 0.015424683038847527 0 -0.0032544106855231232 0.015653004259993424 0 -0.0030686915290202565 0.015592287711241767 0 -0.0031122247473142663 0.015424683038847527 0 -0.0029304959902689285 0.015376167489120272 0 -0.00017503501794333731 0.022981800983944874 0 -0.00021160148814835896 0.023172831934361263 0 -5.8949260282759356e-05 0.023140122675154234 0 -0.00017503501794333731 0.022981800983944874 0 -0.00021160148814835896 0.023172831934361263 0 -0.00030824580433768821 0.023043721192448966 0 -0.0017017775504485364 0.019364510828328244 0 -0.0017461993461005119 0.01929287760357893 0 -0.0003208847989260577 0.023293583951942993 0 -0.00021160148814835896 0.023172831934361263 0 -0.00030824580433768821 0.023043721192448966 0 -0.0003208847989260577 0.023293583951942993 0 -0.00021160148814835896 0.023172831934361263 0 -0.00020582605651350188 0.0233044470459184 0 -0.00021160148814835896 0.023172831934361263 0 -0.00015224365733690996 0.023235517622989314 0 -5.8949260282759356e-05 0.023140122675154234 0 -0.00021160148814835896 0.023172831934361263 0 -0.00020582605651350188 0.0233044470459184 0 -0.00015224365733690996 0.023235517622989314 0 -0.00020582605651350188 0.0233044470459184 0 -0.00015224365733690996 0.023235517622989314 0 -0.00012897887663995721 0.023312938690531349 0 4.6478574042772943e-05 0.024654915199733993 0 -0.00016085263577749601 0.024616560873549489 0 -1.9630627091578138e-05 0.024982492155702609 0 -0.00015224365733690996 0.023235517622989314 0 -5.8949260282759356e-05 0.023140122675154234 0 -0.00012897887663995721 0.023312938690531349 0 -5.8949260282759356e-05 0.023140122675154234 0 -0.00012897887663995721 0.023312938690531349 0 -8.1878573399378791e-05 0.023364713620245718 0 -6.6437805253160865e-05 0.023992350856497081 0 -5.5430508408973358e-05 0.02413197502569267 0 2.938057424555741e-05 0.024993145785481809 0 1.0483780865810993e-05 0.024992120841258628 0 4.9600587971974039e-05 0.024955467712737725 0 4.6478574042772943e-05 0.024654915199733993 0 -1.9630627091578138e-05 0.024982492155702609 0 4.9600587971974039e-05 0.024955467712737725 0 4.8680001419927789e-05 0.024843779903830181 0 4.6479626832203968e-05 0.024934492269616623 0 4.8680001419927789e-05 0.024843779903830181 0 -8.7801386327889623e-05 0.0245455374245508 0 2.938057424555741e-05 0.024993145785481809 0 6.0199375590281877e-06 0.025003531775270389 0 1.1241989105832603e-05 0.024998031441521667 0 4.6478574042772943e-05 0.024654915199733993 0 -0.00016085263577749601 0.024616560873549489 0 1.9718802655163919e-05 0.024274526522325909 0 -0.00028363319038619535 0.024137419346976777 0 -0.00016085263577749601 0.024616560873549489 0 1.9718802655163919e-05 0.024274526522325909 0 -0.00044341657530863799 0.022965235643824237 0 -8.7801386327889623e-05 0.0245455374245508 0 -0.00044341657530863799 0.022965235643824237 0 -6.6437805253160865e-05 0.023992350856497081 0 -1.0756774597026247e-05 0.025000129832796109 0 -7.6539838563391289e-06 0.024996898276788509 0 6.0199375590281877e-06 0.025003531775270389 0 2.938057424555741e-05 0.024993145785481809 0 1.9660855999474917e-05 0.025006373028411074 0 6.0199375590281877e-06 0.025003531775270389 0 -8.7801386327889623e-05 0.0245455374245508 0 8.8555207848635081e-05 0.024999334518831493 0 -1.845829643116998e-05 0.024991270064325048 0 -1.4242437183476236e-05 0.024993839878524615 0 -7.6539838563391289e-06 0.024996898276788509 0 -0.00024297474529202021 0.024216188160118068 0 -8.7801386327889623e-05 0.0245455374245508 0 -1.845829643116998e-05 0.024991270064325048 0 -1.0756774597026247e-05 0.025000129832796109 0 -7.6539838563391289e-06 0.024996898276788509 0 -0.0004840691793039139 0.023444811104705816 0 -0.00043675131298294314 0.023783966022533819 0 -0.00072483725948470075 0.023565449475162564 0 -0.00073640277495331499 0.023652194815815843 0 -0.00043675131298294314 0.023783966022533819 0 -0.00072483725948470075 0.023565449475162564 0 -0.0004840691793039139 0.023444811104705816 0 -0.00067640656191167968 0.023465469108842972 0 -0.00072483725948470075 0.023565449475162564 0 -0.00076561571080066364 0.023516141642723979 0 -0.00067640656191167968 0.023465469108842972 0 -0.00072483725948470075 0.023565449475162564 0 -6.5690410679697194e-09 0.024999995225394589 0 3.0910120631062011e-09 0.025000004927585653 0 -2.8811787456213299e-06 0.024999573395693218 0 -7.6539838563391289e-06 0.024996898276788509 0 -2.8811787456213299e-06 0.024999573395693218 0 6.0199375590281877e-06 0.025003531775270389 0 -1.4242437183476236e-05 0.024993839878524615 0 -7.6539838563391289e-06 0.024996898276788509 0 -2.8811787456213299e-06 0.024999573395693218 0 -2.8811787456213299e-06 0.024999573395693218 0 6.0199375590281877e-06 0.025003531775270389 0 2.9809942924112827e-06 0.025001613059105577 0 3.0910120631062011e-09 0.025000004927585653 0 2.9809942924112827e-06 0.025001613059105577 0 -1.0934459667339979e-09 0.02499999793136904 0 3.0910120631062011e-09 0.025000004927585653 0 -2.8811787456213299e-06 0.024999573395693218 0 2.9809942924112827e-06 0.025001613059105577 0 2.9809942924112827e-06 0.025001613059105577 0 -1.0934459667339979e-09 0.02499999793136904 0 1.0483780865810993e-05 0.024992120841258628 0 6.0199375590281877e-06 0.025003531775270389 0 2.9809942924112827e-06 0.025001613059105577 0 1.1241989105832603e-05 0.024998031441521667 0 2.938057424555741e-05 0.024993145785481809 0 1.1241989105832603e-05 0.024998031441521667 0 1.0483780865810993e-05 0.024992120841258628 0 2.9809942924112827e-06 0.025001613059105577 0 1.1241989105832603e-05 0.024998031441521667 0 1.0483780865810993e-05 0.024992120841258628 0 -1.0934459667339979e-09 0.02499999793136904 0 1.0483780865810993e-05 0.024992120841258628 0 1.7709553312973838e-08 0.024999984198180641 0 1.7709553312973838e-08 0.024999984198180641 0 2.1575529391228604e-05 0.0249796944278056 0 9.1513740701371545e-06 0.024970524908373346 0 1.0483780865810993e-05 0.024992120841258628 0 1.7709553312973838e-08 0.024999984198180641 0 2.1575529391228604e-05 0.0249796944278056 0 1.0483780865810993e-05 0.024992120841258628 0 2.1575529391228604e-05 0.0249796944278056 0 4.9600587971974039e-05 0.024955467712737725 0 2.1575529391228604e-05 0.0249796944278056 0 9.1513740701371545e-06 0.024970524908373346 0 4.5608977393443335e-05 0.024977054282827666 0 1.7709553312973838e-08 0.024999984198180641 0 9.1513740701371545e-06 0.024970524908373346 0 -4.5738802847131984e-08 0.024999906050445459 0 -8.1878573399378791e-05 0.023364713620245718 0 -0.00016006306586046566 0.023456861911843159 0 -0.00017629510673892603 0.023389187415992555 0 -0.00012897887663995721 0.023312938690531349 0 -8.1878573399378791e-05 0.023364713620245718 0 -0.00017629510673892603 0.023389187415992555 0 2.1575529391228604e-05 0.0249796944278056 0 4.9600587971974039e-05 0.024955467712737725 0 4.5608977393443335e-05 0.024977054282827666 0 -1.9630627091578138e-05 0.024982492155702609 0 4.9600587971974039e-05 0.024955467712737725 0 4.5608977393443335e-05 0.024977054282827666 0 -1.9630627091578138e-05 0.024982492155702609 0 4.5608977393443335e-05 0.024977054282827666 0 0.00011239280831904343 0.024940028051863922 0 -5.5430508408973358e-05 0.02413197502569267 0 2.4944065423582191e-05 0.02423892470692611 0 9.1513740701371545e-06 0.024970524908373346 0 4.5608977393443335e-05 0.024977054282827666 0 0.00011239280831904343 0.024940028051863922 0 -8.1878573399378791e-05 0.023364713620245718 0 -0.00016006306586046566 0.023456861911843159 0 -4.8067278336594494e-05 0.02351401743073097 0 -0.00016006306586046566 0.023456861911843159 0 -4.8067278336594494e-05 0.02351401743073097 0 -0.00026113429285232474 0.023574397365731616 0 -4.8067278336594494e-05 0.02351401743073097 0 -0.00031846315128305347 0.023876100362753366 0 -0.00026113429285232474 0.023574397365731616 0 -4.8067278336594494e-05 0.02351401743073097 0 -0.00031846315128305347 0.023876100362753366 0 5.9263107882782153e-05 0.024510605910276047 0 0.00011239280831904343 0.024940028051863922 0 -9.6444529294000431e-06 0.024875627604141727 0 5.9263107882782153e-05 0.024510605910276047 0 2.4944065423582191e-05 0.02423892470692611 0 6.1392712837843072e-05 0.024483139419838009 0 9.1513740701371545e-06 0.024970524908373346 0 -4.5738802847131984e-08 0.024999906050445459 0 -9.6444529294000431e-06 0.024875627604141727 0 9.1513740701371545e-06 0.024970524908373346 0 0.00011239280831904343 0.024940028051863922 0 -9.6444529294000431e-06 0.024875627604141727 0 -9.6444529294000431e-06 0.024875627604141727 0 2.2468394493963896e-05 0.024810044181913453 0 5.9263107882782153e-05 0.024510605910276047 0 -4.5738802847131984e-08 0.024999906050445459 0 -9.6444529294000431e-06 0.024875627604141727 0 2.6295545607254966e-08 0.024999710144231913 0 -9.6444529294000431e-06 0.024875627604141727 0 2.6295545607254966e-08 0.024999710144231913 0 2.2468394493963896e-05 0.024810044181913453 0 2.6295545607254966e-08 0.024999710144231913 0 4.4619952416048088e-05 0.024886093274399487 0 2.2468394493963896e-05 0.024810044181913453 0 4.4619952416048088e-05 0.024886093274399487 0 6.0756997589954869e-08 0.024999959395476553 0 -8.0246083318820538e-07 0.024987165115733071 0 2.6295545607254966e-08 0.024999710144231913 0 4.4619952416048088e-05 0.024886093274399487 0 6.0756997589954869e-08 0.024999959395476553 0 -0.00025153908954691297 0.024193806048231688 0 -0.00031157214273121588 0.024091092032887798 0 4.4619952416048088e-05 0.024886093274399487 0 -3.6549671844833901e-05 0.024895814932621326 0 -8.0246083318820538e-07 0.024987165115733071 0 4.4619952416048088e-05 0.024886093274399487 0 2.2468394493963896e-05 0.024810044181913453 0 5.9263107882782153e-05 0.024510605910276047 0 -0.00032424469438443939 0.023911205540031052 0 -0.00025153908954691297 0.024193806048231688 0 -0.00031846315128305347 0.023876100362753366 0 5.9263107882782153e-05 0.024510605910276047 0 -3.6549671844833901e-05 0.024895814932621326 0 4.4619952416048088e-05 0.024886093274399487 0 5.9263107882782153e-05 0.024510605910276047 0 -3.6549671844833901e-05 0.024895814932621326 0 -0.00031846315128305347 0.023876100362753366 0 -0.00033283923371366759 0.023452510223087468 0 -0.00051229086274471821 0.023477930650937173 0 -0.00031846315128305347 0.023876100362753366 0 -0.00033283923371366759 0.023452510223087468 0 -0.00025875272503129082 0.023529426699597844 0 -0.00033283923371366759 0.023452510223087468 0 -0.00051229086274471821 0.023477930650937173 0 -0.00043410737666579034 0.023354748521775232 0 -0.00033283923371366759 0.023452510223087468 0 -0.00043410737666579034 0.023354748521775232 0 -0.0003444948730864337 0.023349698062372224 0 -0.00033283923371366759 0.023452510223087468 0 -0.0003444948730864337 0.023349698062372224 0 -0.00026557797870491222 0.023355990240665838 0 -0.00051229086274471821 0.023477930650937173 0 -0.00043410737666579034 0.023354748521775232 0 -0.00053267651988376803 0.023318032041803081 0 -0.00043410737666579034 0.023354748521775232 0 -0.00044457940936883718 0.023270825730555379 0 -0.00053267651988376803 0.023318032041803081 0 -0.00043410737666579034 0.023354748521775232 0 -0.0003753627131383367 0.023295873724145464 0 -0.00044457940936883718 0.023270825730555379 0 -0.00043410737666579034 0.023354748521775232 0 -0.0003444948730864337 0.023349698062372224 0 -0.0003753627131383367 0.023295873724145464 0 -0.0003753627131383367 0.023295873724145464 0 -0.00031147744333593497 0.023274734141999754 0 -0.0003145027592071168 0.023301727953950649 0 -0.0003444948730864337 0.023349698062372224 0 -0.0003753627131383367 0.023295873724145464 0 -0.0003145027592071168 0.023301727953950649 0 -9.0140348633080773e-06 0.022007254102292807 0 -0.00010154185709467607 0.022799142607418662 0 -0.00040269369115364693 0.023212315571874604 0 -0.00031147744333593497 0.023274734141999754 0 -0.00039848731430473165 0.023093066793812147 0 8.5992497974793683e-05 0.02188253908333251 0 0.00012465389812484762 0.021963745139936937 0 8.2172899520944749e-05 0.021930055530956553 0 -0.0003753627131383367 0.023295873724145464 0 -0.00040269369115364693 0.023212315571874604 0 -0.00031147744333593497 0.023274734141999754 0 -0.0003753627131383367 0.023295873724145464 0 -0.00040269369115364693 0.023212315571874604 0 -0.00044457940936883718 0.023270825730555379 0 -0.0004600540659744762 0.023261250623004007 0 -0.0003878794357624573 0.023182021003320667 0 -0.00044457940936883718 0.023270825730555379 0 -0.00047780785670036821 0.023266294188721282 0 -0.000480909323516975 0.023252522432464281 0 -0.00040269369115364693 0.023212315571874604 0 -0.00044457940936883718 0.023270825730555379 0 -0.00048748766551619759 0.023123661264917231 0 -0.00044457940936883718 0.023270825730555379 0 -0.00047780785670036821 0.023266294188721282 0 -0.00053267651988376803 0.023318032041803081 0 -0.00053267651988376803 0.023318032041803081 0 -0.00051967141016091389 0.023267271958006267 0 -0.0005356217208057917 0.023266415576625201 0 -0.00050787668754264336 0.023274895016220189 0 -0.00053267651988376803 0.023318032041803081 0 -0.00051967141016091389 0.023267271958006267 0 -0.00047780785670036821 0.023266294188721282 0 -0.00050787668754264336 0.023274895016220189 0 -0.00053267651988376803 0.023318032041803081 0 -0.00047780785670036821 0.023266294188721282 0 -0.00050787668754264336 0.023274895016220189 0 -0.000499719542825615 0.02325711319683935 0 -8.0246083318820538e-07 0.024987165115733071 0 -1.5131780398295199e-06 0.024997610945154361 0 -3.2372114750738473e-08 0.024999998405635798 0 -0.00031157214273121588 0.024091092032887798 0 -7.3397686587514113e-05 0.024419268216579079 0 6.0756997589954869e-08 0.024999959395476553 0 -8.0246083318820538e-07 0.024987165115733071 0 -3.2372114750738473e-08 0.024999998405635798 0 -0.00024417894259779079 0.019720155356574447 0 -0.0001894372722610203 0.019809229017735099 0 -3.3254722269121008e-05 0.019808381912749289 0 -0.00033164829658659435 0.019948591758107953 0 -3.8578460944958549e-05 0.019810172582509864 0 -0.00024417894259779079 0.019720155356574447 0 -0.0001894372722610203 0.019809229017735099 0 -0.00027576091376361003 0.019785312463042718 0 -0.00041980006441281526 0.020121348946834171 0 -0.00078950461854123452 0.020417930637648629 0 -0.00051806121216982045 0.020382582101168632 0 -0.0001894372722610203 0.019809229017735099 0 -0.00027576091376361003 0.019785312463042718 0 -0.00029967756532272969 0.019835877235769156 0 -0.00033164829658659435 0.019948591758107953 0 -0.00029296821366482477 0.020307185833554103 0 -0.00041980006441281526 0.020121348946834171 0 -0.00027365059462476789 0.02036398165732279 0 -0.00051806121216982045 0.020382582101168632 0 -0.00041980006441281526 0.020121348946834171 0 -1.7077219389816575e-05 0.020211369336706246 0 -3.3254722269121008e-05 0.019808381912749289 0 -0.00041980006441281526 0.020121348946834171 0 -1.7077219389816575e-05 0.020211369336706246 0 -0.00027365059462476789 0.02036398165732279 0 -1.7077219389816575e-05 0.020211369336706246 0 -6.0715953786756495e-05 0.020440847516683368 0 -0.00027365059462476789 0.02036398165732279 0 -1.7077219389816575e-05 0.020211369336706246 0 0.00025657407260975098 0.020235692347805097 0 0.00021671821078202846 0.020489651808994251 0 -1.7077219389816575e-05 0.020211369336706246 0 0.00025657407260975098 0.020235692347805097 0 0.00019203438915048205 0.020034331572108086 0 0.00025657407260975098 0.020235692347805097 0 0.00045485670363975812 0.02007128360959802 0 0.00043231512249309944 0.020376554042381628 0 -9.0140348633080773e-06 0.022007254102292807 0 0.00028270695283191637 0.02090995009594511 0 0.00025657407260975098 0.020235692347805097 0 0.00045485670363975812 0.02007128360959802 0 0.00019203438915048205 0.020034331572108086 0 -0.00030944269209876268 0.023264764494247154 0 -0.0003145027592071168 0.023301727953950649 0 -0.00026557797870491222 0.023355990240665838 0 -9.0140348633080773e-06 0.022007254102292807 0 -7.3116053323300862e-05 0.021480846142123373 0 -9.0140348633080773e-06 0.022007254102292807 0 -0.00013392659199281274 0.022803968906652428 0 0.00045485670363975812 0.02007128360959802 0 0.00031497440421942815 0.019827680276535906 0 0.00019203438915048205 0.020034331572108086 0 -0.0003444948730864337 0.023349698062372224 0 -0.0003145027592071168 0.023301727953950649 0 -0.00026557797870491222 0.023355990240665838 0 0.00031497440421942815 0.019827680276535906 0 -3.3254722269121008e-05 0.019808381912749289 0 0.00019203438915048205 0.020034331572108086 0 -1.7077219389816575e-05 0.020211369336706246 0 -3.3254722269121008e-05 0.019808381912749289 0 0.00019203438915048205 0.020034331572108086 0 -3.3254722269121008e-05 0.019808381912749289 0 0.00018197057772536109 0.019632639247575752 0 -0.00014721996570086698 0.019656251065615533 0 -0.00037436298104691628 0.023136722665794307 0 -0.00014188413927866187 0.023208716173985462 0 -2.5425447179679081e-05 0.022932964542593266 0 0.00031497440421942815 0.019827680276535906 0 -3.3254722269121008e-05 0.019808381912749289 0 0.00018197057772536109 0.019632639247575752 0 -0.00029397829880255835 0.022477410464424339 0 -2.8520071372342303e-05 0.021152841604943736 0 -0.0003115095515027397 0.023532664093892298 0 -0.00029397829880255835 0.022477410464424339 0 -0.00033283923371366759 0.023452510223087468 0 -0.00026557797870491222 0.023355990240665838 0 -0.00022829745892686263 0.023430633986936941 0 -7.3116053323300862e-05 0.021480846142123373 0 -0.00029397829880255835 0.022477410464424339 0 -0.00025875272503129082 0.023529426699597844 0 -0.00027710493628823078 0.023354507397684108 0 -0.00027667031717895505 0.023570023450377817 0 -0.00033283923371366759 0.023452510223087468 0 -0.00024338863331897201 0.023436527621190393 0 -0.00025875272503129082 0.023529426699597844 0 -0.00024338863331897201 0.023436527621190393 0 -0.00025875272503129082 0.023529426699597844 0 -0.00027710493628823078 0.023354507397684108 0 -0.00037436298104691628 0.023136722665794307 0 -0.00027710493628823078 0.023354507397684108 0 -0.00014188413927866187 0.023208716173985462 0 -0.00029397829880255835 0.022477410464424339 0 -0.0001454055787215279 0.023471111479953337 0 -0.00027710493628823078 0.023354507397684108 0 -0.00014188413927866187 0.023208716173985462 0 -0.0002240670293063708 0.023435854423930157 0 -0.00014188413927866187 0.023208716173985462 0 -9.9992233874697807e-05 0.023289826269977301 0 -0.0002240670293063708 0.023435854423930157 0 -3.1915314517739638e-06 0.023118939039672919 0 8.5417676393612031e-05 0.023178754353146522 0 -9.9992233874697807e-05 0.023289826269977301 0 -3.1915314517739638e-06 0.023118939039672919 0 -0.00014188413927866187 0.023208716173985462 0 -9.9992233874697807e-05 0.023289826269977301 0 -3.1915314517739638e-06 0.023118939039672919 0 -0.00014188413927866187 0.023208716173985462 0 -2.5425447179679081e-05 0.022932964542593266 0 -0.00024417894259779079 0.019720155356574447 0 -3.3254722269121008e-05 0.019808381912749289 0 -0.00014721996570086698 0.019656251065615533 0 -0.00024417894259779079 0.019720155356574447 0 -0.00014721996570086698 0.019656251065615533 0 -0.00030632931060619131 0.019634746264262686 0 -2.8520071372342303e-05 0.021152841604943736 0 0.00010056490938265564 0.021134188137810865 0 -2.5425447179679081e-05 0.022932964542593266 0 0.00019104279286217093 0.022966286274968304 0 0.00046888947175973328 0.022690952575333739 0 -3.1915314517739638e-06 0.023118939039672919 0 -2.5425447179679081e-05 0.022932964542593266 0 0.00019104279286217093 0.022966286274968304 0 -3.1915314517739638e-06 0.023118939039672919 0 0.00019104279286217093 0.022966286274968304 0 8.5417676393612031e-05 0.023178754353146522 0 0.00019104279286217093 0.022966286274968304 0 8.5417676393612031e-05 0.023178754353146522 0 0.00036272878886791445 0.023008997189573974 0 8.9437028467345984e-05 0.023431936604689625 0 3.6142998672477282e-05 0.023400582264817001 0 0.00036272878886791445 0.023008997189573974 0 8.5417676393612031e-05 0.023178754353146522 0 3.6142998672477282e-05 0.023400582264817001 0 0.00036272878886791445 0.023008997189573974 0 -3.1362499587794889e-05 0.023323017937036287 0 8.5417676393612031e-05 0.023178754353146522 0 3.6142998672477282e-05 0.023400582264817001 0 -3.1362499587794889e-05 0.023323017937036287 0 -0.0001206083590446421 0.023418544213214477 0 3.6142998672477282e-05 0.023400582264817001 0 -3.1362499587794889e-05 0.023323017937036287 0 8.5417676393612031e-05 0.023178754353146522 0 -9.9992233874697807e-05 0.023289826269977301 0 -9.9992233874697807e-05 0.023289826269977301 0 -0.00017442164869573348 0.023414118721591999 0 -0.0002240670293063708 0.023435854423930157 0 -9.9992233874697807e-05 0.023289826269977301 0 -0.00017442164869573348 0.023414118721591999 0 -0.0001206083590446421 0.023418544213214477 0 -3.1362499587794889e-05 0.023323017937036287 0 -9.9992233874697807e-05 0.023289826269977301 0 -0.0001206083590446421 0.023418544213214477 0 -0.0001206083590446421 0.023418544213214477 0 -0.00022240415501286427 0.023475926787832658 0 -0.00021920123667452002 0.023451735141131341 0 -0.00017442164869573348 0.023414118721591999 0 -0.0001206083590446421 0.023418544213214477 0 -0.00022240415501286427 0.023475926787832658 0 -0.0005726888555036792 0.01945204799023301 0 -0.0017070208053244116 0.019346718527485086 0 -0.0001206083590446421 0.023418544213214477 0 3.6142998672477282e-05 0.023400582264817001 0 -0.00021920123667452002 0.023451735141131341 0 4.2623328477987454e-05 0.023402187046675064 0 3.6142998672477282e-05 0.023400582264817001 0 -0.00021920123667452002 0.023451735141131341 0 -0.0005726888555036792 0.01945204799023301 0 -0.00015147783195633316 0.019964612229870348 0 -0.00031846315128305347 0.023876100362753366 0 -0.00025875272503129082 0.023529426699597844 0 -0.00027667031717895505 0.023570023450377817 0 -0.00031846315128305347 0.023876100362753366 0 -0.00027667031717895505 0.023570023450377817 0 -0.00026113429285232474 0.023574397365731616 0 -0.00027710493628823078 0.023354507397684108 0 -0.00027667031717895505 0.023570023450377817 0 -0.0002240670293063708 0.023435854423930157 0 -0.00017442164869573348 0.023414118721591999 0 -0.0002240670293063708 0.023435854423930157 0 -0.00022240415501286427 0.023475926787832658 0 -0.00027667031717895505 0.023570023450377817 0 -0.0002240670293063708 0.023435854423930157 0 -0.00022240415501286427 0.023475926787832658 0 -0.00027667031717895505 0.023570023450377817 0 -0.00022240415501286427 0.023475926787832658 0 -0.000249641124868933 0.023513147965810399 0 -0.00022240415501286427 0.023475926787832658 0 -0.000249641124868933 0.023513147965810399 0 -0.00024492927344878902 0.023441672093175617 0 -0.00027667031717895505 0.023570023450377817 0 -0.000249641124868933 0.023513147965810399 0 -0.00026113429285232474 0.023574397365731616 0 -0.000249641124868933 0.023513147965810399 0 -0.00026113429285232474 0.023574397365731616 0 -0.000222168257917995 0.02347325725479725 0 -0.000249641124868933 0.023513147965810399 0 -0.000222168257917995 0.02347325725479725 0 -0.00024492927344878902 0.023441672093175617 0 -0.000222168257917995 0.02347325725479725 0 -0.00024492927344878902 0.023441672093175617 0 -0.00017629510673892603 0.023389187415992555 0 -0.00016006306586046566 0.023456861911843159 0 -0.000222168257917995 0.02347325725479725 0 -0.00017629510673892603 0.023389187415992555 0 -0.00016006306586046566 0.023456861911843159 0 -0.00026113429285232474 0.023574397365731616 0 -0.000222168257917995 0.02347325725479725 0 -0.0003208847989260577 0.023293583951942993 0 -0.00020582605651350188 0.0233044470459184 0 -0.00024492927344878902 0.023441672093175617 0 -0.00020582605651350188 0.0233044470459184 0 -0.00024492927344878902 0.023441672093175617 0 -0.00017629510673892603 0.023389187415992555 0 -0.00020582605651350188 0.0233044470459184 0 -0.00012897887663995721 0.023312938690531349 0 -0.00017629510673892603 0.023389187415992555 0 -0.0028718398894490176 0.015176692553810631 0 -0.0029753478115531902 0.015262674622213269 0 -0.0028617394913747728 0.015242161288993462 0 -0.00022240415501286427 0.023475926787832658 0 -0.00024492927344878902 0.023441672093175617 0 -0.00021920123667452002 0.023451735141131341 0 -0.0003208847989260577 0.023293583951942993 0 -0.00024492927344878902 0.023441672093175617 0 -0.00021920123667452002 0.023451735141131341 0 -0.0031122247473142663 0.015424683038847527 0 -0.0029304959902689285 0.015376167489120272 0 -0.0029753478115531902 0.015262674622213269 0 -0.0017017775504485364 0.019364510828328244 0 -0.0017070208053244116 0.019346718527485086 0 -0.0029304959902689285 0.015376167489120272 0 -0.0029753478115531902 0.015262674622213269 0 -0.0028617394913747728 0.015242161288993462 0 -0.0029304959902689285 0.015376167489120272 0 -0.0028617394913747728 0.015242161288993462 0 -0.0027757544451734949 0.015266973274327683 0 -0.0028718398894490176 0.015176692553810631 0 -0.0028617394913747728 0.015242161288993462 0 -0.0027679701376647292 0.015182675047923694 0 -0.0028617394913747728 0.015242161288993462 0 -0.0027679701376647292 0.015182675047923694 0 -0.0027757544451734949 0.015266973274327683 0 -0.0027679701376647292 0.015182675047923694 0 -0.0027757544451734949 0.015266973274327683 0 -0.0027086498262065828 0.015209103716518941 0 -0.0027757544451734949 0.015266973274327683 0 -0.0027086498262065828 0.015209103716518941 0 -0.0026635222696485047 0.015227262509285348 0 -0.0025861222795986721 0.015189520356385685 0 -0.0026635222696485047 0.015227262509285348 0 -0.0026294046586198194 0.015162838351249501 0 -0.0027086498262065828 0.015209103716518941 0 -0.0026635222696485047 0.015227262509285348 0 -0.0026294046586198194 0.015162838351249501 0 -0.0025861222795986721 0.015189520356385685 0 -0.0024571642848854841 0.014974574153113826 0 -0.0026294046586198194 0.015162838351249501 0 -0.0024982913352661084 0.014933731213216407 0 -0.0028294210146816491 0.014807922093457795 0 -0.0024571642848854841 0.014974574153113826 0 -0.003216156869408804 0.014211007485606282 0 -0.0028539978376245826 0.014415941560096304 0 -0.003216156869408804 0.014211007485606282 0 -0.0028539978376245826 0.014415941560096304 0 -0.0032854495648740158 0.014570417683595096 0 -0.0028539978376245826 0.014415941560096304 0 -0.0032854495648740158 0.014570417683595096 0 -0.0026428528112780155 0.014008456857045434 0 -0.0033382787615522237 0.014615911551821332 0 -0.0036239193479514213 0.015409195582646015 0 -0.0032854495648740158 0.014570417683595096 0 -0.0031467044872594005 0.013494195818734515 0 -0.0026428528112780155 0.014008456857045434 0 -0.003216156869408804 0.014211007485606282 0 -0.0032854495648740158 0.014570417683595096 0 -0.0023355223170513882 0.01633504325461041 0 -0.0016571734094646289 0.015068990571126716 0 -0.0028294210146816491 0.014807922093457795 0 -0.0027679701376647292 0.015182675047923694 0 -0.0027086498262065828 0.015209103716518941 0 -0.0026294046586198194 0.015162838351249501 0 -0.00043920811410180582 0.015900342080684669 0 -0.003216156869408804 0.014211007485606282 0 -0.0023355223170513882 0.01633504325461041 0 -0.0032854495648740158 0.014570417683595096 0 -0.0023355223170513882 0.01633504325461041 0 -0.0041810387209844264 0.017303285673328988 0 -0.0023355223170513882 0.01633504325461041 0 -0.0041810387209844264 0.017303285673328988 0 -0.0031106491328631138 0.019099988014510072 0 -0.0023355223170513882 0.01633504325461041 0 -0.0031106491328631138 0.019099988014510072 0 -0.0005280402455729923 0.018618204044315391 0 -0.0031467044872594005 0.013494195818734515 0 -0.0024251412778083423 0.013295848258442012 0 -0.0029245926464491093 0.012736254868336648 0 -0.0036239193479514213 0.015409195582646015 0 -0.0040864222715113569 0.016276009536179172 0 -0.0041810387209844264 0.017303285673328988 0 -0.0031106491328631138 0.019099988014510072 0 -0.0048680934973610685 0.020018702272275677 0 -0.0031106491328631138 0.019099988014510072 0 -0.0005280402455729923 0.018618204044315391 0 -0.0013874162591569702 0.020132748900038251 0 -0.0005280402455729923 0.018618204044315391 0 -0.0013874162591569702 0.020132748900038251 0 -0.00013816126595111064 0.020900340945105417 0 0.0024782394979099608 0.01786443880726336 0 -0.0005280402455729923 0.018618204044315391 0 0.0013239949441355206 0.020146741409529004 0 -0.0005280402455729923 0.018618204044315391 0 0.0013239949441355206 0.020146741409529004 0 -0.00013816126595111064 0.020900340945105417 0 -0.0005726888555036792 0.01945204799023301 0 0.00087258107729970319 0.021686809394640405 0 -0.0005726888555036792 0.01945204799023301 0 -0.0016571734094646289 0.015068990571126716 0 0.0024782394979099608 0.01786443880726336 0 -0.00043920811410180582 0.015900342080684669 0 -0.0005280402455729923 0.018618204044315391 0 -0.00043920811410180582 0.015900342080684669 0 -0.0023355223170513882 0.01633504325461041 0 -0.0005280402455729923 0.018618204044315391 0 -0.0013376090166703847 0.013786097140473462 0 -0.00091097082962501819 0.014312295317585285 0 -0.0006219427773937093 0.013712431214270371 0 -0.0010231699243450204 0.014937722186001768 0 -0.00091097082962501819 0.014312295317585285 0 -0.0017042259134469977 0.014672322468486657 0 -0.0013376090166703847 0.013786097140473462 0 -0.00091097082962501819 0.014312295317585285 0 -0.0017042259134469977 0.014672322468486657 0 -0.0013376090166703847 0.013786097140473462 0 -0.0017042259134469977 0.014672322468486657 0 -0.0019951376568866385 0.013797872053123111 0 -0.0017042259134469977 0.014672322468486657 0 -0.0019951376568866385 0.013797872053123111 0 -0.0022237467957917814 0.014390886329373723 0 -0.0024571642848854841 0.014974574153113826 0 -0.0017042259134469977 0.014672322468486657 0 -0.0022237467957917814 0.014390886329373723 0 -0.0024571642848854841 0.014974574153113826 0 -0.0028539978376245826 0.014415941560096304 0 -0.0022237467957917814 0.014390886329373723 0 -0.0028539978376245826 0.014415941560096304 0 -0.0022237467957917814 0.014390886329373723 0 -0.0026428528112780155 0.014008456857045434 0 -0.0019951376568866385 0.013797872053123111 0 -0.0022237467957917814 0.014390886329373723 0 -0.0026428528112780155 0.014008456857045434 0 -0.0019951376568866385 0.013797872053123111 0 -0.0026428528112780155 0.014008456857045434 0 -0.0024251412778083423 0.013295848258442012 0 -0.0031467044872594005 0.013494195818734515 0 -0.0026428528112780155 0.014008456857045434 0 -0.0024251412778083423 0.013295848258442012 0 -0.0024251412778083423 0.013295848258442012 0 -0.0024083551484752868 0.012474484810779951 0 -0.0029245926464491093 0.012736254868336648 0 -0.0024251412778083423 0.013295848258442012 0 -0.0020399865628446048 0.01282723823615837 0 -0.0016667024007077313 0.01317763766631451 0 -0.0024251412778083423 0.013295848258442012 0 -0.0020399865628446048 0.01282723823615837 0 -0.0024083551484752868 0.012474484810779951 0 -0.0019951376568866385 0.013797872053123111 0 -0.0024251412778083423 0.013295848258442012 0 -0.0016667024007077313 0.01317763766631451 0 -0.0013376090166703847 0.013786097140473462 0 -0.0019951376568866385 0.013797872053123111 0 -0.0016667024007077313 0.01317763766631451 0 -0.0020399865628446048 0.01282723823615837 0 -0.0016667024007077313 0.01317763766631451 0 -0.0014347971635021966 0.012480003679407218 0 -0.0016667024007077313 0.01317763766631451 0 -0.00108978007730599 0.012844308500569581 0 -0.0014347971635021966 0.012480003679407218 0 -0.00108978007730599 0.012844308500569581 0 -0.0014347971635021966 0.012480003679407218 0 -0.00083286826351788607 0.012351247866353934 0 -0.0013376090166703847 0.013786097140473462 0 -0.00108978007730599 0.012844308500569581 0 -0.0006219427773937093 0.013712431214270371 0 -0.0013376090166703847 0.013786097140473462 0 -0.0016667024007077313 0.01317763766631451 0 -0.00108978007730599 0.012844308500569581 0 -0.0012370263468688496 0.011976476314213216 0 -0.0014347971635021966 0.012480003679407218 0 -0.00083286826351788607 0.012351247866353934 0 -0.0020399865628446048 0.01282723823615837 0 -0.0014347971635021966 0.012480003679407218 0 -0.0019087927864044952 0.012000299114318652 0 -0.0012370263468688496 0.011976476314213216 0 -0.0014347971635021966 0.012480003679407218 0 -0.0019087927864044952 0.012000299114318652 0 -0.0014834778685025344 0.015327129657867594 0 -0.0014547260282385913 0.014926142438300222 0 -0.0020399865628446048 0.01282723823615837 0 -0.0019087927864044952 0.012000299114318652 0 -0.0024083551484752868 0.012474484810779951 0 -0.0024083551484752868 0.012474484810779951 0 -0.002706651563701477 0.01206270334427644 0 -0.0029245926464491093 0.012736254868336648 0 -0.0011481545025802109 0.018522920053258854 0 -0.00051406738042152208 0.018492818265592563 0 -0.00064009045224431118 0.019020168198057352 0 -0.0019087927864044952 0.012000299114318652 0 -0.0024083551484752868 0.012474484810779951 0 -0.002706651563701477 0.01206270334427644 0 -0.0014547260282385913 0.014926142438300222 0 -0.0018915976252559983 0.01820621507561599 0 -0.0018915976252559983 0.01820621507561599 0 -0.00055518082119795703 0.019463417142860231 0 -0.00064009045224431118 0.019020168198057352 0 -0.0010643660800706109 0.019145809492811243 0 -0.0007679862008359617 0.019643181657588507 0 -0.00055518082119795703 0.019463417142860231 0 -0.00076115222293565558 0.019591284429671792 0 -0.00063049196073670293 0.019642346252781825 0 -0.00063965447321800116 0.019668772184506623 0 -0.0007679862008359617 0.019643181657588507 0 -0.00063049196073670293 0.019642346252781825 0 -0.00063965447321800116 0.019668772184506623 0 -0.00055825579852414819 0.019684986726411533 0 -0.0010643660800706109 0.019145809492811243 0 -0.0012298186703298007 0.019541812208565663 0 -0.0007679862008359617 0.019643181657588507 0 -0.0011481545025802109 0.018522920053258854 0 -0.00064009045224431118 0.019020168198057352 0 -0.0010643660800706109 0.019145809492811243 0 -0.0017051571012237318 0.018601774488959735 0 -0.0011481545025802109 0.018522920053258854 0 -0.0014756595692667742 0.01906997323348809 0 -0.0011481545025802109 0.018522920053258854 0 -0.0010643660800706109 0.019145809492811243 0 -0.0014756595692667742 0.01906997323348809 0 -0.0014756595692667742 0.01906997323348809 0 -0.0017498672595590832 0.019442304526547986 0 -0.0012298186703298007 0.019541812208565663 0 -0.0010643660800706109 0.019145809492811243 0 -0.0014756595692667742 0.01906997323348809 0 -0.0012298186703298007 0.019541812208565663 0 -0.0014756595692667742 0.01906997323348809 0 -0.0017498672595590832 0.019442304526547986 0 -0.0019589682602286374 0.019024963466329255 0 -0.0017051571012237318 0.018601774488959735 0 -0.0014756595692667742 0.01906997323348809 0 -0.0019589682602286374 0.019024963466329255 0 0.00010056490938265564 0.021134188137810865 0 -0.0016139034372626715 0.021498956082803531 0 -3.814141307417293e-05 0.022500815901911733 0 -0.00013816126595111064 0.020900340945105417 0 -0.0022283480350227826 0.022631259199201316 0 -0.00030632931060619131 0.019634746264262686 0 -0.00046138932238069791 0.019594200141962212 0 -0.00035709178389041945 0.01970607667122579 0 0.00046888947175973328 0.022690952575333739 0 -3.814141307417293e-05 0.022500815901911733 0 -0.0022283480350227826 0.022631259199201316 0 0.00046888947175973328 0.022690952575333739 0 -3.814141307417293e-05 0.022500815901911733 0 0.00036272878886791445 0.023008997189573974 0 0.00019104279286217093 0.022966286274968304 0 0.00046888947175973328 0.022690952575333739 0 0.00036272878886791445 0.023008997189573974 0 -3.814141307417293e-05 0.022500815901911733 0 0.0013239949441355206 0.020146741409529004 0 -0.00013816126595111064 0.020900340945105417 0 7.7305437886189323e-05 0.022458004100785234 0 0.00087258107729970319 0.021686809394640405 0 -0.0013874162591569702 0.020132748900038251 0 -0.00013816126595111064 0.020900340945105417 0 -0.0022283480350227826 0.022631259199201316 0 -0.0031106491328631138 0.019099988014510072 0 -0.0048680934973610685 0.020018702272275677 0 -0.0022283480350227826 0.022631259199201316 0 -0.0031106491328631138 0.019099988014510072 0 -0.0013874162591569702 0.020132748900038251 0 -0.0022283480350227826 0.022631259199201316 0 -0.0018915976252559983 0.01820621507561599 0 -0.0040864222715113569 0.016276009536179172 0 -0.0055426722421028978 0.022655272675250551 0 -0.0048680934973610685 0.020018702272275677 0 -0.0022283480350227826 0.022631259199201316 0 -0.0018915976252559983 0.01820621507561599 0 -0.0016139034372626715 0.021498956082803531 0 -0.00060421642983717831 0.019565766445564205 0 -0.00046138932238069791 0.019594200141962212 0 -0.00054171861011222556 0.019639793543045091 0 -0.00046138932238069791 0.019594200141962212 0 -0.0004548407457639272 0.0196749264143232 0 -0.00054171861011222556 0.019639793543045091 0 -0.0004548407457639272 0.0196749264143232 0 -0.00054171861011222556 0.019639793543045091 0 -0.00048156507702509435 0.01970730054298259 0 -0.00063049196073670293 0.019642346252781825 0 -0.00054171861011222556 0.019639793543045091 0 -0.00055825579852414819 0.019684986726411533 0 -0.00060421642983717831 0.019565766445564205 0 -0.00063049196073670293 0.019642346252781825 0 -0.00054171861011222556 0.019639793543045091 0 -0.00054171861011222556 0.019639793543045091 0 -0.00055825579852414819 0.019684986726411533 0 -0.00048156507702509435 0.01970730054298259 0 -0.00055825579852414819 0.019684986726411533 0 -0.00048156507702509435 0.01970730054298259 0 -0.00048780613090226702 0.019764677042970236 0 -0.00055825579852414819 0.019684986726411533 0 -0.00048780613090226702 0.019764677042970236 0 -0.00054311932957152491 0.019774267879226332 0 -0.00063965447321800116 0.019668772184506623 0 -0.00055825579852414819 0.019684986726411533 0 -0.00054311932957152491 0.019774267879226332 0 -0.00048156507702509435 0.01970730054298259 0 -0.00042948809279555141 0.019777621854270556 0 -0.00040949222128121516 0.019737328420334641 0 -0.0004548407457639272 0.0196749264143232 0 -0.00048156507702509435 0.01970730054298259 0 -0.00040949222128121516 0.019737328420334641 0 -0.00048156507702509435 0.01970730054298259 0 -0.00048780613090226702 0.019764677042970236 0 -0.00042948809279555141 0.019777621854270556 0 -0.00042948809279555141 0.019777621854270556 0 -0.00038533346218129195 0.019790371069568501 0 -0.00040949222128121516 0.019737328420334641 0 -0.00038533346218129195 0.019790371069568501 0 -0.00034287736826853237 0.019771678003322714 0 -0.00040949222128121516 0.019737328420334641 0 -0.00038533346218129195 0.019790371069568501 0 -0.00034826517552847798 0.019803521309987485 0 -0.00034287736826853237 0.019771678003322714 0 -0.00034287736826853237 0.019771678003322714 0 -0.00040949222128121516 0.019737328420334641 0 -0.00035709178389041945 0.01970607667122579 0 -0.00046138932238069791 0.019594200141962212 0 -0.0004548407457639272 0.0196749264143232 0 -0.00035709178389041945 0.01970607667122579 0 -0.0004548407457639272 0.0196749264143232 0 -0.00040949222128121516 0.019737328420334641 0 -0.00035709178389041945 0.01970607667122579 0 -0.00024417894259779079 0.019720155356574447 0 -0.00030632931060619131 0.019634746264262686 0 -0.00035709178389041945 0.01970607667122579 0 -0.00024417894259779079 0.019720155356574447 0 -0.00035709178389041945 0.01970607667122579 0 -0.00027576091376361003 0.019785312463042718 0 -0.00034287736826853237 0.019771678003322714 0 -0.00035709178389041945 0.01970607667122579 0 -0.00027576091376361003 0.019785312463042718 0 -0.00034826517552847798 0.019803521309987485 0 -0.00031311452976413422 0.01980159563809308 0 -0.00031558818325692141 0.019822293514519147 0 -0.00034287736826853237 0.019771678003322714 0 -0.00027576091376361003 0.019785312463042718 0 -0.00031311452976413422 0.01980159563809308 0 -0.00034826517552847798 0.019803521309987485 0 -0.00034287736826853237 0.019771678003322714 0 -0.00031311452976413422 0.01980159563809308 0 -0.00027576091376361003 0.019785312463042718 0 -0.00031311452976413422 0.01980159563809308 0 -0.00029967756532272969 0.019835877235769156 0 4.9693604443832929e-06 0.020641099406963778 0 8.3561364788020911e-05 0.021185762359761343 0 5.8047387021400755e-05 0.021003603686641413 0 -8.1901004745404618e-05 0.021103821471001722 0 0.00014227074562384086 0.02106464224949919 0 -0.00029943393698406785 0.019830957956295515 0 -0.00031558818325692141 0.019822293514519147 0 -0.00035355563358660194 0.019837910050223555 0 -0.00031311452976413422 0.01980159563809308 0 -0.00029967756532272969 0.019835877235769156 0 -0.00031558818325692141 0.019822293514519147 0 -0.00029296821366482477 0.020307185833554103 0 -0.00037323069028767663 0.020174244132452158 0 6.1729194335430579e-05 0.021214091147263549 0 -4.7836477621518183e-05 0.02109892080438586 0 0.00014227074562384086 0.02106464224949919 0 6.1729194335430579e-05 0.021214091147263549 0 0.00014227074562384086 0.02106464224949919 0 0.00016459742728901629 0.021180293392013425 0 -4.7836477621518183e-05 0.02109892080438586 0 -0.00018161161949517427 0.021135908131992249 0 -4.8414183789565565e-05 0.021220745283476849 0 6.1729194335430579e-05 0.021214091147263549 0 -4.7836477621518183e-05 0.02109892080438586 0 -4.8414183789565565e-05 0.021220745283476849 0 -0.0003647393822299488 0.01988076667768621 0 -0.00035355563358660194 0.019837910050223555 0 -0.00039179469985492049 0.019828240005232992 0 -0.0003647393822299488 0.01988076667768621 0 -0.00039179469985492049 0.019828240005232992 0 -0.00043170378348114045 0.019841940285685946 0 -0.00029943393698406785 0.019830957956295515 0 -0.0003647393822299488 0.01988076667768621 0 -0.00035355563358660194 0.019837910050223555 0 -0.00029296821366482477 0.020307185833554103 0 4.9693604443832929e-06 0.020641099406963778 0 -0.00038533346218129195 0.019790371069568501 0 -0.00034826517552847798 0.019803521309987485 0 -0.00035355563358660194 0.019837910050223555 0 -0.00034826517552847798 0.019803521309987485 0 -0.00031558818325692141 0.019822293514519147 0 -0.00035355563358660194 0.019837910050223555 0 -0.00038533346218129195 0.019790371069568501 0 -0.00035355563358660194 0.019837910050223555 0 -0.00039179469985492049 0.019828240005232992 0 -0.00042948809279555141 0.019777621854270556 0 -0.00038533346218129195 0.019790371069568501 0 -0.00039179469985492049 0.019828240005232992 0 -0.00042948809279555141 0.019777621854270556 0 -0.00039179469985492049 0.019828240005232992 0 -0.00043170378348114045 0.019841940285685946 0 -0.00048780613090226702 0.019764677042970236 0 -0.00042948809279555141 0.019777621854270556 0 -0.00043170378348114045 0.019841940285685946 0 -0.00048780613090226702 0.019764677042970236 0 -0.00043170378348114045 0.019841940285685946 0 -0.00048496149712217525 0.019850506419945308 0 -0.00043170378348114045 0.019841940285685946 0 -0.00048496149712217525 0.019850506419945308 0 -0.00045579220469116522 0.019925578208430023 0 -0.00048780613090226702 0.019764677042970236 0 -0.00054311932957152491 0.019774267879226332 0 -0.00048496149712217525 0.019850506419945308 0 -0.00054311932957152491 0.019774267879226332 0 -0.00048496149712217525 0.019850506419945308 0 -0.00055415973563580285 0.019914594859646969 0 -0.00054311932957152491 0.019774267879226332 0 -0.00055415973563580285 0.019914594859646969 0 -0.00067316618048215548 0.019840900774339181 0 -0.00055415973563580285 0.019914594859646969 0 -0.00045579220469116522 0.019925578208430023 0 -0.00062145036064268104 0.020115290306648336 0 -0.00022066692170612248 0.02015490825294039 0 -0.00066477026166456086 0.02036485615059588 0 -3.4072647857038559e-05 0.020473766274965277 0 -0.00027929246177750967 0.020730291303397971 0 -0.00062857343266501655 0.020581592025002694 0 -0.00048496149712217525 0.019850506419945308 0 -0.00055415973563580285 0.019914594859646969 0 -0.00045579220469116522 0.019925578208430023 0 -3.4072647857038559e-05 0.020473766274965277 0 7.7093965836154234e-05 0.020686824369842493 0 -0.00027929246177750967 0.020730291303397971 0 4.9693604443832929e-06 0.020641099406963778 0 -3.7836341209089352e-05 0.020913698870566676 0 4.9693604443832929e-06 0.020641099406963778 0 -0.00022066692170612248 0.02015490825294039 0 -0.0003647393822299488 0.01988076667768621 0 -0.00043170378348114045 0.019841940285685946 0 -0.00045579220469116522 0.019925578208430023 0 0.00049130163454171472 0.020351678490382122 0 -3.4072647857038559e-05 0.020473766274965277 0 7.7093965836154234e-05 0.020686824369842493 0 -0.00018161161949517427 0.021135908131992249 0 -0.00041140287553881967 0.02110825253531242 0 -0.00012649071666167959 0.021276670358633353 0 -0.00018161161949517427 0.021135908131992249 0 -0.00012649071666167959 0.021276670358633353 0 -4.8414183789565565e-05 0.021220745283476849 0 -3.7836341209089352e-05 0.020913698870566676 0 -0.00039691265443043429 0.021113482718082541 0 -0.00041140287553881967 0.02110825253531242 0 -0.00027929246177750967 0.020730291303397971 0 -0.00062857343266501655 0.020581592025002694 0 7.7093965836154234e-05 0.020686824369842493 0 -0.00041140287553881967 0.02110825253531242 0 -0.00027929246177750967 0.020730291303397971 0 -0.00041140287553881967 0.02110825253531242 0 -0.00032870491974629017 0.021380368264265971 0 -0.00012649071666167959 0.021276670358633353 0 -0.00041140287553881967 0.02110825253531242 0 -0.00032870491974629017 0.021380368264265971 0 -0.00070599219279955368 0.021405679314391846 0 -0.00032870491974629017 0.021380368264265971 0 -0.00012649071666167959 0.021276670358633353 0 -0.0001208843597794134 0.021464939668190217 0 -0.00012649071666167959 0.021276670358633353 0 4.171231013356245e-05 0.021385059707625238 0 -0.0001208843597794134 0.021464939668190217 0 -0.00023070560970998743 0.021800064757397285 0 -0.00049253180578428732 0.021949762141522115 0 -0.00012649071666167959 0.021276670358633353 0 4.171231013356245e-05 0.021385059707625238 0 -4.8414183789565565e-05 0.021220745283476849 0 -0.00023070560970998743 0.021800064757397285 0 8.9329700570409489e-05 0.021654845255043582 0 6.1729194335430579e-05 0.021214091147263549 0 4.171231013356245e-05 0.021385059707625238 0 0.00015369458725834496 0.021295050480047675 0 6.1729194335430579e-05 0.021214091147263549 0 4.171231013356245e-05 0.021385059707625238 0 -4.8414183789565565e-05 0.021220745283476849 0 -0.0018577883053600172 0.020138766669916253 0 -0.0017498672595590832 0.019442304526547986 0 -0.0014078027342168309 0.019879250353192782 0 -0.0017037164050910777 0.019644649671902253 0 -0.0017498672595590832 0.019442304526547986 0 -0.0020388675116339056 0.019410950571206124 0 -0.0017577426571518564 0.019842434389476877 0 -0.001754165726798015 0.019497914921688717 0 -0.0017498672595590832 0.019442304526547986 0 -0.0012298186703298007 0.019541812208565663 0 -0.0014078027342168309 0.019879250353192782 0 -0.0018577883053600172 0.020138766669916253 0 -0.0014078027342168309 0.019879250353192782 0 -0.0014267347498556472 0.020303099935244755 0 -0.0014078027342168309 0.019879250353192782 0 -0.00096475096977584752 0.019974198097785036 0 -0.0014267347498556472 0.020303099935244755 0 -0.00096475096977584752 0.019974198097785036 0 -0.0012058866838540567 0.020563709257341134 0 -0.0015945947387172145 0.02073346650539204 0 -0.00096475096977584752 0.019974198097785036 0 -0.00062145036064268104 0.020115290306648336 0 -0.0012058866838540567 0.020563709257341134 0 -0.00096572702186987754 0.019988547786476806 0 -0.00153353179629082 0.020545658780394695 0 -0.00066477026166456086 0.02036485615059588 0 -0.0011871791265407592 0.020542116384844746 0 -0.0012298186703298007 0.019541812208565663 0 -0.00096475096977584752 0.019974198097785036 0 -0.0007679862008359617 0.019643181657588507 0 -0.0012298186703298007 0.019541812208565663 0 -0.0014078027342168309 0.019879250353192782 0 -0.00096475096977584752 0.019974198097785036 0 -0.00096475096977584752 0.019974198097785036 0 -0.0007679862008359617 0.019643181657588507 0 -0.00067316618048215548 0.019840900774339181 0 -0.00063965447321800116 0.019668772184506623 0 -0.0007679862008359617 0.019643181657588507 0 -0.00067316618048215548 0.019840900774339181 0 -0.00063965447321800116 0.019668772184506623 0 -0.00054311932957152491 0.019774267879226332 0 -0.00067316618048215548 0.019840900774339181 0 -0.00055415973563580285 0.019914594859646969 0 -0.00067316618048215548 0.019840900774339181 0 -0.00062145036064268104 0.020115290306648336 0 -0.00096475096977584752 0.019974198097785036 0 -0.00067316618048215548 0.019840900774339181 0 -0.00062145036064268104 0.020115290306648336 0 -0.00041140287553881967 0.02110825253531242 0 -0.00062857343266501655 0.020581592025002694 0 -0.0008702743421286482 0.020995240994340719 0 -0.00041140287553881967 0.02110825253531242 0 -0.00070599219279955368 0.021405679314391846 0 -0.0008702743421286482 0.020995240994340719 0 -0.00070599219279955368 0.021405679314391846 0 -0.0011866179606661626 0.021375987427077223 0 -0.0008702743421286482 0.020995240994340719 0 -0.0011866179606661626 0.021375987427077223 0 -0.0008702743421286482 0.020995240994340719 0 -0.0012980074591477798 0.021007809258355842 0 -0.00062857343266501655 0.020581592025002694 0 -0.0008702743421286482 0.020995240994340719 0 -0.0012058866838540567 0.020563709257341134 0 -0.0008702743421286482 0.020995240994340719 0 -0.0012058866838540567 0.020563709257341134 0 -0.0012980074591477798 0.021007809258355842 0 -0.0015945947387172145 0.02073346650539204 0 -0.0012980074591477798 0.021007809258355842 0 -0.001611875144878425 0.021251815776428786 0 -0.0012058866838540567 0.020563709257341134 0 -0.0015945947387172145 0.02073346650539204 0 -0.0012980074591477798 0.021007809258355842 0 -0.0011866179606661626 0.021375987427077223 0 -0.0012980074591477798 0.021007809258355842 0 -0.001611875144878425 0.021251815776428786 0 -0.0018928279783926251 0.02076102593920643 0 -0.0020409288750740618 0.021538823561379074 0 -0.001611875144878425 0.021251815776428786 0 -0.0020882279544256455 0.021228009146318269 0 -0.0018544734424713744 0.021506940314434054 0 -0.0015945947387172145 0.02073346650539204 0 -0.001611875144878425 0.021251815776428786 0 -0.0020882279544256455 0.021228009146318269 0 -0.0017577426571518564 0.019842434389476877 0 -0.0018928279783926251 0.02076102593920643 0 -0.0018577883053600172 0.020138766669916253 0 -0.0014267347498556472 0.020303099935244755 0 -0.0019358028559844848 0.020732659135914849 0 -0.00153353179629082 0.020545658780394695 0 -0.0018928279783926251 0.02076102593920643 0 -0.0019078263502543154 0.021942225969778874 0 -0.0021167275911875764 0.021680630211690945 0 -0.0021002267841325243 0.021996385457428609 0 -0.0019078263502543154 0.021942225969778874 0 -0.0015557462334164032 0.021721312604854694 0 -0.0017218379058019755 0.022393579533121627 0 -0.0019078263502543154 0.021942225969778874 0 -0.0019619585594460253 0.022371118347664337 0 -0.0021002267841325243 0.021996385457428609 0 -0.0019078263502543154 0.021942225969778874 0 -0.0017218379058019755 0.022393579533121627 0 -0.0019619585594460253 0.022371118347664337 0 -0.0019078263502543154 0.021942225969778874 0 -0.0018544734424713744 0.021506940314434054 0 -0.0021167275911875764 0.021680630211690945 0 -0.0020882279544256455 0.021228009146318269 0 -0.0018544734424713744 0.021506940314434054 0 -0.0021167275911875764 0.021680630211690945 0 -0.0019078263502543154 0.021942225969778874 0 -0.0018544734424713744 0.021506940314434054 0 -0.0015557462334164032 0.021721312604854694 0 -0.0011866179606661626 0.021375987427077223 0 -0.001611875144878425 0.021251815776428786 0 -0.0015557462334164032 0.021721312604854694 0 -0.001611875144878425 0.021251815776428786 0 -0.0018544734424713744 0.021506940314434054 0 -0.0015557462334164032 0.021721312604854694 0 -0.001250078938759029 0.022300651840090176 0 -0.0017044005978224435 0.022408831419188768 0 -0.0015557462334164032 0.021721312604854694 0 -0.0010378654464781819 0.022041338426101054 0 -0.0017218379058019755 0.022393579533121627 0 -0.0014180258722459038 0.022565937240757405 0 -0.0017218379058019755 0.022393579533121627 0 -0.0015381032206757005 0.022680989287637086 0 -0.0011866179606661626 0.021375987427077223 0 -0.0015557462334164032 0.021721312604854694 0 -0.0010378654464781819 0.022041338426101054 0 -0.00070599219279955368 0.021405679314391846 0 -0.0011866179606661626 0.021375987427077223 0 -0.0010378654464781819 0.022041338426101054 0 -0.00070599219279955368 0.021405679314391846 0 -0.0010378654464781819 0.022041338426101054 0 -0.00046448018049511015 0.021723937745372107 0 -0.0014180258722459038 0.022565937240757405 0 -0.0011467601932813442 0.022547545818146688 0 -0.001141430912999975 0.022859464436018603 0 -0.001250078938759029 0.022300651840090176 0 -0.00081393935110069546 0.022134205201594079 0 -0.0014180258722459038 0.022565937240757405 0 -0.0013718684017204053 0.022820910112561543 0 -0.001141430912999975 0.022859464436018603 0 -0.0012432977799776059 0.023049532546326707 0 -0.0013718684017204053 0.022820910112561543 0 -0.001141430912999975 0.022859464436018603 0 -0.0012432977799776059 0.023049532546326707 0 -0.0010749331990369591 0.023204770596404335 0 -0.0012709238911718628 0.023287790731029708 0 -0.0012432977799776059 0.023049532546326707 0 -0.001141430912999975 0.022859464436018603 0 -0.0010749331990369591 0.023204770596404335 0 -0.0012432977799776059 0.023049532546326707 0 -0.0014132440123219416 0.023082985193810007 0 -0.0012709238911718628 0.023287790731029708 0 -0.0014132440123219416 0.023082985193810007 0 -0.0013718684017204053 0.022820910112561543 0 -0.0015485299264645315 0.022907108481716763 0 -0.0012432977799776059 0.023049532546326707 0 -0.0014132440123219416 0.023082985193810007 0 -0.0013718684017204053 0.022820910112561543 0 -0.0014132440123219416 0.023082985193810007 0 -0.0015485299264645315 0.022907108481716763 0 -0.0015654342124279794 0.023105484824533774 0 -0.0014180258722459038 0.022565937240757405 0 -0.0013718684017204053 0.022820910112561543 0 -0.0015381032206757005 0.022680989287637086 0 -0.0013718684017204053 0.022820910112561543 0 -0.0015381032206757005 0.022680989287637086 0 -0.0015485299264645315 0.022907108481716763 0 -0.0017218379058019755 0.022393579533121627 0 -0.0015381032206757005 0.022680989287637086 0 -0.0017076747179234897 0.02280072687007479 0 -0.0015381032206757005 0.022680989287637086 0 -0.0015485299264645315 0.022907108481716763 0 -0.0017076747179234897 0.02280072687007479 0 -0.0015485299264645315 0.022907108481716763 0 -0.0017093869421962013 0.023015019731170993 0 -0.0017076747179234897 0.02280072687007479 0 -0.0015485299264645315 0.022907108481716763 0 -0.0017093869421962013 0.023015019731170993 0 -0.0015654342124279794 0.023105484824533774 0 -0.0017093869421962013 0.023015019731170993 0 -0.0017076747179234897 0.02280072687007479 0 -0.0018098159783944713 0.022960893553547371 0 -0.0017093869421962013 0.023015019731170993 0 -0.0018098159783944713 0.022960893553547371 0 -0.0017876560319383796 0.023145259581900401 0 -0.002923110507149078 0.020061814800210326 0 -0.0030637887539216096 0.019906405819924575 0 -0.0018098159783944713 0.022960893553547371 0 -0.0019042184367738068 0.022719825462515397 0 -0.0019506167009489849 0.023080124566504139 0 -0.0019042184367738068 0.022719825462515397 0 -0.0022498764837094211 0.022519951060732134 0 -0.0019506167009489849 0.023080124566504139 0 -0.0036641070497755329 0.017536911509251886 0 -0.0039249232889587548 0.017021552152938605 0 -0.0037988734165659262 0.016978486393964105 0 -0.0017076747179234897 0.02280072687007479 0 -0.0018098159783944713 0.022960893553547371 0 -0.0019042184367738068 0.022719825462515397 0 -0.0018098159783944713 0.022960893553547371 0 -0.0017876560319383796 0.023145259581900401 0 -0.0019506167009489849 0.023080124566504139 0 -0.0017218379058019755 0.022393579533121627 0 -0.0017076747179234897 0.02280072687007479 0 -0.0019042184367738068 0.022719825462515397 0 -0.0019042184367738068 0.022719825462515397 0 -0.0019619585594460253 0.022371118347664337 0 -0.0022498764837094211 0.022519951060732134 0 -0.0017218379058019755 0.022393579533121627 0 -0.0019042184367738068 0.022719825462515397 0 -0.0019619585594460253 0.022371118347664337 0 -0.00049540860332988196 0.022916190405958652 0 -0.00059816457905848919 0.022586161468848325 0 -0.00077566140809637578 0.022785062639472099 0 -0.00049540860332988196 0.022916190405958652 0 -0.0002908796124083453 0.022579603294215479 0 -0.00059816457905848919 0.022586161468848325 0 -0.00049540860332988196 0.022916190405958652 0 -0.0002908796124083453 0.022579603294215479 0 -0.00012696790999252184 0.023080581466145059 0 -0.00051272122257852717 0.022217580153941999 0 -0.0002908796124083453 0.022579603294215479 0 -0.00019783630292073158 0.022254502014040303 0 -0.00051272122257852717 0.022217580153941999 0 -0.0002908796124083453 0.022579603294215479 0 -0.00059816457905848919 0.022586161468848325 0 -0.00059816457905848919 0.022586161468848325 0 -0.00085945770648639802 0.022428094607786088 0 -0.00077566140809637578 0.022785062639472099 0 -0.00051272122257852717 0.022217580153941999 0 -0.00059816457905848919 0.022586161468848325 0 -0.00085945770648639802 0.022428094607786088 0 -0.00032870491974629017 0.021380368264265971 0 -0.00070599219279955368 0.021405679314391846 0 -0.00046448018049511015 0.021723937745372107 0 -0.00085945770648639802 0.022428094607786088 0 -0.0011467601932813442 0.022547545818146688 0 -0.00098527535584481203 0.022707076963575185 0 -0.00032870491974629017 0.021380368264265971 0 -0.0001208843597794134 0.021464939668190217 0 -0.00046448018049511015 0.021723937745372107 0 -0.00049253180578428732 0.021949762141522115 0 -0.00081393935110069546 0.022134205201594079 0 -0.0011467601932813442 0.022547545818146688 0 -0.00098527535584481203 0.022707076963575185 0 -0.001141430912999975 0.022859464436018603 0 -0.00085945770648639802 0.022428094607786088 0 -0.00098527535584481203 0.022707076963575185 0 -0.00077566140809637578 0.022785062639472099 0 -0.00098527535584481203 0.022707076963575185 0 -0.00077566140809637578 0.022785062639472099 0 -0.00090360020057621629 0.022924294337911259 0 -0.00090360020057621629 0.022924294337911259 0 -0.00090604158505930201 0.023158057036134865 0 -0.00067549255845895636 0.023124402649791483 0 -0.00077566140809637578 0.022785062639472099 0 -0.00090360020057621629 0.022924294337911259 0 -0.00067549255845895636 0.023124402649791483 0 -0.00098527535584481203 0.022707076963575185 0 -0.00090360020057621629 0.022924294337911259 0 -0.001141430912999975 0.022859464436018603 0 -0.00090360020057621629 0.022924294337911259 0 -0.001141430912999975 0.022859464436018603 0 -0.00090604158505930201 0.023158057036134865 0 -0.001141430912999975 0.022859464436018603 0 -0.0010749331990369591 0.023204770596404335 0 -0.00090604158505930201 0.023158057036134865 0 -0.0010749331990369591 0.023204770596404335 0 -0.00090604158505930201 0.023158057036134865 0 -0.00089925508833533596 0.023370669740648206 0 -0.00090604158505930201 0.023158057036134865 0 -0.00070870016814608596 0.023374636933898966 0 -0.00067549255845895636 0.023124402649791483 0 -0.00090604158505930201 0.023158057036134865 0 -0.00070870016814608596 0.023374636933898966 0 -0.00089925508833533596 0.023370669740648206 0 -0.00067549255845895636 0.023124402649791483 0 -0.0004059385360425496 0.023210988453613846 0 -0.00049170665316517652 0.023426715107930277 0 -0.00070870016814608596 0.023374636933898966 0 -0.00067549255845895636 0.023124402649791483 0 -0.00049170665316517652 0.023426715107930277 0 -0.00049540860332988196 0.022916190405958652 0 -0.00077566140809637578 0.022785062639472099 0 -0.00067549255845895636 0.023124402649791483 0 -0.00049540860332988196 0.022916190405958652 0 -0.00067549255845895636 0.023124402649791483 0 -0.0004059385360425496 0.023210988453613846 0 -0.00049540860332988196 0.022916190405958652 0 -0.0004059385360425496 0.023210988453613846 0 -0.00012696790999252184 0.023080581466145059 0 -0.0004059385360425496 0.023210988453613846 0 -0.00049170665316517652 0.023426715107930277 0 -0.0001929441584742296 0.0234942571532183 0 -0.00049170665316517652 0.023426715107930277 0 -0.0001929441584742296 0.0234942571532183 0 -0.00038611345540776363 0.023637141924857663 0 -0.0001929441584742296 0.0234942571532183 0 2.1900362252347457e-05 0.023658526296018386 0 0.00015065484538326769 0.023482690716536941 0 -0.0001929441584742296 0.0234942571532183 0 0.00015065484538326769 0.023482690716536941 0 -0.00012696790999252184 0.023080581466145059 0 0.00015065484538326769 0.023482690716536941 0 0.00065378515919517098 0.023900905764855884 0 0.00027554574169609997 0.023834529087628925 0 2.1900362252347457e-05 0.023658526296018386 0 0.00015065484538326769 0.023482690716536941 0 0.00027554574169609997 0.023834529087628925 0 0.00015065484538326769 0.023482690716536941 0 0.00033193720239106797 0.023082365527832993 0 -0.00012696790999252184 0.023080581466145059 0 -0.0004059385360425496 0.023210988453613846 0 -0.0001929441584742296 0.0234942571532183 0 -0.00012696790999252184 0.023080581466145059 0 -0.0002908796124083453 0.022579603294215479 0 -0.00012696790999252184 0.023080581466145059 0 0.00011632593660340991 0.022687716604128563 0 0.00033193720239106797 0.023082365527832993 0 0.00011632593660340991 0.022687716604128563 0 0.00048790940604629416 0.022604076240796009 0 0.00033193720239106797 0.023082365527832993 0 -0.00012696790999252184 0.023080581466145059 0 0.00011632593660340991 0.022687716604128563 0 0.0001133821266873113 0.022297827594169574 0 0.00048790940604629416 0.022604076240796009 0 0.00057857863407672337 0.022111396807405849 0 0.00011632593660340991 0.022687716604128563 0 0.0001133821266873113 0.022297827594169574 0 0.00048790940604629416 0.022604076240796009 0 -0.0002908796124083453 0.022579603294215479 0 0.0001133821266873113 0.022297827594169574 0 -0.00019783630292073158 0.022254502014040303 0 -0.0002908796124083453 0.022579603294215479 0 0.00011632593660340991 0.022687716604128563 0 0.0001133821266873113 0.022297827594169574 0 0.00097177282447201917 0.022393086263063029 0 0.00048790940604629416 0.022604076240796009 0 0.00057857863407672337 0.022111396807405849 0 0.00097177282447201917 0.022393086263063029 0 0.00048790940604629416 0.022604076240796009 0 0.00086900439502066076 0.023057324682438981 0 0.00033193720239106797 0.023082365527832993 0 0.00048790940604629416 0.022604076240796009 0 0.00086900439502066076 0.023057324682438981 0 0.00067298909422519799 0.024409368922454149 0 0.00041915628873029289 0.024306624119918071 0 0.00046969235915330607 0.024540057742396613 0 0.00064671176925136856 0.024724254723604077 0 0.00067298909422519799 0.024409368922454149 0 0.00046969235915330607 0.024540057742396613 0 0.00082768550680696899 0.023583100051034419 0 0.00075952944802987188 0.023727542297341357 0 0.00075952944802987188 0.023727542297341357 0 0.0006759302270791769 0.023892270683505554 0 0.00067298909422519799 0.024409368922454149 0 0.00049361951893712628 0.024107639309877242 0 0.00041915628873029289 0.024306624119918071 0 0.00067298909422519799 0.024409368922454149 0 0.00065378515919517098 0.023900905764855884 0 0.00049361951893712628 0.024107639309877242 0 0.00015065484538326769 0.023482690716536941 0 0.00033193720239106797 0.023082365527832993 0 0.00065378515919517098 0.023900905764855884 0 0.00033193720239106797 0.023082365527832993 0 0.00086900439502066076 0.023057324682438981 0 0.00065378515919517098 0.023900905764855884 0 0.00065378515919517098 0.023900905764855884 0 0.00049361951893712628 0.024107639309877242 0 0.00053050925880226258 0.024046544229044554 0 0.00049361951893712628 0.024107639309877242 0 0.00041915628873029289 0.024306624119918071 0 0.00039687597600762122 0.024239148969207966 0 0.00025145144226557478 0.024332120981517883 0 0.00041915628873029289 0.024306624119918071 0 0.00039687597600762122 0.024239148969207966 0 0.0001617854851885453 0.024646627963744172 0 0.00038177274345311635 0.02428312413980108 0 0.00015369139323570801 0.024567102317614595 0 7.7312885368691103e-05 0.024985666881886155 0 0.00039687597600762122 0.024239148969207966 0 0.00015369139323570801 0.024567102317614595 0 7.7312885368691103e-05 0.024985666881886155 0 2.8910095260604397e-05 0.024842196655412568 0 0.00025145144226557478 0.024332120981517883 0 0.00033872907105738921 0.024453453288520974 0 0.00024890920774274229 0.024549118394126424 0 0.00025145144226557478 0.024332120981517883 0 0.00041915628873029289 0.024306624119918071 0 0.00033872907105738921 0.024453453288520974 0 1.5771975075819978e-05 0.024903844843764719 0 -2.2941682233959095e-08 0.024999902249235997 0 3.1759433880181386e-08 0.024999859653607886 0 1.5771975075819978e-05 0.024903844843764719 0 4.7009981293114047e-06 0.024969645086385286 0 -2.2941682233959095e-08 0.024999902249235997 0 1.5771975075819978e-05 0.024903844843764719 0 2.8910095260604397e-05 0.024842196655412568 0 4.7009981293114047e-06 0.024969645086385286 0 1.5771975075819978e-05 0.024903844843764719 0 2.8910095260604397e-05 0.024842196655412568 0 5.4846868140525718e-05 0.024799611230433359 0 0.00015369139323570801 0.024567102317614595 0 2.8910095260604397e-05 0.024842196655412568 0 5.4846868140525718e-05 0.024799611230433359 0 7.7312885368691103e-05 0.024985666881886155 0 4.7009981293114047e-06 0.024969645086385286 0 9.3605897305780682e-06 0.025004593363962654 0 7.7312885368691103e-05 0.024985666881886155 0 2.8910095260604397e-05 0.024842196655412568 0 4.7009981293114047e-06 0.024969645086385286 0 4.7009981293114047e-06 0.024969645086385286 0 -2.2941682233959095e-08 0.024999902249235997 0 1.4798285781121535e-09 0.025000017772088871 0 4.7009981293114047e-06 0.024969645086385286 0 1.4798285781121535e-09 0.025000017772088871 0 9.3605897305780682e-06 0.025004593363962654 0 0.00025145144226557478 0.024332120981517883 0 6.4175869574671101e-05 0.024629177340561886 0 0.00024890920774274229 0.024549118394126424 0 0.0001617854851885453 0.024646627963744172 0 4.8344850839455074e-05 0.024815886528834607 0 6.4175869574671101e-05 0.024629177340561886 0 0.00024890920774274229 0.024549118394126424 0 0.00023948205668423362 0.024738015151972752 0 0.00012183096036523844 0.024866273723673591 0 0.00023948205668423362 0.024738015151972752 0 0.00026764956697758295 0.024874605114787045 0 6.4175869574671101e-05 0.024629177340561886 0 0.00012183096036523844 0.024866273723673591 0 0.00023948205668423362 0.024738015151972752 0 4.8344850839455074e-05 0.024815886528834607 0 1.2164941616370605e-08 0.024999926219782309 0 6.4175869574671101e-05 0.024629177340561886 0 0.00012183096036523844 0.024866273723673591 0 -2.1017398502592457e-07 0.024999368747187341 0 1.4798285781121535e-09 0.025000017772088871 0 9.3605897305780682e-06 0.025004593363962654 0 5.2434677740768429e-10 0.024999998150412792 0 0.00041915628873029289 0.024306624119918071 0 0.00046969235915330607 0.024540057742396613 0 0.00033872907105738921 0.024453453288520974 0 0.00046969235915330607 0.024540057742396613 0 0.00033872907105738921 0.024453453288520974 0 0.00034414062903669295 0.024597697199210192 0 0.00033872907105738921 0.024453453288520974 0 0.00024890920774274229 0.024549118394126424 0 0.00034414062903669295 0.024597697199210192 0 0.00024890920774274229 0.024549118394126424 0 0.00034414062903669295 0.024597697199210192 0 0.00023948205668423362 0.024738015151972752 0 0.00034414062903669295 0.024597697199210192 0 0.00023948205668423362 0.024738015151972752 0 0.00041691609598116803 0.024764115126951057 0 0.00023948205668423362 0.024738015151972752 0 0.00041691609598116803 0.024764115126951057 0 0.00026764956697758295 0.024874605114787045 0 0.00064671176925136856 0.024724254723604077 0 0.00046969235915330607 0.024540057742396613 0 0.00041691609598116803 0.024764115126951057 0 0.00046969235915330607 0.024540057742396613 0 0.00034414062903669295 0.024597697199210192 0 0.00041691609598116803 0.024764115126951057 0 0.00041691609598116803 0.024764115126951057 0 0.00042398601834630305 0.02493537221272555 0 0.00053598314998021138 0.024904427379720196 0 0.00041691609598116803 0.024764115126951057 0 0.00042398601834630305 0.02493537221272555 0 0.00026764956697758295 0.024874605114787045 0 0.00012183096036523844 0.024866273723673591 0 0.00026764956697758295 0.024874605114787045 0 0.00025127549480563767 0.02493423613018372 0 0.00045971208861067937 0.024951108284545359 0 0.00025332757385426984 0.024862668824802179 0 0.00031901497055722639 0.024907220203270072 0 0.00026764956697758295 0.024874605114787045 0 0.00028683445870120205 0.024934237545633717 0 0.00026764956697758295 0.024874605114787045 0 0.00028683445870120205 0.024934237545633717 0 0.00025127549480563767 0.02493423613018372 0 0.00025127549480563767 0.02493423613018372 0 0.00027457848451190855 0.024981355287143722 0 0.00022634224028503732 0.02496958313955161 0 0.00023988604475988742 0.024446244051846699 0 0.00018231047193567783 0.02489267135743603 0 0.00034071415260949101 0.025028695214588899 0 0.00023988604475988742 0.024446244051846699 0 0.00028683445870120205 0.024934237545633717 0 0.00025127549480563767 0.02493423613018372 0 0.00027947142351430722 0.024963912706013242 0 0.00028683445870120205 0.024934237545633717 0 0.00027947142351430722 0.024963912706013242 0 0.00030414064718947421 0.02496920051812249 0 0.00031901497055722639 0.024907220203270072 0 0.00030414064718947421 0.02496920051812249 0 0.00036886582132470336 0.024925235993432333 0 0.00031901497055722639 0.024907220203270072 0 0.00028683445870120205 0.024934237545633717 0 0.00030414064718947421 0.02496920051812249 0 0.00016159793316875888 0.023766505144745299 0 0.0004931106865457153 0.02374522842179223 0 0.00045971208861067937 0.024951108284545359 0 0.0004931106865457153 0.02374522842179223 0 0.00042398601834630305 0.02493537221272555 0 0.00053598314998021138 0.024904427379720196 0 0.00057527004819605675 0.025002270032731463 0 -2.1017398502592457e-07 0.024999368747187341 0 6.4006480605712478e-05 0.025021047392191853 0 1.7155080727034731e-07 0.025000406084225067 0 0.00012183096036523844 0.024866273723673591 0 -2.1017398502592457e-07 0.024999368747187341 0 6.4006480605712478e-05 0.025021047392191853 0 0.00013457008424726455 0.024917277786770796 0 0.00018231047193567783 0.02489267135743603 0 0.00012183096036523844 0.024866273723673591 0 0.00025127549480563767 0.02493423613018372 0 0.00022634224028503732 0.02496958313955161 0 0.00012183096036523844 0.024866273723673591 0 0.00016287860277977556 0.025052665383281627 0 6.4006480605712478e-05 0.025021047392191853 0 0.00018231047193567783 0.02489267135743603 0 2.5427828677938294e-05 0.02500216383577444 0 -6.8363655063273472e-06 0.024995516308180071 0 -2.3724277397448091e-06 0.024998773357719918 0 -5.5454118262564136e-06 0.024992988855284042 0 -2.3724277397448091e-06 0.024998773357719918 0 -2.3756119543944591e-09 0.025000015084405663 0 -2.0729891573398345e-06 0.024996442587451179 0 2.5427828677938294e-05 0.02500216383577444 0 1.5641601485585705e-08 0.025000004492229617 0 -2.3756119543944591e-09 0.025000015084405663 0 2.6830014084434444e-09 0.024999963910265519 0 -2.0729891573398345e-06 0.024996442587451179 0 2.6830014084434444e-09 0.024999963910265519 0 -2.0729891573398345e-06 0.024996442587451179 0 -2.5890113077606154e-06 0.024993650997018824 0 -2.0729891573398345e-06 0.024996442587451179 0 -5.9042826656080837e-06 0.024989293909991658 0 -2.5890113077606154e-06 0.024993650997018824 0 -2.0729891573398345e-06 0.024996442587451179 0 -5.5454118262564136e-06 0.024992988855284042 0 -5.9042826656080837e-06 0.024989293909991658 0 -2.3724277397448091e-06 0.024998773357719918 0 -2.0729891573398345e-06 0.024996442587451179 0 -5.5454118262564136e-06 0.024992988855284042 0 -6.8363655063273472e-06 0.024995516308180071 0 -5.5454118262564136e-06 0.024992988855284042 0 -9.4429072564436715e-06 0.024987587201654442 0 -5.5454118262564136e-06 0.024992988855284042 0 -5.9042826656080837e-06 0.024989293909991658 0 -9.4429072564436715e-06 0.024987587201654442 0 -0.00026958258277839681 0.024136764021082103 0 -0.00019861394567914601 0.024009638619195372 0 -0.000499719542825615 0.02325711319683935 0 -0.00051261745052509503 0.023249976925470556 0 -0.00048783787214509369 0.023239077999146183 0 -0.00050787668754264336 0.023274895016220189 0 -0.000499719542825615 0.02325711319683935 0 -0.00051967141016091389 0.023267271958006267 0 -0.00051967141016091389 0.023267271958006267 0 -0.00051261745052509503 0.023249976925470556 0 -0.0005356217208057917 0.023266415576625201 0 -0.000499719542825615 0.02325711319683935 0 -0.00051967141016091389 0.023267271958006267 0 -0.00051261745052509503 0.023249976925470556 0 3.1121746165714349e-10 0.024999998966245055 0 -1.7375911600756185e-07 0.024998522800764363 0 -4.2548428308405446e-10 0.024999996028549097 0 -5.9042826656080837e-06 0.024989293909991658 0 -2.5890113077606154e-06 0.024993650997018824 0 -1.7441494887515822e-06 0.024986858162812937 0 -0.00026958258277839681 0.024136764021082103 0 -7.3397686587514113e-05 0.024419268216579079 0 -7.3397686587514113e-05 0.024419268216579079 0 -2.3645261017354476e-07 0.024999598917670215 0 2.6830014084434444e-09 0.024999963910265519 0 -2.5890113077606154e-06 0.024993650997018824 0 -1.7441494887515822e-06 0.024986858162812937 0 2.1186624128994727e-07 0.02500020593504064 0 -7.3397686587514113e-05 0.024419268216579079 0 0.00016159793316875888 0.023766505144745299 0 0.00029026702457104 0.022268507926393177 0 0.00014444064167384312 0.022856464096020455 0 0.00016693317274776707 0.022820731278115625 0 0.00010605984895870597 0.022840353734691624 0 0.00032083565850692374 0.023112371377305759 0 0.00027827043846894513 0.023091608843396803 0 0.00028154156906267709 0.023133242827458923 0 0.00014444064167384312 0.022856464096020455 0 0.00017528892082209225 0.022887906747836313 0 0.00010433313192042119 0.022855851317575795 0 0.00014444064167384312 0.022856464096020455 0 0.00019306599298438289 0.022877887751590779 0 0.00016693317274776707 0.022820731278115625 0 4.6260395252993218e-05 0.023686864892726839 0 -0.00010154185709467607 0.022799142607418662 0 0.00014444064167384312 0.022856464096020455 0 0.00017528892082209225 0.022887906747836313 0 0.00019306599298438289 0.022877887751590779 0 -3.6470741172476625e-05 0.024358819115782637 0 -9.493312153575033e-05 0.024237512352990986 0 0.00012401010492939883 0.024107726371352993 0 0.00023988604475988742 0.024446244051846699 0 0.00016159793316875888 0.023766505144745299 0 0.00016159793316875888 0.023766505144745299 0 4.6260395252993218e-05 0.023686864892726839 0 0.00011074409943399508 0.024017783058781789 0 6.5871342918262003e-05 0.024001460767166836 0 9.4934062372891299e-05 0.023984514099529813 0 0.00023988604475988742 0.024446244051846699 0 4.6260395252993218e-05 0.023686864892726839 0 0.00018231047193567783 0.02489267135743603 0 -0.00019861394567914601 0.024009638619195372 0 -3.6470741172476625e-05 0.024358819115782637 0 0.00023731098963515528 0.024451268871072802 0 0.00012401010492939883 0.024107726371352993 0 -0.00018921518829725296 0.023555450024524246 0 -0.00015963128934821141 0.023406334460770634 0 -0.00029532709967525586 0.02333493124618196 0 -0.00018921518829725296 0.023555450024524246 0 -4.3431326007805513e-05 0.023469330160987099 0 -0.00015963128934821141 0.023406334460770634 0 4.6260395252993218e-05 0.023686864892726839 0 -0.00019861394567914601 0.024009638619195372 0 -0.00040269369115364693 0.023212315571874604 0 -0.00048748766551619759 0.023123661264917231 0 -0.00039848731430473165 0.023093066793812147 0 -0.0003878794357624573 0.023182021003320667 0 -0.00010154185709467607 0.022799142607418662 0 -0.00015963128934821141 0.023406334460770634 0 -0.00011055946756380912 0.023265710877525474 0 -0.00029532709967525586 0.02333493124618196 0 -0.000499719542825615 0.02325711319683935 0 -0.00048783787214509369 0.023239077999146183 0 -0.000480909323516975 0.023252522432464281 0 -4.3431326007805513e-05 0.023469330160987099 0 -0.00015963128934821141 0.023406334460770634 0 -0.00011055946756380912 0.023265710877525474 0 -0.00019861394567914601 0.024009638619195372 0 -0.0003878794357624573 0.023182021003320667 0 -0.00047780785670036821 0.023266294188721282 0 -0.000499719542825615 0.02325711319683935 0 -0.000480909323516975 0.023252522432464281 0 -0.00010154185709467607 0.022799142607418662 0 0.00024752109049477205 0.021794636302449866 0 0.00012465389812484762 0.021963745139936937 0 8.2172899520944749e-05 0.021930055530956553 0 7.8501960110655732e-05 0.021977795493027918 0 0.00043231512249309944 0.020376554042381628 0 0.00021671821078202846 0.020489651808994251 0 0.00039968092413036682 0.020687883871116475 0 0.00028270695283191637 0.02090995009594511 0 0.00024752109049477205 0.021794636302449866 0 0.00025657407260975098 0.020235692347805097 0 0.00043231512249309944 0.020376554042381628 0 0.00021671821078202846 0.020489651808994251 0 0.00014444064167384312 0.022856464096020455 0 0.00010433313192042119 0.022855851317575795 0 0.00010605984895870597 0.022840353734691624 0 0.00053378659485581767 0.021955357418016894 0 0.00042854201449002465 0.021919453224093454 0 0.00050139376554061261 0.022249735743700309 0 0.00029026702457104 0.022268507926393177 0 0.00024752109049477205 0.021794636302449866 0 0.00015399852559329209 0.021704804902904863 0 0.00014185292277788498 0.021811900484365661 0 0.00029953448794137698 0.021751475840640699 0 0.00021671821078202846 0.020489651808994251 0 0.00039968092413036682 0.020687883871116475 0 0.00028835824036191652 0.020728867869237902 0 0.00029026702457104 0.022268507926393177 0 0.00028368015115987511 0.021482122891250757 0 0.00024752109049477205 0.021794636302449866 0 0.00028368015115987511 0.021482122891250757 0 0.00029026702457104 0.022268507926393177 0 0.0004783942337047315 0.022888268463032595 0 0.00042854201449002465 0.021919453224093454 0 0.00012007897438059385 0.022033300756564341 0 0.00050139376554061261 0.022249735743700309 0 0.00037942209788158183 0.020768577965150282 0 2.9399213160612365e-05 0.020895674184498537 0 6.8883716015615259e-05 0.02066022777721244 0 0.00028368015115987511 0.021482122891250757 0 0.00028990978241108176 0.021355988481211789 0 0.00028368015115987511 0.021482122891250757 0 3.7457200574636838e-06 0.02066472470602319 0 0.00021671821078202846 0.020489651808994251 0 2.2277913246826418e-05 0.020635717029587105 0 -6.0715953786756495e-05 0.020440847516683368 0 0.00021671821078202846 0.020489651808994251 0 0.00028835824036191652 0.020728867869237902 0 2.2277913246826418e-05 0.020635717029587105 0 -1.7077219389816575e-05 0.020211369336706246 0 0.00021671821078202846 0.020489651808994251 0 -6.0715953786756495e-05 0.020440847516683368 0 -6.0715953786756495e-05 0.020440847516683368 0 -0.00027365059462476789 0.02036398165732279 0 -0.00024113998971703093 0.020551992643734942 0 -0.00035927755428897374 0.020484031442578245 0 -0.00027365059462476789 0.02036398165732279 0 -0.00024113998971703093 0.020551992643734942 0 -0.00035927755428897374 0.020484031442578245 0 -0.00024113998971703093 0.020551992643734942 0 -0.00040314716802845462 0.020641045345256029 0 2.2277913246826418e-05 0.020635717029587105 0 -6.0715953786756495e-05 0.020440847516683368 0 -0.00024113998971703093 0.020551992643734942 0 3.7457200574636838e-06 0.02066472470602319 0 -0.00019422726415642487 0.020570538366307171 0 -0.00029296821366482477 0.020307185833554103 0 -9.3259634359415416e-05 0.020884369308783929 0 -0.00078950461854123452 0.020417930637648629 0 -0.00051806121216982045 0.020382582101168632 0 -0.00040314716802845462 0.020641045345256029 0 5.8047387021400755e-05 0.021003603686641413 0 0.00024074682117303291 0.021108668165251383 0 0.00014227074562384086 0.02106464224949919 0 -0.00035927755428897374 0.020484031442578245 0 -0.00027365059462476789 0.02036398165732279 0 -0.00051806121216982045 0.020382582101168632 0 -0.00035927755428897374 0.020484031442578245 0 -0.00051806121216982045 0.020382582101168632 0 -0.00040314716802845462 0.020641045345256029 0 0.00024074682117303291 0.021108668165251383 0 0.00014227074562384086 0.02106464224949919 0 0.00016459742728901629 0.021180293392013425 0 0.00024074682117303291 0.021108668165251383 0 0.00023947778772845884 0.021215471533142058 0 0.00016459742728901629 0.021180293392013425 0 6.1729194335430579e-05 0.021214091147263549 0 0.00016459742728901629 0.021180293392013425 0 0.00015369458725834496 0.021295050480047675 0 0.00023947778772845884 0.021215471533142058 0 0.00016459742728901629 0.021180293392013425 0 0.00015369458725834496 0.021295050480047675 0 0.00047592023243320822 0.021234913552397101 0 0.00023947778772845884 0.021215471533142058 0 0.00026806639663185298 0.021322308828937323 0 2.9399213160612365e-05 0.020895674184498537 0 6.8883716015615259e-05 0.02066022777721244 0 -0.00024113998971703093 0.020551992643734942 0 0.00028990978241108176 0.021355988481211789 0 0.00036389809131947507 0.021294613734930773 0 0.00047592023243320822 0.021234913552397101 0 0.00024074682117303291 0.021108668165251383 0 0.00023947778772845884 0.021215471533142058 0 2.9399213160612365e-05 0.020895674184498537 0 -0.00024113998971703093 0.020551992643734942 0 -0.00040314716802845462 0.020641045345256029 0 0.00028990978241108176 0.021355988481211789 0 -9.3259634359415416e-05 0.020884369308783929 0 8.9329700570409489e-05 0.021654845255043582 0 0.00051379917887461857 0.021514422951758837 0 0.00026806639663185298 0.021322308828937323 0 0.00020151112079733871 0.021396710233989716 0 0.00052626949156985567 0.021519570182363886 0 -7.3913463868906836e-05 0.021918019444846042 0 0.00035099162463076594 0.021933550416100372 0 0.00052626949156985567 0.021519570182363886 0 0.00053106162294361498 0.021298048690302884 0 0.00026806639663185298 0.021322308828937323 0 0.00052626949156985567 0.021519570182363886 0 4.171231013356245e-05 0.021385059707625238 0 0.00015369458725834496 0.021295050480047675 0 0.00020151112079733871 0.021396710233989716 0 0.00023947778772845884 0.021215471533142058 0 0.00026806639663185298 0.021322308828937323 0 0.00015369458725834496 0.021295050480047675 0 0.00026806639663185298 0.021322308828937323 0 0.00015369458725834496 0.021295050480047675 0 0.00020151112079733871 0.021396710233989716 0 0.0001133821266873113 0.022297827594169574 0 -7.3913463868906836e-05 0.021918019444846042 0 -0.00019783630292073158 0.022254502014040303 0 -0.00051272122257852717 0.022217580153941999 0 -7.3913463868906836e-05 0.021918019444846042 0 -0.00019783630292073158 0.022254502014040303 0 0.0001133821266873113 0.022297827594169574 0 -7.3913463868906836e-05 0.021918019444846042 0 0.00035099162463076594 0.021933550416100372 0 0.0001133821266873113 0.022297827594169574 0 0.00035099162463076594 0.021933550416100372 0 0.00057857863407672337 0.022111396807405849 0 0.00097177282447201917 0.022393086263063029 0 0.00057857863407672337 0.022111396807405849 0 0.00096832595326043209 0.021748283544163464 0 0.00035099162463076594 0.021933550416100372 0 0.00057857863407672337 0.022111396807405849 0 0.00066632033991184984 0.021811217536179001 0 0.00057857863407672337 0.022111396807405849 0 0.00096832595326043209 0.021748283544163464 0 0.00066632033991184984 0.021811217536179001 0 0.00064671176925136856 0.024724254723604077 0 0.00053598314998021138 0.024904427379720196 0 0.00060852048033239613 0.024982610210438495 0 0.00097177282447201917 0.022393086263063029 0 0.00096832595326043209 0.021748283544163464 0 0.00106913741292144 0.021691216912869314 0 0.00064671176925136856 0.024724254723604077 0 0.00041691609598116803 0.024764115126951057 0 0.00053598314998021138 0.024904427379720196 0 0.00082768550680696899 0.023583100051034419 0 0.00065931618381854401 0.023200321866560358 0 0.00027827043846894513 0.023091608843396803 0 0.00028154156906267709 0.023133242827458923 0 0.00027499482839614192 0.023128876983593945 0 0.00096832595326043209 0.021748283544163464 0 0.0010614802658530332 0.021688432408737177 0 0.0010686723857225354 0.021588316567168832 0 0.0010009459771092479 0.022798301147916353 0 0.00065931618381854401 0.023200321866560358 0 0.00053598314998021138 0.024904427379720196 0 0.00060852048033239613 0.024982610210438495 0 0.00057527004819605675 0.025002270032731463 0 0.00065931618381854401 0.023200321866560358 0 0.0004783942337047315 0.022888268463032595 0 0.00068676773358182801 0.023397832499932342 0 0.00053774284808690367 0.023486290624162683 0 0.00066846326283473 0.023557042060713084 0 0.00065931618381854401 0.023200321866560358 0 0.0004931106865457153 0.02374522842179223 0 0.0004931106865457153 0.02374522842179223 0 0.0004783942337047315 0.022888268463032595 0 0.00028990978241108176 0.021355988481211789 0 0.0004783942337047315 0.022888268463032595 0 0.00053106162294361498 0.021298048690302884 0 0.0010686723857225354 0.021588316567168832 0 0.00052626949156985567 0.021519570182363886 0 0.00096832595326043209 0.021748283544163464 0 0.00052626949156985567 0.021519570182363886 0 0.00066632033991184984 0.021811217536179001 0 0.00096832595326043209 0.021748283544163464 0 0.0010686723857225354 0.021588316567168832 0 0.00052626949156985567 0.021519570182363886 0 0.00035099162463076594 0.021933550416100372 0 0.00052626949156985567 0.021519570182363886 0 0.00066632033991184984 0.021811217536179001 0 0.0080157568954103541 0.0016747401906890766 0 0.0083639778817202262 0.00086919572267407533 0 0.0072816923054037502 0.00069865738598223347 0 0.0058663379137955177 0.0028646782950086744 0 0.0027750895296629339 0.0058622796750896194 0 0.0043358927554915765 0.0049162671787323026 0 0.0030954789411924638 0.0047932514194920246 0 0.0034925510225858841 0.0062778296718051345 0 0.004999741148735911 0.0030063239138575525 0 0.0027750895296629339 0.0058622796750896194 0 0.0052414670476368472 0.0044537064799568407 0 0.0055756383041991259 0.0036706241525391705 0 0.0031062738771414637 0.0042392551556281119 0 0.0058663379137955177 0.0028646782950086744 0 0.004999741148735911 0.0030063239138575525 0 0.0043358927554915765 0.0049162671787323026 0 0.0036414788485169517 0.0065315526262635197 0 0.0034925510225858841 0.0062778296718051345 0 0.0058663379137955177 0.0028646782950086744 0 0.0029221817833420282 0.0064887564348908152 0 0.0044030330181818672 0.0022393769166092368 0 0.005380963470800003 0.0015110689743186923 0 0.0052169928653578741 0.0022764414222517476 0 0.0051677364819287764 0.0022955751587913596 0 0.0051054592835392716 0.0022568448424867063 0 0.0080157568954103541 0.0016747401906890766 0 0.0072816923054037502 0.00069865738598223347 0 0.0061812359496856281 0.0015151595811188519 0 0.0058663379137955177 0.0028646782950086744 0 0.005380963470800003 0.0015110689743186923 0 0.004319090977102708 0.0018475353823669413 0 0.0041320532018536875 0.001756653329816938 0 0.0041258998175435595 0.0018868470607329936 0 0.0044030330181818672 0.0022393769166092368 0 0.0039594447802142598 0.001969472662583877 0 0.0037719842924066179 0.0021124401888454338 0 0.0038112714325883954 0.0020338509789216549 0 0.0039114718641597912 0.0020338800340860353 0 0.0038112714325883954 0.0020338509789216549 0 0.0039114718641597912 0.0020338800340860353 0 0.0038949945712097606 0.0019928069182462401 0 0.0038112714325883954 0.0020338509789216549 0 0.0037541860312046071 0.0020716896297493558 0 0.0037281168516161848 0.0020537344101675468 0 0.0037719842924066179 0.0021124401888454338 0 0.0038112714325883954 0.0020338509789216549 0 0.0037541860312046071 0.0020716896297493558 0 0.0038112714325883954 0.0020338509789216549 0 0.0037281168516161848 0.0020537344101675468 0 0.0037648898940157486 0.0019951443370996844 0 0.0037281168516161848 0.0020537344101675468 0 0.0036877793773617295 0.0021722191971231064 0 0.0036310882914988838 0.0020795412541057671 0 0.003950853077921034 0.0021793063581295232 0 0.0041280483544049963 0.0022798610759740519 0 0.0037541860312046071 0.0020716896297493558 0 0.0037281168516161848 0.0020537344101675468 0 0.0037208029836877064 0.0020846511815857663 0 0.0044030330181818672 0.0022393769166092368 0 0.0041280483544049963 0.0022798610759740519 0 0.0052169928653578741 0.0022764414222517476 0 0.0051677364819287764 0.0022955751587913596 0 0.0052102213580410509 0.0022897090685065308 0 0.0044331985722341994 0.0025839553205894931 0 0.0045606096154041298 0.0026475562308301676 0 0.0046052096036879797 0.002546661729301162 0 0.0044030330181818672 0.0022393769166092368 0 0.004999741148735911 0.0030063239138575525 0 0.0037719842924066179 0.0021124401888454338 0 0.0037541860312046071 0.0020716896297493558 0 0.0037208029836877064 0.0020846511815857663 0 0.0041280483544049963 0.0022798610759740519 0 0.004999741148735911 0.0030063239138575525 0 0.0037504159613099084 0.0024424096332926106 0 0.0036368224266523264 0.0023434413673161384 0 0.003485668224158456 0.0024978034536732373 0 0.003811071678173128 0.0022954256259461116 0 0.0037504159613099084 0.0024424096332926106 0 0.0036368224266523264 0.0023434413673161384 0 0.0036877793773617295 0.0021722191971231064 0 0.0036310882914988838 0.0020795412541057671 0 0.0035001601742039833 0.0021409680679077996 0 0.0041280483544049963 0.0022798610759740519 0 0.0034463290083484328 0.0020882244927383337 0 0.003811071678173128 0.0022954256259461116 0 0.0036368224266523264 0.0023434413673161384 0 0.0035001601742039833 0.0021409680679077996 0 0.0035001601742039833 0.0021409680679077996 0 0.003485668224158456 0.0024978034536732373 0 0.0033858386503515317 0.0020188767077624434 0 0.0027750895296629339 0.0058622796750896194 0 0.0025318343530903327 0.0054727151073746538 0 0.0019323512272663786 0.0075753141816103601 0 0.002332899027365332 0.0080191452334271857 0 0.0021737837978384874 0.0069548133996407682 0 0.002332899027365332 0.0080191452334271857 0 0.0024904204852220094 0.0081775311942984541 0 0.0021737837978384874 0.0069548133996407682 0 0.0011167022320689966 0.010899405946772737 0 0.0025318343530903327 0.0054727151073746538 0 0.0015277689305611764 0.0098160159716508561 0 0.00010961349519702615 0.01234947003822881 0 0.00098975051666662373 0.010678219840058982 0 0.0012164476590263305 0.01106085526133707 0 0.0008055777417137021 0.011152472361745736 0 0.0019323512272663786 0.0075753141816103601 0 0.0022082291965341062 0.0080478110160213511 0 0.002332899027365332 0.0080191452334271857 0 0.0011167022320689966 0.010899405946772737 0 0.0015277689305611764 0.0098160159716508561 0 0.0015277689305611764 0.0098160159716508561 0 0.0017110323814376229 0.0096952361827547327 0 0.0036368224266523264 0.0023434413673161384 0 0.0035001601742039833 0.0021409680679077996 0 0.003485668224158456 0.0024978034536732373 0 0.0022058783163113218 0.008047502577144601 0 0.002332899027365332 0.0080191452334271857 0 0.0022863576427071871 0.0081808281357272951 0 -0.00033149249794301328 0.014742937764976467 0 -0.0005781630539042498 0.015177828822213817 0 -0.0008957320102544673 0.014442973961440807 0 0.00021546271476183393 0.014787015022381842 0 -0.00033149249794301328 0.014742937764976467 0 -7.674198855407046e-05 0.015058804060786909 0 0.0011167022320689966 0.010899405946772737 0 0.00010961349519702615 0.01234947003822881 0 0.00021546271476183393 0.014787015022381842 0 -7.674198855407046e-05 0.015058804060786909 0 1.0086418427018477e-05 0.015318464534093319 0 -0.00033149249794301328 0.014742937764976467 0 -7.674198855407046e-05 0.015058804060786909 0 -0.00031878551583169911 0.015144506558217221 0 -7.674198855407046e-05 0.015058804060786909 0 -9.5819955237642619e-05 0.015299221740090681 0 1.0086418427018477e-05 0.015318464534093319 0 -7.674198855407046e-05 0.015058804060786909 0 -0.00031878551583169911 0.015144506558217221 0 -9.5819955237642619e-05 0.015299221740090681 0 -0.00033149249794301328 0.014742937764976467 0 -0.00031878551583169911 0.015144506558217221 0 -0.0005781630539042498 0.015177828822213817 0 -0.00031878551583169911 0.015144506558217221 0 -0.0005781630539042498 0.015177828822213817 0 -0.00059643683793135624 0.015461760315816196 0 -0.001083428904117389 0.011905255890291396 0 -0.00053013335413373136 0.011782316250180232 0 -0.0010003678524314709 0.012978047173151687 0 -0.0013351976679817324 0.014382405785699499 0 -0.0013022746175996064 0.013869304542101649 0 8.2545342591351653e-05 0.014050198918352819 0 -0.00031878551583169911 0.015144506558217221 0 -0.00059643683793135624 0.015461760315816196 0 -9.5819955237642619e-05 0.015299221740090681 0 -0.00092642317353241305 0.01564475217659872 0 0.00010961349519702615 0.01234947003822881 0 -0.001447905352856821 0.015854039666556227 0 -0.0002721101500483083 0.012017451402037176 0 -0.001447905352856821 0.015854039666556227 0 -0.00092642317353241305 0.01564475217659872 0 -0.00082102788626330254 0.015374393211084678 0 -0.00092642317353241305 0.01564475217659872 0 -0.0013022746175996064 0.013869304542101649 0 0.00028615897969077773 0.013518886192900349 0 8.2545342591351653e-05 0.014050198918352819 0 -0.00059643683793135624 0.015461760315816196 0 -9.5819955237642619e-05 0.015299221740090681 0 8.7379411666826724e-06 0.015317794342692159 0 0.00010961349519702615 0.01234947003822881 0 -0.0002721101500483083 0.012017451402037176 0 0.00015201886494029589 0.012488590139721619 0 0.00010961349519702615 0.01234947003822881 0 -0.00031835274815219698 0.011010210431053154 0 0.00046091247241667247 0.011550782923530893 0 -0.0001963396086298279 0.011961618211270626 0 0.0027750895296629339 0.0058622796750896194 0 0.0027483519789610884 0.0075754333819220074 0 0.0015081183461770687 0.009106785963723012 0 0.0027483519789610884 0.0075754333819220074 0 0.0020548909622204554 0.0078789892554439536 0 0.0021152079997365518 0.0078802773276764881 0 0.0020057264996807649 0.0076866851991374569 0 0.0027750895296629339 0.0058622796750896194 0 0.0015081183461770687 0.009106785963723012 0 0.002332899027365332 0.0080191452334271857 0 0.0024904204852220094 0.0081775311942984541 0 0.0022863576427071871 0.0081808281357272951 0 0.0014368117855606244 0.01046885099162268 0 0.00021900777048045641 0.010741669224460407 0 0.0016291113650971007 0.010791929873135913 0 -0.00013683506393056429 0.010582638899020868 0 -0.00037576897391873701 0.011205616821651544 0 0.0014820872223300792 0.010647630544134928 0 -0.0002721101500483083 0.012017451402037176 0 0.0015081183461770687 0.009106785963723012 0 0.00010961349519702615 0.01234947003822881 0 0.0015081183461770687 0.009106785963723012 0 0.0015277689305611764 0.0098160159716508561 0 0.0015081183461770687 0.009106785963723012 0 -0.00031835274815219698 0.011010210431053154 0 0.00067135696729155308 0.010716075737463098 0 0.00046091247241667247 0.011550782923530893 0 0.0013026503844801652 0.01180607119504308 0 0.00046091247241667247 0.011550782923530893 0 7.8405110911654825e-05 0.012309875112571421 0 0.0013026503844801652 0.01180607119504308 0 0.00046091247241667247 0.011550782923530893 0 0.0012111039623957311 0.011648262140261545 0 0.00067135696729155308 0.010716075737463098 0 0.00046091247241667247 0.011550782923530893 0 0.0012111039623957311 0.011648262140261545 0 0.0029221817833420282 0.0064887564348908152 0 0.0027483519789610884 0.0075754333819220074 0 0.00066263670656139422 0.0079171397705665534 0 2.259798136106463e-05 0.0093839538792973333 0 0.00099288133555969129 0.0094490404331721879 0 0.0013026503844801652 0.01180607119504308 0 7.8405110911654825e-05 0.012309875112571421 0 0.00053871184935523652 0.013487202086402255 0 0.0029221817833420282 0.0064887564348908152 0 -8.481224179167151e-05 0.012302931217984972 0 0.00046091247241667247 0.011550782923530893 0 7.8405110911654825e-05 0.012309875112571421 0 -0.0001963396086298279 0.011961618211270626 0 7.8405110911654825e-05 0.012309875112571421 0 -0.00021739114435940252 0.013045797023856932 0 0.00053871184935523652 0.013487202086402255 0 -0.001083428904117389 0.011905255890291396 0 -0.0010003678524314709 0.012978047173151687 0 -0.00120433339329028 0.013265726654701335 0 -0.001447905352856821 0.015854039666556227 0 -0.0018170188120233872 0.016210025896807315 0 -0.00031835274815219698 0.011010210431053154 0 -0.0001963396086298279 0.011961618211270626 0 -0.0010003678524314709 0.012978047173151687 0 -0.0002721101500483083 0.012017451402037176 0 -0.00096142198382791525 0.012650635086143378 0 7.8405110911654825e-05 0.012309875112571421 0 -0.0001963396086298279 0.011961618211270626 0 -0.0010003678524314709 0.012978047173151687 0 7.8405110911654825e-05 0.012309875112571421 0 -0.00021739114435940252 0.013045797023856932 0 -0.0010003678524314709 0.012978047173151687 0 -0.00037818391513628558 0.01359285757545017 0 -0.00120433339329028 0.013265726654701335 0 -0.0013401051149528262 0.015200211832784747 0 -0.0010003678524314709 0.012978047173151687 0 -0.00037818391513628558 0.01359285757545017 0 -0.00120433339329028 0.013265726654701335 0 -0.00021739114435940252 0.013045797023856932 0 -0.0010003678524314709 0.012978047173151687 0 -0.00037818391513628558 0.01359285757545017 0 -0.00021739114435940252 0.013045797023856932 0 -0.00037818391513628558 0.01359285757545017 0 0.00053871184935523652 0.013487202086402255 0 -8.481224179167151e-05 0.012302931217984972 0 -0.00053342977399841395 0.011850495598200252 0 -0.00037818391513628558 0.01359285757545017 0 0.00053871184935523652 0.013487202086402255 0 -0.00012581065321081686 0.014974977428867621 0 2.259798136106463e-05 0.0093839538792973333 0 0.00045111595759957893 0.010094817649590294 0 -0.00015185165446696691 0.010662546315854071 0 2.259798136106463e-05 0.0093839538792973333 0 0.00045111595759957893 0.010094817649590294 0 0.00099288133555969129 0.0094490404331721879 0 0.0030944984823524065 0.0052535525465671595 0 0.0031815092069857171 0.0052512189999425118 0 0.0030953101833760305 0.0050270564735317557 0 0.0029221817833420282 0.0064887564348908152 0 0.0055528590401701721 0.0018857195412207643 0 0.0083639778817202262 0.00086919572267407533 0 0.0075763405888853537 -0.0005895159214409783 0 0.0072816923054037502 0.00069865738598223347 0 0.0029221817833420282 0.0064887564348908152 0 0.0019887485493149527 0.007386998267788129 0 0.0032599381991878997 0.0055592590487430499 0 0.0030944984823524065 0.0052535525465671595 0 0.0031815092069857171 0.0052512189999425118 0 0.0072816923054037502 0.00069865738598223347 0 0.0062570240172788007 6.3987235216587717e-06 0 0.0061812359496856281 0.0015151595811188519 0 0.0075763405888853537 -0.0005895159214409783 0 0.0072816923054037502 0.00069865738598223347 0 0.0062570240172788007 6.3987235216587717e-06 0 0.0075763405888853537 -0.0005895159214409783 0 0.0065932800708509536 -0.0009332455519919622 0 0.0062570240172788007 6.3987235216587717e-06 0 0.0075763405888853537 -0.0005895159214409783 0 0.0065932800708509536 -0.0009332455519919622 0 0.0067699464163947414 -0.0020906093019254107 0 0.0055528590401701721 0.0018857195412207643 0 0.0049163979751662857 0.0013827963828458372 0 0.0065932800708509536 -0.0009332455519919622 0 0.0056946610840578902 -0.0010466320976456605 0 0.0067699464163947414 -0.0020906093019254107 0 0.0065932800708509536 -0.0009332455519919622 0 0.0056946610840578902 -0.0010466320976456605 0 0.0062570240172788007 6.3987235216587717e-06 0 0.0056946610840578902 -0.0010466320976456605 0 0.0062570240172788007 6.3987235216587717e-06 0 0.0053444775302314111 -0.00017380335435660151 0 0.0056946610840578902 -0.0010466320976456605 0 0.0046669650285926538 -0.0011044411022655674 0 0.0055596568479753259 -0.0020366450571442673 0 0.0047423432115274956 -0.0019352880966666572 0 0.0042732391607219773 -0.0015016091060426979 0 0.0044376887828982969 -0.0014884399486490086 0 0.0056946610840578902 -0.0010466320976456605 0 0.0046669650285926538 -0.0011044411022655674 0 0.0053444775302314111 -0.00017380335435660151 0 0.0047179232059270373 -0.0014588229760670818 0 0.0046205006842610996 -0.00040227536591382393 0 0.0047423432115274956 -0.0019352880966666572 0 0.0047040417718888887 -0.00085770970451812224 0 0.0044376887828982969 -0.0014884399486490086 0 0.0047040417718888887 -0.00085770970451812224 0 0.0044376887828982969 -0.0014884399486490086 0 0.0044612728699152133 -0.00098174613080826193 0 0.0046669650285926538 -0.0011044411022655674 0 0.0046289281022511694 0.00073568906141644125 0 0.0053444775302314111 -0.00017380335435660151 0 0.0046205006842610996 -0.00040227536591382393 0 0.0041582477243317026 -0.0020440595401449726 0 0.0046289281022511694 0.00073568906141644125 0 0.0056039307814044715 0.00052148292066276855 0 0.0053444775302314111 -0.00017380335435660151 0 0.0056039307814044715 0.00052148292066276855 0 0.0062570240172788007 6.3987235216587717e-06 0 0.0061812359496856281 0.0015151595811188519 0 0.0056039307814044715 0.00052148292066276855 0 0.0062570240172788007 6.3987235216587717e-06 0 0.0053444775302314111 -0.00017380335435660151 0 0.0030346533767528711 -0.0029720331319258797 0 0.00386523059854462 -0.0028903131041711386 0 0.0036036922389889453 -0.0036254861913474373 0 0.0028714386181985861 -0.0033749435054021785 0 0.003974596122449485 -0.0026334768078576979 0 0.003974596122449485 -0.0026334768078576979 0 0.0037830207960430893 -0.0029449791677743724 0 0.0047423432115274956 -0.0019352880966666572 0 0.0042732391607219773 -0.0015016091060426979 0 0.0039109645557767131 -0.0024452634978375564 0 0.003974596122449485 -0.0026334768078576979 0 0.0041886205818716226 -0.0024537264380006746 0 0.0040130399141942528 -0.0041501173511872347 0 0.0040843908437529566 -0.0035589229732608252 0 0.0037533679331141312 -0.0037192654503578476 0 0.0040130399141942528 -0.0041501173511872347 0 0.0040843908437529566 -0.0035589229732608252 0 0.0042526508477373614 -0.0034731611907624685 0 0.0042774017368859317 -0.001505080839362896 0 0.0044376887828982969 -0.0014884399486490086 0 0.0044612728699152133 -0.00098174613080826193 0 0.003974596122449485 -0.0026334768078576979 0 0.0041582477243317026 -0.0020440595401449726 0 0.0040843908437529566 -0.0035589229732608252 0 0.0042522303308095404 -0.003473003539857166 0 0.0036184115125010036 -0.0033902811793014615 0 0.0039927072568566174 -0.0023057218680921096 0 0.0041582477243317026 -0.0020440595401449726 0 0.0040843908437529566 -0.0035589229732608252 0 0.0037533679331141312 -0.0037192654503578476 0 0.0036184115125010036 -0.0033902811793014615 0 0.0037533679331141312 -0.0037192654503578476 0 0.0036184115125010036 -0.0033902811793014615 0 0.0032972756616536326 -0.0037772563644581252 0 0.0040130399141942528 -0.0041501173511872347 0 0.0037533679331141312 -0.0037192654503578476 0 0.0032972756616536326 -0.0037772563644581252 0 0.0026640949748008807 -0.0043020002666115699 0 0.0040130399141942528 -0.0041501173511872347 0 0.0032972756616536326 -0.0037772563644581252 0 0.0036184115125010036 -0.0033902811793014615 0 0.0032972756616536326 -0.0037772563644581252 0 0.0026063990043616913 -0.0029822194621199056 0 0.0032972756616536326 -0.0037772563644581252 0 0.0026308294303831591 -0.0036938208073629291 0 0.0026063990043616913 -0.0029822194621199056 0 0.0026640949748008807 -0.0043020002666115699 0 0.0032972756616536326 -0.0037772563644581252 0 0.0026308294303831591 -0.0036938208073629291 0 0.0027292870612384492 -0.0027632802200887726 0 0.0031850530061133578 -0.0029352952032471401 0 0.0033059019845534574 -0.0024066417828007046 0 0.0033489675669112094 -0.0029655260639061759 0 0.0028716920218668728 -0.0046168647863526627 0 0.0036184115125010036 -0.0033902811793014615 0 0.003546077973889894 -0.0028975748885105021 0 0.0026063990043616913 -0.0029822194621199056 0 0.0027292870612384492 -0.0027632802200887726 0 0.0031850530061133578 -0.0029352952032471401 0 0.0025189840656089008 -0.0030054259314874114 0 0.0028963632037813016 -0.0046826702226647737 0 0.0028716920218668728 -0.0046168647863526627 0 0.0033489675669112094 -0.0029655260639061759 0 0.0040217501023997451 -0.00099746004658882344 0 0.0042522303308095404 -0.003473003539857166 0 0.003546077973889894 -0.0028975748885105021 0 0.0045563208375549013 -0.0028046778427429668 0 0.0031850530061133578 -0.0029352952032471401 0 0.0035933715215724967 -0.0026248610943550702 0 0.003889968931383085 -0.0028604337432793993 0 0.0042522303308095404 -0.003473003539857166 0 0.0036184115125010036 -0.0033902811793014615 0 0.003546077973889894 -0.0028975748885105021 0 0.0032757330639932832 -0.0031448755283383944 0 0.0034939946168368661 -0.0021944762494436505 0 0.0035933715215724967 -0.0026248610943550702 0 0.0033059019845534574 -0.0024066417828007046 0 0.0038720031480827164 -0.0020640997361939572 0 0.003039644695154864 -0.0038420495174219553 0 0.0031580987436965391 -0.0039519289463310443 0 0.0033914079033576282 -0.0034475614848348862 0 0.0031850530061133578 -0.0029352952032471401 0 0.0035933715215724967 -0.0026248610943550702 0 0.0033059019845534574 -0.0024066417828007046 0 0.0030157094523507173 -0.0072660954964009093 0 0.0032722977433686188 -0.0065053913926052514 0 0.0028963632037813016 -0.0046826702226647737 0 0.0032757330639932832 -0.0031448755283383944 0 0.0026857793463494982 -0.0042426139480169212 0 0.003039644695154864 -0.0038420495174219553 0 0.0031580987436965391 -0.0039519289463310443 0 0.0032726824574308964 -0.0059171453835573928 0 0.0027988787101399719 -0.0060480957471134413 0 0.0032127435724478189 -0.0055294334191834191 0 0.0028963632037813016 -0.0046826702226647737 0 0.0031180199234226861 -0.0049269884770893595 0 0.0029014542876899629 -0.0063382244235537684 0 0.0032726824574308964 -0.0059171453835573928 0 0.0027988787101399719 -0.0060480957471134413 0 0.005380963470800003 0.0015110689743186923 0 0.0040217501023997451 -0.00099746004658882344 0 0.0046205006842610996 -0.00040227536591382393 0 0.005380963470800003 0.0015110689743186923 0 0.0041320532018536875 0.001756653329816938 0 0.0038975432425496863 0.0017537341367485242 0 0.0039947777288278988 0.0018187655427662015 0 0.0046289281022511694 0.00073568906141644125 0 0.0056039307814044715 0.00052148292066276855 0 0.0061812359496856281 0.0015151595811188519 0 0.0042173237796791548 -0.00026315523746971663 0 0.0054983889103463832 0.00038593487377553022 0 0.0042058838386950783 0.00027725231707949463 0 0.0046205006842610996 -0.00040227536591382393 0 0.0040217501023997451 -0.00099746004658882344 0 0.0043719479939031388 -0.0012180917551377439 0 0.0041936171278057809 -0.001307631307112639 0 0.0043666594604775243 -0.0009354962286861352 0 0.0041582477243317026 -0.0020440595401449726 0 0.0040217501023997451 -0.00099746004658882344 0 0.0035933715215724967 -0.0026248610943550702 0 0.003889968931383085 -0.0028604337432793993 0 0.0038864392992620871 -0.0027314403773660164 0 0.0040217501023997451 -0.00099746004658882344 0 0.0040225912910630971 -0.00019676987471580319 0 0.0038975432425496863 0.0017537341367485242 0 0.0038994267434286733 0.0017936367824969073 0 0.0039947777288278988 0.0018187655427662015 0 0.0035933715215724967 -0.0026248610943550702 0 0.0038864392992620871 -0.0027314403773660164 0 0.0038720031480827164 -0.0020640997361939572 0 0.0037654703120366386 -0.00049083123139909515 0 0.0035820161606224775 -0.00101289552849694 0 0.0037741295496723452 -0.000889447484365392 0 0.0038994267434286733 0.0017936367824969073 0 0.0039374087209043344 0.0019103758289964238 0 0.0039406929853419313 0.0019950880065143588 0 0.0040225912910630971 -0.00019676987471580319 0 0.0036480097528958999 -0.00020806118791897446 0 0.0040225912910630971 -0.00019676987471580319 0 0.0034939946168368661 -0.0021944762494436505 0 0.0038994267434286733 0.0017936367824969073 0 0.0039374087209043344 0.0019103758289964238 0 0.0039947777288278988 0.0018187655427662015 0 0.0039600359492749206 0.0019287343682847188 0 0.0039594447802142598 0.001969472662583877 0 0.0039374087209043344 0.0019103758289964238 0 0.0039947777288278988 0.0018187655427662015 0 0.0041258998175435595 0.0018868470607329936 0 0.0039374087209043344 0.0019103758289964238 0 0.0039114718641597912 0.0020338800340860353 0 0.0039498865475705146 0.0019627752400187661 0 0.0041320532018536875 0.001756653329816938 0 0.0039947777288278988 0.0018187655427662015 0 0.0041258998175435595 0.0018868470607329936 0 0.0039114718641597912 0.0020338800340860353 0 0.0038949945712097606 0.0019928069182462401 0 0.0039498865475705146 0.0019627752400187661 0 0.0036480097528958999 -0.00020806118791897446 0 0.0035733272381889346 0.00072926939395626523 0 0.0039498865475705146 0.0019627752400187661 0 0.0040075991660589753 0.0019339257405529861 0 0.0038325824185696214 0.0018200770359030458 0 0.0038949945712097606 0.0019928069182462401 0 0.0039498865475705146 0.0019627752400187661 0 0.0038420198555973277 0.001957003859222053 0 0.0036480097528958999 -0.00020806118791897446 0 0.0030452921412663053 -0.0017526658510035914 0 0.0039374087209043344 0.0019103758289964238 0 0.0039498865475705146 0.0019627752400187661 0 0.0039406929853419313 0.0019950880065143588 0 0.0035528791636938563 0.00087305205817540951 0 0.0036480097528958999 -0.00020806118791897446 0 0.0035539331709300757 -0.0016939418943036594 0 0.003283040466372024 -0.0018735451789586132 0 0.0033904663642477365 -0.0016339059140101282 0 0.0036480097528958999 -0.00020806118791897446 0 0.0034939946168368661 -0.0021944762494436505 0 0.0036480097528958999 -0.00020806118791897446 0 0.0033765691834994178 -0.0024732950266523829 0 0.0034939946168368661 -0.0021944762494436505 0 0.0033441100737548329 -0.0030973509705526686 0 0.0036267155000863629 -0.0036651236666917337 0 0.0036212530091743991 -0.0034323232918038907 0 0.0033914079033576282 -0.0034475614848348862 0 0.003283040466372024 -0.0018735451789586132 0 0.0032785541557456468 -0.0016418959569522822 0 0.0033904663642477365 -0.0016339059140101282 0 0.0032241418283951435 -0.0033311655185615666 0 0.0030285521418873074 -0.0045750779768142236 0 0.0033439246063980618 -0.0038497797165406799 0 0.003345162139134464 -0.003908820275900316 0 0.0031937764640869639 -0.0037928773423612661 0 0.0033441100737548329 -0.0030973509705526686 0 0.0033122892062248501 -0.0045123914557352205 0 0.003345162139134464 -0.003908820275900316 0 0.0031937764640869639 -0.0037928773423612661 0 0.0030747727951688881 -0.0039260528158440756 0 0.0032241418283951435 -0.0033311655185615666 0 0.0033441100737548329 -0.0030973509705526686 0 0.0033441100737548329 -0.0030973509705526686 0 0.0033765691834994178 -0.0024732950266523829 0 0.0032241418283951435 -0.0033311655185615666 0 0.0033765691834994178 -0.0024732950266523829 0 0.0032006862875208126 -0.0028136799574055627 0 0.003202259488638318 -0.0028920529365662746 0 0.0033778749723115489 -0.0028814473439151213 0 0.0033703970892106682 -0.0022797229751127255 0 0.0033082651176277022 -0.0023159552147865117 0 0.003285942940247249 -0.0022440976663885732 0 0.0032241418283951435 -0.0033311655185615666 0 0.0029995413092792807 -0.0041920430276260233 0 0.0033703970892106682 -0.0022797229751127255 0 0.0033082651176277022 -0.0023159552147865117 0 0.0033727036230847838 -0.0024217461094209955 0 0.0033082651176277022 -0.0023159552147865117 0 0.0032573092109480094 -0.0023609014644398654 0 0.0033727036230847838 -0.0024217461094209955 0 0.0032280846058107466 -0.0040998718052528815 0 0.0032408500754387178 -0.0041060612301228551 0 0.0032286434036269259 -0.0041200187665013455 0 0.0030285521418873074 -0.0045750779768142236 0 0.0029995413092792807 -0.0041920430276260233 0 0.0031631030450138204 -0.0021900809400192604 0 0.0032176970422554967 -0.0022447126821174743 0 0.0031992709637662206 -0.0024091526231032915 0 0.0032176970422554967 -0.0022447126821174743 0 0.003285942940247249 -0.0022440976663885732 0 0.0032673800698169949 -0.0022913208006402072 0 0.0033374940825712765 -0.0024540504210394105 0 0.0033765691834994178 -0.0024732950266523829 0 0.0032176970422554967 -0.0022447126821174743 0 0.0032673800698169949 -0.0022913208006402072 0 0.0032573092109480094 -0.0023609014644398654 0 0.0031631030450138204 -0.0021900809400192604 0 0.0032176970422554967 -0.0022447126821174743 0 0.0032878469622848782 -0.0022416975869478961 0 0.0033082651176277022 -0.0023159552147865117 0 0.003285942940247249 -0.0022440976663885732 0 0.0032673800698169949 -0.0022913208006402072 0 0.0032176970422554967 -0.0022447126821174743 0 0.0032573092109480094 -0.0023609014644398654 0 0.0031992709637662206 -0.0024091526231032915 0 0.0033082651176277022 -0.0023159552147865117 0 0.0032673800698169949 -0.0022913208006402072 0 0.0032573092109480094 -0.0023609014644398654 0 0.0031992709637662206 -0.0024091526231032915 0 0.0033727036230847838 -0.0024217461094209955 0 0.0031615520596559154 -0.0026533017411895683 0 0.0029995413092792807 -0.0041920430276260233 0 0.0026913623600104859 -0.0032526004029881685 0 0.0032573092109480094 -0.0023609014644398654 0 0.0031992709637662206 -0.0024091526231032915 0 0.0033727036230847838 -0.0024217461094209955 0 0.0025844606548838032 -0.0062764723482877319 0 0.0027037714137133958 -0.0061442571595374963 0 0.0025286218844613574 -0.0060967595598017373 0 0.0027037714137133958 -0.0061442571595374963 0 0.0025286218844613574 -0.0060967595598017373 0 0.0025278691517226161 -0.0059342592545193152 0 0.0027037714137133958 -0.0061442571595374963 0 0.0025278691517226161 -0.0059342592545193152 0 0.0026969236236048409 -0.0057089075865379337 0 0.0029995413092792807 -0.0041920430276260233 0 0.0024300254028674644 -0.0048423276635622186 0 0.0026913623600104859 -0.0032526004029881685 0 0.0024300254028674644 -0.0048423276635622186 0 0.0027009771192722087 -0.0040156087051369943 0 0.0026286306053365594 -0.0040935637489047765 0 0.0027021928937657992 -0.0041324434427739169 0 0.0028382065218438349 -0.0025118417725381995 0 0.002909662823482225 -0.0025447430500005687 0 0.0029765966007373836 -0.0023569598304168209 0 0.0031631030450138204 -0.0021900809400192604 0 0.0031992709637662206 -0.0024091526231032915 0 0.0030222268074407716 -0.0025824465647451941 0 0.0033367793311651905 -0.00049259603288686574 0 0.0032702679213983846 -0.0005178397025017617 0 0.0032957409564127772 -0.00059840567889322656 0 0.00338264319337821 -0.00037095718218648058 0 0.0033017250885374323 -0.00047033677496018084 0 0.0032254432718681471 -0.00045891441589356101 0 0.00338264319337821 -0.00037095718218648058 0 0.0033399801339497907 -0.00049161159221958368 0 0.0033017250885374323 -0.00047033677496018084 0 0.0026913623600104859 -0.0032526004029881685 0 0.0030452921412663053 -0.0017526658510035914 0 0.0033367793311651905 -0.00049259603288686574 0 0.0032702679213983846 -0.0005178397025017617 0 0.0033017250885374323 -0.00047033677496018084 0 0.0031992709637662206 -0.0024091526231032915 0 0.0031615520596559154 -0.0026533017411895683 0 0.0030222268074407716 -0.0025824465647451941 0 0.0030452921412663053 -0.0017526658510035914 0 0.0029999233644734755 -0.001285034825347964 0 0.0031777898813727338 -0.0084743854038660613 0 0.003887780973307723 -0.0075754311013282007 0 0.0023134016345715798 -0.0076762721888709567 0 0.0032722977433686188 -0.0065053913926052514 0 0.0020320960195935492 -0.0075426114277649904 0 0.0029114150671745347 -0.0070755155622124668 0 0.002348837152415178 -0.006386299875863569 0 0.0016799606629124869 -0.007153129156885216 0 0.0031580987436965391 -0.0039519289463310443 0 0.0036267155000863629 -0.0036651236666917337 0 0.0033914079033576282 -0.0034475614848348862 0 0.0032722977433686188 -0.0065053913926052514 0 0.0033122892062248501 -0.0045123914557352205 0 0.0032722977433686188 -0.0065053913926052514 0 0.0028969993066103182 -0.0061664861432658511 0 0.0030538390026189602 -0.0055920983482682157 0 0.0031826880381454477 -0.0055788322109786804 0 0.0031177722049839859 -0.0055091567870071655 0 0.0032726824574308964 -0.0059171453835573928 0 0.0032127435724478189 -0.0055294334191834191 0 0.0036408842137572095 -0.0054995047008750747 0 0.0031180199234226861 -0.0049269884770893595 0 0.0033122892062248501 -0.0045123914557352205 0 0.0030285521418873074 -0.0045750779768142236 0 0.0028969993066103182 -0.0061664861432658511 0 0.0025844606548838032 -0.0062764723482877319 0 0.0024186302326701229 -0.0061290188196633727 0 0.0022900044521983152 -0.0061729710442062578 0 0.0032143640190565271 -0.0055420783344143293 0 0.0031826880381454477 -0.0055788322109786804 0 0.0031177722049839859 -0.0055091567870071655 0 0.0030285521418873074 -0.0045750779768142236 0 0.0033122892062248501 -0.0045123914557352205 0 0.0025844606548838032 -0.0062764723482877319 0 0.0025286218844613574 -0.0060967595598017373 0 0.0024186302326701229 -0.0061290188196633727 0 0.0025286218844613574 -0.0060967595598017373 0 0.0024186302326701229 -0.0061290188196633727 0 0.0024254080827284109 -0.0060280817168406886 0 0.0024186302326701229 -0.0061290188196633727 0 0.0023247652039500989 -0.0061303159737154285 0 0.0022900044521983152 -0.0061729710442062578 0 0.0024186302326701229 -0.0061290188196633727 0 0.0023733334004065131 -0.0060608585063799602 0 0.0023247652039500989 -0.0061303159737154285 0 0.0024186302326701229 -0.0061290188196633727 0 0.0024254080827284109 -0.0060280817168406886 0 0.0023733334004065131 -0.0060608585063799602 0 0.0024254080827284109 -0.0060280817168406886 0 0.0025278691517226161 -0.0059342592545193152 0 0.0023236249951528762 -0.0059549024509067934 0 0.0023733334004065131 -0.0060608585063799602 0 0.0023236249951528762 -0.0059549024509067934 0 0.0023247652039500989 -0.0061303159737154285 0 0.0024254080827284109 -0.0060280817168406886 0 0.0023733334004065131 -0.0060608585063799602 0 0.0023236249951528762 -0.0059549024509067934 0 0.0025286218844613574 -0.0060967595598017373 0 0.0024254080827284109 -0.0060280817168406886 0 0.0025278691517226161 -0.0059342592545193152 0 0.0025278691517226161 -0.0059342592545193152 0 0.0024481633649553942 -0.0058208156974386208 0 0.0026969236236048409 -0.0057089075865379337 0 0.0024481633649553942 -0.0058208156974386208 0 0.0022436200312240064 -0.0056850535194856583 0 0.0026969236236048409 -0.0057089075865379337 0 0.0024481633649553942 -0.0058208156974386208 0 0.0023236249951528762 -0.0059549024509067934 0 0.0022436200312240064 -0.0056850535194856583 0 0.0025278691517226161 -0.0059342592545193152 0 0.0024481633649553942 -0.0058208156974386208 0 0.0023236249951528762 -0.0059549024509067934 0 0.0023236249951528762 -0.0059549024509067934 0 0.0019894538872759771 -0.0058419011982441807 0 0.0022436200312240064 -0.0056850535194856583 0 0.0023236249951528762 -0.0059549024509067934 0 0.0022885589491981337 -0.0061774145607494547 0 0.0019894538872759771 -0.0058419011982441807 0 0.0023236249951528762 -0.0059549024509067934 0 0.0023247652039500989 -0.0061303159737154285 0 0.0022885589491981337 -0.0061774145607494547 0 0.0028516148352571939 -0.0061941846314352168 0 0.0028969993066103182 -0.0061664861432658511 0 0.0028969993066103182 -0.0061664861432658511 0 0.0019961539859698224 -0.0061940594729162201 0 0.0022885589491981337 -0.0061774145607494547 0 0.0016730709822294504 -0.0059682789173792347 0 0.0019894538872759771 -0.0058419011982441807 0 0.0029114150671745347 -0.0070755155622124668 0 0.003199659300793703 -0.0067135138470373846 0 0.002348837152415178 -0.006386299875863569 0 0.0016730709822294504 -0.0059682789173792347 0 0.0019894538872759771 -0.0058419011982441807 0 0.0014834778434262537 -0.0055377634545893638 0 0.0019894538872759771 -0.0058419011982441807 0 0.0019390064530946671 -0.0053453156866690504 0 0.0022436200312240064 -0.0056850535194856583 0 0.0019894538872759771 -0.0058419011982441807 0 0.0019390064530946671 -0.0053453156866690504 0 0.0014834778434262537 -0.0055377634545893638 0 0.0016785267791191434 -0.0052751572109447182 0 0.0024300254028674644 -0.0048423276635622186 0 0.0019390064530946671 -0.0053453156866690504 0 0.0022436200312240064 -0.0056850535194856583 0 0.0026969236236048409 -0.0057089075865379337 0 0.0013909890654957612 -0.0049796587673183457 0 0.0017182593770501062 -0.0048144634580305108 0 0.0020792100269906087 -0.0053539693365391048 0 0.0017182593770501062 -0.0048144634580305108 0 0.002094196177273619 -0.0047505573295597734 0 0.0017770174335826033 -0.0043640098681584256 0 0.0017182593770501062 -0.0048144634580305108 0 0.0013815592040265631 -0.0046188034170674061 0 0.0017770174335826033 -0.0043640098681584256 0 0.0013909890654957612 -0.0049796587673183457 0 0.0013815592040265631 -0.0046188034170674061 0 0.0010965717510999589 -0.0049484650050555514 0 0.0013909890654957612 -0.0049796587673183457 0 0.0017182593770501062 -0.0048144634580305108 0 0.0013815592040265631 -0.0046188034170674061 0 0.002139238481314205 -0.0040249731369210425 0 0.0023133296440127167 -0.0038306352449113232 0 0.0021122047786639761 -0.0037986255025758463 0 0.0030452921412663053 -0.0017526658510035914 0 0.0028068745557418315 -0.0022323924627841224 0 0.0026913623600104859 -0.0032526004029881685 0 0.0028068745557418315 -0.0022323924627841224 0 0.0017182593770501062 -0.0048144634580305108 0 0.0020792100269906087 -0.0053539693365391048 0 0.002094196177273619 -0.0047505573295597734 0 0.0024300254028674644 -0.0048423276635622186 0 0.0020088691512060858 -0.0041528499860254229 0 0.002139238481314205 -0.0040249731369210425 0 0.0021122047786639761 -0.0037986255025758463 0 0.0019998260765991651 -0.0039619913614758855 0 0.0021122047786639761 -0.0037986255025758463 0 0.0019998260765991651 -0.0039619913614758855 0 0.001981644385049853 -0.003644048083707367 0 0.0021122047786639761 -0.0037986255025758463 0 0.001981644385049853 -0.003644048083707367 0 0.002169551071600378 -0.0035477446050133066 0 0.0023133296440127167 -0.0038306352449113232 0 0.002169551071600378 -0.0035477446050133066 0 0.002432436948936364 -0.0035223829348732779 0 0.0023133296440127167 -0.0038306352449113232 0 0.0021122047786639761 -0.0037986255025758463 0 0.002169551071600378 -0.0035477446050133066 0 0.0028068745557418315 -0.0022323924627841224 0 0.0025426206160146726 -0.0029289148640538332 0 0.0027350235005028818 -0.0020543231698499603 0 0.0027931435924439959 -0.00189849761915291 0 0.0028183175913245695 -0.001962406399999405 0 0.0027931435924439959 -0.00189849761915291 0 0.0028183175913245695 -0.001962406399999405 0 0.0028960842791682304 -0.0018711218012710939 0 0.0030608214729209607 -0.0012728175391610811 0 0.0029553388026395178 -0.00065154788138133948 0 0.0028068745557418315 -0.0022323924627841224 0 0.0030608214729209607 -0.0012728175391610811 0 0.0030567118554434441 0.00022057694233681196 0 0.0028741959813664147 -4.1786139664800061e-06 0 0.0031418201118193732 -4.8908169743575871e-05 0 0.0031446023250400121 -0.00036210242332524822 0 0.0029553388026395178 -0.00065154788138133948 0 0.0032242738504180278 -0.00067276873655938653 0 0.0031134994227672761 -0.00064623129031259161 0 0.0031509679110649216 -0.00075110215209836474 0 0.0031134994227672761 -0.00064623129031259161 0 0.0030766047844027716 -0.00053554307648736308 0 0.0031924360020948563 -0.00056740804196071381 0 0.0031446023250400121 -0.00036210242332524822 0 0.0031588810724138502 0.0012778523159558909 0 0.0030567118554434441 0.00022057694233681196 0 0.0029594567921334023 0.00049837208416425929 0 0.0028496692367007714 0.00024705653447584043 0 0.0032242738504180278 -0.00067276873655938653 0 0.0031134994227672761 -0.00064623129031259161 0 0.0031924360020948563 -0.00056740804196071381 0 0.0032702679213983846 -0.0005178397025017617 0 0.0032957409564127772 -0.00059840567889322656 0 0.0031924360020948563 -0.00056740804196071381 0 0.0032957409564127772 -0.00059840567889322656 0 0.0032242738504180278 -0.00067276873655938653 0 0.0031924360020948563 -0.00056740804196071381 0 0.0032702679213983846 -0.0005178397025017617 0 0.0033017250885374323 -0.00047033677496018084 0 0.0032254432718681471 -0.00045891441589356101 0 0.0032702679213983846 -0.0005178397025017617 0 0.0031924360020948563 -0.00056740804196071381 0 0.0032254432718681471 -0.00045891441589356101 0 0.0030766047844027716 -0.00053554307648736308 0 0.0031924360020948563 -0.00056740804196071381 0 0.0032254432718681471 -0.00045891441589356101 0 0.0031588810724138502 0.0012778523159558909 0 0.0035733272381889346 0.00072926939395626523 0 0.0035653891749219718 0.0016467945242962852 0 0.0037225699555451341 0.0019071823056431912 0 0.0034936709585437846 0.0018232325263858543 0 0.0035653891749219718 0.0016467945242962852 0 0.0038325824185696214 0.0018200770359030458 0 0.0037225699555451341 0.0019071823056431912 0 0.0037225699555451341 0.0019071823056431912 0 0.0036001644743515792 0.0019610940571899624 0 0.0034936709585437846 0.0018232325263858543 0 0.0037225699555451341 0.0019071823056431912 0 0.0036001644743515792 0.0019610940571899624 0 0.0036938356570155859 0.0019980280305950736 0 0.0036310882914988838 0.0020795412541057671 0 0.0035001601742039833 0.0021409680679077996 0 0.0036001644743515792 0.0019610940571899624 0 0.0036310882914988838 0.0020795412541057671 0 0.0036001644743515792 0.0019610940571899624 0 0.0036938356570155859 0.0019980280305950736 0 0.0037225699555451341 0.0019071823056431912 0 0.0036938356570155859 0.0019980280305950736 0 0.0037648898940157486 0.0019951443370996844 0 0.0037281168516161848 0.0020537344101675468 0 0.0036310882914988838 0.0020795412541057671 0 0.0036938356570155859 0.0019980280305950736 0 0.0037281168516161848 0.0020537344101675468 0 0.0036938356570155859 0.0019980280305950736 0 0.0037648898940157486 0.0019951443370996844 0 0.0039498865475705146 0.0019627752400187661 0 0.0038325824185696214 0.0018200770359030458 0 0.0038420198555973277 0.001957003859222053 0 0.0037225699555451341 0.0019071823056431912 0 0.0037648898940157486 0.0019951443370996844 0 0.0038420198555973277 0.001957003859222053 0 0.0038112714325883954 0.0020338509789216549 0 0.0037648898940157486 0.0019951443370996844 0 0.0038420198555973277 0.001957003859222053 0 0.0038112714325883954 0.0020338509789216549 0 0.0038949945712097606 0.0019928069182462401 0 0.0038420198555973277 0.001957003859222053 0 0.0038325824185696214 0.0018200770359030458 0 0.0037225699555451341 0.0019071823056431912 0 0.0038420198555973277 0.001957003859222053 0 0.00021546271476183393 0.014787015022381842 0 -0.00033149249794301328 0.014742937764976467 0 -0.00034982099426967943 0.013850141780165694 0 0.0011167022320689966 0.010899405946772737 0 0.00054958971322843059 0.011534337529728305 0 -0.00033149249794301328 0.014742937764976467 0 -0.00034982099426967943 0.013850141780165694 0 -0.0008957320102544673 0.014442973961440807 0 0.0015359033665656254 0.0091473363240105552 0 0.0013026445204447677 0.0087392843926009222 0 0.0016327717453686807 0.0088959798943820927 0 0.0013026445204447677 0.0087392843926009222 0 0.0016327717453686807 0.0088959798943820927 0 0.0015065294501127508 0.008434539442688781 0 0.0025318343530903327 0.0054727151073746538 0 0.0019858133726614186 0.0069811808930767116 0 0.0035001601742039833 0.0021409680679077996 0 0.0036001644743515792 0.0019610940571899624 0 0.0033858386503515317 0.0020188767077624434 0 0.0036001644743515792 0.0019610940571899624 0 0.0033858386503515317 0.0020188767077624434 0 0.0034936709585437846 0.0018232325263858543 0 0.0025318343530903327 0.0054727151073746538 0 0.0031822597254180991 0.0031567184945202891 0 0.0030968004527056683 0.0040036661105718784 0 0.0023717507076294743 0.0043527623731004208 0 0.002858933081812935 0.0046369763360862874 0 0.0026139809758586514 0.0052712294406880378 0 0.0023717507076294743 0.0043527623731004208 0 0.002858933081812935 0.0046369763360862874 0 0.0031588810724138502 0.0012778523159558909 0 0.0031822597254180991 0.0031567184945202891 0 0.00054958971322843059 0.011534337529728305 0 -4.9785902317999099e-05 0.010186873395812666 0 0.0013026445204447677 0.0087392843926009222 0 0.0015065294501127508 0.008434539442688781 0 0.0010728014630777712 0.0083454425995312699 0 0.0015065294501127508 0.008434539442688781 0 0.0013816762965352058 0.0079829903324885043 0 0.0010728014630777712 0.0083454425995312699 0 0.0019858133726614186 0.0069811808930767116 0 0.0019816404343148512 0.0041054918738938828 0 0.0031588810724138502 0.0012778523159558909 0 0.0019816404343148512 0.0041054918738938828 0 0.0029594567921334023 0.00049837208416425929 0 0.0028496692367007714 0.00024705653447584043 0 0.0025809728642110113 0.00027603903156495622 0 0.0030968004527056683 0.0040036661105718784 0 0.0023717507076294743 0.0043527623731004208 0 0.0021271383623815178 0.0034448441489608453 0 0.0028496692367007714 0.00024705653447584043 0 0.0027381330488209662 0.00013397728037512028 0 0.0025809728642110113 0.00027603903156495622 0 0.0030567118554434441 0.00022057694233681196 0 0.0028496692367007714 0.00024705653447584043 0 0.0028741959813664147 -4.1786139664800061e-06 0 0.0027381330488209662 0.00013397728037512028 0 0.002740824994403424 -1.9022808205964506e-05 0 0.0028741959813664147 -4.1786139664800061e-06 0 0.0027381330488209662 0.00013397728037512028 0 0.0026244208626017037 -2.7392591410689232e-05 0 0.002740824994403424 -1.9022808205964506e-05 0 0.0028496692367007714 0.00024705653447584043 0 0.0027381330488209662 0.00013397728037512028 0 0.0028741959813664147 -4.1786139664800061e-06 0 0.0018882811107491192 0.0043582976725357559 0 0.0021412887882251135 0.0045286651445078634 0 0.001935132465805921 0.0045300130923364859 0 0.0027381330488209662 0.00013397728037512028 0 0.0025809728642110113 0.00027603903156495622 0 0.0026244208626017037 -2.7392591410689232e-05 0 0.0025809728642110113 0.00027603903156495622 0 0.0025182232453206618 -1.1113491257161996e-05 0 0.0026244208626017037 -2.7392591410689232e-05 0 0.0019816404343148512 0.0041054918738938828 0 0.0026231480177314761 0.0019189441816449763 0 0.0019816404343148512 0.0041054918738938828 0 0.001739883237360869 0.0068069328854919054 0 0.0013816762965352058 0.0079829903324885043 0 0.000893135639952251 0.0077139581125467748 0 0.00085283130021957692 0.0079697890145925248 0 0.001739883237360869 0.0068069328854919054 0 -0.000646000602389425 0.012595371074110264 0 -0.0014557312851677451 0.011996966405365591 0 -0.00091329858588713243 0.012917816786590302 0 -0.0017906519794322236 0.01327775704494664 0 0.0013816762965352058 0.0079829903324885043 0 0.00085283130021957692 0.0079697890145925248 0 0.0010728014630777712 0.0083454425995312699 0 -0.000646000602389425 0.012595371074110264 0 -4.9785902317999099e-05 0.010186873395812666 0 -0.000646000602389425 0.012595371074110264 0 -0.0017179514077321264 0.01602249336701082 0 -0.0011866321115596111 0.01717615762926673 0 -0.0016459975091353662 0.017295761180113736 0 -0.001367186531544862 0.017846424717467505 0 -0.0011866321115596111 0.01717615762926673 0 -0.0013558171831018441 0.016895080352222369 0 -0.0016459975091353662 0.017295761180113736 0 0.001739883237360869 0.0068069328854919054 0 -0.00041761070882094173 0.013387110686203378 0 8.4140195732351907e-05 0.010812576566398642 0 -7.1548622489913294e-05 0.011852201354353749 0 -0.00063519084587445674 0.010887551118669212 0 -0.000646000602389425 0.012595371074110264 0 -0.00041761070882094173 0.013387110686203378 0 -0.00041761070882094173 0.013387110686203378 0 -0.0020804731993365024 0.017225284028564158 0 -0.0013558171831018441 0.016895080352222369 0 -0.0018913514973318631 0.016988370116407275 0 -0.0016459975091353662 0.017295761180113736 0 -0.0018913514973318631 0.016988370116407275 0 -0.0021209539890948517 0.017299038016315264 0 -0.0016459975091353662 0.017295761180113736 0 -0.0020804731993365024 0.017225284028564158 0 -0.0022471924210766708 0.017009198029320251 0 -0.0018913514973318631 0.016988370116407275 0 -0.0021209539890948517 0.017299038016315264 0 -0.0023822433780233947 0.017059348558062411 0 -0.0021209539890948517 0.017299038016315264 0 -0.0020280645011060785 0.017672871904163983 0 -0.0025656582400358256 0.017506273073148094 0 -0.0020280645011060785 0.017672871904163983 0 -0.0016459975091353662 0.017295761180113736 0 -0.001367186531544862 0.017846424717467505 0 -0.0021209539890948517 0.017299038016315264 0 -0.0020280645011060785 0.017672871904163983 0 -0.0016459975091353662 0.017295761180113736 0 -0.0020280645011060785 0.017672871904163983 0 -0.0021072818474754539 0.018242845065190989 0 -0.001367186531544862 0.017846424717467505 0 -0.0020280645011060785 0.017672871904163983 0 -0.0021072818474754539 0.018242845065190989 0 -0.002503607915673499 0.017963119376726098 0 -0.0021072818474754539 0.018242845065190989 0 -0.001367186531544862 0.017846424717467505 0 -0.001569911303593616 0.01849342213023945 0 -0.0017179514077321264 0.01602249336701082 0 -0.0017884190042657434 0.016370113683165842 0 -0.001169427193269095 0.013749710766581803 0 -0.0017906519794322236 0.01327775704494664 0 -0.0021364538396709495 0.01458606645454587 0 -0.00034982099426967943 0.013850141780165694 0 -0.001169427193269095 0.013749710766581803 0 -0.0008957320102544673 0.014442973961440807 0 -0.001169427193269095 0.013749710766581803 0 -0.0008957320102544673 0.014442973961440807 0 -0.0021364538396709495 0.01458606645454587 0 -0.001169427193269095 0.013749710766581803 0 -0.00091329858588713243 0.012917816786590302 0 -0.0017906519794322236 0.01327775704494664 0 -0.00034982099426967943 0.013850141780165694 0 -0.001169427193269095 0.013749710766581803 0 -0.00091329858588713243 0.012917816786590302 0 -0.0036641070497755329 0.017536911509251886 0 -0.0034531000417883022 0.017143813884550912 0 -0.0033341900945352883 0.01742481711408092 0 -0.0019619585594460253 0.022371118347664337 0 -0.0022498764837094211 0.022519951060732134 0 -0.0021002267841325243 0.021996385457428609 0 -0.0036641070497755329 0.017536911509251886 0 -0.0033341900945352883 0.01742481711408092 0 -0.0033459276632852738 0.017707375664764508 0 -0.0036641070497755329 0.017536911509251886 0 -0.0034531000417883022 0.017143813884550912 0 -0.0037988734165659262 0.016978486393964105 0 -0.0034531000417883022 0.017143813884550912 0 -0.0031715187889497917 0.017237891288733789 0 -0.0033341900945352883 0.01742481711408092 0 -0.0034531000417883022 0.017143813884550912 0 -0.0031715187889497917 0.017237891288733789 0 -0.0029497678736978938 0.016968333117332094 0 -0.0031715187889497917 0.017237891288733789 0 -0.0033341900945352883 0.01742481711408092 0 -0.0030363486364610613 0.01751531940542499 0 -0.0033459276632852738 0.017707375664764508 0 -0.0030363486364610613 0.01751531940542499 0 -0.0031946668507175308 0.017892051379243334 0 -0.0033341900945352883 0.01742481711408092 0 -0.0033459276632852738 0.017707375664764508 0 -0.0030363486364610613 0.01751531940542499 0 -0.0030363486364610613 0.01751531940542499 0 -0.0025656582400358256 0.017506273073148094 0 -0.0029518031031453965 0.017946841827378952 0 -0.0030363486364610613 0.01751531940542499 0 -0.0029497678736978938 0.016968333117332094 0 -0.0025656582400358256 0.017506273073148094 0 -0.0031715187889497917 0.017237891288733789 0 -0.0030363486364610613 0.01751531940542499 0 -0.0029497678736978938 0.016968333117332094 0 -0.0021209539890948517 0.017299038016315264 0 -0.0023822433780233947 0.017059348558062411 0 -0.0025656582400358256 0.017506273073148094 0 -0.0029497678736978938 0.016968333117332094 0 -0.0023822433780233947 0.017059348558062411 0 -0.0025656582400358256 0.017506273073148094 0 -0.002503607915673499 0.017963119376726098 0 -0.0026850927210931132 0.018320744194764954 0 -0.0029518031031453965 0.017946841827378952 0 -0.0020280645011060785 0.017672871904163983 0 -0.0025656582400358256 0.017506273073148094 0 -0.002503607915673499 0.017963119376726098 0 -0.0025656582400358256 0.017506273073148094 0 -0.002503607915673499 0.017963119376726098 0 -0.0029518031031453965 0.017946841827378952 0 -0.0021072818474754539 0.018242845065190989 0 -0.0026850927210931132 0.018320744194764954 0 -0.0024467575670586322 0.018634447100436491 0 -0.0021072818474754539 0.018242845065190989 0 -0.002503607915673499 0.017963119376726098 0 -0.0026850927210931132 0.018320744194764954 0 -0.0026850927210931132 0.018320744194764954 0 -0.0030688940907428672 0.01831670432257097 0 -0.0029518031031453965 0.017946841827378952 0 -0.0026850927210931132 0.018320744194764954 0 -0.0030688940907428672 0.01831670432257097 0 -0.0030601706603516033 0.018707781852832148 0 -0.0030363486364610613 0.01751531940542499 0 -0.0029518031031453965 0.017946841827378952 0 -0.0031946668507175308 0.017892051379243334 0 -0.0030688940907428672 0.01831670432257097 0 -0.0029518031031453965 0.017946841827378952 0 -0.0031491995855948102 0.018066564615841847 0 -0.0033459276632852738 0.017707375664764508 0 -0.0031946668507175308 0.017892051379243334 0 -0.0033834620161511935 0.018112682472120004 0 -0.0031946668507175308 0.017892051379243334 0 -0.0033834620161511935 0.018112682472120004 0 -0.0031491995855948102 0.018066564615841847 0 -0.0029518031031453965 0.017946841827378952 0 -0.0031946668507175308 0.017892051379243334 0 -0.0031491995855948102 0.018066564615841847 0 -0.0030688940907428672 0.01831670432257097 0 -0.0033834620161511935 0.018112682472120004 0 -0.0031491995855948102 0.018066564615841847 0 -0.0030688940907428672 0.01831670432257097 0 -0.0033834620161511935 0.018112682472120004 0 -0.0030601706603516033 0.018707781852832148 0 -0.0025177218244047581 0.021539285541194626 0 -0.0025161179899797757 0.02125283443423092 0 -0.0026886276564144309 0.020265158344050824 0 -0.0029398020055931705 0.019827651680364388 0 -0.0028529274907639433 0.019511522737288241 0 -0.0025177218244047581 0.021539285541194626 0 -0.0025161179899797757 0.02125283443423092 0 -0.0023753415541808123 0.021438917033229091 0 -0.0022186197453390247 0.021274766647787425 0 -0.0023753415541808123 0.021438917033229091 0 -0.0022554945549146423 0.021693592467490391 0 -0.0018928279783926251 0.02076102593920643 0 -0.0024276953085906024 0.02115545045154615 0 -0.001903401172809489 0.020872980953202457 0 -0.0022186197453390247 0.021274766647787425 0 -0.0019418841375182252 0.021274848324639793 0 -0.001903401172809489 0.020872980953202457 0 -0.0025161179899797757 0.02125283443423092 0 -0.0022186197453390247 0.021274766647787425 0 -0.0025161179899797757 0.02125283443423092 0 -0.0022186197453390247 0.021274766647787425 0 -0.0023753415541808123 0.021438917033229091 0 -0.0022186197453390247 0.021274766647787425 0 -0.0019418841375182252 0.021274848324639793 0 -0.0022554945549146423 0.021693592467490391 0 -0.002923110507149078 0.020061814800210326 0 -0.0029398020055931705 0.019827651680364388 0 -0.0019418841375182252 0.021274848324639793 0 -0.0022554945549146423 0.021693592467490391 0 -0.0021002267841325243 0.021996385457428609 0 -0.0022498764837094211 0.022519951060732134 0 -0.0022554945549146423 0.021693592467490391 0 -0.0021002267841325243 0.021996385457428609 0 -0.0036641070497755329 0.017536911509251886 0 -0.0033459276632852738 0.017707375664764508 0 -0.0033834620161511935 0.018112682472120004 0 -0.0022498764837094211 0.022519951060732134 0 -0.0025177218244047581 0.021539285541194626 0 -0.0022554945549146423 0.021693592467490391 0 -0.0020409288750740618 0.021538823561379074 0 -0.0020872141586594627 0.021902473508050347 0 -0.0025177218244047581 0.021539285541194626 0 -0.0023753415541808123 0.021438917033229091 0 -0.0022554945549146423 0.021693592467490391 0 -0.0017037164050910777 0.019644649671902253 0 -0.0015840507485258158 0.020268705590573411 0 -0.0020914237941777824 0.01983832458895567 0 -0.0015840507485258158 0.020268705590573411 0 -0.0025161179899797757 0.02125283443423092 0 -0.0022305558515041892 0.0203724526483147 0 -0.0015840507485258158 0.020268705590573411 0 -0.0020914237941777824 0.01983832458895567 0 -0.0022305558515041892 0.0203724526483147 0 -0.0020914237941777824 0.01983832458895567 0 -0.0022305558515041892 0.0203724526483147 0 -0.0026886276564144309 0.020265158344050824 0 -0.0025161179899797757 0.02125283443423092 0 -0.0022305558515041892 0.0203724526483147 0 -0.0026886276564144309 0.020265158344050824 0 -0.0020914237941777824 0.01983832458895567 0 -0.0026886276564144309 0.020265158344050824 0 -0.0023573503615940058 0.019452571068578169 0 -0.002682235287200024 0.019399031881606504 0 -0.0028529274907639433 0.019511522737288241 0 -0.0026500685054295248 0.01936357635146279 0 -0.0026886276564144309 0.020265158344050824 0 -0.0023573503615940058 0.019452571068578169 0 -0.0026500685054295248 0.01936357635146279 0 -0.0030601706603516033 0.018707781852832148 0 -0.0024230415782458756 0.019065737793447394 0 -0.0026850927210931132 0.018320744194764954 0 -0.0030601706603516033 0.018707781852832148 0 -0.0024467575670586322 0.018634447100436491 0 -0.0030601706603516033 0.018707781852832148 0 -0.0024467575670586322 0.018634447100436491 0 -0.0024230415782458756 0.019065737793447394 0 -0.0026500685054295248 0.01936357635146279 0 -0.0024230415782458756 0.019065737793447394 0 -0.0024263196002469955 0.019236498414278509 0 -0.0026500685054295248 0.01936357635146279 0 -0.0024263196002469955 0.019236498414278509 0 -0.0024684210879929143 0.019247544756112522 0 -0.0024263196002469955 0.019236498414278509 0 -0.0024684210879929143 0.019247544756112522 0 -0.0024244590137609051 0.019155802130384786 0 -0.0024684210879929143 0.019247544756112522 0 -0.0024244590137609051 0.019155802130384786 0 -0.0023910371165021468 0.019081205426163293 0 -0.0024684210879929143 0.019247544756112522 0 -0.0022386368582088933 0.019161620454903893 0 -0.0023910371165021468 0.019081205426163293 0 -0.0024684210879929143 0.019247544756112522 0 -0.0023573503615940058 0.019452571068578169 0 -0.0022386368582088933 0.019161620454903893 0 -0.0026500685054295248 0.01936357635146279 0 -0.0024684210879929143 0.019247544756112522 0 -0.0023573503615940058 0.019452571068578169 0 -0.0020914237941777824 0.01983832458895567 0 -0.0023573503615940058 0.019452571068578169 0 -0.0020388675116339056 0.019410950571206124 0 -0.0023573503615940058 0.019452571068578169 0 -0.0020388675116339056 0.019410950571206124 0 -0.0022386368582088933 0.019161620454903893 0 -0.0020105559390886066 0.019258335994946901 0 -0.0020388675116339056 0.019410950571206124 0 -0.0022386368582088933 0.019161620454903893 0 -0.0017498672595590832 0.019442304526547986 0 -0.0020105559390886066 0.019258335994946901 0 -0.0020388675116339056 0.019410950571206124 0 -0.0017037164050910777 0.019644649671902253 0 -0.0020914237941777824 0.01983832458895567 0 -0.0020388675116339056 0.019410950571206124 0 -0.0021917908589869826 0.018899467384937179 0 -0.0023188688908126988 0.019038233996205873 0 -0.0023854023216238049 0.019072309253368579 0 -0.0015355586589714297 0.015719591840461972 0 -0.0021364538396709495 0.01458606645454587 0 -0.0024801130459321604 0.015941661412732601 0 -0.0019520531244507544 0.017352731522318018 0 -0.00240028305835694 0.017822651881691021 0 -0.0023188688908126988 0.019038233996205873 0 -0.0023854023216238049 0.019072309253368579 0 -0.0023554012353033654 0.019070759523140322 0 -0.00092642317353241305 0.01564475217659872 0 -0.0019520531244507544 0.017352731522318018 0 -0.0023046794344766456 0.01898489915872913 0 -0.0023188688908126988 0.019038233996205873 0 -0.0023217917548483125 0.019022821127710695 0 -0.00059760965158101725 0.015492861137125453 0 -0.0015355586589714297 0.015719591840461972 0 -0.0011487179753367749 0.01508274578382591 0 -0.001447905352856821 0.015854039666556227 0 -0.002711260610164818 0.019842102056709263 0 -0.0019177650711466549 0.018832843828567616 0 -0.0019121932451655361 0.018765853914981239 0 -0.0021917908589869826 0.018899467384937179 0 -0.0019177650711466549 0.018832843828567616 0 -0.0021917908589869826 0.018899467384937179 0 -0.0023188688908126988 0.019038233996205873 0 -0.0008957320102544673 0.014442973961440807 0 -0.0011487179753367749 0.01508274578382591 0 -0.0021364538396709495 0.01458606645454587 0 -0.0005781630539042498 0.015177828822213817 0 -0.00059760965158101725 0.015492861137125453 0 -0.0011487179753367749 0.01508274578382591 0 -0.0005781630539042498 0.015177828822213817 0 -0.0008957320102544673 0.014442973961440807 0 -0.0011487179753367749 0.01508274578382591 0 -0.0015355586589714297 0.015719591840461972 0 -0.0011487179753367749 0.01508274578382591 0 -0.0021364538396709495 0.01458606645454587 0 -0.0021072818474754539 0.018242845065190989 0 -0.001569911303593616 0.01849342213023945 0 -0.002066784865131554 0.018763312757616616 0 -0.001569911303593616 0.01849342213023945 0 -0.002066784865131554 0.018763312757616616 0 -0.0018035786627501958 0.019093680499514421 0 -0.0017884190042657434 0.016370113683165842 0 -0.00240028305835694 0.017822651881691021 0 -0.0021072818474754539 0.018242845065190989 0 -0.0024467575670586322 0.018634447100436491 0 -0.002066784865131554 0.018763312757616616 0 -0.0024467575670586322 0.018634447100436491 0 -0.0024230415782458756 0.019065737793447394 0 -0.002066784865131554 0.018763312757616616 0 -0.0024230415782458756 0.019065737793447394 0 -0.002066784865131554 0.018763312757616616 0 -0.0022505209848094807 0.01914447995375574 0 -0.0024230415782458756 0.019065737793447394 0 -0.0024263196002469955 0.019236498414278509 0 -0.0022505209848094807 0.01914447995375574 0 -0.002066784865131554 0.018763312757616616 0 -0.0022505209848094807 0.01914447995375574 0 -0.0018035786627501958 0.019093680499514421 0 -0.0022237528410624526 0.019043833956221778 0 -0.00240028305835694 0.017822651881691021 0 -0.0022505209848094807 0.01914447995375574 0 -0.0023854023216238049 0.019072309253368579 0 -0.0023509561524348009 0.019091061512573757 0 -0.0023854023216238049 0.019072309253368579 0 -0.0023509561524348009 0.019091061512573757 0 -0.0023554012353033654 0.019070759523140322 0 -0.0023509561524348009 0.019091061512573757 0 -0.0023575297812372335 0.01907599440717557 0 -0.0023554012353033654 0.019070759523140322 0 -0.0022505209848094807 0.01914447995375574 0 -0.0023509561524348009 0.019091061512573757 0 -0.0023617705744870101 0.019142736335446289 0 -0.0023509561524348009 0.019091061512573757 0 -0.0023690418532357729 0.019097406436852225 0 -0.0023617705744870101 0.019142736335446289 0 -0.0023509561524348009 0.019091061512573757 0 -0.0023575297812372335 0.01907599440717557 0 -0.0023690418532357729 0.019097406436852225 0 -0.0023575297812372335 0.01907599440717557 0 -0.0023690418532357729 0.019097406436852225 0 -0.002359303080117611 0.019069133175279064 0 -0.0024263196002469955 0.019236498414278509 0 -0.0023617705744870101 0.019142736335446289 0 -0.0024244590137609051 0.019155802130384786 0 -0.0024263196002469955 0.019236498414278509 0 -0.0022505209848094807 0.01914447995375574 0 -0.0023617705744870101 0.019142736335446289 0 -0.0024244590137609051 0.019155802130384786 0 -0.0023940059189280936 0.019100926189770159 0 -0.0024157838155249556 0.019098010408896842 0 -0.0023617705744870101 0.019142736335446289 0 -0.0024244590137609051 0.019155802130384786 0 -0.0023940059189280936 0.019100926189770159 0 -0.0023690418532357729 0.019097406436852225 0 -0.0023771802335817967 0.019080460663337434 0 -0.002359303080117611 0.019069133175279064 0 -0.0023690418532357729 0.019097406436852225 0 -0.0023617705744870101 0.019142736335446289 0 -0.0023940059189280936 0.019100926189770159 0 -0.0023690418532357729 0.019097406436852225 0 -0.0023771802335817967 0.019080460663337434 0 -0.0023940059189280936 0.019100926189770159 0 -0.0023771802335817967 0.019080460663337434 0 -0.0023940059189280936 0.019100926189770159 0 -0.0023935564842153772 0.019069607435849519 0 -0.0023668987266951607 0.019065330454728302 0 -0.0023570019112691587 0.019056468088799506 0 -0.0023935564842153772 0.019069607435849519 0 -0.0023771802335817967 0.019080460663337434 0 -0.0023668987266951607 0.019065330454728302 0 -0.0023935564842153772 0.019069607435849519 0 -0.0023668987266951607 0.019065330454728302 0 -0.0023570019112691587 0.019056468088799506 0 -0.002341318371879733 0.019046393702314736 0 -0.0023668987266951607 0.019065330454728302 0 -0.002341318371879733 0.019046393702314736 0 -0.002359303080117611 0.019069133175279064 0 -0.0023771802335817967 0.019080460663337434 0 -0.0023668987266951607 0.019065330454728302 0 -0.002359303080117611 0.019069133175279064 0 -0.0023575297812372335 0.01907599440717557 0 -0.002359303080117611 0.019069133175279064 0 -0.0023372234843837911 0.019051517472398576 0 -0.002341318371879733 0.019046393702314736 0 -0.002359303080117611 0.019069133175279064 0 -0.0023372234843837911 0.019051517472398576 0 -0.002341318371879733 0.019046393702314736 0 -0.0023372234843837911 0.019051517472398576 0 -0.0023217917548483125 0.019022821127710695 0 -0.0023188688908126988 0.019038233996205873 0 -0.0023372234843837911 0.019051517472398576 0 -0.0023217917548483125 0.019022821127710695 0 -0.0023188688908126988 0.019038233996205873 0 -0.0023372234843837911 0.019051517472398576 0 -0.0023554012353033654 0.019070759523140322 0 -0.0023575297812372335 0.01907599440717557 0 -0.0023372234843837911 0.019051517472398576 0 -0.0023554012353033654 0.019070759523140322 0 -0.0023046794344766456 0.01898489915872913 0 -0.0023217917548483125 0.019022821127710695 0 -0.0023147041706537588 0.019024759057309756 0 -0.002341318371879733 0.019046393702314736 0 -0.0023217917548483125 0.019022821127710695 0 -0.0023147041706537588 0.019024759057309756 0 -0.0018170188120233872 0.016210025896807315 0 -0.0015747385670403756 0.016468220346711478 0 -0.0023570019112691587 0.019056468088799506 0 -0.0023147041706537588 0.019024759057309756 0 -0.0023245790209594159 0.019059099210661307 0 -0.0023570019112691587 0.019056468088799506 0 -0.002341318371879733 0.019046393702314736 0 -0.0023147041706537588 0.019024759057309756 0 -0.0016906590934826842 0.018507171619501921 0 -0.0019225610797523904 0.018749559848248751 0 -0.0017109380894119934 0.018845189644837133 0 -0.0013672020462366095 0.011388143312402916 0 -0.001508221492523294 0.012358543528663243 0 -0.0010732326092861371 0.012259640456179839 0 -0.0015747385670403756 0.016468220346711478 0 -0.00098619017774977005 0.013374437572412331 0 -0.0019225610797523904 0.018749559848248751 0 -0.0017109380894119934 0.018845189644837133 0 -0.0021185448515830727 0.018905556861079108 0 -0.0016906590934826842 0.018507171619501921 0 -0.0019225610797523904 0.018749559848248751 0 -0.0021298399438388449 0.018660985188297913 0 -0.0019225610797523904 0.018749559848248751 0 -0.0021298399438388449 0.018660985188297913 0 -0.0021185448515830727 0.018905556861079108 0 -0.0023570019112691587 0.019056468088799506 0 -0.0024018054010331454 0.019073896729924565 0 -0.0023935564842153772 0.019069607435849519 0 -0.0023570019112691587 0.019056468088799506 0 -0.0023245790209594159 0.019059099210661307 0 -0.0024018054010331454 0.019073896729924565 0 -0.0015747385670403756 0.016468220346711478 0 -0.0023980692529974338 0.019196049140471006 0 -0.0024018054010331454 0.019073896729924565 0 -0.0023935564842153772 0.019069607435849519 0 -0.0024151968095833839 0.019067395670888221 0 -0.0024018054010331454 0.019073896729924565 0 -0.0024151968095833839 0.019067395670888221 0 -0.0024140021495393368 0.018939228983771358 0 -0.0023940059189280936 0.019100926189770159 0 -0.0023935564842153772 0.019069607435849519 0 -0.0024151968095833839 0.019067395670888221 0 -0.0024244590137609051 0.019155802130384786 0 -0.0024157838155249556 0.019098010408896842 0 -0.0024135798077702876 0.019055222753143149 0 -0.0024151968095833839 0.019067395670888221 0 -0.0024157838155249556 0.019098010408896842 0 -0.0024135798077702876 0.019055222753143149 0 -0.0023940059189280936 0.019100926189770159 0 -0.0024151968095833839 0.019067395670888221 0 -0.0024157838155249556 0.019098010408896842 0 -0.0024151968095833839 0.019067395670888221 0 -0.0024135798077702876 0.019055222753143149 0 -0.0024140021495393368 0.018939228983771358 0 -0.0024140021495393368 0.018939228983771358 0 -0.0024035742514436744 0.018921653857671181 0 -0.0023931644632343503 0.01894546599997755 0 -0.0024140021495393368 0.018939228983771358 0 -0.0022801593903589747 0.018859379108548711 0 -0.0024035742514436744 0.018921653857671181 0 -0.0021298399438388449 0.018660985188297913 0 -0.0024140021495393368 0.018939228983771358 0 -0.0022801593903589747 0.018859379108548711 0 -0.0021298399438388449 0.018660985188297913 0 -0.0022801593903589747 0.018859379108548711 0 -0.0021185448515830727 0.018905556861079108 0 -0.0023980692529974338 0.019196049140471006 0 -0.0023196100397888456 0.018835299690143976 0 -0.0011623853789361569 0.01516874607574986 0 -0.00075565038260147672 0.015257123890383025 0 0.00030710455461735236 0.011484619736004948 0 0.00048481500834300824 0.011414563359005283 0 0.00047537129491628116 0.011252395336342589 0 0.00030710455461735236 0.011484619736004948 0 7.0718008168504403e-05 0.011461654400255487 0 0.00047537129491628116 0.011252395336342589 0 -0.0022801593903589747 0.018859379108548711 0 -0.0024035742514436744 0.018921653857671181 0 -0.0021185448515830727 0.018905556861079108 0 0.00030710455461735236 0.011484619736004948 0 7.0718008168504403e-05 0.011461654400255487 0 0.00019165911588414072 0.011826299243172281 0 7.0718008168504403e-05 0.011461654400255487 0 0.00019165911588414072 0.011826299243172281 0 -0.00011956532090954854 0.012108358871561888 0 0.00019165911588414072 0.011826299243172281 0 0.00048481500834300824 0.011414563359005283 0 0.00038414737467326588 0.01224594026662932 0 0.00030710455461735236 0.011484619736004948 0 0.00019165911588414072 0.011826299243172281 0 0.00048481500834300824 0.011414563359005283 0 0.00048481500834300824 0.011414563359005283 0 0.00043497162041129437 0.011271522869606322 0 0.00043372765945506121 0.0110662240575482 0 0.00077720089031898913 0.010094609994896996 0 0.00037547663965851829 0.010323307430055727 0 0.00040685095794589361 0.010111852470663537 0 0.00066620748023736153 0.010536687607338658 0 0.00027461320318051679 0.010811790383794283 0 0.00043497162041129437 0.011271522869606322 0 0.00032645842293024959 0.010721173711053592 0 0.00043372765945506121 0.0110662240575482 0 0.00077720089031898913 0.010094609994896996 0 0.00037547663965851829 0.010323307430055727 0 0.00032645842293024959 0.010721173711053592 0 0.00037547663965851829 0.010323307430055727 0 0.00040685095794589361 0.010111852470663537 0 0.00010898927736453543 0.01024409214941299 0 0.00032645842293024959 0.010721173711053592 0 0.00043372765945506121 0.0110662240575482 0 0.00034001531006735877 0.01082818083814305 0 0.00043372765945506121 0.0110662240575482 0 0.00034001531006735877 0.01082818083814305 0 0.00035284177214389711 0.011043944323675762 0 0.00032645842293024959 0.010721173711053592 0 0.00034001531006735877 0.01082818083814305 0 0.00032764215750722081 0.010896309788143033 0 -5.4512547212373636e-05 0.010522697053477019 0 -0.00098619017774977005 0.013374437572412331 0 0.00043372765945506121 0.0110662240575482 0 0.00035284177214389711 0.011043944323675762 0 0.00047537129491628116 0.011252395336342589 0 0.00048481500834300824 0.011414563359005283 0 0.00043372765945506121 0.0110662240575482 0 0.00047537129491628116 0.011252395336342589 0 -0.00098619017774977005 0.013374437572412331 0 -0.00075565038260147672 0.015257123890383025 0 -0.0017051571012237318 0.018601774488959735 0 -0.0019589682602286374 0.019024963466329255 0 -0.0021083930400643382 0.018708502178545583 0 -0.0020105559390886066 0.019258335994946901 0 -0.0019589682602286374 0.019024963466329255 0 -0.0022386368582088933 0.019161620454903893 0 -0.0017498672595590832 0.019442304526547986 0 -0.0020105559390886066 0.019258335994946901 0 -0.0019589682602286374 0.019024963466329255 0 -0.0019589682602286374 0.019024963466329255 0 -0.0022386368582088933 0.019161620454903893 0 -0.0022727539724815668 0.018952452519420727 0 -0.0022727539724815668 0.018952452519420727 0 -0.0023478926029420854 0.018830512492064907 0 -0.0021083930400643382 0.018708502178545583 0 -0.0019589682602286374 0.019024963466329255 0 -0.0022727539724815668 0.018952452519420727 0 -0.0021083930400643382 0.018708502178545583 0 -0.0022727539724815668 0.018952452519420727 0 -0.0023910371165021468 0.019081205426163293 0 -0.0023931644632343503 0.01894546599997755 0 -0.0022727539724815668 0.018952452519420727 0 -0.0023931644632343503 0.01894546599997755 0 -0.0023478926029420854 0.018830512492064907 0 -0.0022386368582088933 0.019161620454903893 0 -0.0022727539724815668 0.018952452519420727 0 -0.0023910371165021468 0.019081205426163293 0 -0.0024135798077702876 0.019055222753143149 0 -0.0023910371165021468 0.019081205426163293 0 -0.0023931644632343503 0.01894546599997755 0 -0.0024244590137609051 0.019155802130384786 0 -0.0024135798077702876 0.019055222753143149 0 -0.0023910371165021468 0.019081205426163293 0 -0.0024135798077702876 0.019055222753143149 0 -0.0024140021495393368 0.018939228983771358 0 -0.0023931644632343503 0.01894546599997755 0 -0.0024035742514436744 0.018921653857671181 0 -0.0023931644632343503 0.01894546599997755 0 -0.0023478926029420854 0.018830512492064907 0 -0.0011623853789361569 0.01516874607574986 0 -0.0013409476168711172 0.015272262166200899 0 7.0718008168504403e-05 0.011461654400255487 0 -0.00038672364985490996 0.012045670418901051 0 -0.00037436025647669986 0.011717090173315504 0 7.0718008168504403e-05 0.011461654400255487 0 -0.00038672364985490996 0.012045670418901051 0 -0.00011956532090954854 0.012108358871561888 0 -0.00038672364985490996 0.012045670418901051 0 -0.00037436025647669986 0.011717090173315504 0 -0.00075682958172549404 0.011897860144540673 0 -0.0013409476168711172 0.015272262166200899 0 -0.0014182431722801424 0.015294720973909957 0 -0.00038672364985490996 0.012045670418901051 0 -0.00083286826351788607 0.012351247866353934 0 -0.00055159157625213611 0.012424208852513392 0 -0.00038672364985490996 0.012045670418901051 0 -0.00075682958172549404 0.011897860144540673 0 -0.00083286826351788607 0.012351247866353934 0 -0.0014834778685025344 0.015327129657867594 0 -0.0014182431722801424 0.015294720973909957 0 -0.0012370263468688496 0.011976476314213216 0 -0.00075682958172549404 0.011897860144540673 0 -0.00083286826351788607 0.012351247866353934 0 -0.0010628857520629663 0.01286272211910622 0 -0.00077484703514082911 0.013244499407614177 0 -0.00108978007730599 0.012844308500569581 0 -0.00076798828585849361 0.012665564681969988 0 -0.00087762291445148089 0.012834563600987076 0 -0.00108978007730599 0.012844308500569581 0 -0.00083286826351788607 0.012351247866353934 0 -0.00076798828585849361 0.012665564681969988 0 -0.00083286826351788607 0.012351247866353934 0 -0.00076798828585849361 0.012665564681969988 0 -0.00055159157625213611 0.012424208852513392 0 -0.00076798828585849361 0.012665564681969988 0 -0.00042794225758819877 0.01269982618365649 0 -0.00055159157625213611 0.012424208852513392 0 -0.00076798828585849361 0.012665564681969988 0 -0.00042794225758819877 0.01269982618365649 0 -0.0006338103137367028 0.012881237199044982 0 -0.00076798828585849361 0.012665564681969988 0 -0.0006338103137367028 0.012881237199044982 0 -0.00087762291445148089 0.012834563600987076 0 -0.00042794225758819877 0.01269982618365649 0 -0.00055159157625213611 0.012424208852513392 0 -0.00028915107405643126 0.012448389422243805 0 -0.00038672364985490996 0.012045670418901051 0 -0.00055159157625213611 0.012424208852513392 0 -0.00028915107405643126 0.012448389422243805 0 -0.00038672364985490996 0.012045670418901051 0 -0.00011956532090954854 0.012108358871561888 0 -0.00028915107405643126 0.012448389422243805 0 -0.00042794225758819877 0.01269982618365649 0 -7.7484109301093166e-05 0.012664341489922803 0 -0.00028915107405643126 0.012448389422243805 0 -0.00011956532090954854 0.012108358871561888 0 -7.7484109301093166e-05 0.012664341489922803 0 -0.00028915107405643126 0.012448389422243805 0 -0.00042794225758819877 0.01269982618365649 0 -0.00013486672202666288 0.012891543461143188 0 -0.00034505318881853107 0.013022864570023775 0 -0.00042794225758819877 0.01269982618365649 0 -7.7484109301093166e-05 0.012664341489922803 0 -0.00013486672202666288 0.012891543461143188 0 -0.00034505318881853107 0.013022864570023775 0 4.7551744732329854e-05 0.013061185659883179 0 -0.00028887313487491694 0.013228843597863461 0 -0.00013486672202666288 0.012891543461143188 0 -0.00034505318881853107 0.013022864570023775 0 4.7551744732329854e-05 0.013061185659883179 0 -0.00034505318881853107 0.013022864570023775 0 -0.00051475182158066735 0.013135237151950349 0 -0.0006338103137367028 0.012881237199044982 0 -0.00034505318881853107 0.013022864570023775 0 -0.00051475182158066735 0.013135237151950349 0 -0.00028887313487491694 0.013228843597863461 0 -0.00042794225758819877 0.01269982618365649 0 -0.00034505318881853107 0.013022864570023775 0 -0.0006338103137367028 0.012881237199044982 0 -0.0006338103137367028 0.012881237199044982 0 -0.00070360841016659946 0.013066021875459584 0 -0.00087762291445148089 0.012834563600987076 0 -0.00051475182158066735 0.013135237151950349 0 -0.00070360841016659946 0.013066021875459584 0 -0.00050939461368788635 0.013360537562035674 0 -0.00051475182158066735 0.013135237151950349 0 -0.0006338103137367028 0.012881237199044982 0 -0.00070360841016659946 0.013066021875459584 0 -0.0010231699243450204 0.014937722186001768 0 -0.00091097082962501819 0.014312295317585285 0 -0.00027698173198688678 0.014371571920098265 0 -0.00091097082962501819 0.014312295317585285 0 -0.00027698173198688678 0.014371571920098265 0 -0.0006219427773937093 0.013712431214270371 0 -0.00047213174643675972 0.01381448750151683 0 -0.00077484703514082911 0.013244499407614177 0 0.00075588449535414427 0.0096914574659568067 0 0.00063195945901587866 0.0093684452687781417 0 0.00089471109581196358 0.0094088850354218934 0 0.00075588449535414427 0.0096914574659568067 0 0.00063195945901587866 0.0093684452687781417 0 0.00054913347791179937 0.0096706032043212386 0 0.00063195945901587866 0.0093684452687781417 0 0.00035471590323326983 0.009540164295216657 0 0.00054913347791179937 0.0096706032043212386 0 0.00063195945901587866 0.0093684452687781417 0 0.00035471590323326983 0.009540164295216657 0 0.00028078761107484346 0.0092554263975135626 0 0.00035471590323326983 0.009540164295216657 0 0.00054913347791179937 0.0096706032043212386 0 0.0002624328226524853 0.00983908540851006 0 0.00054913347791179937 0.0096706032043212386 0 0.00058545209459603931 0.0099083080132890324 0 0.0002624328226524853 0.00983908540851006 0 0.00040685095794589361 0.010111852470663537 0 0.00058545209459603931 0.0099083080132890324 0 0.0002624328226524853 0.00983908540851006 0 0.00077720089031898913 0.010094609994896996 0 0.00040685095794589361 0.010111852470663537 0 0.00058545209459603931 0.0099083080132890324 0 0.00077720089031898913 0.010094609994896996 0 0.00075588449535414427 0.0096914574659568067 0 0.0010575245384354724 0.0097289488107873481 0 0.00048481500834300824 0.011414563359005283 0 0.00043497162041129437 0.011271522869606322 0 0.00060055352277027779 0.011159562884129262 0 0.00077720089031898913 0.010094609994896996 0 0.00075588449535414427 0.0096914574659568067 0 0.00058545209459603931 0.0099083080132890324 0 0.00066620748023736153 0.010536687607338658 0 0.00061396355776800401 0.011363499519101324 0 0.00075588449535414427 0.0096914574659568067 0 0.00054913347791179937 0.0096706032043212386 0 0.00058545209459603931 0.0099083080132890324 0 0.0004423277308074327 0.01158880052934709 0 0.00061396355776800401 0.011363499519101324 0 -0.00011956532090954854 0.012108358871561888 0 -7.7484109301093166e-05 0.012664341489922803 0 0.00038414737467326588 0.01224594026662932 0 0.00019165911588414072 0.011826299243172281 0 -0.00011956532090954854 0.012108358871561888 0 0.00038414737467326588 0.01224594026662932 0 -7.7484109301093166e-05 0.012664341489922803 0 0.00037023423906781334 0.01229754590847862 0 0.00021049778041749118 0.012717085775185322 0 -0.00022317056878373739 0.012962721791896717 0 0.00061396355776800401 0.011363499519101324 0 0.00075588449535414427 0.0096914574659568067 0 0.0010575245384354724 0.0097289488107873481 0 0.00089471109581196358 0.0094088850354218934 0 0.00061396355776800401 0.011363499519101324 0 0.00067617877335435217 0.010936818759670701 0 0.0010575245384354724 0.0097289488107873481 0 0.00089471109581196358 0.0094088850354218934 0 0.001105589679764888 0.0092894269827161653 0 0.0008399854319573808 0.0090595368630826296 0 0.001105589679764888 0.0092894269827161653 0 0.0011034715690916069 0.0089383801945259692 0 0.00089471109581196358 0.0094088850354218934 0 0.0008399854319573808 0.0090595368630826296 0 0.001105589679764888 0.0092894269827161653 0 0.00067617877335435217 0.010936818759670701 0 0.00058606988985078555 0.011033158090367312 0 -7.7484109301093166e-05 0.012664341489922803 0 -0.00013486672202666288 0.012891543461143188 0 0.00021049778041749118 0.012717085775185322 0 -0.00013486672202666288 0.012891543461143188 0 0.00021049778041749118 0.012717085775185322 0 4.7551744732329854e-05 0.013061185659883179 0 0.0008399854319573808 0.0090595368630826296 0 0.0011034715690916069 0.0089383801945259692 0 0.00085200084595618282 0.0088005120981931827 0 0.0008399854319573808 0.0090595368630826296 0 0.00085200084595618282 0.0088005120981931827 0 0.00066599343851614248 0.0087858383896191362 0 0.0008399854319573808 0.0090595368630826296 0 0.00066599343851614248 0.0087858383896191362 0 0.00052288503418898384 0.0089371273974128453 0 0.00063195945901587866 0.0093684452687781417 0 0.0008399854319573808 0.0090595368630826296 0 0.00052288503418898384 0.0089371273974128453 0 0.00063195945901587866 0.0093684452687781417 0 0.00089471109581196358 0.0094088850354218934 0 0.0008399854319573808 0.0090595368630826296 0 0.00052288503418898384 0.0089371273974128453 0 0.00025590455133926547 0.0087417568279470163 0 0.00028078761107484346 0.0092554263975135626 0 0.00063195945901587866 0.0093684452687781417 0 0.00052288503418898384 0.0089371273974128453 0 0.00028078761107484346 0.0092554263975135626 0 0.00052288503418898384 0.0089371273974128453 0 0.00025590455133926547 0.0087417568279470163 0 0.00045523451577200442 0.0085883330981166989 0 0.00066599343851614248 0.0087858383896191362 0 0.00052288503418898384 0.0089371273974128453 0 0.00045523451577200442 0.0085883330981166989 0 0.00025590455133926547 0.0087417568279470163 0 0.00021398972295517672 0.0085679869650081408 0 0.00023824254541896366 0.0085215508794359279 0 0.00025590455133926547 0.0087417568279470163 0 0.00021398972295517672 0.0085679869650081408 0 0.00026148600044587203 0.008542973864797505 0 0.00021229357537750878 0.0085006905492038751 0 0.00021398972295517672 0.0085679869650081408 0 0.00023824254541896366 0.0085215508794359279 0 0.00021229357537750878 0.0085006905492038751 0 0.00021398972295517672 0.0085679869650081408 0 0.00016309752592812702 0.0084515275951110146 0 -0.00016460076206665451 0.0092335910698521859 0 0.00028078761107484346 0.0092554263975135626 0 1.2320103796443878e-05 0.0095864195281248881 0 0.00025590455133926547 0.0087417568279470163 0 -0.00016460076206665451 0.0092335910698521859 0 0.00028078761107484346 0.0092554263975135626 0 0.00024165381976331752 0.0087341285288246723 0 5.6551296039859918e-05 0.0088799934500561443 0 0.00020168230593227505 0.0084282208407708229 0 6.1075163234427637e-05 0.0082228112429977539 0 9.516262599368272e-05 0.0083395627308210894 0 0.00020168230593227505 0.0084282208407708229 0 9.516262599368272e-05 0.0083395627308210894 0 0.00016309752592812702 0.0084515275951110146 0 0.00021229357537750878 0.0085006905492038751 0 0.00020168230593227505 0.0084282208407708229 0 0.00016309752592812702 0.0084515275951110146 0 0.00021229357537750878 0.0085006905492038751 0 0.00023824254541896366 0.0085215508794359279 0 0.00020168230593227505 0.0084282208407708229 0 0.00023824254541896366 0.0085215508794359279 0 0.00020168230593227505 0.0084282208407708229 0 0.00029151902552559375 0.00854300858212312 0 0.00020168230593227505 0.0084282208407708229 0 0.00014798926372152176 0.0084533404771387714 0 6.1075163234427637e-05 0.0082228112429977539 0 0.00014798926372152176 0.0084533404771387714 0 0.00014369041655589988 0.0086384638120147201 0 0.00029151902552559375 0.00854300858212312 0 0.00020168230593227505 0.0084282208407708229 0 0.00014798926372152176 0.0084533404771387714 0 0.00029151902552559375 0.00854300858212312 0 -0.00044137710654536418 0.0096731364005037766 0 -0.00054227375514729757 0.0099716732405893682 0 -0.00042060297634035704 0.010024173659389086 0 -7.04887163588315e-05 0.0091170950319197485 0 -0.00015268787902237936 0.0094048388390947958 0 -0.00044137710654536418 0.0096731364005037766 0 -0.00014092141723079165 0.0099261760798834437 0 -0.00042060297634035704 0.010024173659389086 0 0.00014369041655589988 0.0086384638120147201 0 0.00029151902552559375 0.00854300858212312 0 0.00026209964620659416 0.008861988835621528 0 0.00014369041655589988 0.0086384638120147201 0 0.00026209964620659416 0.008861988835621528 0 -6.8735536742549005e-05 0.0089223134271147406 0 0.00035471590323326983 0.009540164295216657 0 1.2320103796443878e-05 0.0095864195281248881 0 0.0002624328226524853 0.00983908540851006 0 0.00035471590323326983 0.009540164295216657 0 0.00028078761107484346 0.0092554263975135626 0 1.2320103796443878e-05 0.0095864195281248881 0 -0.00044137710654536418 0.0096731364005037766 0 1.2320103796443878e-05 0.0095864195281248881 0 -0.00014092141723079165 0.0099261760798834437 0 5.6551296039859918e-05 0.0088799934500561443 0 -7.04887163588315e-05 0.0091170950319197485 0 -0.00016460076206665451 0.0092335910698521859 0 -0.00044137710654536418 0.0096731364005037766 0 1.2320103796443878e-05 0.0095864195281248881 0 1.2320103796443878e-05 0.0095864195281248881 0 -0.00014092141723079165 0.0099261760798834437 0 0.0002624328226524853 0.00983908540851006 0 -0.00014092141723079165 0.0099261760798834437 0 0.0002624328226524853 0.00983908540851006 0 0.00010898927736453543 0.01024409214941299 0 0.00040685095794589361 0.010111852470663537 0 0.0002624328226524853 0.00983908540851006 0 0.00010898927736453543 0.01024409214941299 0 0.00010898927736453543 0.01024409214941299 0 8.2649816985308602e-05 0.010570626417471701 0 -0.00017278253167498091 0.010230528517573537 0 0.00032645842293024959 0.010721173711053592 0 0.00010898927736453543 0.01024409214941299 0 8.2649816985308602e-05 0.010570626417471701 0 0.00037547663965851829 0.010323307430055727 0 0.00032645842293024959 0.010721173711053592 0 0.00010898927736453543 0.01024409214941299 0 0.00032764215750722081 0.010896309788143033 0 8.2649816985308602e-05 0.010570626417471701 0 -0.00011236785241790006 0.010639446395921594 0 -0.001508221492523294 0.012358543528663243 0 -0.0010732326092861371 0.012259640456179839 0 -1.247406659809671e-06 0.012258736233843617 0 0.00032645842293024959 0.010721173711053592 0 0.00032764215750722081 0.010896309788143033 0 8.2649816985308602e-05 0.010570626417471701 0 -0.00098619017774977005 0.013374437572412331 0 8.9561131434560398e-05 0.011455700405467719 0 8.2649816985308602e-05 0.010570626417471701 0 -0.00011236785241790006 0.010639446395921594 0 -0.00017278253167498091 0.010230528517573537 0 -0.00011236785241790006 0.010639446395921594 0 -0.00017278253167498091 0.010230528517573537 0 -0.00036405733508928568 0.010219865745779438 0 -0.00014092141723079165 0.0099261760798834437 0 0.00010898927736453543 0.01024409214941299 0 -0.00017278253167498091 0.010230528517573537 0 -0.00014092141723079165 0.0099261760798834437 0 -0.00017278253167498091 0.010230528517573537 0 -0.00042060297634035704 0.010024173659389086 0 -0.00042060297634035704 0.010024173659389086 0 -0.00052613367457336497 0.009838497709897304 0 -0.00036405733508928568 0.010219865745779438 0 -0.00017278253167498091 0.010230528517573537 0 -0.00042060297634035704 0.010024173659389086 0 -0.00036405733508928568 0.010219865745779438 0 -0.00054227375514729757 0.0099716732405893682 0 -0.00042060297634035704 0.010024173659389086 0 -0.00052613367457336497 0.009838497709897304 0 -0.00015268787902237936 0.0094048388390947958 0 -0.00017364070406554097 0.0094724871416529827 0 -0.00054227375514729757 0.0099716732405893682 0 -0.00052613367457336497 0.009838497709897304 0 -0.00016475162771602432 0.0094637644765461146 0 -0.00052613367457336497 0.009838497709897304 0 -0.00031986342205035146 0.0094694664134625031 0 -0.00016475162771602432 0.0094637644765461146 0 -0.00064453183835704486 0.0099233670331322806 0 0.00032000333375719519 0.0095408652223338206 0 -0.00058921446420882406 0.0092455704035229406 0 -0.00031986342205035146 0.0094694664134625031 0 -0.00015247181706701639 0.0093552180341623312 0 0.00032000333375719519 0.0095408652223338206 0 0.0035203185379823979 0.0016925939050194579 0 -0.00052613367457336497 0.009838497709897304 0 -0.00058921446420882406 0.0092455704035229406 0 -0.00031986342205035146 0.0094694664134625031 0 -0.00052613367457336497 0.009838497709897304 0 -0.00055840611848190995 0.010465825740247627 0 -0.00036405733508928568 0.010219865745779438 0 -0.00011236785241790006 0.010639446395921594 0 -0.00055840611848190995 0.010465825740247627 0 -0.00036405733508928568 0.010219865745779438 0 8.9561131434560398e-05 0.011455700405467719 0 0.00032000333375719519 0.0095408652223338206 0 0.00032000333375719519 0.0095408652223338206 0 0.0023445715120359711 0.0077993168891724871 0 0.0016585315149585283 0.012179279457876441 0 0.001318220041642418 0.010843369034962431 0 0.00037438671597000235 0.011433073018276452 0 -1.247406659809671e-06 0.012258736233843617 0 0.0016585315149585283 0.012179279457876441 0 0.00037438671597000235 0.011433073018276452 0 0.0030222498082177873 0.0048364994463304571 0 0.0029584862027469436 0.0050174457673044974 0 0.0030953101833760305 0.0050270564735317557 0 0.0030222498082177873 0.0048364994463304571 0 0.0029584862027469436 0.0050174457673044974 0 0.002838362041747468 0.0048117967397043439 0 0.0030944984823524065 0.0052535525465671595 0 0.0029584862027469436 0.0050174457673044974 0 0.0030953101833760305 0.0050270564735317557 0 0.00045111595759957893 0.010094817649590294 0 0.00099288133555969129 0.0094490404331721879 0 0.001318220041642418 0.010843369034962431 0 0.0019887485493149527 0.007386998267788129 0 0.0023445715120359711 0.0077993168891724871 0 0.001318220041642418 0.010843369034962431 0 0.0004661101783955023 0.010790192374645836 0 0.00037438671597000235 0.011433073018276452 0 0.00045111595759957893 0.010094817649590294 0 0.001318220041642418 0.010843369034962431 0 0.0004661101783955023 0.010790192374645836 0 0.00045111595759957893 0.010094817649590294 0 0.0004661101783955023 0.010790192374645836 0 -0.00015185165446696691 0.010662546315854071 0 2.259798136106463e-05 0.0093839538792973333 0 -0.00015185165446696691 0.010662546315854071 0 -0.00054049374731079806 0.010736263473551166 0 0.0004661101783955023 0.010790192374645836 0 -0.00010400775469323688 0.01108615271902621 0 0.00037438671597000235 0.011433073018276452 0 0.0004661101783955023 0.010790192374645836 0 -0.00010400775469323688 0.01108615271902621 0 -0.00015185165446696691 0.010662546315854071 0 -0.00010400775469323688 0.01108615271902621 0 -0.00052095907609507966 0.010739893420257237 0 -0.00040885847398522375 0.011598013847588757 0 -0.00010400775469323688 0.01108615271902621 0 -0.00015185165446696691 0.010662546315854071 0 -0.00052095907609507966 0.010739893420257237 0 -0.0002637334703523623 0.011488066507050631 0 -0.00053342977399841395 0.011850495598200252 0 -0.00037818391513628558 0.01359285757545017 0 -0.0013401051149528262 0.015200211832784747 0 -0.00012581065321081686 0.014974977428867621 0 -0.0015747385670403756 0.016468220346711478 0 -0.00053342977399841395 0.011850495598200252 0 -0.0010061153118771547 0.011861312607996343 0 -0.00053342977399841395 0.011850495598200252 0 -0.0010732326092861371 0.012259640456179839 0 -0.00052095907609507966 0.010739893420257237 0 -0.00040885847398522375 0.011598013847588757 0 -0.0010732326092861371 0.012259640456179839 0 -1.247406659809671e-06 0.012258736233843617 0 -0.00040885847398522375 0.011598013847588757 0 -0.0013672020462366095 0.011388143312402916 0 -0.0010732326092861371 0.012259640456179839 0 -0.00067052132484022675 0.011272145221587496 0 -1.247406659809671e-06 0.012258736233843617 0 -0.00040885847398522375 0.011598013847588757 0 0.00037438671597000235 0.011433073018276452 0 -0.00010400775469323688 0.01108615271902621 0 -0.00040885847398522375 0.011598013847588757 0 0.00037438671597000235 0.011433073018276452 0 0.0042249376808403197 -0.0030632095128409927 0 0.0039109645557767131 -0.0024452634978375564 0 0.0034816367987002424 -0.0036054718333213458 0 0.0042249376808403197 -0.0030632095128409927 0 0.0043394211186583457 -0.0037640877781612977 0 0.0034816367987002424 -0.0036054718333213458 0 0.0042249376808403197 -0.0030632095128409927 0 0.0044299270339831585 -0.0026165797552537662 0 0.0048141781660695051 -0.0030487780462044633 0 0.0042249376808403197 -0.0030632095128409927 0 0.0048141781660695051 -0.0030487780462044633 0 0.0043394211186583457 -0.0037640877781612977 0 0.0037830207960430893 -0.0029449791677743724 0 0.0034200346191749311 -0.0040121799169441016 0 0.0036036922389889453 -0.0036254861913474373 0 0.0033578949883395952 -0.0043470872086203895 0 0.0028142735159635314 -0.0036746178192659388 0 0.0030346533767528711 -0.0029720331319258797 0 0.0036036922389889453 -0.0036254861913474373 0 0.0028142735159635314 -0.0036746178192659388 0 0.0047423432115274956 -0.0019352880966666572 0 0.0039109645557767131 -0.0024452634978375564 0 0.0044299270339831585 -0.0026165797552537662 0 0.0042249376808403197 -0.0030632095128409927 0 0.0039109645557767131 -0.0024452634978375564 0 0.0044299270339831585 -0.0026165797552537662 0 0.0047179232059270373 -0.0014588229760670818 0 0.004795983628757201 -0.0029955984585405809 0 0.0047423432115274956 -0.0019352880966666572 0 0.0044299270339831585 -0.0026165797552537662 0 0.0048141781660695051 -0.0030487780462044633 0 0.0046669650285926538 -0.0011044411022655674 0 0.0055596568479753259 -0.0020366450571442673 0 0.0048141781660695051 -0.0030487780462044633 0 0.0056946610840578902 -0.0010466320976456605 0 0.0067699464163947414 -0.0020906093019254107 0 0.0055596568479753259 -0.0020366450571442673 0 0.0067699464163947414 -0.0020906093019254107 0 0.0055596568479753259 -0.0020366450571442673 0 0.0055460081604013795 -0.0028969140325760313 0 0.0067699464163947414 -0.0020906093019254107 0 0.0055460081604013795 -0.0028969140325760313 0 0.0059328300446074983 -0.0035432353488541414 0 0.0049163979751662857 0.0013827963828458372 0 0.0035203185379823979 0.0016925939050194579 0 0.0055460081604013795 -0.0028969140325760313 0 0.0051314358990045853 -0.0035285045489090823 0 0.0059328300446074983 -0.0035432353488541414 0 0.0048141781660695051 -0.0030487780462044633 0 0.0051314358990045853 -0.0035285045489090823 0 0.0043394211186583457 -0.0037640877781612977 0 0.0055596568479753259 -0.0020366450571442673 0 0.0055460081604013795 -0.0028969140325760313 0 0.0048141781660695051 -0.0030487780462044633 0 0.0055460081604013795 -0.0028969140325760313 0 0.0048141781660695051 -0.0030487780462044633 0 0.0051314358990045853 -0.0035285045489090823 0 0.0051314358990045853 -0.0035285045489090823 0 0.0048723109654843803 -0.0040837835634316422 0 0.0057708661860114766 -0.0035187233179896564 0 0.0051314358990045853 -0.0035285045489090823 0 0.0048723109654843803 -0.0040837835634316422 0 0.0043394211186583457 -0.0037640877781612977 0 0.0048723109654843803 -0.0040837835634316422 0 0.0057708661860114766 -0.0035187233179896564 0 0.0051040987561729321 -0.0047139197788037433 0 -0.00031986342205035146 0.0094694664134625031 0 -0.00015247181706701639 0.0093552180341623312 0 -0.00016475162771602432 0.0094637644765461146 0 0.0035203185379823979 0.0016925939050194579 0 0.0023580252706347431 0.0025062595260095582 0 -0.00015247181706701639 0.0093552180341623312 0 -0.00016475162771602432 0.0094637644765461146 0 -0.00030815279459054431 0.009343370718787946 0 0.0058324113676099971 -0.0023399147592135083 0 0.0035203185379823979 0.0016925939050194579 0 0.00026209964620659416 0.008861988835621528 0 -0.00016475162771602432 0.0094637644765461146 0 -6.8735536742549005e-05 0.0089223134271147406 0 -0.00016475162771602432 0.0094637644765461146 0 -0.00030815279459054431 0.009343370718787946 0 -6.8735536742549005e-05 0.0089223134271147406 0 0.0048723109654843803 -0.0040837835634316422 0 0.0051040987561729321 -0.0047139197788037433 0 0.0041115059624751453 -0.0047996131050863228 0 0.0051040987561729321 -0.0047139197788037433 0 0.0041115059624751453 -0.0047996131050863228 0 0.0044840285025973953 -0.0057703150770338427 0 0.0041115059624751453 -0.0047996131050863228 0 0.0043394211186583457 -0.0037640877781612977 0 0.0034816367987002424 -0.0036054718333213458 0 0.0048723109654843803 -0.0040837835634316422 0 0.0041115059624751453 -0.0047996131050863228 0 0.0043394211186583457 -0.0037640877781612977 0 0.0034200346191749311 -0.0040121799169441016 0 0.0031698294844286819 -0.0048954375112271109 0 0.0041115059624751453 -0.0047996131050863228 0 0.0034816367987002424 -0.0036054718333213458 0 0.0031617508709783195 -0.0049810719081462848 0 0.0041115059624751453 -0.0047996131050863228 0 0.0031617508709783195 -0.0049810719081462848 0 0.0033323683904561176 -0.0060026403324030739 0 0.0041115059624751453 -0.0047996131050863228 0 0.0044840285025973953 -0.0057703150770338427 0 0.0033323683904561176 -0.0060026403324030739 0 0.0044840285025973953 -0.0057703150770338427 0 0.0033323683904561176 -0.0060026403324030739 0 0.0038700167961904014 -0.0067750537710375355 0 -0.00058664190763065862 0.008637730803654391 0 -6.2896247147557901e-05 0.008001944913108688 0 -0.0010385840933204008 0.0079385651066711232 0 0.0019391391323171677 0.0014015299152286471 0 0.0014203035800990306 0.00060695930601451658 0 0.0033323683904561176 -0.0060026403324030739 0 0.0038700167961904014 -0.0067750537710375355 0 0.0032221197225490001 -0.0070100700294111161 0 0.00014369041655589988 0.0086384638120147201 0 -6.8735536742549005e-05 0.0089223134271147406 0 -8.7295368019069887e-05 0.0084485680627301978 0 -0.00030815279459054431 0.009343370718787946 0 -0.00058664190763065862 0.008637730803654391 0 -6.8735536742549005e-05 0.0089223134271147406 0 -0.00058664190763065862 0.008637730803654391 0 -6.8735536742549005e-05 0.0089223134271147406 0 -8.7295368019069887e-05 0.0084485680627301978 0 0.0023580252706347431 0.0025062595260095582 0 0.0019391391323171677 0.0014015299152286471 0 -0.00058664190763065862 0.008637730803654391 0 -8.7295368019069887e-05 0.0084485680627301978 0 -6.2896247147557901e-05 0.008001944913108688 0 0.00014798926372152176 0.0084533404771387714 0 0.00014369041655589988 0.0086384638120147201 0 -8.7295368019069887e-05 0.0084485680627301978 0 -8.7295368019069887e-05 0.0084485680627301978 0 6.1075163234427637e-05 0.0082228112429977539 0 -6.2896247147557901e-05 0.008001944913108688 0 0.00014798926372152176 0.0084533404771387714 0 -8.7295368019069887e-05 0.0084485680627301978 0 6.1075163234427637e-05 0.0082228112429977539 0 -1.2749566253908596e-05 0.0079718363923035971 0 0.00017673032581868602 0.0074627983634250536 0 6.1075163234427637e-05 0.0082228112429977539 0 -6.2896247147557901e-05 0.008001944913108688 0 0.00011096244342924779 0.0082746633980020426 0 -6.2896247147557901e-05 0.008001944913108688 0 -0.00060676565536496032 0.0071628225905196134 0 0.00028951376701765819 0.0066472394522205684 0 6.1075163234427637e-05 0.0082228112429977539 0 0.00011096244342924779 0.0082746633980020426 0 9.516262599368272e-05 0.0083395627308210894 0 0.0038700167961904014 -0.0067750537710375355 0 0.0031562562207354413 -0.0074576681477465786 0 0.0032221197225490001 -0.0070100700294111161 0 -6.2896247147557901e-05 0.008001944913108688 0 -0.0010385840933204008 0.0079385651066711232 0 -0.00060676565536496032 0.0071628225905196134 0 -0.00060676565536496032 0.0071628225905196134 0 -0.0016419998398726837 0.0067894862311097667 0 -0.00041589590671108013 0.0062973104099868149 0 -0.0010385840933204008 0.0079385651066711232 0 -0.00060676565536496032 0.0071628225905196134 0 -0.0016419998398726837 0.0067894862311097667 0 0.0014203035800990306 0.00060695930601451658 0 0.00074232885143681742 -0.00037769928552373389 0 -0.0016419998398726837 0.0067894862311097667 0 -0.0011442557298113876 0.0056599820766846986 0 -0.0021101923444702534 0.0056140731894505991 0 -0.0016419998398726837 0.0067894862311097667 0 -0.00041589590671108013 0.0062973104099868149 0 -0.0011442557298113876 0.0056599820766846986 0 -0.0011442557298113876 0.0056599820766846986 0 -0.00074480615714631407 0.0050606201194947345 0 -0.00023192292653457212 0.0055448505708118375 0 -0.00041589590671108013 0.0062973104099868149 0 -0.0011442557298113876 0.0056599820766846986 0 -0.00023192292653457212 0.0055448505708118375 0 -0.00074480615714631407 0.0050606201194947345 0 -0.00017561713883996511 0.0049589922166726691 0 -0.00023192292653457212 0.0055448505708118375 0 -0.0011442557298113876 0.0056599820766846986 0 -0.0014801208745765728 0.0047465272497214678 0 -0.00074480615714631407 0.0050606201194947345 0 -0.0011442557298113876 0.0056599820766846986 0 -0.0014801208745765728 0.0047465272497214678 0 -0.0021101923444702534 0.0056140731894505991 0 -0.0014801208745765728 0.0047465272497214678 0 -0.00074480615714631407 0.0050606201194947345 0 -0.00064995938914521277 0.0044239968625665732 0 -0.00074480615714631407 0.0050606201194947345 0 -0.00064995938914521277 0.0044239968625665732 0 -0.00017561713883996511 0.0049589922166726691 0 -0.00064995938914521277 0.0044239968625665732 0 -0.00073541109304747678 0.0038500100147782789 0 -0.0012428549335553899 0.0040480533277559259 0 -0.00064995938914521277 0.0044239968625665732 0 -0.00073541109304747678 0.0038500100147782789 0 -0.00017528658281816171 0.004082310289377185 0 -0.00073541109304747678 0.0038500100147782789 0 -0.00017528658281816171 0.004082310289377185 0 -0.00029930224730868144 0.0035726819729571938 0 -0.0014801208745765728 0.0047465272497214678 0 -0.0012428549335553899 0.0040480533277559259 0 -0.0019198626745139846 0.0039563846632281489 0 -0.00073541109304747678 0.0038500100147782789 0 -0.0012428549335553899 0.0040480533277559259 0 -0.0010675882740226882 0.0036642525368348251 0 -0.0014801208745765728 0.0047465272497214678 0 -0.00064995938914521277 0.0044239968625665732 0 -0.0012428549335553899 0.0040480533277559259 0 0.00045864291561234136 0.0038694016498067377 0 0.00029692515803785236 0.004042885580285119 0 0.00039334830409979668 0.0044863312656730873 0 5.8132559801506445e-05 0.0051865733075225845 0 0.0002148214106431382 0.0061281691005543489 0 0.00010459944778727863 0.0068701023141314399 0 8.6791277251483141e-05 0.0070381247758961761 0 0.00039555197308318381 0.0070719495252673879 0 0.00045864291561234136 0.0038694016498067377 0 0.00029692515803785236 0.004042885580285119 0 0.00037257515457339666 0.0038395481773667549 0 0.00024790393514604865 0.004175925707055269 0 7.433085901833303e-05 0.0046453057730530762 0 5.8132559801506445e-05 0.0051865733075225845 0 7.433085901833303e-05 0.0046453057730530762 0 -0.00064995938914521277 0.0044239968625665732 0 -0.00017528658281816171 0.004082310289377185 0 0.00039334830409979668 0.0044863312656730873 0 0.00029692515803785236 0.004042885580285119 0 0.00037581486758266037 0.0038301810497600969 0 -0.00029930224730868144 0.0035726819729571938 0 0.00029692515803785236 0.004042885580285119 0 -0.00017528658281816171 0.004082310289377185 0 -0.00029930224730868144 0.0035726819729571938 0 0.00029692515803785236 0.004042885580285119 0 -0.00017528658281816171 0.004082310289377185 0 0.00039334830409979668 0.0044863312656730873 0 -0.00064995938914521277 0.0044239968625665732 0 -0.00017561713883996511 0.0049589922166726691 0 0.00057580328562053997 0.0044898113289685701 0 0.00057580328562053997 0.0044898113289685701 0 0.00013941929869468327 0.0051711996834796917 0 0.00044591819278731016 0.0055178236389689418 0 -0.00049270105804672683 0.0040372456776983845 0 0.0002148214106431382 0.0061281691005543489 0 -0.00017561713883996511 0.0049589922166726691 0 0.00057580328562053997 0.0044898113289685701 0 0.00013941929869468327 0.0051711996834796917 0 0.00027110837541726411 0.0084060840193422096 0 0.0001612925628336468 0.0083056048352008367 0 0.00014857211214007362 0.0084033933223660907 0 0.0001612925628336468 0.0083056048352008367 0 0.00014857211214007362 0.0084033933223660907 0 0.00014146117286332471 0.0084218175647847639 0 0.0002148214106431382 0.0061281691005543489 0 0.00029967197834815748 0.0070192013935356 0 0.00014857211214007362 0.0084033933223660907 0 0.00012397723991468393 0.0083911607168666441 0 0.00010931469563398048 0.0083910838086328106 0 0.00027110837541726411 0.0084060840193422096 0 0.00014857211214007362 0.0084033933223660907 0 0.00040899753168749018 0.008539901821929834 0 0.00016162782606807916 0.0084153499904728261 0 0.00026782808658017755 0.0084638570028212519 0 0.00014857211214007362 0.0084033933223660907 0 0.00012397723991468393 0.0083911607168666441 0 0.00014146117286332471 0.0084218175647847639 0 0.00012397723991468393 0.0083911607168666441 0 0.00014146117286332471 0.0084218175647847639 0 0.00011075585055151785 0.0083561717938361608 0 0.00012397723991468393 0.0083911607168666441 0 0.00011075585055151785 0.0083561717938361608 0 0.00010930306741970436 0.0083784905383271335 0 -0.00041589590671108013 0.0062973104099868149 0 0.00044591819278731016 0.0055178236389689418 0 -0.00023192292653457212 0.0055448505708118375 0 -0.00017561713883996511 0.0049589922166726691 0 0.00013941929869468327 0.0051711996834796917 0 -0.00023192292653457212 0.0055448505708118375 0 0.00013941929869468327 0.0051711996834796917 0 0.00044591819278731016 0.0055178236389689418 0 -0.00023192292653457212 0.0055448505708118375 0 -0.00060676565536496032 0.0071628225905196134 0 -0.00041589590671108013 0.0062973104099868149 0 0.00028951376701765819 0.0066472394522205684 0 0.00029967197834815748 0.0070192013935356 0 0.00017673032581868602 0.0074627983634250536 0 -0.00041589590671108013 0.0062973104099868149 0 0.00044591819278731016 0.0055178236389689418 0 0.00028951376701765819 0.0066472394522205684 0 0.00011096244342924779 0.0082746633980020426 0 0.00011075585055151785 0.0083561717938361608 0 9.516262599368272e-05 0.0083395627308210894 0 0.00014146117286332471 0.0084218175647847639 0 0.00011096244342924779 0.0082746633980020426 0 0.00011075585055151785 0.0083561717938361608 0 0.00011075585055151785 0.0083561717938361608 0 9.516262599368272e-05 0.0083395627308210894 0 0.00010930306741970436 0.0083784905383271335 0 9.516262599368272e-05 0.0083395627308210894 0 0.00011777532407857767 0.0083969798142915948 0 0.00016309752592812702 0.0084515275951110146 0 9.516262599368272e-05 0.0083395627308210894 0 0.00010930306741970436 0.0083784905383271335 0 0.00011777532407857767 0.0083969798142915948 0 0.00016309752592812702 0.0084515275951110146 0 0.00014769750420490097 0.008422418809425139 0 0.00019356107031991913 0.0084733654143663763 0 0.00011777532407857767 0.0083969798142915948 0 0.00016309752592812702 0.0084515275951110146 0 0.00014769750420490097 0.008422418809425139 0 0.00011777532407857767 0.0083969798142915948 0 0.00014769750420490097 0.008422418809425139 0 0.00010931469563398048 0.0083910838086328106 0 0.00026782808658017755 0.0084638570028212519 0 0.00049129057009440508 0.0085194957724730475 0 0.00014769750420490097 0.008422418809425139 0 0.00010931469563398048 0.0083910838086328106 0 0.00018570262339286952 0.0083993848114160118 0 0.00012397723991468393 0.0083911607168666441 0 0.00010930306741970436 0.0083784905383271335 0 0.00010931469563398048 0.0083910838086328106 0 0.00010930306741970436 0.0083784905383271335 0 0.00011777532407857767 0.0083969798142915948 0 0.00010931469563398048 0.0083910838086328106 0 0.00026148600044587203 0.008542973864797505 0 0.00033099008160715753 0.0084893146592253232 0 0.00045523451577200442 0.0085883330981166989 0 0.00025590455133926547 0.0087417568279470163 0 0.00026148600044587203 0.008542973864797505 0 0.00045523451577200442 0.0085883330981166989 0 0.00021398972295517672 0.0085679869650081408 0 0.00026148600044587203 0.008542973864797505 0 0.00019356107031991913 0.0084733654143663763 0 0.00021398972295517672 0.0085679869650081408 0 0.00016309752592812702 0.0084515275951110146 0 0.00019356107031991913 0.0084733654143663763 0 0.00026148600044587203 0.008542973864797505 0 0.00019356107031991913 0.0084733654143663763 0 0.00025773080412564505 0.0084578257979517346 0 0.00014769750420490097 0.008422418809425139 0 0.00019356107031991913 0.0084733654143663763 0 0.00018570262339286952 0.0083993848114160118 0 0.00019356107031991913 0.0084733654143663763 0 0.00018570262339286952 0.0083993848114160118 0 0.00025773080412564505 0.0084578257979517346 0 0.00079136636466515566 0.0086438556400788569 0 0.00098235475171503934 0.0087069065809573 0 0.00086594385477623144 0.0086390620262114404 0 0.00018570262339286952 0.0083993848114160118 0 0.00025773080412564505 0.0084578257979517346 0 0.00037790626320118959 0.0084017983652986475 0 0.00049129057009440508 0.0085194957724730475 0 0.00067988812995337198 0.0085545540144370477 0 0.00026148600044587203 0.008542973864797505 0 0.00025773080412564505 0.0084578257979517346 0 0.00033099008160715753 0.0084893146592253232 0 0.00025773080412564505 0.0084578257979517346 0 0.00037790626320118959 0.0084017983652986475 0 0.00033099008160715753 0.0084893146592253232 0 0.00096565174681581935 0.0087263676892906303 0 0.00093032860614899462 0.0086753534401474066 0 0.00090177181568808858 0.0086414151265308443 0 0.00097366618803152198 0.0086865658454445133 0 0.00093295900570352286 0.0081894035095983649 0 0.00098235475171503934 0.0087069065809573 0 0.00093032860614899462 0.0086753534401474066 0 0.00086594385477623144 0.0086390620262114404 0 0.00098235475171503934 0.0087069065809573 0 0.00096565174681581935 0.0087263676892906303 0 0.00093032860614899462 0.0086753534401474066 0 0.00093032860614899462 0.0086753534401474066 0 0.00090177181568808858 0.0086414151265308443 0 0.00086594385477623144 0.0086390620262114404 0 0.00079136636466515566 0.0086438556400788569 0 0.00090073484467572611 0.0084650766355343424 0 0.00047795614636061609 0.0083468932106320944 0 0.00079136636466515566 0.0086438556400788569 0 0.00090073484467572611 0.0084650766355343424 0 0.00086594385477623144 0.0086390620262114404 0 0.00093295900570352286 0.0081894035095983649 0 0.00087533790465875384 0.0086744594156999005 0 0.00070781037153090989 0.0071027048815982515 0 0.00051371624916742606 0.0069082727768659483 0 0.00072743514934173236 0.0068753021903213115 0 0.00093295900570352286 0.0081894035095983649 0 0.00087397756483220961 0.0078104031573030391 0 0.0010219009033616438 0.0087378430590779755 0 0.00096776847901428314 0.0087983627919779473 0 0.00099310087916573415 0.0088133677313103048 0 0.00096565174681581935 0.0087263676892906303 0 0.0010219009033616438 0.0087378430590779755 0 0.00096776847901428314 0.0087983627919779473 0 0.00027110837541726411 0.0084060840193422096 0 0.00040899753168749018 0.008539901821929834 0 0.00047795614636061609 0.0083468932106320944 0 0.0002148214106431382 0.0061281691005543489 0 0.00039138117100853117 0.007869058262364349 0 0.00027110837541726411 0.0084060840193422096 0 0.0001612925628336468 0.0083056048352008367 0 0.00047795614636061609 0.0083468932106320944 0 0.00040899753168749018 0.008539901821929834 0 0.00079136636466515566 0.0086438556400788569 0 0.00047795614636061609 0.0083468932106320944 0 0.00093295900570352286 0.0081894035095983649 0 0.00039138117100853117 0.007869058262364349 0 0.00070781037153090989 0.0071027048815982515 0 0.00039555197308318381 0.0070719495252673879 0 0.00051371624916742606 0.0069082727768659483 0 0.00039555197308318381 0.0070719495252673879 0 0.00051371624916742606 0.0069082727768659483 0 0.00029239627979038649 0.0068229314338942356 0 0.00010459944778727863 0.0068701023141314399 0 0.00039555197308318381 0.0070719495252673879 0 0.00029239627979038649 0.0068229314338942356 0 0.00029239627979038649 0.0068229314338942356 0 0.00044709884606878192 0.006673168078839312 0 0.00014530224727127023 0.006684861306276089 0 0.00051371624916742606 0.0069082727768659483 0 0.00029239627979038649 0.0068229314338942356 0 0.00044709884606878192 0.006673168078839312 0 0.00019989438684852893 0.0065865200985212877 0 1.4643742574948846e-05 0.0049046902218763755 0 1.9407527333606105e-05 0.0063625440060716522 0 9.0274350690165231e-05 0.0064323207305083631 0 0.00012821668138573736 0.0063289232740859928 0 0.00096776847901428314 0.0087983627919779473 0 0.00099310087916573415 0.0088133677313103048 0 0.0009578913607481617 0.0088352541021374069 0 0.00099310087916573415 0.0088133677313103048 0 0.0009578913607481617 0.0088352541021374069 0 0.00095725998360387165 0.0088395471262640354 0 0.00087397756483220961 0.0078104031573030391 0 0.0005916065140735995 0.0076299656021766729 0 0.00051371624916742606 0.0069082727768659483 0 0.00044709884606878192 0.006673168078839312 0 0.00072743514934173236 0.0068753021903213115 0 0.00044709884606878192 0.006673168078839312 0 0.00072743514934173236 0.0068753021903213115 0 0.00074645970997495707 0.0066580606038637415 0 0.00019989438684852893 0.0065865200985212877 0 0.0005916065140735995 0.0076299656021766729 0 1.9407527333606105e-05 0.0063625440060716522 0 -7.7257767816272946e-05 0.0063934971597341128 0 -6.3924796134194336e-06 0.0064557581421106494 0 0.00088733753308646341 0.008836597842098429 0 0.00093658571675671212 0.0088360390612632726 0 0.00092557448695929241 0.0087926877426376619 0 0.0009578913607481617 0.0088352541021374069 0 0.00093658571675671212 0.0088360390612632726 0 0.000948678993969904 0.0088429647020332285 0 0.0009578913607481617 0.0088352541021374069 0 0.00095725998360387165 0.0088395471262640354 0 0.00093658571675671212 0.0088360390612632726 0 0.0005916065140735995 0.0076299656021766729 0 0.00089123568016531349 0.0083116046934399428 0 0.00092557448695929241 0.0087926877426376619 0 0.00087813843294092377 0.0087277085735201695 0 0.00096682117176881985 0.0087371904942370529 0 0.00088733753308646341 0.008836597842098429 0 0.00092557448695929241 0.0087926877426376619 0 0.00087813843294092377 0.0087277085735201695 0 0.0005916065140735995 0.0076299656021766729 0 0.00036225113193727546 0.0074974903660909187 0 -7.7257767816272946e-05 0.0063934971597341128 0 -8.8552133765462711e-05 0.0064815058625982674 0 -6.3924796134194336e-06 0.0064557581421106494 0 -8.8552133765462711e-05 0.0064815058625982674 0 -6.0068042529040011e-05 0.0065678247348781487 0 -2.3030080289205424e-05 0.0065396257705743095 0 -8.8552133765462711e-05 0.0064815058625982674 0 -6.3924796134194336e-06 0.0064557581421106494 0 -2.3030080289205424e-05 0.0065396257705743095 0 0.00036225113193727546 0.0074974903660909187 0 0.00057143776842879103 0.008086175386528862 0 0.0011409840913761907 0.0094439315928945451 0 0.00057143776842879103 0.008086175386528862 0 0.00087813843294092377 0.0087277085735201695 0 0.00096682117176881985 0.0087371904942370529 0 0.00088460761262056835 0.0085716034078090544 0 1.9407527333606105e-05 0.0063625440060716522 0 9.0274350690165231e-05 0.0064323207305083631 0 -6.3924796134194336e-06 0.0064557581421106494 0 -6.3924796134194336e-06 0.0064557581421106494 0 4.8851536286378062e-05 0.0065235825446671274 0 -2.3030080289205424e-05 0.0065396257705743095 0 -0.00022700348567417528 0.0041804974627698208 0 -0.00032790446770717698 0.0041452441930552265 0 -0.00010004310677258118 0.0037700210067216676 0 -0.00032790446770717698 0.0041452441930552265 0 -0.00026813368477312578 0.003706989314333243 0 -0.00010004310677258118 0.0037700210067216676 0 9.0274350690165231e-05 0.0064323207305083631 0 -6.3924796134194336e-06 0.0064557581421106494 0 4.8851536286378062e-05 0.0065235825446671274 0 -0.00010568830094418579 0.0054317948159647708 0 -1.8697293302095045e-05 0.0051207477520044883 0 -0.00013675744019561308 0.003013282645760825 0 -0.00012356728166063564 0.0028161431137049059 0 -5.8708537601574837e-05 0.002116769282272194 0 -9.3327727870822611e-05 0.0019210950045311739 0 3.1498569836275872e-05 0.00179238648907565 0 -5.8708537601574837e-05 0.002116769282272194 0 8.2959134542376836e-05 0.0023478932484309713 0 3.1498569836275872e-05 0.00179238648907565 0 -5.8708537601574837e-05 0.002116769282272194 0 -0.00024276651162841598 0.002012156112476017 0 -9.3327727870822611e-05 0.0019210950045311739 0 -5.8708537601574837e-05 0.002116769282272194 0 -0.00021611702200746366 0.0023020351395750156 0 -0.00024276651162841598 0.002012156112476017 0 -5.8708537601574837e-05 0.002116769282272194 0 8.2959134542376836e-05 0.0023478932484309713 0 -6.9949049578804499e-05 0.0022881256901836869 0 -5.8708537601574837e-05 0.002116769282272194 0 -6.9949049578804499e-05 0.0022881256901836869 0 -0.00021611702200746366 0.0023020351395750156 0 -0.00022700348567417528 0.0041804974627698208 0 -0.00032790446770717698 0.0041452441930552265 0 -0.00036557966497088981 0.0046270886673883153 0 8.2959134542376836e-05 0.0023478932484309713 0 -6.9949049578804499e-05 0.0022881256901836869 0 -0.00011328356912124325 0.0024534175248238756 0 -6.9949049578804499e-05 0.0022881256901836869 0 -0.00011328356912124325 0.0024534175248238756 0 -0.00021611702200746366 0.0023020351395750156 0 8.2959134542376836e-05 0.0023478932484309713 0 -0.00011328356912124325 0.0024534175248238756 0 -0.00012471607607805442 0.0027036149156736424 0 -0.00031827305962075711 0.0026072902271497746 0 -0.00045349050468542558 0.0023925161835779947 0 -0.00068072652549408161 0.0025824110986697475 0 -0.00011328356912124325 0.0024534175248238756 0 -0.00031827305962075711 0.0026072902271497746 0 -0.00012471607607805442 0.0027036149156736424 0 -0.00011328356912124325 0.0024534175248238756 0 -0.00031827305962075711 0.0026072902271497746 0 -0.00021611702200746366 0.0023020351395750156 0 -0.00031827305962075711 0.0026072902271497746 0 -0.00021611702200746366 0.0023020351395750156 0 -0.00045349050468542558 0.0023925161835779947 0 -0.00045349050468542558 0.0023925161835779947 0 -0.0004193065614008616 0.002196169714655789 0 -0.00065542331616963889 0.002272139040920107 0 -0.00021611702200746366 0.0023020351395750156 0 -0.00045349050468542558 0.0023925161835779947 0 -0.0004193065614008616 0.002196169714655789 0 -0.00021611702200746366 0.0023020351395750156 0 -0.0004193065614008616 0.002196169714655789 0 -0.00024276651162841598 0.002012156112476017 0 -0.00024276651162841598 0.002012156112476017 0 -0.00053637191712894202 0.0020120763556871163 0 -0.0003406722828634245 0.0018255889838062556 0 -0.0004193065614008616 0.002196169714655789 0 -0.00024276651162841598 0.002012156112476017 0 -0.00053637191712894202 0.0020120763556871163 0 -0.00053637191712894202 0.0020120763556871163 0 -0.0009039555063613461 0.0020322524229748865 0 -0.00072826574895675628 0.0017162887154178626 0 -0.0009039555063613461 0.0020322524229748865 0 -0.00096540626363228054 0.0023202973691740644 0 -0.00065542331616963889 0.002272139040920107 0 -0.0004193065614008616 0.002196169714655789 0 -0.00053637191712894202 0.0020120763556871163 0 -0.00065542331616963889 0.002272139040920107 0 -0.00053637191712894202 0.0020120763556871163 0 -0.0009039555063613461 0.0020322524229748865 0 -0.00065542331616963889 0.002272139040920107 0 -0.0009039555063613461 0.0020322524229748865 0 -0.0012257041639768492 0.0021494657773525371 0 -0.0013442987619419321 0.0017382898562848732 0 -0.0009039555063613461 0.0020322524229748865 0 -0.0012257041639768492 0.0021494657773525371 0 -0.00096540626363228054 0.0023202973691740644 0 -0.00096540626363228054 0.0023202973691740644 0 -0.0010666892770402248 0.0025897159745213155 0 -0.0014142811468463466 0.0024103573002685953 0 -0.0012257041639768492 0.0021494657773525371 0 -0.00096540626363228054 0.0023202973691740644 0 -0.0014142811468463466 0.0024103573002685953 0 -0.00045349050468542558 0.0023925161835779947 0 -0.00065542331616963889 0.002272139040920107 0 -0.00068072652549408161 0.0025824110986697475 0 -0.00096540626363228054 0.0023202973691740644 0 -0.00065542331616963889 0.002272139040920107 0 -0.00068072652549408161 0.0025824110986697475 0 -0.00096540626363228054 0.0023202973691740644 0 -0.0010666892770402248 0.0025897159745213155 0 -0.00068072652549408161 0.0025824110986697475 0 -0.0008852358278200167 0.0028213642628603561 0 -0.00093361887148615428 0.0031083166142117508 0 -0.00045367509001637116 0.0030421474491657764 0 -0.00068072652549408161 0.0025824110986697475 0 -0.0008852358278200167 0.0028213642628603561 0 -0.00045367509001637116 0.0030421474491657764 0 -0.0010666892770402248 0.0025897159745213155 0 -0.00068072652549408161 0.0025824110986697475 0 -0.0008852358278200167 0.0028213642628603561 0 -0.00094791009902308904 0.0035365243931473572 0 -0.0016808226465490886 0.0029277482177807231 0 -0.0008852358278200167 0.0028213642628603561 0 -0.00093361887148615428 0.0031083166142117508 0 -0.0015181556182766098 0.0029223409616326388 0 -0.0010666892770402248 0.0025897159745213155 0 -0.0008852358278200167 0.0028213642628603561 0 -0.0015181556182766098 0.0029223409616326388 0 -0.0011746255173815494 0.0033432258649356023 0 -0.0015414416036527037 0.0035704131989093158 0 -0.0017886784915104059 0.0030390545352856164 0 -0.0011746255173815494 0.0033432258649356023 0 -0.00099668403450658971 0.0033249528654505957 0 -0.0017886784915104059 0.0030390545352856164 0 -0.0011746255173815494 0.0033432258649356023 0 -0.00097874355573417679 0.003320727217492749 0 -0.0010675882740226882 0.0036642525368348251 0 -0.0010382064929840176 0.0034988967106754872 0 -0.00094791009902308904 0.0035365243931473572 0 -0.0012428549335553899 0.0040480533277559259 0 -0.0010675882740226882 0.0036642525368348251 0 -0.0015414416036527037 0.0035704131989093158 0 -0.0011746255173815494 0.0033432258649356023 0 -0.0010675882740226882 0.0036642525368348251 0 -0.0015414416036527037 0.0035704131989093158 0 -0.00084914913353068282 0.0041825078394236949 0 -0.0004681215661940367 0.0043277837514701456 0 -0.00040882193384207574 0.0041478775208270303 0 -0.00073541109304747678 0.0038500100147782789 0 -0.00097874355573417679 0.003320727217492749 0 -0.00029930224730868144 0.0035726819729571938 0 -0.00094791009902308904 0.0035365243931473572 0 -0.00038309781066703935 0.003945315247091288 0 -0.00094791009902308904 0.0035365243931473572 0 -0.00040155871551459369 0.0035221578584444793 0 -0.00073541109304747678 0.0038500100147782789 0 -0.00097874355573417679 0.003320727217492749 0 -0.0010675882740226882 0.0036642525368348251 0 -0.00040882193384207574 0.0041478775208270303 0 -0.00018866666434985663 0.0042466496203667579 0 3.4214425036367133e-05 0.0041126722422306543 0 -0.00040155871551459369 0.0035221578584444793 0 1.4643742574948846e-05 0.0049046902218763755 0 7.433085901833303e-05 0.0046453057730530762 0 -0.00038309781066703935 0.003945315247091288 0 -9.5954484140248192e-05 0.0044649849937893589 0 -0.0004681215661940367 0.0043277837514701456 0 -0.00018866666434985663 0.0042466496203667579 0 -0.0004681215661940367 0.0043277837514701456 0 -0.00040882193384207574 0.0041478775208270303 0 -0.00018866666434985663 0.0042466496203667579 0 0.00010459944778727863 0.0068701023141314399 0 0.00029239627979038649 0.0068229314338942356 0 0.0001323457459596258 0.0067197262586512659 0 -2.8573318964247239e-05 0.0048655932729090657 0 4.6709886498547519e-05 0.0048922211035435769 0 -0.00011907782757678203 0.0053391042971152975 0 5.8132559801506445e-05 0.0051865733075225845 0 -5.7375248964302576e-05 0.0053710439503376244 0 -9.5954484140248192e-05 0.0044649849937893589 0 -0.00018866666434985663 0.0042466496203667579 0 8.0754212089117129e-06 0.0041812799111017734 0 7.433085901833303e-05 0.0046453057730530762 0 -5.7375248964302576e-05 0.0053710439503376244 0 0.00029239627979038649 0.0068229314338942356 0 0.0001323457459596258 0.0067197262586512659 0 0.00014530224727127023 0.006684861306276089 0 -0.00018866666434985663 0.0042466496203667579 0 8.0754212089117129e-06 0.0041812799111017734 0 3.4214425036367133e-05 0.0041126722422306543 0 -5.7375248964302576e-05 0.0053710439503376244 0 1.4643742574948846e-05 0.0049046902218763755 0 -0.00013675744019561308 0.003013282645760825 0 1.4643742574948846e-05 0.0049046902218763755 0 8.2959134542376836e-05 0.0023478932484309713 0 3.0493572128052736e-05 0.0029942610502039645 0 -0.00012471607607805442 0.0027036149156736424 0 -0.00010568830094418579 0.0054317948159647708 0 1.4643742574948846e-05 0.0049046902218763755 0 -0.00045367509001637116 0.0030421474491657764 0 3.0493572128052736e-05 0.0029942610502039645 0 -0.00012471607607805442 0.0027036149156736424 0 -0.00031827305962075711 0.0026072902271497746 0 -0.00045367509001637116 0.0030421474491657764 0 -0.00012471607607805442 0.0027036149156736424 0 -0.00031827305962075711 0.0026072902271497746 0 -0.00068072652549408161 0.0025824110986697475 0 -0.00045367509001637116 0.0030421474491657764 0 -0.00073682441754448311 0.015805162056808236 0 -0.00082147800354110637 0.015606902121691324 0 -0.0010108303400601095 0.015647046965542758 0 -0.00073682441754448311 0.015805162056808236 0 -0.00065169862334247457 0.015540187834984247 0 -0.00082147800354110637 0.015606902121691324 0 -0.0010247530993238241 0.015800193040356465 0 -0.00073682441754448311 0.015805162056808236 0 -0.0010108303400601095 0.015647046965542758 0 -0.00030094919114591312 0.014186534136691428 0 -0.00032151491963649289 0.013768595342496777 0 0.00041001833772057146 0.011179236553439975 0 0.00014658053465757027 0.011103690527794882 0 0.0002928542820891668 0.010937818639094352 0 -0.00073682441754448311 0.015805162056808236 0 -0.00046495882036824921 0.015676757511229981 0 -0.00028633383477154946 0.015834397964060127 0 -0.00032151491963649289 0.013768595342496777 0 -0.00014208704364458301 0.011500820705832053 0 -0.00073682441754448311 0.015805162056808236 0 -0.00046495882036824921 0.015676757511229981 0 -0.00065169862334247457 0.015540187834984247 0 -0.00046495882036824921 0.015676757511229981 0 -0.00065169862334247457 0.015540187834984247 0 -0.00038336033150223882 0.015380100650878572 0 -0.00065169862334247457 0.015540187834984247 0 -0.00064026423607288897 0.015255444673505821 0 -0.00038336033150223882 0.015380100650878572 0 -0.00065169862334247457 0.015540187834984247 0 -0.00089248819939761017 0.015424544705133651 0 -0.00064026423607288897 0.015255444673505821 0 -0.00065169862334247457 0.015540187834984247 0 -0.00082147800354110637 0.015606902121691324 0 -0.00089248819939761017 0.015424544705133651 0 -0.00082147800354110637 0.015606902121691324 0 -0.0010108303400601095 0.015647046965542758 0 -0.00089248819939761017 0.015424544705133651 0 -0.0010231699243450204 0.014937722186001768 0 -0.00089248819939761017 0.015424544705133651 0 -0.00064026423607288897 0.015255444673505821 0 -0.0010231699243450204 0.014937722186001768 0 -0.00027698173198688678 0.014371571920098265 0 -0.00015470843879379257 0.014907558286618794 0 -0.0010231699243450204 0.014937722186001768 0 -0.00053963119694423235 0.014986730213475139 0 -0.00064026423607288897 0.015255444673505821 0 -0.0011093600712234824 0.01517584215532396 0 -3.5619007492943263e-05 0.014056737834595909 0 -0.0010231699243450204 0.014937722186001768 0 -0.00011952749855853346 0.014986374349541457 0 -0.00015470843879379257 0.014907558286618794 0 -0.00027698173198688678 0.014371571920098265 0 -0.00015470843879379257 0.014907558286618794 0 0.0001058675430970164 0.014991944514170328 0 -0.00047213174643675972 0.01381448750151683 0 -8.9673620952905475e-05 0.013609403658050172 0 -0.00012220846959427707 0.014979476179731999 0 -0.00015470843879379257 0.014907558286618794 0 0.0001058675430970164 0.014991944514170328 0 -3.5619007492943263e-05 0.014056737834595909 0 9.5828665442056748e-06 0.014235913564130107 0 -3.5619007492943263e-05 0.014056737834595909 0 -8.9673620952905475e-05 0.013609403658050172 0 -3.5619007492943263e-05 0.014056737834595909 0 4.1474939908983607e-05 0.014143330775286529 0 -0.00053963119694423235 0.014986730213475139 0 -0.00064026423607288897 0.015255444673505821 0 -0.00038336033150223882 0.015380100650878572 0 0.00033750693210104848 0.012462744493012859 0 0.00021571158627349039 0.012330537463850127 0 0.00038403029825219475 0.012348170617481568 0 0.00048893573926198563 0.012594945777629754 0 0.00033750693210104848 0.012462744493012859 0 0.00038403029825219475 0.012348170617481568 0 7.1673965284968727e-05 0.012521563069627978 0 -8.9673620952905475e-05 0.013609403658050172 0 0.00033750693210104848 0.012462744493012859 0 0.00039165384579769431 0.012554461222543259 0 0.0001497109649154416 0.01251946352833864 0 -8.9673620952905475e-05 0.013609403658050172 0 0.00036001317544433523 0.010883467385869901 0 0.00048893573926198563 0.012594945777629754 0 0.00033750693210104848 0.012462744493012859 0 0.00040474294019840831 0.012587402436008227 0 -0.00051475182158066735 0.013135237151950349 0 -0.00050939461368788635 0.013360537562035674 0 -0.00028887313487491694 0.013228843597863461 0 -0.00050939461368788635 0.013360537562035674 0 -8.3845974551246622e-05 0.013370824171219773 0 -0.00028887313487491694 0.013228843597863461 0 4.7551744732329854e-05 0.013061185659883179 0 -8.3845974551246622e-05 0.013370824171219773 0 -0.00028887313487491694 0.013228843597863461 0 0.00036001317544433523 0.010883467385869901 0 0.00044689128037029571 0.01017929856638153 0 0.00064623857889245496 0.0085459276302908352 0 0.00050035084321961825 0.0087265116494533966 0 0.00063904422482041073 0.0087499729953111026 0 0.00033750693210104848 0.012462744493012859 0 0.0001497109649154416 0.01251946352833864 0 0.00021571158627349039 0.012330537463850127 0 0.00052084367263371977 0.0088607199175297253 0 0.00050035084321961825 0.0087265116494533966 0 0.00035037292502870939 0.0089714787579697995 0 0.00044689128037029571 0.01017929856638153 0 0.00021867367537743783 0.012112826395637417 0 0.00052084367263371977 0.0088607199175297253 0 0.00050035084321961825 0.0087265116494533966 0 0.00063904422482041073 0.0087499729953111026 0 4.1474939908983607e-05 0.014143330775286529 0 0.00021867367537743783 0.012112826395637417 0 -0.00046495882036824921 0.015676757511229981 0 -0.00038336033150223882 0.015380100650878572 0 -0.00024128962325443431 0.015715726766735338 0 0.00021571158627349039 0.012330537463850127 0 0.00038403029825219475 0.012348170617481568 0 0.00028943190368866626 0.012130575524902898 0 -0.00046495882036824921 0.015676757511229981 0 -0.00024128962325443431 0.015715726766735338 0 -0.00028633383477154946 0.015834397964060127 0 0.00021867367537743783 0.012112826395637417 0 -0.00014208704364458301 0.011500820705832053 0 0.00020059416845663076 0.011588293223025126 0 -0.00014453806671202015 0.010801159057307498 0 0.00044335561699878029 0.010946919744757399 0 0.00035037292502870939 0.0089714787579697995 0 0.00048391742668110505 0.0089821745382729912 0 0.000387284629001989 0.0090816558696049914 0 0.00021867367537743783 0.012112826395637417 0 2.8383256321057528e-05 0.0098670305156207741 0 0.00048391742668110505 0.0089821745382729912 0 0.00059072293227927072 0.0090426608488043004 0 0.00045367485134493936 0.0091023575213068746 0 0.00052084367263371977 0.0088607199175297253 0 0.00048391742668110505 0.0089821745382729912 0 0.00063335294707816329 0.0088760178348692292 0 0.00052084367263371977 0.0088607199175297253 0 0.00035037292502870939 0.0089714787579697995 0 0.00048391742668110505 0.0089821745382729912 0 0.00063335294707816329 0.0088760178348692292 0 0.00073930113921749933 0.0089111513293318647 0 0.00082117910924459721 0.0087956355406708844 0 0.00048391742668110505 0.0089821745382729912 0 0.00063335294707816329 0.0088760178348692292 0 0.00059072293227927072 0.0090426608488043004 0 0.00063335294707816329 0.0088760178348692292 0 0.00073930113921749933 0.0089111513293318647 0 0.00059072293227927072 0.0090426608488043004 0 0.00073930113921749933 0.0089111513293318647 0 0.00089767919516599032 0.0089268926275702272 0 0.00082117910924459721 0.0087956355406708844 0 0.00082117910924459721 0.0087956355406708844 0 0.00076625669153175101 0.0086636152471756041 0 0.00090523935585373652 0.0087098342427895104 0 0.00082117910924459721 0.0087956355406708844 0 0.00063904422482041073 0.0087499729953111026 0 0.00076625669153175101 0.0086636152471756041 0 0.00063335294707816329 0.0088760178348692292 0 0.00082117910924459721 0.0087956355406708844 0 0.00063904422482041073 0.0087499729953111026 0 0.00052084367263371977 0.0088607199175297253 0 0.00063335294707816329 0.0088760178348692292 0 0.00063904422482041073 0.0087499729953111026 0 0.00064623857889245496 0.0085459276302908352 0 0.00076625669153175101 0.0086636152471756041 0 0.00085489779817181171 0.0086025920752233111 0 0.00064623857889245496 0.0085459276302908352 0 0.00063904422482041073 0.0087499729953111026 0 0.00076625669153175101 0.0086636152471756041 0 0.00058606988985078555 0.011033158090367312 0 0.00036001317544433523 0.010883467385869901 0 0.0011034715690916069 0.0089383801945259692 0 0.00085200084595618282 0.0088005120981931827 0 0.00085489779817181171 0.0086025920752233111 0 0.00036001317544433523 0.010883467385869901 0 0.00099225956301112893 0.0085963387456794455 0 0.0011034715690916069 0.0089383801945259692 0 0.0011618480896885873 0.0086282925364527824 0 0.00085489779817181171 0.0086025920752233111 0 0.00085200084595618282 0.0088005120981931827 0 0.00085489779817181171 0.0086025920752233111 0 0.00074400448288933088 0.0086367093227938813 0 0.00085489779817181171 0.0086025920752233111 0 0.00070062759724499413 0.0084760552723705182 0 0.00074400448288933088 0.0086367093227938813 0 0.00076625669153175101 0.0086636152471756041 0 0.00085489779817181171 0.0086025920752233111 0 0.00070062759724499413 0.0084760552723705182 0 0.00075726221225882041 0.008649834440975588 0 0.00078971718774173492 0.0085974155510520397 0 0.00070062759724499413 0.0084760552723705182 0 0.00074400448288933088 0.0086367093227938813 0 0.00045523451577200442 0.0085883330981166989 0 0.00066599343851614248 0.0087858383896191362 0 0.00074400448288933088 0.0086367093227938813 0 0.00045523451577200442 0.0085883330981166989 0 0.00085200084595618282 0.0088005120981931827 0 0.00066599343851614248 0.0087858383896191362 0 0.00074400448288933088 0.0086367093227938813 0 0.00037790626320118959 0.0084017983652986475 0 0.00033099008160715753 0.0084893146592253232 0 0.00045523451577200442 0.0085883330981166989 0 0.00067988812995337198 0.0085545540144370477 0 0.00078971718774173492 0.0085974155510520397 0 0.00037790626320118959 0.0084017983652986475 0 0.00070062759724499413 0.0084760552723705182 0 0.00045523451577200442 0.0085883330981166989 0 0.00098235475171503934 0.0087069065809573 0 0.00090523935585373652 0.0087098342427895104 0 0.00094470189392225213 0.008789109424771983 0 0.00098235475171503934 0.0087069065809573 0 0.00096565174681581935 0.0087263676892906303 0 0.00094470189392225213 0.008789109424771983 0 0.00082117910924459721 0.0087956355406708844 0 0.00090523935585373652 0.0087098342427895104 0 0.00094470189392225213 0.008789109424771983 0 0.00089767919516599032 0.0089268926275702272 0 0.00082117910924459721 0.0087956355406708844 0 0.00094470189392225213 0.008789109424771983 0 0.00089767919516599032 0.0089268926275702272 0 0.00094470189392225213 0.008789109424771983 0 0.00094543995747692138 0.0088560015607375732 0 0.00096565174681581935 0.0087263676892906303 0 0.00096776847901428314 0.0087983627919779473 0 0.00094470189392225213 0.008789109424771983 0 0.00096776847901428314 0.0087983627919779473 0 0.00094470189392225213 0.008789109424771983 0 0.00094543995747692138 0.0088560015607375732 0 0.00096776847901428314 0.0087983627919779473 0 0.0009578913607481617 0.0088352541021374069 0 0.00094543995747692138 0.0088560015607375732 0 0.0009578913607481617 0.0088352541021374069 0 0.00094543995747692138 0.0088560015607375732 0 0.000948678993969904 0.0088429647020332285 0 0.00094543995747692138 0.0088560015607375732 0 0.00096541229071567204 0.0088463694453021005 0 0.000948678993969904 0.0088429647020332285 0 0.00091623814683715332 0.0089551515543541561 0 0.0009901125422265213 0.0090678936669108031 0 0.00089767919516599032 0.0089268926275702272 0 0.00094543995747692138 0.0088560015607375732 0 0.00096541229071567204 0.0088463694453021005 0 0.00096541229071567204 0.0088463694453021005 0 0.000948678993969904 0.0088429647020332285 0 0.00094850594758846135 0.0088151286214822391 0 0.00093658571675671212 0.0088360390612632726 0 0.00092557448695929241 0.0087926877426376619 0 0.00094850594758846135 0.0088151286214822391 0 0.00093658571675671212 0.0088360390612632726 0 0.000948678993969904 0.0088429647020332285 0 0.00094850594758846135 0.0088151286214822391 0 0.00096541229071567204 0.0088463694453021005 0 0.00094850594758846135 0.0088151286214822391 0 0.00096682117176881985 0.0087371904942370529 0 0.00092557448695929241 0.0087926877426376619 0 0.00094850594758846135 0.0088151286214822391 0 0.00096682117176881985 0.0087371904942370529 0 0.0009901125422265213 0.0090678936669108031 0 0.0011409840913761907 0.0094439315928945451 0 0.001100541613783694 0.0096851420060969119 0 0.0010154178759745618 0.0097211106986888739 0 0.0010512703283464099 0.0097543468344666994 0 0.001100541613783694 0.0096851420060969119 0 0.0010512703283464099 0.0097543468344666994 0 0.0010951424612339698 0.0097656632855297465 0 0.001100541613783694 0.0096851420060969119 0 0.0010154178759745618 0.0097211106986888739 0 0.00097534156836832475 0.0096645565733528421 0 0.0010154178759745618 0.0097211106986888739 0 0.00097534156836832475 0.0096645565733528421 0 0.00094398149892412726 0.0097368667788190928 0 0.0010929277007450651 0.0094234521638295026 0 0.00097534156836832475 0.0096645565733528421 0 0.00075879056665374353 0.0095588312638863002 0 0.0010929277007450651 0.0094234521638295026 0 0.001100541613783694 0.0096851420060969119 0 0.00097534156836832475 0.0096645565733528421 0 0.00097534156836832475 0.0096645565733528421 0 0.00075879056665374353 0.0095588312638863002 0 0.000624019911912066 0.0099379592792063765 0 0.00097534156836832475 0.0096645565733528421 0 0.00094398149892412726 0.0097368667788190928 0 0.00086802191151987061 0.0096989938705636849 0 0.0009695543240560864 0.0096745724253506915 0 0.00071860796878767965 0.0098326867234944174 0 0.00071860796878767965 0.0098326867234944174 0 0.00061966116106862293 0.0097858629647553669 0 0.00075879056665374353 0.0095588312638863002 0 0.000624019911912066 0.0099379592792063765 0 0.00047241875569291873 0.0097073185660124864 0 0.000624019911912066 0.0099379592792063765 0 0.00047241875569291873 0.0097073185660124864 0 0.00038641181674336188 0.0098935296717124355 0 0.00075879056665374353 0.0095588312638863002 0 0.00058170034256921474 0.0093992436902335264 0 0.00071934858544884064 0.0092044043982318965 0 0.00075879056665374353 0.0095588312638863002 0 0.00047241875569291873 0.0097073185660124864 0 0.00058170034256921474 0.0093992436902335264 0 0.00047241875569291873 0.0097073185660124864 0 0.00058170034256921474 0.0093992436902335264 0 0.0003910373411610186 0.0093465662245035466 0 0.00058170034256921474 0.0093992436902335264 0 0.00054522834411075858 0.0092218654511751312 0 0.0003910373411610186 0.0093465662245035466 0 0.00058170034256921474 0.0093992436902335264 0 0.00071934858544884064 0.0092044043982318965 0 0.00054522834411075858 0.0092218654511751312 0 0.0010929277007450651 0.0094234521638295026 0 0.00075879056665374353 0.0095588312638863002 0 0.00071934858544884064 0.0092044043982318965 0 0.00089767919516599032 0.0089268926275702272 0 0.0010929277007450651 0.0094234521638295026 0 0.00071934858544884064 0.0092044043982318965 0 0.00073930113921749933 0.0089111513293318647 0 0.00089767919516599032 0.0089268926275702272 0 0.00071934858544884064 0.0092044043982318965 0 0.00073930113921749933 0.0089111513293318647 0 0.00071934858544884064 0.0092044043982318965 0 0.00059072293227927072 0.0090426608488043004 0 0.00059072293227927072 0.0090426608488043004 0 0.00054522834411075858 0.0092218654511751312 0 0.00045367485134493936 0.0091023575213068746 0 0.00071934858544884064 0.0092044043982318965 0 0.00059072293227927072 0.0090426608488043004 0 0.00054522834411075858 0.0092218654511751312 0 2.8383256321057528e-05 0.0098670305156207741 0 0.00036783583207310281 0.0094223534990995114 0 0.00045367485134493936 0.0091023575213068746 0 0.00032356783151353844 0.0090726348624130433 0 0.0003910373411610186 0.0093465662245035466 0 0.00054522834411075858 0.0092218654511751312 0 0.00045367485134493936 0.0091023575213068746 0 0.0003910373411610186 0.0093465662245035466 0 0.00031902152568174868 0.0095104630720953785 0 2.8383256321057528e-05 0.0098670305156207741 0 0.00048391742668110505 0.0089821745382729912 0 0.00045367485134493936 0.0091023575213068746 0 0.000387284629001989 0.0090816558696049914 0 -0.00014208704364458301 0.011500820705832053 0 5.6195247185761422e-05 0.0098229441660160725 0 0.00029841793055687107 0.0095022814967490789 0 0.0002335247129696366 0.0094911294133821818 0 0.0001561312446950004 0.0096838613562331248 0 0.00029841793055687107 0.0095022814967490789 0 0.0001561312446950004 0.0096838613562331248 0 0.000369943549740238 0.0096328796935914382 0 2.8383256321057528e-05 0.0098670305156207741 0 -0.00014208704364458301 0.011500820705832053 0 -0.00036838127235948055 0.010968314466641307 0 -0.00017857762251471273 0.010498090420977558 0 -5.622377025547028e-05 0.010822173181594867 0 0.0001561312446950004 0.0096838613562331248 0 0.000369943549740238 0.0096328796935914382 0 0.00032738404157141304 0.0097441041288738178 0 0.00047800531897852804 0.00971948225655145 0 0.00036783583207310281 0.0094223534990995114 0 0.00047241875569291873 0.0097073185660124864 0 0.000369943549740238 0.0096328796935914382 0 0.00032738404157141304 0.0097441041288738178 0 0.00032738404157141304 0.0097441041288738178 0 0.00038641181674336188 0.0098935296717124355 0 0.00023305653794053349 0.0099186822961303631 0 0.00047241875569291873 0.0097073185660124864 0 0.00032738404157141304 0.0097441041288738178 0 0.00038641181674336188 0.0098935296717124355 0 0.000624019911912066 0.0099379592792063765 0 0.00038641181674336188 0.0098935296717124355 0 0.00028719044291199912 0.010066461926973046 0 0.00038641181674336188 0.0098935296717124355 0 0.00023305653794053349 0.0099186822961303631 0 0.00028719044291199912 0.010066461926973046 0 0.00016689619536328277 0.010021060702672665 0 0.00023305653794053349 0.0099186822961303631 0 9.3106970102098939e-05 0.010030585338493861 0 0.00016689619536328277 0.010021060702672665 0 0.00023305653794053349 0.0099186822961303631 0 0.00028719044291199912 0.010066461926973046 0 0.0001561312446950004 0.0096838613562331248 0 0.00023305653794053349 0.0099186822961303631 0 9.3106970102098939e-05 0.010030585338493861 0 0.0001561312446950004 0.0096838613562331248 0 0.00032738404157141304 0.0097441041288738178 0 0.00023305653794053349 0.0099186822961303631 0 5.6195247185761422e-05 0.0098229441660160725 0 4.2736244828202008e-05 0.010140770198082887 0 -0.00017857762251471273 0.010498090420977558 0 9.3106970102098939e-05 0.010030585338493861 0 0.00019087521323883465 0.010478324776941767 0 0.00016689619536328277 0.010021060702672665 0 9.3106970102098939e-05 0.010030585338493861 0 0.00023013254492364134 0.0099686258921086891 0 9.3106970102098939e-05 0.010030585338493861 0 0.00030558622082725822 0.010125629737486248 0 0.00023013254492364134 0.0099686258921086891 0 9.3106970102098939e-05 0.010030585338493861 0 0.00030558622082725822 0.010125629737486248 0 0.00019087521323883465 0.010478324776941767 0 0.00052246737690030912 0.010358896478264863 0 0.00030558622082725822 0.010125629737486248 0 0.00019087521323883465 0.010478324776941767 0 0.00019087521323883465 0.010478324776941767 0 0.00031016301303036007 0.010697002059479139 0 0.0001755099278558252 0.010807225174011083 0 0.00052246737690030912 0.010358896478264863 0 0.00019087521323883465 0.010478324776941767 0 0.00031016301303036007 0.010697002059479139 0 -0.00017857762251471273 0.010498090420977558 0 0.00019087521323883465 0.010478324776941767 0 -5.622377025547028e-05 0.010822173181594867 0 0.00014658053465757027 0.011103690527794882 0 -0.00036838127235948055 0.010968314466641307 0 -5.622377025547028e-05 0.010822173181594867 0 0.00019087521323883465 0.010478324776941767 0 -5.622377025547028e-05 0.010822173181594867 0 0.0001755099278558252 0.010807225174011083 0 0.00014658053465757027 0.011103690527794882 0 -5.622377025547028e-05 0.010822173181594867 0 0.0001755099278558252 0.010807225174011083 0 0.00014658053465757027 0.011103690527794882 0 0.0002928542820891668 0.010937818639094352 0 0.0001755099278558252 0.010807225174011083 0 0.00047820571461495108 0.010859171773609379 0 0.00041001833772057146 0.011179236553439975 0 0.0002928542820891668 0.010937818639094352 0 -0.00041049984018999233 0.012859852193063133 0 0.00077759000495002139 0.011134519950822252 0 0.00047927926282098166 0.010818334526201073 0 0.0002928542820891668 0.010937818639094352 0 0.00031016301303036007 0.010697002059479139 0 0.0002928542820891668 0.010937818639094352 0 0.00031016301303036007 0.010697002059479139 0 0.0001755099278558252 0.010807225174011083 0 -0.0004916672414193242 0.011992173945199256 0 -0.00049688788477715974 0.011988275041605087 0 -0.00049660773419891427 0.011993641535042676 0 -0.0004916672414193242 0.011992173945199256 0 -0.00049660773419891427 0.011993641535042676 0 -0.00049301799759727096 0.011999503511671502 0 -0.0004916672414193242 0.011992173945199256 0 -0.00049301799759727096 0.011999503511671502 0 -0.00048500664234331142 0.011999304794493066 0 -0.0004916672414193242 0.011992173945199256 0 -0.00048500664234331142 0.011999304794493066 0 -0.00048421718223417594 0.011987939891501749 0 -0.0004916672414193242 0.011992173945199256 0 -0.00049144156132184362 0.011985869525679977 0 -0.00048421718223417594 0.011987939891501749 0 -0.00049144156132184362 0.011985869525679977 0 -0.00048421718223417594 0.011987939891501749 0 -0.00048613453292156196 0.01198050348566174 0 -0.0004916672414193242 0.011992173945199256 0 -0.00049144156132184362 0.011985869525679977 0 -0.00049688788477715974 0.011988275041605087 0 -0.00049144156132184362 0.011985869525679977 0 -0.00049688788477715974 0.011988275041605087 0 -0.0004932592549867469 0.011983351910001872 0 -0.00049688788477715974 0.011988275041605087 0 -0.00050111111175592238 0.011988140753678815 0 -0.00049900746262045766 0.011986689604276657 0 -0.00049688788477715974 0.011988275041605087 0 -0.00050111111175592238 0.011988140753678815 0 -0.00049967408209217158 0.011990719491542684 0 -0.00050211292111281849 0.011987701581169475 0 -0.00050111111175592238 0.011988140753678815 0 -0.00049900746262045766 0.011986689604276657 0 -0.00050369306531740897 0.011985687392000229 0 -0.00050111111175592238 0.011988140753678815 0 -0.00050227750152032091 0.011989368088177257 0 -0.00050111111175592238 0.011988140753678815 0 -0.00050227750152032091 0.011989368088177257 0 -0.00049967408209217158 0.011990719491542684 0 -0.00050227750152032091 0.011989368088177257 0 -0.00049967408209217158 0.011990719491542684 0 -0.00050072068382305338 0.011993271720165895 0 -0.00049688788477715974 0.011988275041605087 0 -0.00049967408209217158 0.011990719491542684 0 -0.00049660773419891427 0.011993641535042676 0 -0.00049967408209217158 0.011990719491542684 0 -0.00049660773419891427 0.011993641535042676 0 -0.00050072068382305338 0.011993271720165895 0 -0.0005102444203970726 0.012002224080534554 0 -0.00050351415482226681 0.011999777284531003 0 -0.00049615215434717266 0.012006810402682635 0 -0.00049660773419891427 0.011993641535042676 0 -0.00049763144060709129 0.011998220854437785 0 -0.00050072068382305338 0.011993271720165895 0 -0.00049763144060709129 0.011998220854437785 0 -0.00050072068382305338 0.011993271720165895 0 -0.00050117778532290708 0.011997836171151161 0 -0.00050227750152032091 0.011989368088177257 0 -0.00050072068382305338 0.011993271720165895 0 -0.00050313010813029082 0.011992552774402544 0 -0.00050072068382305338 0.011993271720165895 0 -0.00050313010813029082 0.011992552774402544 0 -0.00050117778532290708 0.011997836171151161 0 -0.00050313010813029082 0.011992552774402544 0 -0.00050385046693319883 0.011995737281854406 0 -0.00050117778532290708 0.011997836171151161 0 -0.00050385046693319883 0.011995737281854406 0 -0.00050117778532290708 0.011997836171151161 0 -0.00050351415482226681 0.011999777284531003 0 -0.00050591499600386922 0.011997370445513042 0 -0.00050385046693319883 0.011995737281854406 0 -0.00050351415482226681 0.011999777284531003 0 -0.00049763144060709129 0.011998220854437785 0 -0.00050117778532290708 0.011997836171151161 0 -0.00049615215434717266 0.012006810402682635 0 -0.00050117778532290708 0.011997836171151161 0 -0.00050351415482226681 0.011999777284531003 0 -0.00049615215434717266 0.012006810402682635 0 -0.00049615215434717266 0.012006810402682635 0 -0.00049301799759727096 0.011999503511671502 0 -0.00048727256191330437 0.01200981513837044 0 -0.00049763144060709129 0.011998220854437785 0 -0.00049615215434717266 0.012006810402682635 0 -0.00049301799759727096 0.011999503511671502 0 -0.00049660773419891427 0.011993641535042676 0 -0.00049763144060709129 0.011998220854437785 0 -0.00049301799759727096 0.011999503511671502 0 -0.00049301799759727096 0.011999503511671502 0 -0.00048500664234331142 0.011999304794493066 0 -0.00048727256191330437 0.01200981513837044 0 -0.00048727256191330437 0.01200981513837044 0 -0.00047608775418481533 0.012010999084136014 0 -0.00048189044487137439 0.012031988601081785 0 -0.00048500664234331142 0.011999304794493066 0 -0.00047608775418481533 0.012010999084136014 0 -0.00047082008735965737 0.011993901728291212 0 -0.00048500664234331142 0.011999304794493066 0 -0.00048727256191330437 0.01200981513837044 0 -0.00047608775418481533 0.012010999084136014 0 -0.00047608775418481533 0.012010999084136014 0 -0.00047082008735965737 0.011993901728291212 0 -0.000451204998645318 0.012020165567306713 0 -0.00047608775418481533 0.012010999084136014 0 -0.000451204998645318 0.012020165567306713 0 -0.00048189044487137439 0.012031988601081785 0 -0.00045412913193407082 0.011988089496701373 0 -0.00047082008735965737 0.011993901728291212 0 -0.000451204998645318 0.012020165567306713 0 -0.00045412913193407082 0.011988089496701373 0 -0.00047082008735965737 0.011993901728291212 0 -0.00045893506106481244 0.011970865963619477 0 -0.00047082008735965737 0.011993901728291212 0 -0.00047678480016789972 0.011977892442220823 0 -0.00045893506106481244 0.011970865963619477 0 -0.00048500664234331142 0.011999304794493066 0 -0.00047082008735965737 0.011993901728291212 0 -0.00048421718223417594 0.011987939891501749 0 -0.00047082008735965737 0.011993901728291212 0 -0.00048421718223417594 0.011987939891501749 0 -0.00047678480016789972 0.011977892442220823 0 -0.00047678480016789972 0.011977892442220823 0 -0.00045893506106481244 0.011970865963619477 0 -0.00046870601105473302 0.011957932821152678 0 -0.00047678480016789972 0.011977892442220823 0 -0.0004804380293297349 0.011972556055596462 0 -0.00048613453292156196 0.01198050348566174 0 -0.00048421718223417594 0.011987939891501749 0 -0.00047678480016789972 0.011977892442220823 0 -0.00048613453292156196 0.01198050348566174 0 -0.00047678480016789972 0.011977892442220823 0 -0.0004804380293297349 0.011972556055596462 0 -0.00046870601105473302 0.011957932821152678 0 -0.0004804380293297349 0.011972556055596462 0 -0.00047880915842714799 0.011965736835051224 0 -0.00046870601105473302 0.011957932821152678 0 -0.00045893506106481244 0.011970865963619477 0 -0.00046870601105473302 0.011957932821152678 0 -0.00044251176032341716 0.011928869244655508 0 -0.00046870601105473302 0.011957932821152678 0 -0.0004597141750364748 0.011934743787740971 0 -0.00044251176032341716 0.011928869244655508 0 -0.00046870601105473302 0.011957932821152678 0 -0.00047260341595002094 0.011952985409212732 0 -0.0004597141750364748 0.011934743787740971 0 -0.00047880915842714799 0.011965736835051224 0 -0.00046870601105473302 0.011957932821152678 0 -0.00047260341595002094 0.011952985409212732 0 -0.00047260341595002094 0.011952985409212732 0 -0.0004806712569110429 0.011963470885266329 0 -0.0004756495243104815 0.011954617231329609 0 -0.00047880915842714799 0.011965736835051224 0 -0.00047260341595002094 0.011952985409212732 0 -0.0004806712569110429 0.011963470885266329 0 -0.0004873953114629307 0.0119741836671712 0 -0.0004931268006432497 0.011983238969383003 0 -0.0004860775949931103 0.01197405298687562 0 -0.0004806712569110429 0.011963470885266329 0 -0.0004873953114629307 0.0119741836671712 0 -0.0004860775949931103 0.01197405298687562 0 -0.0004873953114629307 0.0119741836671712 0 -0.00048673884661404164 0.011975807340450943 0 -0.00049122124544389949 0.011979785997346715 0 -0.0004873953114629307 0.0119741836671712 0 -0.00049122124544389949 0.011979785997346715 0 -0.0004931268006432497 0.011983238969383003 0 -0.00047880915842714799 0.011965736835051224 0 -0.00048348538939648898 0.011969888122193966 0 -0.00048673884661404164 0.011975807340450943 0 -0.00047880915842714799 0.011965736835051224 0 -0.0004806712569110429 0.011963470885266329 0 -0.00048348538939648898 0.011969888122193966 0 -0.0004873953114629307 0.0119741836671712 0 -0.00048348538939648898 0.011969888122193966 0 -0.00048673884661404164 0.011975807340450943 0 -0.0004806712569110429 0.011963470885266329 0 -0.0004873953114629307 0.0119741836671712 0 -0.00048348538939648898 0.011969888122193966 0 -0.0004804380293297349 0.011972556055596462 0 -0.00047880915842714799 0.011965736835051224 0 -0.00048673884661404164 0.011975807340450943 0 -0.0004804380293297349 0.011972556055596462 0 -0.00048673884661404164 0.011975807340450943 0 -0.00048613453292156196 0.01198050348566174 0 -0.00048673884661404164 0.011975807340450943 0 -0.00049122124544389949 0.011979785997346715 0 -0.0004932592549867469 0.011983351910001872 0 -0.00049144156132184362 0.011985869525679977 0 -0.0004932592549867469 0.011983351910001872 0 -0.00048613453292156196 0.01198050348566174 0 -0.00048673884661404164 0.011975807340450943 0 -0.0004932592549867469 0.011983351910001872 0 -0.00048613453292156196 0.01198050348566174 0 -0.00050088839062761544 0.011992154643733101 0 -0.00050211292111281849 0.011987701581169475 0 -0.00049900746262045766 0.011986689604276657 0 -0.0004932592549867469 0.011983351910001872 0 -0.00049900746262045766 0.011986689604276657 0 -0.00049584831188155933 0.011984988722687877 0 -0.00049688788477715974 0.011988275041605087 0 -0.0004932592549867469 0.011983351910001872 0 -0.00049900746262045766 0.011986689604276657 0 -0.00049122124544389949 0.011979785997346715 0 -0.0004932592549867469 0.011983351910001872 0 -0.00049584831188155933 0.011984988722687877 0 -0.00049122124544389949 0.011979785997346715 0 -0.00049584831188155933 0.011984988722687877 0 -0.0004931268006432497 0.011983238969383003 0 -0.00050088839062761544 0.011992154643733101 0 -0.00049900746262045766 0.011986689604276657 0 -0.00049584831188155933 0.011984988722687877 0 -0.00050088839062761544 0.011992154643733101 0 -0.00049584831188155933 0.011984988722687877 0 -0.0004931268006432497 0.011983238969383003 0 -0.00050088839062761544 0.011992154643733101 0 -0.0004931268006432497 0.011983238969383003 0 -0.00049401389590674209 0.011992599977232231 0 -0.0004931268006432497 0.011983238969383003 0 -0.00049401389590674209 0.011992599977232231 0 -0.0004860775949931103 0.01197405298687562 0 -0.00048797649535115993 0.012000137214234182 0 -0.0004860775949931103 0.01197405298687562 0 -0.00047938083514281922 0.011967373624215306 0 -0.00048797649535115993 0.012000137214234182 0 -0.00049401389590674209 0.011992599977232231 0 -0.0004860775949931103 0.01197405298687562 0 -0.00047802328404035873 0.011958395462973006 0 -0.00047938083514281922 0.011967373624215306 0 -0.00047139424725665534 0.01194483640191946 0 -0.0004806712569110429 0.011963470885266329 0 -0.00047802328404035873 0.011958395462973006 0 -0.0004860775949931103 0.01197405298687562 0 -0.0004806712569110429 0.011963470885266329 0 -0.00047802328404035873 0.011958395462973006 0 -0.0004756495243104815 0.011954617231329609 0 -0.00047802328404035873 0.011958395462973006 0 -0.0004860775949931103 0.01197405298687562 0 -0.00047938083514281922 0.011967373624215306 0 -0.00047162881003867826 0.011947276875227248 0 -0.00047938083514281922 0.011967373624215306 0 -0.00047835574888569735 0.011971765841649865 0 -0.00047162881003867826 0.011947276875227248 0 -0.00047938083514281922 0.011967373624215306 0 -0.00047139424725665534 0.01194483640191946 0 -0.00048797649535115993 0.012000137214234182 0 -0.00047938083514281922 0.011967373624215306 0 -0.00047835574888569735 0.011971765841649865 0 -0.00048500913090854643 0.011983357298048806 0 -0.00047835574888569735 0.011971765841649865 0 -0.00047073403003728049 0.011958635015709205 0 -0.00047162881003867826 0.011947276875227248 0 -0.00047073403003728049 0.011958635015709205 0 -0.00046016774274377874 0.011911141267864462 0 -0.00047162881003867826 0.011947276875227248 0 -0.00047835574888569735 0.011971765841649865 0 -0.00047073403003728049 0.011958635015709205 0 -9.0793853516267194e-05 0.010866634321147144 0 6.0166985558632432e-05 0.010715726872025872 0 0.00016689619536328277 0.010021060702672665 0 0.00023013254492364134 0.0099686258921086891 0 0.00017186087693938929 0.010023005953785387 0 -0.00047073403003728049 0.011958635015709205 0 -0.00045923310506978769 0.011905966061333964 0 -0.00046016774274377874 0.011911141267864462 0 6.0166985558632432e-05 0.010715726872025872 0 -0.00033506778624871678 0.011078623138616902 0 -0.00045198667151536532 0.011888421211819988 0 -0.00046016774274377874 0.011911141267864462 0 -0.00045085801611542952 0.011912908714922146 0 -0.00046016774274377874 0.011911141267864462 0 -0.00046336067789438479 0.011926066879926029 0 -0.00045085801611542952 0.011912908714922146 0 -0.00047162881003867826 0.011947276875227248 0 -0.00046016774274377874 0.011911141267864462 0 -0.00046336067789438479 0.011926066879926029 0 -0.00047162881003867826 0.011947276875227248 0 -0.00046336067789438479 0.011926066879926029 0 -0.00047139424725665534 0.01194483640191946 0 -0.00047139424725665534 0.01194483640191946 0 -0.00046707978155651928 0.011936324532365311 0 -0.00047030304627703118 0.011944110026212753 0 -0.00047802328404035873 0.011958395462973006 0 -0.00047139424725665534 0.01194483640191946 0 -0.00047030304627703118 0.011944110026212753 0 -0.00046336067789438479 0.011926066879926029 0 -0.00046707978155651928 0.011936324532365311 0 -0.00046248337442528843 0.011930814245848581 0 -0.00046336067789438479 0.011926066879926029 0 -0.00047139424725665534 0.01194483640191946 0 -0.00046707978155651928 0.011936324532365311 0 -0.00046707978155651928 0.011936324532365311 0 -0.00046248337442528843 0.011930814245848581 0 -0.00047030304627703118 0.011944110026212753 0 -0.00047260341595002094 0.011952985409212732 0 -0.00047030304627703118 0.011944110026212753 0 -0.0004597141750364748 0.011934743787740971 0 -0.00046248337442528843 0.011930814245848581 0 -0.00047030304627703118 0.011944110026212753 0 -0.0004597141750364748 0.011934743787740971 0 -0.00047260341595002094 0.011952985409212732 0 -0.0004756495243104815 0.011954617231329609 0 -0.00047030304627703118 0.011944110026212753 0 -0.00047802328404035873 0.011958395462973006 0 -0.0004756495243104815 0.011954617231329609 0 -0.00047030304627703118 0.011944110026212753 0 -0.00045085801611542952 0.011912908714922146 0 -0.0004597141750364748 0.011934743787740971 0 -0.00044251176032341716 0.011928869244655508 0 -0.00046336067789438479 0.011926066879926029 0 -0.00046248337442528843 0.011930814245848581 0 -0.00045085801611542952 0.011912908714922146 0 -0.00046248337442528843 0.011930814245848581 0 -0.00045085801611542952 0.011912908714922146 0 -0.0004597141750364748 0.011934743787740971 0 -0.00045085801611542952 0.011912908714922146 0 -0.00041157217908273933 0.011887362460974424 0 -0.00044251176032341716 0.011928869244655508 0 -0.00045198667151536532 0.011888421211819988 0 -0.00041157217908273933 0.011887362460974424 0 -0.00032472850775474378 0.011817920569748168 0 6.0166985558632432e-05 0.010715726872025872 0 0.00023201627186768476 0.010873452922138219 0 -0.00041157217908273933 0.011887362460974424 0 -0.00032472850775474378 0.011817920569748168 0 -0.0003910640952938802 0.011900096962874732 0 -0.00045198667151536532 0.011888421211819988 0 -0.00045085801611542952 0.011912908714922146 0 -0.00041157217908273933 0.011887362460974424 0 0.00016689619536328277 0.010021060702672665 0 0.00017186087693938929 0.010023005953785387 0 0.00028719044291199912 0.010066461926973046 0 0.00059759042790890097 0.0098254739996531879 0 0.00074213072719033705 0.0097493683828150709 0 0.00075547264778333303 0.0098717394780377752 0 6.0166985558632432e-05 0.010715726872025872 0 0.00061966116106862293 0.0097858629647553669 0 0.00074213072719033705 0.0097493683828150709 0 0.00075547264778333303 0.0098717394780377752 0 0.00084740327940730214 0.0097959354412804241 0 -0.00032472850775474378 0.011817920569748168 0 -0.00033735778481855594 0.011868180029660438 0 -0.00013599010219375485 0.011732728460041097 0 -0.00033735778481855594 0.011868180029660438 0 -0.00033756081370878242 0.011936956908513487 0 -0.00027304146558223847 0.011865796748346921 0 -0.00033735778481855594 0.011868180029660438 0 -0.00033756081370878242 0.011936956908513487 0 -0.00038377360686470921 0.011949422223715566 0 -0.00033735778481855594 0.011868180029660438 0 -0.0003910640952938802 0.011900096962874732 0 -0.00038377360686470921 0.011949422223715566 0 -0.00032472850775474378 0.011817920569748168 0 -0.00033735778481855594 0.011868180029660438 0 -0.0003910640952938802 0.011900096962874732 0 -0.00041157217908273933 0.011887362460974424 0 -0.0003910640952938802 0.011900096962874732 0 -0.00044251176032341716 0.011928869244655508 0 -0.00045893506106481244 0.011970865963619477 0 -0.00044251176032341716 0.011928869244655508 0 -0.00043273132070563805 0.011969609942963439 0 -0.0003910640952938802 0.011900096962874732 0 -0.00044251176032341716 0.011928869244655508 0 -0.00043273132070563805 0.011969609942963439 0 -0.0003910640952938802 0.011900096962874732 0 -0.00043273132070563805 0.011969609942963439 0 -0.00038377360686470921 0.011949422223715566 0 -0.00043273132070563805 0.011969609942963439 0 -0.00041651873463857811 0.01201158318518087 0 -0.00038377360686470921 0.011949422223715566 0 -0.000451204998645318 0.012020165567306713 0 -0.00041651873463857811 0.01201158318518087 0 -0.00043191415739546492 0.012077039176533398 0 -0.00045412913193407082 0.011988089496701373 0 -0.00045893506106481244 0.011970865963619477 0 -0.00043273132070563805 0.011969609942963439 0 -0.00045412913193407082 0.011988089496701373 0 -0.00043273132070563805 0.011969609942963439 0 -0.000451204998645318 0.012020165567306713 0 -0.00043273132070563805 0.011969609942963439 0 -0.000451204998645318 0.012020165567306713 0 -0.00041651873463857811 0.01201158318518087 0 -0.00041651873463857811 0.01201158318518087 0 -0.00038011659457849403 0.012004663458441598 0 -0.00039801621293490214 0.012078581005261942 0 -0.00038011659457849403 0.012004663458441598 0 -0.00035196509205886366 0.012028404085645747 0 -0.00039801621293490214 0.012078581005261942 0 -0.00038011659457849403 0.012004663458441598 0 -0.00035196509205886366 0.012028404085645747 0 -0.00033756081370878242 0.011936956908513487 0 -0.00035196509205886366 0.012028404085645747 0 -0.00033756081370878242 0.011936956908513487 0 -0.0002933153296123056 0.011947076306578677 0 -0.00033756081370878242 0.011936956908513487 0 -0.0002933153296123056 0.011947076306578677 0 -0.00027304146558223847 0.011865796748346921 0 -0.00041651873463857811 0.01201158318518087 0 -0.00038011659457849403 0.012004663458441598 0 -0.00038377360686470921 0.011949422223715566 0 -0.00038011659457849403 0.012004663458441598 0 -0.00033756081370878242 0.011936956908513487 0 -0.00038377360686470921 0.011949422223715566 0 -0.00028756260615440385 0.011214732352807542 0 -0.00013599010219375485 0.011732728460041097 0 0.00030228771315078489 0.010476655908563599 0 -0.00035196509205886366 0.012028404085645747 0 -0.0002933153296123056 0.011947076306578677 0 -0.000340319052641453 0.012183068919327912 0 -0.00028756260615440385 0.011214732352807542 0 -0.00018614921787391686 0.010721378190912968 0 0.00030228771315078489 0.010476655908563599 0 -0.00012190674211983254 0.011713086489732622 0 -4.6372115645673338e-05 0.011317730383963914 0 -0.0002933153296123056 0.011947076306578677 0 -0.00013599010219375485 0.011732728460041097 0 -0.000340319052641453 0.012183068919327912 0 -0.00054049592184911191 0.010837338315074349 0 -0.00028756260615440385 0.011214732352807542 0 -0.0010464674783147629 0.011380072768714713 0 -0.00054049592184911191 0.010837338315074349 0 -0.00028756260615440385 0.011214732352807542 0 -0.00018614921787391686 0.010721378190912968 0 -0.00028756260615440385 0.011214732352807542 0 -0.00019228074424039172 0.011805715135438686 0 -0.0010464674783147629 0.011380072768714713 0 0.00088863425467621568 0.0098935863102862648 0 0.00097593842601422529 0.0098425119590168711 0 0.00098618612516807209 0.0098948499193740914 0 0.00032341598765411086 0.010808831032255368 0 -1.9996914219243023e-05 0.010871891500573536 0 -0.00032472850775474378 0.011817920569748168 0 -0.00019228074424039172 0.011805715135438686 0 -0.00013599010219375485 0.011732728460041097 0 -0.00033735778481855594 0.011868180029660438 0 -0.00013599010219375485 0.011732728460041097 0 -0.00027304146558223847 0.011865796748346921 0 -0.00028756260615440385 0.011214732352807542 0 -0.00019228074424039172 0.011805715135438686 0 -0.00013599010219375485 0.011732728460041097 0 -0.0002933153296123056 0.011947076306578677 0 -0.00013599010219375485 0.011732728460041097 0 -0.00027304146558223847 0.011865796748346921 0 0.00023201627186768476 0.010873452922138219 0 0.00032341598765411086 0.010808831032255368 0 0.00075547264778333303 0.0098717394780377752 0 0.00088863425467621568 0.0098935863102862648 0 0.00084740327940730214 0.0097959354412804241 0 0.00086802191151987061 0.0096989938705636849 0 0.00074213072719033705 0.0097493683828150709 0 0.00084740327940730214 0.0097959354412804241 0 0.00094398149892412726 0.0097368667788190928 0 0.00084740327940730214 0.0097959354412804241 0 0.0009294087595703341 0.0098146741103172664 0 0.00094398149892412726 0.0097368667788190928 0 0.0009294087595703341 0.0098146741103172664 0 0.00099262604934400797 0.0097834440066415645 0 0.00094398149892412726 0.0097368667788190928 0 0.00086802191151987061 0.0096989938705636849 0 0.00084740327940730214 0.0097959354412804241 0 0.00088863425467621568 0.0098935863102862648 0 0.0009294087595703341 0.0098146741103172664 0 0.00097593842601422529 0.0098425119590168711 0 0.00088863425467621568 0.0098935863102862648 0 0.00084740327940730214 0.0097959354412804241 0 0.0009294087595703341 0.0098146741103172664 0 0.00097593842601422529 0.0098425119590168711 0 0.00099262604934400797 0.0097834440066415645 0 0.0010386224140741542 0.0098113548990391534 0 0.00097593842601422529 0.0098425119590168711 0 0.0010386224140741542 0.0098113548990391534 0 0.00098618612516807209 0.0098948499193740914 0 0.0009294087595703341 0.0098146741103172664 0 0.00097593842601422529 0.0098425119590168711 0 0.00099262604934400797 0.0097834440066415645 0 0.0010154178759745618 0.0097211106986888739 0 0.00099262604934400797 0.0097834440066415645 0 0.0010512703283464099 0.0097543468344666994 0 0.0010154178759745618 0.0097211106986888739 0 0.00094398149892412726 0.0097368667788190928 0 0.00099262604934400797 0.0097834440066415645 0 0.0010512703283464099 0.0097543468344666994 0 0.0010386224140741542 0.0098113548990391534 0 0.0010951424612339698 0.0097656632855297465 0 0.00099262604934400797 0.0097834440066415645 0 0.0010512703283464099 0.0097543468344666994 0 0.0010386224140741542 0.0098113548990391534 0 0.0010386224140741542 0.0098113548990391534 0 0.00098618612516807209 0.0098948499193740914 0 0.0010721779781962871 0.0098368863127791945 0 0.00098618612516807209 0.0098948499193740914 0 0.0010721779781962871 0.0098368863127791945 0 0.0010499036363544061 0.0098968107071037183 0 -0.00054049592184911191 0.010837338315074349 0 -0.0010464674783147629 0.011380072768714713 0 -0.00099977682526929991 0.010369924631333061 0 -1.9996914219243023e-05 0.010871891500573536 0 -0.00014473114327712087 0.0086677464180557814 0 -0.0010464674783147629 0.011380072768714713 0 -0.00099977682526929991 0.010369924631333061 0 -0.0018953204388044891 0.010975946095389403 0 -0.00099977682526929991 0.010369924631333061 0 -0.001050957605053381 0.0092295156839400407 0 -0.00042631705549778882 0.0098240945712513867 0 -0.00099977682526929991 0.010369924631333061 0 -0.001050957605053381 0.0092295156839400407 0 -0.0017855025219859523 0.0099617772958220784 0 -0.00099977682526929991 0.010369924631333061 0 -0.0018953204388044891 0.010975946095389403 0 -0.0017855025219859523 0.0099617772958220784 0 2.4378954739683267e-05 0.0065346834412774134 0 -0.00065434558592969232 0.0078626173623749743 0 -0.00055860757021745195 0.0083244844034798017 0 -0.00065434558592969232 0.0078626173623749743 0 -0.00014166445364262545 0.0071422110877117952 0 4.9423010023521778e-05 0.0070656718932825512 0 -0.00017115915761918395 0.0073919956328542284 0 -0.00014166445364262545 0.0071422110877117952 0 6.6941336525190725e-05 0.0069829426867765894 0 4.9423010023521778e-05 0.0070656718932825512 0 6.6941336525190725e-05 0.0069829426867765894 0 -4.0318383524861008e-07 0.0064627198407594651 0 3.6225519832160752e-07 0.0073707504011048955 0 -0.00014166445364262545 0.0071422110877117952 0 6.6941336525190725e-05 0.0069829426867765894 0 -4.0318383524861008e-07 0.0064627198407594651 0 2.4378954739683267e-05 0.0065346834412774134 0 -3.6080216569893215e-08 0.0064618124803905537 0 -0.00055860757021745195 0.0083244844034798017 0 1.5012918177176137e-07 0.0082790498369137207 0 3.6225519832160752e-07 0.0073707504011048955 0 4.9423010023521778e-05 0.0070656718932825512 0 -3.4237372298638857e-07 0.0082778388281375005 0 6.6941336525190725e-05 0.0069829426867765894 0 3.6225519832160752e-07 0.0073707504011048955 0 4.9423010023521778e-05 0.0070656718932825512 0 -0.001050957605053381 0.0092295156839400407 0 2.6500347468648089e-05 0.0092791266574413916 0 -0.00042631705549778882 0.0098240945712513867 0 -0.001050957605053381 0.0092295156839400407 0 -1.3836331675886067e-06 0.0082815148467669294 0 2.6500347468648089e-05 0.0092791266574413916 0 -1.3836331675886067e-06 0.0082815148467669294 0 8.3094259703091935e-07 0.0091733459311176355 0 2.6500347468648089e-05 0.0092791266574413916 0 8.3094259703091935e-07 0.0091733459311176355 0 2.6500347468648089e-05 0.0092791266574413916 0 0.00014486411172396347 0.009477605266683238 0 2.6500347468648089e-05 0.0092791266574413916 0 -8.1362285681229007e-06 0.0098244289024368141 0 0.00026771272450073629 0.0094054389224637151 0 2.6500347468648089e-05 0.0092791266574413916 0 0.00026771272450073629 0.0094054389224637151 0 0.00014486411172396347 0.009477605266683238 0 -8.1362285681229007e-06 0.0098244289024368141 0 0.00030228771315078489 0.010476655908563599 0 0.00026771272450073629 0.0094054389224637151 0 2.6500347468648089e-05 0.0092791266574413916 0 -8.1362285681229007e-06 0.0098244289024368141 0 -0.00042631705549778882 0.0098240945712513867 0 -8.1362285681229007e-06 0.0098244289024368141 0 -0.00042631705549778882 0.0098240945712513867 0 -0.00029898020721855217 0.010337701927205527 0 -0.00099977682526929991 0.010369924631333061 0 -0.00042631705549778882 0.0098240945712513867 0 -0.00029898020721855217 0.010337701927205527 0 -0.00054049592184911191 0.010837338315074349 0 -0.00099977682526929991 0.010369924631333061 0 -0.00029898020721855217 0.010337701927205527 0 -0.00054049592184911191 0.010837338315074349 0 -0.00029898020721855217 0.010337701927205527 0 -0.00018614921787391686 0.010721378190912968 0 -0.00029898020721855217 0.010337701927205527 0 -0.00018614921787391686 0.010721378190912968 0 0.00030228771315078489 0.010476655908563599 0 -8.1362285681229007e-06 0.0098244289024368141 0 -0.00029898020721855217 0.010337701927205527 0 0.00030228771315078489 0.010476655908563599 0 -0.00038779974823705254 0.012152569128438408 0 -0.00026275059366662667 0.012226187818195934 0 -0.00041002994433993103 0.012128263448149264 0 -0.00039801621293490214 0.012078581005261942 0 -0.00043191415739546492 0.012077039176533398 0 -0.00035196509205886366 0.012028404085645747 0 -0.000340319052641453 0.012183068919327912 0 -0.00039801621293490214 0.012078581005261942 0 -0.000340319052641453 0.012183068919327912 0 -0.00041002994433993103 0.012128263448149264 0 -0.00039801621293490214 0.012078581005261942 0 -0.00041651873463857811 0.01201158318518087 0 -0.00039801621293490214 0.012078581005261942 0 -0.00043191415739546492 0.012077039176533398 0 -0.00024361972686449059 0.012107231353975748 0 4.809361941715082e-05 0.011601284689937263 0 7.0024379219200278e-05 0.01223034602715389 0 -0.00012059925995416735 0.01238468514804412 0 -0.00024361972686449059 0.012107231353975748 0 7.0024379219200278e-05 0.01223034602715389 0 -0.000340319052641453 0.012183068919327912 0 -0.00041002994433993103 0.012128263448149264 0 -0.00061195577005413175 0.011889413398203291 0 -0.00041002994433993103 0.012128263448149264 0 -0.00024361972686449059 0.012107231353975748 0 -0.00061195577005413175 0.011889413398203291 0 -4.6372115645673338e-05 0.011317730383963914 0 -0.00014604487940654711 0.010660338559059136 0 -0.00041002994433993103 0.012128263448149264 0 -0.00012059925995416735 0.01238468514804412 0 -0.00024361972686449059 0.012107231353975748 0 -0.00061195577005413175 0.011889413398203291 0 -1.7050014595895397e-06 0.010070371270906535 0 4.809361941715082e-05 0.011601284689937263 0 8.3094259703091935e-07 0.0091733459311176355 0 0.00014486411172396347 0.009477605266683238 0 -3.4027807516565887e-07 0.010065803036678063 0 0.00026771272450073629 0.0094054389224637151 0 0.00014486411172396347 0.009477605266683238 0 -3.4027807516565887e-07 0.010065803036678063 0 -0.00014604487940654711 0.010660338559059136 0 -5.5595236739466405e-08 0.010067530577159445 0 -1.7050014595895397e-06 0.010070371270906535 0 4.809361941715082e-05 0.011601284689937263 0 9.2427235960064958e-07 0.011443141789745396 0 -0.00024361972686449059 0.012107231353975748 0 -0.00061195577005413175 0.011889413398203291 0 4.809361941715082e-05 0.011601284689937263 0 4.809361941715082e-05 0.011601284689937263 0 0.00017310492255938079 0.012179184532659017 0 9.2427235960064958e-07 0.011443141789745396 0 4.809361941715082e-05 0.011601284689937263 0 0.00017310492255938079 0.012179184532659017 0 7.0024379219200278e-05 0.01223034602715389 0 1.8218709546199518e-07 0.012819549682987753 0 9.2427235960064958e-07 0.011443141789745396 0 0.00018383779655911748 0.012421194033166574 0 0.00017310492255938079 0.012179184532659017 0 9.2427235960064958e-07 0.011443141789745396 0 0.00018383779655911748 0.012421194033166574 0 0.00017310492255938079 0.012179184532659017 0 0.00018383779655911748 0.012421194033166574 0 0.00025327514587016601 0.012511664958595963 0 0.00017310492255938079 0.012179184532659017 0 0.00025327514587016601 0.012511664958595963 0 0.00019941220052208816 0.012408280023743508 0 0.00025327514587016601 0.012511664958595963 0 0.00019941220052208816 0.012408280023743508 0 0.0002222986125964027 0.012557162276874213 0 0.00019941220052208816 0.012408280023743508 0 7.0024379219200278e-05 0.01223034602715389 0 0.00019640782619594917 0.01252878969705291 0 0.00017310492255938079 0.012179184532659017 0 0.00019941220052208816 0.012408280023743508 0 7.0024379219200278e-05 0.01223034602715389 0 -0.00026275059366662667 0.012226187818195934 0 -0.00015816287535868161 0.012268931830701636 0 -0.00012059925995416735 0.01238468514804412 0 7.0024379219200278e-05 0.01223034602715389 0 0.00019640782619594917 0.01252878969705291 0 -0.000451204998645318 0.012020165567306713 0 -0.00043191415739546492 0.012077039176533398 0 -0.00048189044487137439 0.012031988601081785 0 -0.00049615215434717266 0.012006810402682635 0 -0.00048727256191330437 0.01200981513837044 0 -0.00048189044487137439 0.012031988601081785 0 -9.9977643254787091e-05 0.012454940683656057 0 -0.00015816287535868161 0.012268931830701636 0 -0.0005102444203970726 0.012002224080534554 0 -0.00049615215434717266 0.012006810402682635 0 -0.00048189044487137439 0.012031988601081785 0 0.00018565235627527782 0.012598785676466415 0 0.00019640782619594917 0.01252878969705291 0 0.0002222986125964027 0.012557162276874213 0 0.00019941220052208816 0.012408280023743508 0 0.00019640782619594917 0.01252878969705291 0 0.0002222986125964027 0.012557162276874213 0 6.8391555951055621e-05 0.0015303005584143057 0 -0.00018884782100332315 0.0014986361536215092 0 -0.00017826680325479946 0.00075470838613769711 0 -0.00069436226790740374 0.0012815674144943871 0 -0.00017783237334588269 0.0015957212755432718 0 4.240436312649492e-05 0.0018448998832138058 0 -4.5886940057146229e-05 0.0017497965360436438 0 -0.00017783237334588269 0.0015957212755432718 0 4.240436312649492e-05 0.0018448998832138058 0 -4.5886940057146229e-05 0.0017497965360436438 0 -1.1143677356151198e-05 0.0019592896185732936 0 6.8391555951055621e-05 0.0015303005584143057 0 9.2399344667028649e-05 0.0019999479096491006 0 -4.5886940057146229e-05 0.0017497965360436438 0 -1.1143677356151198e-05 0.0019592896185732936 0 -0.00013127667341737684 0.0017302360681387635 0 0.00053027015477930233 0.0020942374894619364 0 -1.1143677356151198e-05 0.0019592896185732936 0 0.00021047353773704898 0.0024453817154154438 0 -1.1143677356151198e-05 0.0019592896185732936 0 0.00021047353773704898 0.0024453817154154438 0 -0.00015485096796912225 0.0023921871776313303 0 0.00013559816109862301 0.0013531814230736347 0 0.0001615082787168399 0.0013789762611121339 0 7.7207943578045039e-05 0.0013765009954804829 0 0.00053027015477930233 0.0020942374894619364 0 0.00021047353773704898 0.0024453817154154438 0 0.00035822464523325233 0.0027711522074667142 0 6.8391555951055621e-05 0.0015303005584143057 0 0.00025052281377056849 0.0020967620269983201 0 6.8391555951055621e-05 0.0015303005584143057 0 -0.00043145893956497429 0.00094966751511994481 0 0.00013559816109862301 0.0013531814230736347 0 0.0001615082787168399 0.0013789762611121339 0 0.00019835741903985097 0.0014266929988727725 0 0.0001615082787168399 0.0013789762611121339 0 0.00016856918062170716 0.0013928542124712576 0 0.00017076661320417202 0.0013880527464737329 0 0.0001615082787168399 0.0013789762611121339 0 0.00016856918062170716 0.0013928542124712576 0 0.00019835741903985097 0.0014266929988727725 0 0.00010319543083713859 0.0013739265556508336 0 1.124103696959474e-05 0.001366686243871577 0 -1.0046788395938886e-05 0.0014111656134161716 0 0.00016856918062170716 0.0013928542124712576 0 0.00010319543083713859 0.0013739265556508336 0 0.00019835741903985097 0.0014266929988727725 0 0.00016856918062170716 0.0013928542124712576 0 0.00010319543083713859 0.0013739265556508336 0 0.00017076661320417202 0.0013880527464737329 0 0.00010319543083713859 0.0013739265556508336 0 0.00019835741903985097 0.0014266929988727725 0 1.124103696959474e-05 0.001366686243871577 0 -0.00098015051988367338 0.00067982116277535206 0 -0.0010539401867229274 0.0010539308761381616 0 -0.0013447754035157914 0.00080012131447840056 0 -0.00098015051988367338 0.00067982116277535206 0 -0.0010539401867229274 0.0010539308761381616 0 -0.00073225086983505982 0.00094441022309990315 0 -0.0010539401867229274 0.0010539308761381616 0 -0.0013447754035157914 0.00080012131447840056 0 -0.0013920294854473511 0.0011398186526846495 0 -0.00017826680325479946 0.00075470838613769711 0 -0.00073225086983505982 0.00094441022309990315 0 -0.00069436226790740374 0.0012815674144943871 0 -0.00017826680325479946 0.00075470838613769711 0 -0.00098015051988367338 0.00067982116277535206 0 -0.00073225086983505982 0.00094441022309990315 0 -0.0010539401867229274 0.0010539308761381616 0 -0.00073225086983505982 0.00094441022309990315 0 -0.00069436226790740374 0.0012815674144943871 0 -0.00069436226790740374 0.0012815674144943871 0 -0.0011313228308202682 0.0013983221161864112 0 -0.00072826574895675628 0.0017162887154178626 0 -0.00069436226790740374 0.0012815674144943871 0 -0.00072826574895675628 0.0017162887154178626 0 -0.00017783237334588269 0.0015957212755432718 0 -0.0010539401867229274 0.0010539308761381616 0 -0.00069436226790740374 0.0012815674144943871 0 -0.0011313228308202682 0.0013983221161864112 0 -0.0010539401867229274 0.0010539308761381616 0 -0.0011313228308202682 0.0013983221161864112 0 -0.0013920294854473511 0.0011398186526846495 0 -0.0011313228308202682 0.0013983221161864112 0 -0.00072826574895675628 0.0017162887154178626 0 -0.0013442987619419321 0.0017382898562848732 0 -0.0009039555063613461 0.0020322524229748865 0 -0.00072826574895675628 0.0017162887154178626 0 -0.0013442987619419321 0.0017382898562848732 0 -0.00053637191712894202 0.0020120763556871163 0 -0.00072826574895675628 0.0017162887154178626 0 -0.0003406722828634245 0.0018255889838062556 0 -0.00072826574895675628 0.0017162887154178626 0 -0.0003406722828634245 0.0018255889838062556 0 -0.00017783237334588269 0.0015957212755432718 0 -0.00024276651162841598 0.002012156112476017 0 -0.0003406722828634245 0.0018255889838062556 0 -0.00012558702028483469 0.0017833448474054668 0 -0.0003406722828634245 0.0018255889838062556 0 -0.00017783237334588269 0.0015957212755432718 0 -0.00012558702028483469 0.0017833448474054668 0 -7.6164994812061393e-05 0.0016992487454515616 0 3.1498569836275872e-05 0.00179238648907565 0 -0.00013127667341737684 0.0017302360681387635 0 -4.5886940057146229e-05 0.0017497965360436438 0 -7.6164994812061393e-05 0.0016992487454515616 0 -0.00013127667341737684 0.0017302360681387635 0 -4.5886940057146229e-05 0.0017497965360436438 0 -0.00017783237334588269 0.0015957212755432718 0 -7.6164994812061393e-05 0.0016992487454515616 0 -0.00017783237334588269 0.0015957212755432718 0 -7.6164994812061393e-05 0.0016992487454515616 0 -0.00012558702028483469 0.0017833448474054668 0 -7.6164994812061393e-05 0.0016992487454515616 0 -0.00012558702028483469 0.0017833448474054668 0 3.1498569836275872e-05 0.00179238648907565 0 -0.00012558702028483469 0.0017833448474054668 0 -9.3327727870822611e-05 0.0019210950045311739 0 3.1498569836275872e-05 0.00179238648907565 0 -0.00024276651162841598 0.002012156112476017 0 -0.00012558702028483469 0.0017833448474054668 0 -9.3327727870822611e-05 0.0019210950045311739 0 -1.8697293302095045e-05 0.0051207477520044883 0 -2.0864393990569389e-05 0.0050285367845310427 0 -0.00026813368477312578 0.003706989314333243 0 -0.00010004310677258118 0.0037700210067216676 0 -0.00014658073753100957 0.0035676902679425077 0 4.8851536286378062e-05 0.0065235825446671274 0 -2.5829016915115928e-06 0.0066010815688279144 0 -2.3030080289205424e-05 0.0065396257705743095 0 -2.5829016915115928e-06 0.0066010815688279144 0 -2.3030080289205424e-05 0.0065396257705743095 0 -4.5175086941127278e-05 0.0065911418036230535 0 -2.9852274326057497e-05 0.0034401852477848366 0 -0.00014658073753100957 0.0035676902679425077 0 -0.00018758947855666475 0.0033722535640359741 0 -0.00010004310677258118 0.0037700210067216676 0 -2.9852274326057497e-05 0.0034401852477848366 0 -0.00014658073753100957 0.0035676902679425077 0 -0.00012356728166063564 0.0028161431137049059 0 -0.00015035631634074373 0.0025553080956185184 0 -0.00026813368477312578 0.003706989314333243 0 -0.00014658073753100957 0.0035676902679425077 0 -0.00018758947855666475 0.0033722535640359741 0 -8.8552133765462711e-05 0.0064815058625982674 0 -9.8220753812470321e-05 0.006572147822755438 0 -6.0068042529040011e-05 0.0065678247348781487 0 0.00057143776842879103 0.008086175386528862 0 -0.0002691330711618001 0.0063444870443898896 0 -9.8220753812470321e-05 0.006572147822755438 0 -6.0068042529040011e-05 0.0065678247348781487 0 -7.4013301551894916e-05 0.0066090663357148494 0 -6.0068042529040011e-05 0.0065678247348781487 0 -2.3030080289205424e-05 0.0065396257705743095 0 -4.5175086941127278e-05 0.0065911418036230535 0 -2.5829016915115928e-06 0.0066010815688279144 0 -4.5175086941127278e-05 0.0065911418036230535 0 -6.1007255003140444e-05 0.0066257911184481677 0 -4.5175086941127278e-05 0.0065911418036230535 0 -7.4013301551894916e-05 0.0066090663357148494 0 -6.1007255003140444e-05 0.0066257911184481677 0 -6.0068042529040011e-05 0.0065678247348781487 0 -4.5175086941127278e-05 0.0065911418036230535 0 -7.4013301551894916e-05 0.0066090663357148494 0 0.0010386224140741542 0.0098113548990391534 0 0.0010951424612339698 0.0097656632855297465 0 0.0010721779781962871 0.0098368863127791945 0 -7.0200257550362803e-05 0.0066118477926645491 0 -7.4013301551894916e-05 0.0066090663357148494 0 -8.2329189142877295e-05 0.0066282313458412984 0 -7.4013301551894916e-05 0.0066090663357148494 0 -8.2329189142877295e-05 0.0066282313458412984 0 -6.1007255003140444e-05 0.0066257911184481677 0 0.00057143776842879103 0.008086175386528862 0 0.00054529517804905792 0.0081678942463292627 0 -8.2329189142877295e-05 0.0066282313458412984 0 -7.4490022743724344e-05 0.0066399100103035607 0 -8.4057866449526356e-05 0.0066560063546021626 0 -8.2329189142877295e-05 0.0066282313458412984 0 -7.4490022743724344e-05 0.0066399100103035607 0 -6.1007255003140444e-05 0.0066257911184481677 0 0.00054529517804905792 0.0081678942463292627 0 -0.00014473114327712087 0.0086677464180557814 0 -7.4490022743724344e-05 0.0066399100103035607 0 -6.1007255003140444e-05 0.0066257911184481677 0 -7.4409702930137016e-05 0.0066465605384825243 0 -6.1007255003140444e-05 0.0066257911184481677 0 -7.4409702930137016e-05 0.0066465605384825243 0 -6.0749418413709961e-05 0.0066415415220576193 0 -7.4409702930137016e-05 0.0066465605384825243 0 -6.0749418413709961e-05 0.0066415415220576193 0 -0.00012836140543354171 0.0065975663979767367 0 -7.4409702930137016e-05 0.0066465605384825243 0 -7.8988826934957206e-05 0.0066463966601795809 0 -7.7400836249778487e-05 0.0066443681108353291 0 -7.4490022743724344e-05 0.0066399100103035607 0 -7.4409702930137016e-05 0.0066465605384825243 0 -7.8988826934957206e-05 0.0066463966601795809 0 -7.4490022743724344e-05 0.0066399100103035607 0 -7.8988826934957206e-05 0.0066463966601795809 0 -8.4057866449526356e-05 0.0066560063546021626 0 -0.00040480197113268776 0.0070840824549143946 0 -0.00014473114327712087 0.0086677464180557814 0 -7.8988826934957206e-05 0.0066463966601795809 0 -9.4092267731897341e-05 0.0066428808146171379 0 -7.7400836249778487e-05 0.0066443681108353291 0 -2.9852274326057497e-05 0.0034401852477848366 0 -0.00018758947855666475 0.0033722535640359741 0 -8.5436960078307463e-05 0.0033055539064926536 0 -0.00018758947855666475 0.0033722535640359741 0 -8.5436960078307463e-05 0.0033055539064926536 0 -9.5855244854603088e-05 0.0032171452382658951 0 -1.1143677356151198e-05 0.0019592896185732936 0 -0.00013127667341737684 0.0017302360681387635 0 -0.00015485096796912225 0.0023921871776313303 0 -0.00015035631634074373 0.0025553080956185184 0 -0.00010840609472763271 0.0028098958468587149 0 -2.5829016915115928e-06 0.0066010815688279144 0 -6.1007255003140444e-05 0.0066257911184481677 0 -6.0749418413709961e-05 0.0066415415220576193 0 -2.0864393990569389e-05 0.0050285367845310427 0 -5.5501331687761258e-05 0.0049383581150783803 0 -2.9852274326057497e-05 0.0034401852477848366 0 -8.5436960078307463e-05 0.0033055539064926536 0 -4.1166803658706957e-05 0.0032341185366140204 0 -4.1166803658706957e-05 0.0032341185366140204 0 -9.5855244854603088e-05 0.0032171452382658951 0 -6.2879454876914095e-05 0.0032175975893449808 0 -8.5436960078307463e-05 0.0033055539064926536 0 -4.1166803658706957e-05 0.0032341185366140204 0 -9.5855244854603088e-05 0.0032171452382658951 0 -0.00015485096796912225 0.0023921871776313303 0 4.5532698704228423e-05 0.003192961857069999 0 0.00028816037637931723 0.002796398993158403 0 -0.00010840609472763271 0.0028098958468587149 0 7.0913870100118429e-06 0.0031558933219674019 0 -9.5855244854603088e-05 0.0032171452382658951 0 -6.2879454876914095e-05 0.0032175975893449808 0 4.5532698704228423e-05 0.003192961857069999 0 -6.2879454876914095e-05 0.0032175975893449808 0 4.5532698704228423e-05 0.003192961857069999 0 -0.00019278102171039587 0.0032786196529936565 0 -4.1166803658706957e-05 0.0032341185366140204 0 -6.2879454876914095e-05 0.0032175975893449808 0 -0.00019278102171039587 0.0032786196529936565 0 4.5532698704228423e-05 0.003192961857069999 0 -0.00019278102171039587 0.0032786196529936565 0 4.5543420074496273e-06 0.0038544038972956394 0 4.5532698704228423e-05 0.003192961857069999 0 0.00025670353510746913 0.00294076268516679 0 0.00028816037637931723 0.002796398993158403 0 -9.4092267731897341e-05 0.0066428808146171379 0 -7.7400836249778487e-05 0.0066443681108353291 0 -0.00011408323769098885 0.0066944798187041936 0 -0.00014473114327712087 0.0086677464180557814 0 -0.00065434558592969232 0.0078626173623749743 0 0.00025086311047468679 0.0062336710663203595 0 -0.00065434558592969232 0.0078626173623749743 0 -7.7400836249778487e-05 0.0066443681108353291 0 -5.1301778846764381e-05 0.0065468759974430836 0 6.8670660712046602e-05 0.0065269637270148817 0 -5.5501331687761258e-05 0.0049383581150783803 0 -0.00015922865310278607 0.0049476533400220251 0 -7.4409702930137016e-05 0.0066465605384825243 0 -7.7400836249778487e-05 0.0066443681108353291 0 -0.00012836140543354171 0.0065975663979767367 0 -7.7400836249778487e-05 0.0066443681108353291 0 -0.00012836140543354171 0.0065975663979767367 0 -5.1301778846764381e-05 0.0065468759974430836 0 -0.00019278102171039587 0.0032786196529936565 0 -0.00038949004887856541 0.0040483036458956283 0 4.5543420074496273e-06 0.0038544038972956394 0 -0.00012836140543354171 0.0065975663979767367 0 -5.1301778846764381e-05 0.0065468759974430836 0 -0.00011680245107185193 0.0063222365643049666 0 -0.00015922865310278607 0.0049476533400220251 0 -0.00019996963865480158 0.0051690289618973794 0 -5.1301778846764381e-05 0.0065468759974430836 0 6.8670660712046602e-05 0.0065269637270148817 0 -0.00011680245107185193 0.0063222365643049666 0 9.5896652029327521e-05 0.0062737610006438826 0 6.8670660712046602e-05 0.0065269637270148817 0 -0.00011680245107185193 0.0063222365643049666 0 -0.00038949004887856541 0.0040483036458956283 0 3.0076245759847343e-07 0.0050271338021863309 0 4.5543420074496273e-06 0.0038544038972956394 0 -0.00038949004887856541 0.0040483036458956283 0 3.0076245759847343e-07 0.0050271338021863309 0 -1.4327122460234052e-06 0.0059269879955264181 0 9.5896652029327521e-05 0.0062737610006438826 0 -0.00011680245107185193 0.0063222365643049666 0 7.3515626571648005e-08 0.0059322757442186831 0 9.5896652029327521e-05 0.0062737610006438826 0 -3.8013183816600397e-08 0.0064583619472586874 0 7.3515626571648005e-08 0.0059322757442186831 0 -0.00019996963865480158 0.0051690289618973794 0 -8.6580124770519837e-08 0.0059287303254749275 0 4.5532698704228423e-05 0.003192961857069999 0 4.5543420074496273e-06 0.0038544038972956394 0 0.00026999832469463487 0.0035624376545338966 0 4.5532698704228423e-05 0.003192961857069999 0 0.00026999832469463487 0.0035624376545338966 0 0.00025670353510746913 0.00294076268516679 0 3.0076245759847343e-07 0.0050271338021863309 0 4.5543420074496273e-06 0.0038544038972956394 0 3.7086508282735154e-07 0.0041268451874743282 0 -8.0604052496545157e-07 0.0041241352149547156 0 4.9434407316721105e-07 0.0028013519980129653 0 7.2105425811539169e-06 0.0023585987558090433 0 1.0888633573228026e-07 0.0041250548066436941 0 0.0001666980741360283 0.0029734883794296156 0 4.5543420074496273e-06 0.0038544038972956394 0 3.7086508282735154e-07 0.0041268451874743282 0 0.00026999832469463487 0.0035624376545338966 0 4.9434407316721105e-07 0.0028013519980129653 0 0.00011893492557188153 0.0021666189127388861 0 7.2105425811539169e-06 0.0023585987558090433 0 4.9434407316721105e-07 0.0028013519980129653 0 0.00011893492557188153 0.0021666189127388861 0 1.5364183217393908e-07 0.0014776433558450323 0 0.00011893492557188153 0.0021666189127388861 0 0.00011678041914927835 0.0016763284954144401 0 1.5364183217393908e-07 0.0014776433558450323 0 0.00011893492557188153 0.0021666189127388861 0 0.00011678041914927835 0.0016763284954144401 0 0.00014023399650839528 0.00204176376616199 0 0.00011678041914927835 0.0016763284954144401 0 0.00014023399650839528 0.00204176376616199 0 0.00017684838199987722 0.0016421437507503983 0 0.00014023399650839528 0.00204176376616199 0 0.00021275970684668578 0.0015656357010470404 0 0.00017684838199987722 0.0016421437507503983 0 0.0001666980741360283 0.0029734883794296156 0 0.00023480843483531755 0.0024495380409432972 0 0.00014023399650839528 0.00204176376616199 0 7.2105425811539169e-06 0.0023585987558090433 0 0.00027384513722917214 0.002337116375487446 0 0.00026999832469463487 0.0035624376545338966 0 0.00025670353510746913 0.00294076268516679 0 0.00027384513722917214 0.002337116375487446 0 0.00011893492557188153 0.0021666189127388861 0 0.00014023399650839528 0.00204176376616199 0 7.2105425811539169e-06 0.0023585987558090433 0 0.00025670353510746913 0.00294076268516679 0 0.00027384513722917214 0.002337116375487446 0 0.00028816037637931723 0.002796398993158403 0 0.00027384513722917214 0.002337116375487446 0 0.00035822464523325233 0.0027711522074667142 0 0.00028816037637931723 0.002796398993158403 0 0.00014023399650839528 0.00204176376616199 0 0.00027384513722917214 0.002337116375487446 0 0.00035822464523325233 0.0027711522074667142 0 0.00014023399650839528 0.00204176376616199 0 7.7207943578045039e-05 0.0013765009954804829 0 0.00021275970684668578 0.0015656357010470404 0 0.0001468368063213634 0.0020143129819778956 0 0.00025052281377056849 0.0020967620269983201 0 7.7207943578045039e-05 0.0013765009954804829 0 0.00017934272908893135 0.0014067142769530463 0 0.00021275970684668578 0.0015656357010470404 0 0.00021047353773704898 0.0024453817154154438 0 -0.00015485096796912225 0.0023921871776313303 0 0.00028816037637931723 0.002796398993158403 0 0.00021047353773704898 0.0024453817154154438 0 0.00035822464523325233 0.0027711522074667142 0 0.00028816037637931723 0.002796398993158403 0 0.00010319543083713859 0.0013739265556508336 0 0.00012714141466913659 0.0013752040642754145 0 -1.0046788395938886e-05 0.0014111656134161716 0 0.00012714141466913659 0.0013752040642754145 0 0.00011702413639235349 0.0013120857559004333 0 -1.0046788395938886e-05 0.0014111656134161716 0 0.00012714141466913659 0.0013752040642754145 0 0.00017076661320417202 0.0013880527464737329 0 0.00020138002471204716 0.0014027103315277459 0 0.00012714141466913659 0.0013752040642754145 0 0.00020138002471204716 0.0014027103315277459 0 0.00011702413639235349 0.0013120857559004333 0 0.00010319543083713859 0.0013739265556508336 0 0.00012714141466913659 0.0013752040642754145 0 0.00017076661320417202 0.0013880527464737329 0 0.0001615082787168399 0.0013789762611121339 0 0.00017076661320417202 0.0013880527464737329 0 0.00017934272908893135 0.0014067142769530463 0 0.0001615082787168399 0.0013789762611121339 0 7.7207943578045039e-05 0.0013765009954804829 0 0.00017934272908893135 0.0014067142769530463 0 0.00017076661320417202 0.0013880527464737329 0 0.00017934272908893135 0.0014067142769530463 0 0.00020138002471204716 0.0014027103315277459 0 0.00017934272908893135 0.0014067142769530463 0 0.00020138002471204716 0.0014027103315277459 0 0.00021275970684668578 0.0015656357010470404 0 0.00021275970684668578 0.0015656357010470404 0 0.00020212650905103864 0.0014476230951374076 0 0.00017684838199987722 0.0016421437507503983 0 0.00020138002471204716 0.0014027103315277459 0 0.00020212650905103864 0.0014476230951374076 0 0.00017487067463744013 0.00122129456005009 0 0.00020138002471204716 0.0014027103315277459 0 0.00021275970684668578 0.0015656357010470404 0 0.00020212650905103864 0.0014476230951374076 0 0.00020138002471204716 0.0014027103315277459 0 0.00011702413639235349 0.0013120857559004333 0 0.00017487067463744013 0.00122129456005009 0 0.00011702413639235349 0.0013120857559004333 0 0.00017487067463744013 0.00122129456005009 0 2.6544511031218998e-05 0.0011079495862059828 0 0.00017487067463744013 0.00122129456005009 0 5.129333273506564e-05 0.0006343729867597154 0 2.6544511031218998e-05 0.0011079495862059828 0 0.00017487067463744013 0.00122129456005009 0 0.00012845617030349818 0.00096064954629426942 0 0.00017287014386725003 0.0013801600453246551 0 0.00017487067463744013 0.00122129456005009 0 0.00012845617030349818 0.00096064954629426942 0 5.129333273506564e-05 0.0006343729867597154 0 0.00020212650905103864 0.0014476230951374076 0 0.00017684838199987722 0.0016421437507503983 0 0.00017287014386725003 0.0013801600453246551 0 0.00020212650905103864 0.0014476230951374076 0 0.00017487067463744013 0.00122129456005009 0 0.00017287014386725003 0.0013801600453246551 0 0.00012845617030349818 0.00096064954629426942 0 0.00017287014386725003 0.0013801600453246551 0 0.00011634480284470482 0.0011827658007214812 0 0.00011678041914927835 0.0016763284954144401 0 0.00017287014386725003 0.0013801600453246551 0 0.00011634480284470482 0.0011827658007214812 0 0.00011678041914927835 0.0016763284954144401 0 0.00017684838199987722 0.0016421437507503983 0 0.00017287014386725003 0.0013801600453246551 0 0.00011678041914927835 0.0016763284954144401 0 1.5364183217393908e-07 0.0014776433558450323 0 0.00011634480284470482 0.0011827658007214812 0 1.5364183217393908e-07 0.0014776433558450323 0 0.00011634480284470482 0.0011827658007214812 0 8.5035260761056323e-07 0.00015344036196448502 0 0.00012845617030349818 0.00096064954629426942 0 8.5035260761056323e-07 0.00015344036196448502 0 5.129333273506564e-05 0.0006343729867597154 0 0.00012845617030349818 0.00096064954629426942 0 0.00011634480284470482 0.0011827658007214812 0 8.5035260761056323e-07 0.00015344036196448502 0 8.5035260761056323e-07 0.00015344036196448502 0 -6.9802835428584649e-05 6.4734106624986002e-05 0 5.129333273506564e-05 0.0006343729867597154 0 8.5035260761056323e-07 0.00015344036196448502 0 -6.9802835428584649e-05 6.4734106624986002e-05 0 -1.9418346365040211e-06 -0.0011682452318006785 0 -3.3350763602424354e-07 -0.0011697878602911441 0 -0.00060052542704637979 -0.0013650997853637923 0 -3.3035868523752322e-09 -0.0011731892651519963 0 -3.910972593580965e-06 -0.00142309160160363 0 -1.5476652463310822e-09 -0.0018972725087019915 0 -6.9802835428584649e-05 6.4734106624986002e-05 0 -1.9418346365040211e-06 -0.0011682452318006785 0 -0.00075200055564571201 0.00025198409008718572 0 -0.00060052542704637979 -0.0013650997853637923 0 -0.00034088669876353108 0.00072922184363873705 0 -0.00086258993068292827 -0.00072857683513836069 0 -0.0010591686071287189 -3.8614600576852573e-05 0 -0.00047812192911630025 -1.3500220985640513e-07 0 -0.00060052542704637979 -0.0013650997853637923 0 -0.0009266607568707701 -0.0021909451501417655 0 -6.9802835428584649e-05 6.4734106624986002e-05 0 -0.00075200055564571201 0.00025198409008718572 0 -0.00029092740820783636 0.0011372562904519989 0 -6.9802835428584649e-05 6.4734106624986002e-05 0 5.129333273506564e-05 0.0006343729867597154 0 -0.00029092740820783636 0.0011372562904519989 0 5.129333273506564e-05 0.0006343729867597154 0 2.6544511031218998e-05 0.0011079495862059828 0 -0.00029092740820783636 0.0011372562904519989 0 -0.00011739794175980369 -0.0031657935093986154 0 -6.8003154499547032e-05 -0.0040244430481467721 0 7.9114987072776181e-07 -0.0032597942860442945 0 -0.00011739794175980369 -0.0031657935093986154 0 -2.6648416240242667e-06 -0.0019024517713065465 0 7.9114987072776181e-07 -0.0032597942860442945 0 -0.0011092815378501936 -0.0034934099091099451 0 -0.00011739794175980369 -0.0031657935093986154 0 -2.6648416240242667e-06 -0.0019024517713065465 0 -0.00060052542704637979 -0.0013650997853637923 0 -5.9102388575318653e-07 -0.0019008756264596775 0 -0.0011092815378501936 -0.0034934099091099451 0 -0.00011739794175980369 -0.0031657935093986154 0 -0.0007101599932702148 -0.0038079741862074292 0 -0.0011092815378501936 -0.0034934099091099451 0 -0.0007101599932702148 -0.0038079741862074292 0 -0.00082833958276166812 -0.0041247172565087916 0 -0.0007101599932702148 -0.0038079741862074292 0 -6.8003154499547032e-05 -0.0040244430481467721 0 -0.00031219807401633838 -0.0050112882245640514 0 -0.00011739794175980369 -0.0031657935093986154 0 -0.0007101599932702148 -0.0038079741862074292 0 -6.8003154499547032e-05 -0.0040244430481467721 0 -0.00075027903799775454 -0.0038797048509161469 0 -0.00019778234635017567 -0.0046529398502163314 0 -6.8003154499547032e-05 -0.0040244430481467721 0 -0.00031219807401633838 -0.0050112882245640514 0 -1.3483454577646517e-05 -0.0047362070662466506 0 -0.0010591686071287189 -3.8614600576852573e-05 0 -0.0012352834161140037 0.00061724462459049876 0 -0.00089648847314752677 0.00026465588908975118 0 -0.00061572379517735125 -0.0042430327462209946 0 -0.00082833958276166812 -0.0041247172565087916 0 -0.00071018329453066611 -0.0044327831802295665 0 -0.0009266607568707701 -0.0021909451501417655 0 -0.0011377340734095294 -0.0018690194096151558 0 -0.0007101599932702148 -0.0038079741862074292 0 -0.0003862146516366554 -0.0042602596505926698 0 -0.00061572379517735125 -0.0042430327462209946 0 -0.0007101599932702148 -0.0038079741862074292 0 -0.00061572379517735125 -0.0042430327462209946 0 -0.00082833958276166812 -0.0041247172565087916 0 -0.0017484889934678131 -0.0032705398354344836 0 -0.0016277568735766415 -0.0033178353643595533 0 -0.0017205487380569566 -0.0033835567020232089 0 -0.0011377340734095294 -0.0018690194096151558 0 -0.0018700879081204971 -0.0011216979282946244 0 -0.00061572379517735125 -0.0042430327462209946 0 -0.00071018329453066611 -0.0044327831802295665 0 -0.00038630428956616989 -0.0045083203387330621 0 -0.0012278658004528694 0.00061402818097605876 0 -0.00088374103282928785 0.00087017492219513312 0 -0.0014000084113120147 0.0011945302676733211 0 -0.0012352834161140037 0.00061724462459049876 0 -0.0010112274497115427 0.0005708044413304114 0 -0.00089648847314752677 0.00026465588908975118 0 -0.0011377340734095294 -0.0018690194096151558 0 -0.0013471709610367165 -0.0010417215595093462 0 -0.0012278658004528694 0.00061402818097605876 0 -0.0010112274497115427 0.0005708044413304114 0 -0.00088374103282928785 0.00087017492219513312 0 -0.0011377340734095294 -0.0018690194096151558 0 -0.00099423899255370756 -0.0039369111751761665 0 -0.0003862146516366554 -0.0042602596505926698 0 -0.00061572379517735125 -0.0042430327462209946 0 -0.00038630428956616989 -0.0045083203387330621 0 2.6544511031218998e-05 0.0011079495862059828 0 -0.00029092740820783636 0.0011372562904519989 0 -1.0046788395938886e-05 0.0014111656134161716 0 -0.00047812192911630025 -1.3500220985640513e-07 0 -0.00056092382834212282 0.00050764704054209883 0 -0.00014781334593473507 0.00073116780886189729 0 0.00011702413639235349 0.0013120857559004333 0 2.6544511031218998e-05 0.0011079495862059828 0 -1.0046788395938886e-05 0.0014111656134161716 0 -0.00034088669876353108 0.00072922184363873705 0 -0.00011350083106685494 0.0010285056190066594 0 -0.0010591686071287189 -3.8614600576852573e-05 0 -0.00047812192911630025 -1.3500220985640513e-07 0 -0.00089648847314752677 0.00026465588908975118 0 -0.00047812192911630025 -1.3500220985640513e-07 0 -0.00089648847314752677 0.00026465588908975118 0 -0.00056092382834212282 0.00050764704054209883 0 -0.00056092382834212282 0.00050764704054209883 0 -0.00053405285086833296 0.00086635794132115058 0 -0.00014781334593473507 0.00073116780886189729 0 -0.00056092382834212282 0.00050764704054209883 0 -0.00077692345685853104 0.00061820414884451247 0 -0.00053405285086833296 0.00086635794132115058 0 -0.0010112274497115427 0.0005708044413304114 0 -0.00089648847314752677 0.00026465588908975118 0 -0.00077692345685853104 0.00061820414884451247 0 -0.00089648847314752677 0.00026465588908975118 0 -0.00056092382834212282 0.00050764704054209883 0 -0.00077692345685853104 0.00061820414884451247 0 -0.00077692345685853104 0.00061820414884451247 0 -0.00088374103282928785 0.00087017492219513312 0 -0.00053405285086833296 0.00086635794132115058 0 -0.0010112274497115427 0.0005708044413304114 0 -0.00077692345685853104 0.00061820414884451247 0 -0.00088374103282928785 0.00087017492219513312 0 -0.00053405285086833296 0.00086635794132115058 0 -0.00014781334593473507 0.00073116780886189729 0 -0.00024933426973194753 0.001079272497087581 0 -0.00043145893956497429 0.00094966751511994481 0 -0.00098513286553786913 0.0012431127327121041 0 1.124103696959474e-05 0.001366686243871577 0 -0.00024933426973194753 0.001079272497087581 0 -0.00038548846854053977 0.0013158110876572598 0 1.6877407330965955e-05 0.0013414896166993014 0 -0.00011350083106685494 0.0010285056190066594 0 0.00019835741903985097 0.0014266929988727725 0 1.124103696959474e-05 0.001366686243871577 0 -0.00038548846854053977 0.0013158110876572598 0 1.124103696959474e-05 0.001366686243871577 0 -0.00014781334593473507 0.00073116780886189729 0 -0.00024933426973194753 0.001079272497087581 0 -0.00098015051988367338 0.00067982116277535206 0 -0.0013447754035157914 0.00080012131447840056 0 -0.0016668166631417366 0.00062376767053587509 0 -0.00053405285086833296 0.00086635794132115058 0 -0.00024933426973194753 0.001079272497087581 0 -0.00038548846854053977 0.0013158110876572598 0 -0.0013447754035157914 0.00080012131447840056 0 -0.0015956026638928905 0.00078908654777869256 0 -0.0016668166631417366 0.00062376767053587509 0 -0.0015956026638928905 0.00078908654777869256 0 -0.0015713039864532635 0.00093755610524225846 0 -0.0017886783325131452 0.00079343983514795888 0 -0.0013447754035157914 0.00080012131447840056 0 -0.0015956026638928905 0.00078908654777869256 0 -0.0015713039864532635 0.00093755610524225846 0 -0.0015713039864532635 0.00093755610524225846 0 -0.0013920294854473511 0.0011398186526846495 0 -0.0017183032322725252 0.0011300721349046482 0 -0.0013447754035157914 0.00080012131447840056 0 -0.0015713039864532635 0.00093755610524225846 0 -0.0013920294854473511 0.0011398186526846495 0 -0.0017886783325131452 0.00079343983514795888 0 -0.0020315243987246 0.001119498877511664 0 -0.0017183032322725252 0.0011300721349046482 0 -0.0015713039864532635 0.00093755610524225846 0 -0.0017886783325131452 0.00079343983514795888 0 -0.0017183032322725252 0.0011300721349046482 0 -0.00088374103282928785 0.00087017492219513312 0 -0.00038548846854053977 0.0013158110876572598 0 -0.0014000084113120147 0.0011945302676733211 0 -0.0017886783325131452 0.00079343983514795888 0 -0.0016668166631417366 0.00062376767053587509 0 -0.0022139700686209735 0.000545829596055735 0 -0.00098513286553786913 0.0012431127327121041 0 -0.0018700879081204971 -0.0011216979282946244 0 -0.0015956026638928905 0.00078908654777869256 0 -0.0017886783325131452 0.00079343983514795888 0 -0.0016668166631417366 0.00062376767053587509 0 -0.00088374103282928785 0.00087017492219513312 0 -0.00053405285086833296 0.00086635794132115058 0 -0.00038548846854053977 0.0013158110876572598 0 -0.0016277568735766415 -0.0033178353643595533 0 -0.0017205487380569566 -0.0033835567020232089 0 -0.0015403646891467141 -0.0033973212783451434 0 -0.0026923648993479221 -0.0033511112824881162 0 -0.0026672181741754608 -0.0034572254541733664 0 -0.0025615248085077182 -0.0033605516155018216 0 -0.0018700879081204971 -0.0011216979282946244 0 -0.002683279279141154 -0.0050173277152813917 0 -0.0026672181741754608 -0.0034572254541733664 0 -0.0025847487949832841 -0.0034997506853316012 0 -0.0025615248085077182 -0.0033605516155018216 0 -0.0025572536151428496 -0.0011010474453397071 0 -0.0027389075923022897 -0.0057734968961526845 0 -0.0017886783325131452 0.00079343983514795888 0 -0.0024217992939535669 0.0010046353986362046 0 -0.0020315243987246 0.001119498877511664 0 -0.0018249977086462112 0.0013798882874703669 0 -0.0025572536151428496 -0.0011010474453397071 0 -0.0018700879081204971 -0.0011216979282946244 0 -0.0025572536151428496 -0.0011010474453397071 0 -0.0017886783325131452 0.00079343983514795888 0 -0.0022139700686209735 0.000545829596055735 0 -0.0023202732473284592 0.00090732032438900956 0 -0.0020315243987246 0.001119498877511664 0 -0.0022609448574609976 0.0012833820578959801 0 -0.0019455514786410129 0.0013831615613722128 0 -0.0022609448574609976 0.0012833820578959801 0 -0.0025120079970093593 0.0014322298862111044 0 -0.0021766682256346621 0.0015875017689327149 0 -0.0024217992939535669 0.0010046353986362046 0 -0.0020315243987246 0.001119498877511664 0 -0.0022609448574609976 0.0012833820578959801 0 -0.0022609448574609976 0.0012833820578959801 0 -0.0021766682256346621 0.0015875017689327149 0 -0.0019455514786410129 0.0013831615613722128 0 -0.0024217992939535669 0.0010046353986362046 0 -0.0022609448574609976 0.0012833820578959801 0 -0.0025120079970093593 0.0014322298862111044 0 -0.0027465176406191076 -0.0030034761205321656 0 -0.0027162082115342926 -0.00309984537522308 0 -0.0026679327737150226 -0.0030461050890339581 0 -0.0027162082115342926 -0.00309984537522308 0 -0.0026804402317268817 -0.0031168301676778921 0 -0.0026679327737150226 -0.0030461050890339581 0 -0.0025572536151428496 -0.0011010474453397071 0 -0.002699434422955671 -0.00045494376428827164 0 -0.0027162082115342926 -0.00309984537522308 0 -0.0026804402317268817 -0.0031168301676778921 0 -0.0026809936920941064 -0.0031740513694720422 0 -0.0025884293269868128 -0.0059181504755036153 0 -0.002540851032454665 -0.0027481732347314925 0 -0.002699434422955671 -0.00045494376428827164 0 -0.002540851032454665 -0.0027481732347314925 0 -0.0025120079970093593 0.0014322298862111044 0 -0.0023274726888858391 0.0017964823544473281 0 -0.0025718629060209925 0.0018040822955534789 0 -0.0025120079970093593 0.0014322298862111044 0 -0.0021766682256346621 0.0015875017689327149 0 -0.0023274726888858391 0.0017964823544473281 0 -0.0021766682256346621 0.0015875017689327149 0 -0.0018203698990036964 0.0017676913633938589 0 -0.0021416164630255054 0.0018662413378363271 0 -0.0021766682256346621 0.0015875017689327149 0 -0.0021416164630255054 0.0018662413378363271 0 -0.0023274726888858391 0.0017964823544473281 0 -0.0018203698990036964 0.0017676913633938589 0 -0.0015447161523863371 0.0014488018859634946 0 -0.0019455514786410129 0.0013831615613722128 0 -0.0021766682256346621 0.0015875017689327149 0 -0.0018203698990036964 0.0017676913633938589 0 -0.0019455514786410129 0.0013831615613722128 0 -0.0011313228308202682 0.0013983221161864112 0 -0.0013442987619419321 0.0017382898562848732 0 -0.0015447161523863371 0.0014488018859634946 0 -0.0018203698990036964 0.0017676913633938589 0 -0.0013442987619419321 0.0017382898562848732 0 -0.0014833009213196025 0.0019557176498887674 0 -0.0018203698990036964 0.0017676913633938589 0 -0.0013442987619419321 0.0017382898562848732 0 -0.0015447161523863371 0.0014488018859634946 0 -0.0011313228308202682 0.0013983221161864112 0 -0.0015447161523863371 0.0014488018859634946 0 -0.0013920294854473511 0.0011398186526846495 0 -0.0015447161523863371 0.0014488018859634946 0 -0.0013920294854473511 0.0011398186526846495 0 -0.0017183032322725252 0.0011300721349046482 0 -0.0015447161523863371 0.0014488018859634946 0 -0.0017183032322725252 0.0011300721349046482 0 -0.0019455514786410129 0.0013831615613722128 0 -0.0020315243987246 0.001119498877511664 0 -0.0017183032322725252 0.0011300721349046482 0 -0.0019455514786410129 0.0013831615613722128 0 -0.00186335857554806 -0.0089358413901009844 0 -0.0013319690153712825 -0.0094216710422954601 0 -0.0024470534752696256 -0.0087596935113726845 0 -0.0011163950248555814 -0.0088482767806857855 0 -0.0024883657690304988 -0.0086536590422639642 0 -0.00186335857554806 -0.0089358413901009844 0 -0.0012186827956905434 -0.0088172104545448521 0 -0.0019868931731254719 -0.0079067244868830551 0 -0.00186335857554806 -0.0089358413901009844 0 -0.0024840493228991743 -0.0087226756163875426 0 -0.0019868931731254719 -0.0079067244868830551 0 -0.0010417570466042805 -0.0090238596998059358 0 -0.0025857544255835558 -0.0081558669652796768 0 -0.0026238328193616614 -0.0080471298108724647 0 -0.00186335857554806 -0.0089358413901009844 0 -0.0012186827956905434 -0.0088172104545448521 0 -0.0013319690153712825 -0.0094216710422954601 0 -0.0012186827956905434 -0.0088172104545448521 0 -0.0008440030146374917 -0.0090115438006638515 0 -0.0007659614255777137 -0.0084972342736451753 0 -0.0012186827956905434 -0.0088172104545448521 0 -0.0008440030146374917 -0.0090115438006638515 0 -0.0013319690153712825 -0.0094216710422954601 0 -0.0011163950248555814 -0.0088482767806857855 0 -0.00076404063937297786 -0.01229204015512143 0 -0.0008440030146374917 -0.0090115438006638515 0 -0.0013319690153712825 -0.0094216710422954601 0 -0.00059785603339862904 -0.0093924994114404064 0 -0.0010417570466042805 -0.0090238596998059358 0 -0.0022510729666919554 -0.0093960192044019019 0 -0.0014587568618218327 -0.010168973851665311 0 -0.0010417570466042805 -0.0090238596998059358 0 -0.0022510729666919554 -0.0093960192044019019 0 -0.0025857544255835558 -0.0081558669652796768 0 -0.0025546011820735391 -0.0077941988795027662 0 -0.0025259411628682869 -0.0080371025996443975 0 -0.0025857544255835558 -0.0081558669652796768 0 -0.0022510729666919554 -0.0093960192044019019 0 -0.0032964325653324642 -0.009405848098508824 0 -0.0025857544255835558 -0.0081558669652796768 0 -0.0030460860198658823 -0.0088056861721853927 0 -0.002564741082509822 -0.0080891576149448724 0 -0.0025546011820735391 -0.0077941988795027662 0 -0.0023606037321740195 -0.0079546552432828658 0 -0.0022972864398452752 -0.0076633097967521843 0 -0.0025546011820735391 -0.0077941988795027662 0 -0.0023606037321740195 -0.0079546552432828658 0 -0.0025259411628682869 -0.0080371025996443975 0 -0.0024883657690304988 -0.0086536590422639642 0 -0.0032117174479099468 -0.0082486105867863382 0 -0.0034404783026671108 -0.0083852866878284631 0 -0.0024921799463458435 -0.0086561846977143281 0 -0.0032885508611943106 -0.0081958621109002698 0 -0.002424691104882833 -0.0081448275659837342 0 -0.0025259411628682869 -0.0080371025996443975 0 -0.0026238328193616614 -0.0080471298108724647 0 -0.0025884293269868128 -0.0059181504755036153 0 -0.0027389075923022897 -0.0057734968961526845 0 -0.0027389075923022897 -0.0057734968961526845 0 -0.0024883657690304988 -0.0086536590422639642 0 -0.0023606037321740195 -0.0079546552432828658 0 -0.002424691104882833 -0.0081448275659837342 0 -0.0025259411628682869 -0.0080371025996443975 0 -0.0019441930249121553 -0.0088932196585719651 0 -0.0024883657690304988 -0.0086536590422639642 0 -0.0025259411628682869 -0.0080371025996443975 0 -0.0025857544255835558 -0.0081558669652796768 0 -0.0026238328193616614 -0.0080471298108724647 0 -0.0027080276852922327 -0.0081705871148562807 0 -0.0029032601142413217 -0.0076618543302494754 0 -0.0019868931731254719 -0.0079067244868830551 0 -0.0024840493228991743 -0.0087226756163875426 0 -0.0027080276852922327 -0.0081705871148562807 0 -0.0019868931731254719 -0.0079067244868830551 0 -0.0024840493228991743 -0.0087226756163875426 0 -0.0027080276852922327 -0.0081705871148562807 0 -0.0032885508611943106 -0.0081958621109002698 0 -0.0027389075923022897 -0.0057734968961526845 0 -0.002683279279141154 -0.0050173277152813917 0 -0.0034404783026671108 -0.0083852866878284631 0 -0.0032885508611943106 -0.0081958621109002698 0 -0.0032312228271122699 -0.0070642919405935339 0 -0.0032885508611943106 -0.0081958621109002698 0 -0.0029032601142413217 -0.0076618543302494754 0 -0.0032312228271122699 -0.0070642919405935339 0 -0.0027080276852922327 -0.0081705871148562807 0 -0.0032885508611943106 -0.0081958621109002698 0 -0.0029032601142413217 -0.0076618543302494754 0 -0.0015403646891467141 -0.0033973212783451434 0 -0.0014786661802604253 -0.0034024257341400015 0 -0.001504467396799351 -0.0033699427711418777 0 -0.0029032601142413217 -0.0076618543302494754 0 -0.0032312228271122699 -0.0070642919405935339 0 -0.0028122445571990857 -0.0070175308364978607 0 -0.002683279279141154 -0.0050173277152813917 0 -0.0017871349989975363 -0.0058632102299716639 0 -0.0017871349989975363 -0.0058632102299716639 0 -0.0008217691652540977 -0.005137598174520505 0 -0.0029032601142413217 -0.0076618543302494754 0 -0.0028122445571990857 -0.0070175308364978607 0 -0.0019868931731254719 -0.0079067244868830551 0 -0.0024467721448182575 -0.007495271701907555 0 -0.0021474322957766262 -0.0074677166190921691 0 -0.0018682412905546087 -0.0077455418379715514 0 -0.0024467721448182575 -0.007495271701907555 0 -0.0018682412905546087 -0.0077455418379715514 0 -0.0018468281930702898 -0.0081470261175753417 0 -0.0017871349989975363 -0.0058632102299716639 0 -0.0019661743649701732 -0.0082203239792178542 0 -0.0017871349989975363 -0.0058632102299716639 0 -0.00079479010503041196 -0.0061033375525896575 0 -0.00079479010503041196 -0.0061033375525896575 0 -0.0008217691652540977 -0.005137598174520505 0 -0.0011529184933023223 -0.0056613786944155085 0 -0.00093638293582861526 -0.0056380342857095993 0 -0.0012479436410666603 -0.0055634760540170854 0 -0.00079479010503041196 -0.0061033375525896575 0 0.00031230190314716043 -0.005986772974278862 0 -0.00045718687372078853 -0.006132322434762482 0 -2.4826198446507114e-05 -0.0062284369560137122 0 3.9216491179629052e-05 -0.006084661253992478 0 -0.00079479010503041196 -0.0061033375525896575 0 -0.00078857234424293545 -0.0070119141516434402 0 -0.0021474322957766262 -0.0074677166190921691 0 -0.0018682412905546087 -0.0077455418379715514 0 -0.0013691458430836224 -0.0076651601206789884 0 -0.001527457100433823 -0.00795169488206382 0 -0.0018682412905546087 -0.0077455418379715514 0 -0.0013691458430836224 -0.0076651601206789884 0 -0.001527457100433823 -0.00795169488206382 0 -0.0018682412905546087 -0.0077455418379715514 0 -0.0018468281930702898 -0.0081470261175753417 0 -0.0012186827956905434 -0.0088172104545448521 0 -0.0018468281930702898 -0.0081470261175753417 0 -0.001287849351325916 -0.0082337908030142258 0 -0.0012612589862073407 -0.0087078152487135088 0 -0.0019661743649701732 -0.0082203239792178542 0 -0.001527457100433823 -0.00795169488206382 0 -0.0018468281930702898 -0.0081470261175753417 0 -0.001287849351325916 -0.0082337908030142258 0 -0.00093740871056452349 -0.0081278722549098965 0 -0.0011419438077081181 -0.0079607335467325683 0 -0.00058547333116315276 -0.0078194547723388647 0 -0.0012186827956905434 -0.0088172104545448521 0 -0.001287849351325916 -0.0082337908030142258 0 -0.0007659614255777137 -0.0084972342736451753 0 -0.001287849351325916 -0.0082337908030142258 0 -0.00093740871056452349 -0.0081278722549098965 0 -0.0007659614255777137 -0.0084972342736451753 0 -0.001287849351325916 -0.0082337908030142258 0 -0.00093740871056452349 -0.0081278722549098965 0 -0.0011419438077081181 -0.0079607335467325683 0 -0.001527457100433823 -0.00795169488206382 0 -0.001287849351325916 -0.0082337908030142258 0 -0.0011419438077081181 -0.0079607335467325683 0 -2.4826198446507114e-05 -0.0062284369560137122 0 3.9216491179629052e-05 -0.006084661253992478 0 -3.1071882205379944e-05 -0.0066546900188015311 0 -0.00078857234424293545 -0.0070119141516434402 0 -0.00022709540081471865 -0.0072794054074847942 0 -0.0011419438077081181 -0.0079607335467325683 0 -0.0013691458430836224 -0.0076651601206789884 0 -0.00058547333116315276 -0.0078194547723388647 0 -0.001527457100433823 -0.00795169488206382 0 -0.0011419438077081181 -0.0079607335467325683 0 -0.0013691458430836224 -0.0076651601206789884 0 3.9216491179629052e-05 -0.006084661253992478 0 0.00014746762982919333 -0.0059474576701599672 0 9.9340321745156973e-05 -0.0062437874681544187 0 3.9216491179629052e-05 -0.006084661253992478 0 0.00012258595644317521 -0.0057371609497599702 0 0.00014746762982919333 -0.0059474576701599672 0 3.9216491179629052e-05 -0.006084661253992478 0 9.8086442906071596e-05 -0.0057587380105481997 0 0.00012258595644317521 -0.0057371609497599702 0 0.000103374540830231 -0.0056749425206617998 0 3.9216491179629052e-05 -0.006084661253992478 0 9.8086442906071596e-05 -0.0057587380105481997 0 9.8086442906071596e-05 -0.0057587380105481997 0 0.00012258595644317521 -0.0057371609497599702 0 0.0001019721366416066 -0.0055261095965927964 0 0.00012258595644317521 -0.0057371609497599702 0 0.0001606784719777925 -0.0056654503637704615 0 0.00014746762982919333 -0.0059474576701599672 0 0.0001606784719777925 -0.0056654503637704615 0 0.0001771650461398099 -0.0057871586573567529 0 0.00015915390021703957 -0.0053032146195600132 0 0.00012258595644317521 -0.0057371609497599702 0 0.0001606784719777925 -0.0056654503637704615 0 0.00013011606449646432 -0.0054646988482463269 0 0.0001606784719777925 -0.0056654503637704615 0 0.00013011606449646432 -0.0054646988482463269 0 0.00015915390021703957 -0.0053032146195600132 0 0.00014746762982919333 -0.0059474576701599672 0 0.0001771650461398099 -0.0057871586573567529 0 0.00021203929522951571 -0.0062137761457433764 0 0.0001606784719777925 -0.0056654503637704615 0 0.00014746762982919333 -0.0059474576701599672 0 0.0001771650461398099 -0.0057871586573567529 0 -6.8285134655366589e-06 -0.0056220092323014748 0 2.282949842645621e-05 -0.0053609345492428616 0 -6.4035193801309994e-05 -0.0051601289733007854 0 -0.0003862146516366554 -0.0042602596505926698 0 -0.00038630428956616989 -0.0045083203387330621 0 -0.00010367387268752635 -0.0045824590631489267 0 -0.0016277568735766415 -0.0033178353643595533 0 -0.0015403646891467141 -0.0033973212783451434 0 -0.001504467396799351 -0.0033699427711418777 0 -0.00099423899255370756 -0.0039369111751761665 0 -0.0008217691652540977 -0.005137598174520505 0 -0.00019778234635017567 -0.0046529398502163314 0 -0.0008217691652540977 -0.005137598174520505 0 -0.00031219807401633838 -0.0050112882245640514 0 -6.8285134655366589e-06 -0.0056220092323014748 0 -6.4035193801309994e-05 -0.0051601289733007854 0 -6.8285134655366589e-06 -0.0056220092323014748 0 2.282949842645621e-05 -0.0053609345492428616 0 0.0001019721366416066 -0.0055261095965927964 0 0.000103374540830231 -0.0056749425206617998 0 -6.8285134655366589e-06 -0.0056220092323014748 0 0.0001019721366416066 -0.0055261095965927964 0 0.000103374540830231 -0.0056749425206617998 0 9.8086442906071596e-05 -0.0057587380105481997 0 0.0001019721366416066 -0.0055261095965927964 0 0.00012258595644317521 -0.0057371609497599702 0 0.0001019721366416066 -0.0055261095965927964 0 0.00013011606449646432 -0.0054646988482463269 0 0.00013011606449646432 -0.0054646988482463269 0 8.5337436190257023e-05 -0.0051629546853613623 0 0.00015915390021703957 -0.0053032146195600132 0 2.282949842645621e-05 -0.0053609345492428616 0 0.0001019721366416066 -0.0055261095965927964 0 8.5337436190257023e-05 -0.0051629546853613623 0 0.0001019721366416066 -0.0055261095965927964 0 0.00013011606449646432 -0.0054646988482463269 0 8.5337436190257023e-05 -0.0051629546853613623 0 2.282949842645621e-05 -0.0053609345492428616 0 8.5337436190257023e-05 -0.0051629546853613623 0 -6.4035193801309994e-05 -0.0051601289733007854 0 8.5337436190257023e-05 -0.0051629546853613623 0 -1.3483454577646517e-05 -0.0047362070662466506 0 -6.4035193801309994e-05 -0.0051601289733007854 0 -0.00031219807401633838 -0.0050112882245640514 0 -1.3483454577646517e-05 -0.0047362070662466506 0 -6.4035193801309994e-05 -0.0051601289733007854 0 -6.8003154499547032e-05 -0.0040244430481467721 0 -1.3483454577646517e-05 -0.0047362070662466506 0 0.00011099262124303045 -0.0045981783351236099 0 8.5337436190257023e-05 -0.0051629546853613623 0 -1.3483454577646517e-05 -0.0047362070662466506 0 0.00011099262124303045 -0.0045981783351236099 0 8.5337436190257023e-05 -0.0051629546853613623 0 0.00011099262124303045 -0.0045981783351236099 0 0.00015915390021703957 -0.0053032146195600132 0 0.00011099262124303045 -0.0045981783351236099 0 0.00015915390021703957 -0.0053032146195600132 0 0.00013189783960935761 -0.0052256925641669134 0 0.00011099262124303045 -0.0045981783351236099 0 1.1255022064270293e-07 -0.0046197075866970206 0 0.00013189783960935761 -0.0052256925641669134 0 0.00011099262124303045 -0.0045981783351236099 0 1.1255022064270293e-07 -0.0046197075866970206 0 7.9114987072776181e-07 -0.0032597942860442945 0 -6.8003154499547032e-05 -0.0040244430481467721 0 0.00011099262124303045 -0.0045981783351236099 0 7.9114987072776181e-07 -0.0032597942860442945 0 0.0001771650461398099 -0.0057871586573567529 0 0.00015915390021703957 -0.0053032146195600132 0 0.00013189783960935761 -0.0052256925641669134 0 1.1255022064270293e-07 -0.0046197075866970206 0 0.00013189783960935761 -0.0052256925641669134 0 4.1993915251793845e-07 -0.0059790080578219313 0 0.0001771650461398099 -0.0057871586573567529 0 0.00013189783960935761 -0.0052256925641669134 0 4.1993915251793845e-07 -0.0059790080578219313 0 0.0001771650461398099 -0.0057871586573567529 0 4.1993915251793845e-07 -0.0059790080578219313 0 0.00015351685187202271 -0.0064549377225376642 0 4.1993915251793845e-07 -0.0059790080578219313 0 0.00015351685187202271 -0.0064549377225376642 0 2.4427510378401426e-07 -0.0073386444363092024 0 0.00015351685187202271 -0.0064549377225376642 0 0.0001387525536971443 -0.0069541926359174598 0 0.00021203929522951571 -0.0062137761457433764 0 0.0001771650461398099 -0.0057871586573567529 0 0.00015351685187202271 -0.0064549377225376642 0 0.00021203929522951571 -0.0062137761457433764 0 0.00015351685187202271 -0.0064549377225376642 0 0.0001387525536971443 -0.0069541926359174598 0 2.4427510378401426e-07 -0.0073386444363092024 0 0.0001387525536971443 -0.0069541926359174598 0 2.4427510378401426e-07 -0.0073386444363092024 0 -0.00018339895088922094 -0.0083859116091199899 0 2.4427510378401426e-07 -0.0073386444363092024 0 -0.00018339895088922094 -0.0083859116091199899 0 -7.3610354544338361e-07 -0.0086987171662187366 0 -7.3610354544338361e-07 -0.0086987171662187366 0 0.00010517979257597689 -0.0093450735347328714 0 5.5308065627276173e-07 -0.010058634978614247 0 -0.00018339895088922094 -0.0083859116091199899 0 -7.3610354544338361e-07 -0.0086987171662187366 0 0.00010517979257597689 -0.0093450735347328714 0 0.00010517979257597689 -0.0093450735347328714 0 -0.00011060137429390904 -0.010179825499943288 0 0.00019594829569189579 -0.010128183616388521 0 -0.00018339895088922094 -0.0083859116091199899 0 0.00010517979257597689 -0.0093450735347328714 0 -0.00011060137429390904 -0.010179825499943288 0 -0.00018643646024077656 -0.0083567148366683382 0 -6.6200073973101377e-05 -0.0082999164947743804 0 0.0001387525536971443 -0.0069541926359174598 0 -0.00018339895088922094 -0.0083859116091199899 0 -0.00012843908256344552 -0.0064266190484447462 0 -0.00011060137429390904 -0.010179825499943288 0 0.00014246275947705996 -0.01018766352197191 0 0.00012375782237678456 -0.010326044444237124 0 -0.00011060137429390904 -0.010179825499943288 0 0.00019594829569189579 -0.010128183616388521 0 0.00012375782237678456 -0.010326044444237124 0 0.00014246275947705996 -0.01018766352197191 0 9.0146310030562109e-05 -0.010287738642883919 0 0.00013000602936000301 -0.010017716827841831 0 0.00014246275947705996 -0.01018766352197191 0 0.00012375782237678456 -0.010326044444237124 0 9.0146310030562109e-05 -0.010287738642883919 0 0.00014246275947705996 -0.01018766352197191 0 0.00013000602936000301 -0.010017716827841831 0 0.00022648385819133156 -0.0099286542860777104 0 -6.6200073973101377e-05 -0.0082999164947743804 0 0.00048121821124532424 -0.0083096635626637161 0 -0.00012843908256344552 -0.0064266190484447462 0 0.00019662441846570591 -0.0062732433933909279 0 0.00063875315912032872 -0.0065092462647888599 0 -0.00011060137429390904 -0.010179825499943288 0 0.00014246275947705996 -0.01018766352197191 0 0.00043680147167226457 -0.010044355622725017 0 0.00014246275947705996 -0.01018766352197191 0 0.00043680147167226457 -0.010044355622725017 0 0.00022648385819133156 -0.0099286542860777104 0 0.00019662441846570591 -0.0062732433933909279 0 9.9340321745156973e-05 -0.0062437874681544187 0 0.00016077807548133357 -0.006579674308231225 0 0.00019662441846570591 -0.0062732433933909279 0 0.00016077807548133357 -0.006579674308231225 0 0.00063875315912032872 -0.0065092462647888599 0 0.00019662441846570591 -0.0062732433933909279 0 9.9340321745156973e-05 -0.0062437874681544187 0 0.00021203929522951571 -0.0062137761457433764 0 0.00014746762982919333 -0.0059474576701599672 0 9.9340321745156973e-05 -0.0062437874681544187 0 0.00021203929522951571 -0.0062137761457433764 0 0.0001387525536971443 -0.0069541926359174598 0 -0.00012843908256344552 -0.0064266190484447462 0 0.00019662441846570591 -0.0062732433933909279 0 0.0001387525536971443 -0.0069541926359174598 0 0.00019662441846570591 -0.0062732433933909279 0 0.00021203929522951571 -0.0062137761457433764 0 3.1517819938292077e-05 -0.011940503219247316 0 3.8323239503519575e-05 -0.011212057253414263 0 -9.7227263946894488e-05 -0.011482164729259279 0 3.1517819938292077e-05 -0.011940503219247316 0 2.525602437418086e-07 -0.011418000586496897 0 -5.3380388807147274e-07 -0.012777946491799499 0 3.1517819938292077e-05 -0.011940503219247316 0 2.525602437418086e-07 -0.011418000586496897 0 8.0903788266457676e-05 -0.010971389950693933 0 8.0903788266457676e-05 -0.010971389950693933 0 0.00011647737409099613 -0.010711956931315433 0 3.8323239503519575e-05 -0.011212057253414263 0 3.1517819938292077e-05 -0.011940503219247316 0 8.0903788266457676e-05 -0.010971389950693933 0 3.8323239503519575e-05 -0.011212057253414263 0 8.0903788266457676e-05 -0.010971389950693933 0 0.00011647737409099613 -0.010711956931315433 0 0.00019594829569189579 -0.010128183616388521 0 8.0903788266457676e-05 -0.010971389950693933 0 5.5308065627276173e-07 -0.010058634978614247 0 0.00019594829569189579 -0.010128183616388521 0 2.525602437418086e-07 -0.011418000586496897 0 8.0903788266457676e-05 -0.010971389950693933 0 5.5308065627276173e-07 -0.010058634978614247 0 0.00010517979257597689 -0.0093450735347328714 0 5.5308065627276173e-07 -0.010058634978614247 0 0.00019594829569189579 -0.010128183616388521 0 0.00019594829569189579 -0.010128183616388521 0 0.00012326484720296289 -0.01050546045222654 0 0.00012375782237678456 -0.010326044444237124 0 0.00011647737409099613 -0.010711956931315433 0 0.00019594829569189579 -0.010128183616388521 0 0.00012326484720296289 -0.01050546045222654 0 0.00012326484720296289 -0.01050546045222654 0 0.00012375782237678456 -0.010326044444237124 0 9.0146310030562109e-05 -0.010287738642883919 0 9.0146310030562109e-05 -0.010287738642883919 0 -9.0798453379517587e-06 -0.010423505753531216 0 3.4265353207107081e-05 -0.010000484014382796 0 0.00012326484720296289 -0.01050546045222654 0 9.0146310030562109e-05 -0.010287738642883919 0 -9.0798453379517587e-06 -0.010423505753531216 0 0.00012326484720296289 -0.01050546045222654 0 -9.0798453379517587e-06 -0.010423505753531216 0 5.3188993560393619e-05 -0.010780953290270005 0 -9.0798453379517587e-06 -0.010423505753531216 0 -4.3896818674570248e-05 -0.010572009879798061 0 -2.2461501479479223e-05 -0.010470276830631934 0 -9.0798453379517587e-06 -0.010423505753531216 0 5.3188993560393619e-05 -0.010780953290270005 0 -4.3896818674570248e-05 -0.010572009879798061 0 -0.00034465683870263836 -0.010029843456700336 0 -0.00013728941272068949 -0.012218282656328523 0 0.00011647737409099613 -0.010711956931315433 0 0.00012326484720296289 -0.01050546045222654 0 5.3188993560393619e-05 -0.010780953290270005 0 5.3188993560393619e-05 -0.010780953290270005 0 3.8323239503519575e-05 -0.011212057253414263 0 -0.00012924612710963826 -0.011174160647338895 0 0.00011647737409099613 -0.010711956931315433 0 5.3188993560393619e-05 -0.010780953290270005 0 3.8323239503519575e-05 -0.011212057253414263 0 5.3188993560393619e-05 -0.010780953290270005 0 -4.3896818674570248e-05 -0.010572009879798061 0 -0.00012924612710963826 -0.011174160647338895 0 -0.00060563069398117278 -0.011474535043375774 0 -0.00026112568844586088 -0.011603700767140594 0 -0.00012924612710963826 -0.011174160647338895 0 -0.00023166999293869122 -0.011004246597537496 0 -0.00013728941272068949 -0.012218282656328523 0 -0.00060563069398117278 -0.011474535043375774 0 -0.00026112568844586088 -0.011603700767140594 0 -0.00056400675326477925 -0.011930568969708089 0 -0.00023166999293869122 -0.011004246597537496 0 -0.00020348765062105578 -0.011125724364091894 0 -6.3358886847771803e-07 -0.011458027633412209 0 -0.00026112568844586088 -0.011603700767140594 0 -0.00012924612710963826 -0.011174160647338895 0 -6.3358886847771803e-07 -0.011458027633412209 0 -9.7227263946894488e-05 -0.011482164729259279 0 -0.00012924612710963826 -0.011174160647338895 0 3.8323239503519575e-05 -0.011212057253414263 0 -9.7227263946894488e-05 -0.011482164729259279 0 -0.00012924612710963826 -0.011174160647338895 0 -0.004151962401397034 -0.020295318938936633 0 -0.0044378137735829101 -0.019149563225797125 0 -0.0030750446782783244 -0.019766146515374634 0 -0.004151962401397034 -0.020295318938936633 0 -0.0044378137735829101 -0.019149563225797125 0 -0.0052286180866028412 -0.020645397540999685 0 -0.004151962401397034 -0.020295318938936633 0 -0.0035263668557880489 -0.020910358896080134 0 -0.0030750446782783244 -0.019766146515374634 0 -0.0018150176552403498 -0.014526215665916945 0 -0.0024496742263463893 -0.015538044414608768 0 -0.0036292569755622993 -0.017508483862712365 0 -0.0044378137735829101 -0.019149563225797125 0 -0.0030002219891987853 -0.018541828103034896 0 -6.3358886847771803e-07 -0.011458027633412209 0 -0.00026112568844586088 -0.011603700767140594 0 -0.0001309752481823529 -0.012244670206760263 0 -0.00026112568844586088 -0.011603700767140594 0 -0.0001309752481823529 -0.012244670206760263 0 -0.00056400675326477925 -0.011930568969708089 0 -0.0001309752481823529 -0.012244670206760263 0 -0.00056400675326477925 -0.011930568969708089 0 -0.00084632878614130898 -0.012518298775299721 0 -0.00060563069398117278 -0.011474535043375774 0 -0.00056400675326477925 -0.011930568969708089 0 -0.001050898848406935 -0.011924016203813254 0 -0.00056400675326477925 -0.011930568969708089 0 -0.00084632878614130898 -0.012518298775299721 0 -0.001050898848406935 -0.011924016203813254 0 -0.0024496742263463893 -0.015538044414608768 0 -0.00083679279870796234 -0.018458754337922354 0 -0.0001309752481823529 -0.012244670206760263 0 -0.00084632878614130898 -0.012518298775299721 0 -0.0005843978869804915 -0.013194494284957458 0 0.00060212222347971625 -0.017843486099269053 0 7.190325270704277e-05 -0.018987661807882743 0 0.0010825872761980701 -0.019036253137201579 0 -0.00014676186483135396 -0.015200062833345591 0 -0.00083679279870796234 -0.018458754337922354 0 0.00060212222347971625 -0.017843486099269053 0 -0.0011201452857725284 -0.01820822169928852 0 7.190325270704277e-05 -0.018987661807882743 0 0.00060212222347971625 -0.017843486099269053 0 9.0070850565323208e-05 -0.016617306112822628 0 -0.0011201452857725284 -0.01820822169928852 0 -0.00014676186483135396 -0.015200062833345591 0 -0.00013728941272068949 -0.012218282656328523 0 -0.00026359481427491 -0.010057158090119676 0 3.4265353207107081e-05 -0.010000484014382796 0 1.423314095754857e-05 -0.0095921691791477151 0 -9.0798453379517587e-06 -0.010423505753531216 0 -0.00026359481427491 -0.010057158090119676 0 3.4265353207107081e-05 -0.010000484014382796 0 -0.00013728941272068949 -0.012218282656328523 0 -0.00058669797756313261 -0.014079332153938435 0 3.4265353207107081e-05 -0.010000484014382796 0 0.00013000602936000301 -0.010017716827841831 0 0.00013677754048310424 -0.0096182610729307078 0 9.0146310030562109e-05 -0.010287738642883919 0 3.4265353207107081e-05 -0.010000484014382796 0 0.00013000602936000301 -0.010017716827841831 0 3.4265353207107081e-05 -0.010000484014382796 0 1.423314095754857e-05 -0.0095921691791477151 0 0.00013677754048310424 -0.0096182610729307078 0 -0.0011201452857725284 -0.01820822169928852 0 -0.0013847613675656678 -0.019601699074131628 0 -0.0021943882557187316 -0.019777667621000281 0 -0.0011201452857725284 -0.01820822169928852 0 -0.0013847613675656678 -0.019601699074131628 0 -0.00068877005253592007 -0.019823156688708241 0 -0.00058669797756313261 -0.014079332153938435 0 -0.00094578676668695665 -0.014758837989929736 0 -0.0013847613675656678 -0.019601699074131628 0 -0.0015295145599987241 -0.020535633642646808 0 -0.00068877005253592007 -0.019823156688708241 0 -0.0013847613675656678 -0.019601699074131628 0 -0.0015295145599987241 -0.020535633642646808 0 -0.0021943882557187316 -0.019777667621000281 0 -0.0015295145599987241 -0.020535633642646808 0 -0.00029855098611806873 -0.021068484992379316 0 -0.0022961160240222078 -0.021394487677400605 0 -0.00090996627197402783 -0.021416709387470461 0 -0.0024172359822221706 -0.021453564639186181 0 -0.0015295145599987241 -0.020535633642646808 0 -0.00029855098611806873 -0.021068484992379316 0 -0.00068877005253592007 -0.019823156688708241 0 -0.00029855098611806873 -0.021068484992379316 0 -0.00068877005253592007 -0.019823156688708241 0 0.00048810116809488313 -0.019975761149067732 0 -0.0011201452857725284 -0.01820822169928852 0 -0.00068877005253592007 -0.019823156688708241 0 7.190325270704277e-05 -0.018987661807882743 0 -0.00068877005253592007 -0.019823156688708241 0 7.190325270704277e-05 -0.018987661807882743 0 0.00048810116809488313 -0.019975761149067732 0 -0.0052286180866028412 -0.020645397540999685 0 -0.0044983690878394808 -0.02233215957912231 0 -0.0043805994856428096 -0.021086605761104524 0 0.00095247303150623015 -0.01915936875390381 0 0.00048810116809488313 -0.019975761149067732 0 0.0016433792340819814 -0.020738845026742541 0 -0.00083679279870796234 -0.018458754337922354 0 -0.0019767169498903147 -0.0215721118341347 0 7.190325270704277e-05 -0.018987661807882743 0 0.0010825872761980701 -0.019036253137201579 0 0.00048810116809488313 -0.019975761149067732 0 -0.00083679279870796234 -0.018458754337922354 0 0.00031877776245783993 -0.019553980972851284 0 -0.00029855098611806873 -0.021068484992379316 0 0.00048810116809488313 -0.019975761149067732 0 0.0016433792340819814 -0.020738845026742541 0 -0.0021900974784975409 -0.021874439486112222 0 -0.0024041248071082709 -0.022129408746361861 0 -0.0023013649091871867 -0.021961861045683997 0 -0.00090996627197402783 -0.021416709387470461 0 -0.0019767169498903147 -0.0215721118341347 0 -0.0044983690878394808 -0.02233215957912231 0 -0.0036927058664970053 -0.021572865721463393 0 -0.0023662414811120728 -0.021975629685113504 0 -0.0019767169498903147 -0.0215721118341347 0 -0.0030881922793090572 -0.022197637918382907 0 -0.0044983690878394808 -0.02233215957912231 0 -0.0036927058664970053 -0.021572865721463393 0 -0.0043805994856428096 -0.021086605761104524 0 -0.0025375308925871722 -0.022093648485479539 0 -0.0024869517835680432 -0.02212978397929994 0 -0.0024376229609557516 -0.022104738913224672 0 -0.0019767169498903147 -0.0215721118341347 0 -0.002237526890712372 -0.022021012798266994 0 -0.0025375308925871722 -0.022093648485479539 0 -0.0024869517835680432 -0.02212978397929994 0 -0.0024785790404780821 -0.022104207252669688 0 -0.0036927058664970053 -0.021572865721463393 0 -0.0043805994856428096 -0.021086605761104524 0 -0.0035263668557880489 -0.020910358896080134 0 -0.004151962401397034 -0.020295318938936633 0 -0.0052286180866028412 -0.020645397540999685 0 -0.0043805994856428096 -0.021086605761104524 0 -0.004151962401397034 -0.020295318938936633 0 -0.0043805994856428096 -0.021086605761104524 0 -0.0035263668557880489 -0.020910358896080134 0 0.00033831276420912503 -0.0077904679366110879 0 -0.0001656264467910642 -0.0085311931260695101 0 -0.00058547333116315276 -0.0078194547723388647 0 0.00033831276420912503 -0.0077904679366110879 0 -0.0001656264467910642 -0.0085311931260695101 0 0.00051484757674398766 -0.0089386540825495617 0 -0.0001656264467910642 -0.0085311931260695101 0 -0.0007659614255777137 -0.0084972342736451753 0 -0.00058547333116315276 -0.0078194547723388647 0 -0.00093740871056452349 -0.0081278722549098965 0 -0.0007659614255777137 -0.0084972342736451753 0 -0.00058547333116315276 -0.0078194547723388647 0 3.9216491179629052e-05 -0.006084661253992478 0 9.9340321745156973e-05 -0.0062437874681544187 0 -3.1071882205379944e-05 -0.0066546900188015311 0 9.9340321745156973e-05 -0.0062437874681544187 0 -3.1071882205379944e-05 -0.0066546900188015311 0 0.00016077807548133357 -0.006579674308231225 0 0.00036932926671926321 -0.0077035987026474653 0 -0.00022709540081471865 -0.0072794054074847942 0 0.00033831276420912503 -0.0077904679366110879 0 -3.1071882205379944e-05 -0.0066546900188015311 0 0.00016077807548133357 -0.006579674308231225 0 0.00033831276420912503 -0.0077904679366110879 0 0.00016077807548133357 -0.006579674308231225 0 0.00063875315912032872 -0.0065092462647888599 0 0.00043680147167226457 -0.010044355622725017 0 0.00022648385819133156 -0.0099286542860777104 0 0.00028492393336347095 -0.0095481054537783633 0 0.00013000602936000301 -0.010017716827841831 0 0.00022648385819133156 -0.0099286542860777104 0 0.00013677754048310424 -0.0096182610729307078 0 0.00022648385819133156 -0.0099286542860777104 0 0.00013677754048310424 -0.0096182610729307078 0 0.00028492393336347095 -0.0095481054537783633 0 1.423314095754857e-05 -0.0095921691791477151 0 0.00013677754048310424 -0.0096182610729307078 0 0.00020084842803102715 -0.0093314363944008542 0 0.00013677754048310424 -0.0096182610729307078 0 0.00022438212611985037 -0.0094213960894686637 0 0.00028492393336347095 -0.0095481054537783633 0 0.00022438212611985037 -0.0094213960894686637 0 0.00034119108296079141 -0.0092031188321857922 0 0.00020084842803102715 -0.0093314363944008542 0 0.00013677754048310424 -0.0096182610729307078 0 0.00022438212611985037 -0.0094213960894686637 0 0.00020084842803102715 -0.0093314363944008542 0 0.00048121821124532424 -0.0083096635626637161 0 0.00052436298548633447 -0.0089087371760269308 0 0.00033831276420912503 -0.0077904679366110879 0 0.00063875315912032872 -0.0065092462647888599 0 0.00051484757674398766 -0.0089386540825495617 0 0.00043680147167226457 -0.010044355622725017 0 0.00028492393336347095 -0.0095481054537783633 0 0.00051484757674398766 -0.0089386540825495617 0 0.00022438212611985037 -0.0094213960894686637 0 0.00028492393336347095 -0.0095481054537783633 0 0.00034119108296079141 -0.0092031188321857922 0 0.00028492393336347095 -0.0095481054537783633 0 0.00034119108296079141 -0.0092031188321857922 0 0.00051484757674398766 -0.0089386540825495617 0 0.00034119108296079141 -0.0092031188321857922 0 0.00020084842803102715 -0.0093314363944008542 0 0.00041104907349430415 -0.0092212570305861986 0 0.00034119108296079141 -0.0092031188321857922 0 0.00051484757674398766 -0.0089386540825495617 0 0.00041104907349430415 -0.0092212570305861986 0 0.00020084842803102715 -0.0093314363944008542 0 -0.0002007568821897306 -0.010001734211509197 0 -0.001152777008572315 -0.010219680591412483 0 0.0001593444777758608 -0.009409960226231761 0 -0.00043671178292099821 -0.0095282886880605402 0 1.423314095754857e-05 -0.0095921691791477151 0 0.00020084842803102715 -0.0093314363944008542 0 0.0003206920076490013 -0.0096174866677749306 0 0.00020084842803102715 -0.0093314363944008542 0 -0.0002007568821897306 -0.010001734211509197 0 0.0003206920076490013 -0.0096174866677749306 0 -0.0002007568821897306 -0.010001734211509197 0 0.0003206920076490013 -0.0096174866677749306 0 -0.0002823981300599183 -0.01093772617375424 0 -0.0015295145599987241 -0.020535633642646808 0 -0.0021943882557187316 -0.019777667621000281 0 -0.0022961160240222078 -0.021394487677400605 0 -0.00094578676668695665 -0.014758837989929736 0 -0.0015943575737208584 -0.015644300385309617 0 -0.0021943882557187316 -0.019777667621000281 0 -0.0028849069406106588 -0.021162843438407512 0 -0.0022961160240222078 -0.021394487677400605 0 -0.0002007568821897306 -0.010001734211509197 0 -0.001152777008572315 -0.010219680591412483 0 -0.0002823981300599183 -0.01093772617375424 0 -0.001152777008572315 -0.010219680591412483 0 -0.0002823981300599183 -0.01093772617375424 0 -0.0012357793350634204 -0.011277753685054981 0 -0.00043671178292099821 -0.0095282886880605402 0 -0.00076404063937297786 -0.01229204015512143 0 0.00041104907349430415 -0.0092212570305861986 0 -0.00013246529843764126 -0.0093144874513412749 0 -0.00032088628641153722 -0.010014004998936043 0 -0.001152777008572315 -0.010219680591412483 0 -0.0026788632997983486 -0.011532274797923823 0 -0.0012357793350634204 -0.011277753685054981 0 0.00041104907349430415 -0.0092212570305861986 0 -0.00013246529843764126 -0.0093144874513412749 0 0.00010890537354536269 -0.0090408763461279715 0 0.00051484757674398766 -0.0089386540825495617 0 0.00041104907349430415 -0.0092212570305861986 0 0.00010890537354536269 -0.0090408763461279715 0 -0.00013246529843764126 -0.0093144874513412749 0 0.00010890537354536269 -0.0090408763461279715 0 -0.00034127069329046076 -0.0089702402528484392 0 -0.0001656264467910642 -0.0085311931260695101 0 0.00010890537354536269 -0.0090408763461279715 0 -0.00034127069329046076 -0.0089702402528484392 0 -0.0001656264467910642 -0.0085311931260695101 0 0.00051484757674398766 -0.0089386540825495617 0 0.00010890537354536269 -0.0090408763461279715 0 -0.0001656264467910642 -0.0085311931260695101 0 -0.0007659614255777137 -0.0084972342736451753 0 -0.00034127069329046076 -0.0089702402528484392 0 -0.0008440030146374917 -0.0090115438006638515 0 -0.0007659614255777137 -0.0084972342736451753 0 -0.00034127069329046076 -0.0089702402528484392 0 -0.0008440030146374917 -0.0090115438006638515 0 -0.00034127069329046076 -0.0089702402528484392 0 -0.00059785603339862904 -0.0093924994114404064 0 -0.0013319690153712825 -0.0094216710422954601 0 -0.00059785603339862904 -0.0093924994114404064 0 -0.00032088628641153722 -0.010014004998936043 0 -0.00013246529843764126 -0.0093144874513412749 0 -0.00059785603339862904 -0.0093924994114404064 0 -0.00032088628641153722 -0.010014004998936043 0 -0.00013246529843764126 -0.0093144874513412749 0 -0.00034127069329046076 -0.0089702402528484392 0 -0.00059785603339862904 -0.0093924994114404064 0 -0.00076404063937297786 -0.01229204015512143 0 -0.00050552168047277729 -0.017368063799163024 0 -0.00034817094698155537 -0.020647304457703158 0 -0.00012751538049723347 -0.021102755960978398 0 -0.00081917161391769852 -0.021014708106274742 0 -0.00012751538049723347 -0.021102755960978398 0 -0.0002166845993290087 -0.021313042857434544 0 -0.00019227263763719937 -0.021361237628591982 0 -0.00013621049525276843 -0.022146950766045323 0 -0.00050552168047277729 -0.017368063799163024 0 -0.0001494477422568814 -0.021274658321111639 0 -0.00012751538049723347 -0.021102755960978398 0 -0.0002166845993290087 -0.021313042857434544 0 -0.00077228475794500465 -0.021906518363918902 0 -0.00082237582237533653 -0.022107345465568015 0 -0.00094042373740982278 -0.021785550580945622 0 -0.00042511018408915345 -0.021700289963295177 0 -0.0010612378932739876 -0.019818687156970358 0 -0.00077228475794500465 -0.021906518363918902 0 -0.00055702617684141181 -0.021816534451321572 0 -0.00082237582237533653 -0.022107345465568015 0 -0.0001494477422568814 -0.021274658321111639 0 -0.00012751538049723347 -0.021102755960978398 0 5.3851934306620037e-05 -0.02099369021338672 0 -0.00076404063937297786 -0.01229204015512143 0 -0.0010612378932739876 -0.019818687156970358 0 -0.0026788632997983486 -0.011532274797923823 0 -0.0013195773755718509 -0.01237558343555807 0 -0.0012357793350634204 -0.011277753685054981 0 -0.00034817094698155537 -0.020647304457703158 0 -0.00012751538049723347 -0.021102755960978398 0 5.3851934306620037e-05 -0.02099369021338672 0 -0.0002823981300599183 -0.01093772617375424 0 -0.0013195773755718509 -0.01237558343555807 0 -0.0012357793350634204 -0.011277753685054981 0 -0.0028849069406106588 -0.021162843438407512 0 -0.0031134917187368733 -0.02171961853151581 0 -0.0026525569203037368 -0.021668402749876151 0 -0.0015943575737208584 -0.015644300385309617 0 -0.0010612378932739876 -0.019818687156970358 0 -0.0028849069406106588 -0.021162843438407512 0 -0.0022961160240222078 -0.021394487677400605 0 -0.0026525569203037368 -0.021668402749876151 0 -0.0022961160240222078 -0.021394487677400605 0 -0.0026525569203037368 -0.021668402749876151 0 -0.0023478183846096889 -0.0217340557715964 0 -0.0024530261539556235 -0.021985106378723321 0 -0.0023478183846096889 -0.0217340557715964 0 -0.0022411286004848721 -0.021846318788102854 0 -0.0026525569203037368 -0.021668402749876151 0 -0.0024530261539556235 -0.021985106378723321 0 -0.0023478183846096889 -0.0217340557715964 0 -0.0010612378932739876 -0.019818687156970358 0 -0.0019780450012097245 -0.022219535725736518 0 -0.0031134917187368733 -0.02171961853151581 0 -0.0026525569203037368 -0.021668402749876151 0 -0.0024530261539556235 -0.021985106378723321 0 -0.00082237582237533653 -0.022107345465568015 0 -0.0012795308388019418 -0.0218622713516155 0 -0.00094042373740982278 -0.021785550580945622 0 -0.00094042373740982278 -0.021785550580945622 0 -0.00093621094116331897 -0.021413651255654777 0 -0.00068486132585712453 -0.021561390003391953 0 -0.0011310966195688106 -0.021656632314377079 0 -0.00094042373740982278 -0.021785550580945622 0 -0.00093621094116331897 -0.021413651255654777 0 -0.0012795308388019418 -0.0218622713516155 0 -0.0011310966195688106 -0.021656632314377079 0 -0.00094042373740982278 -0.021785550580945622 0 -0.0012795308388019418 -0.0218622713516155 0 -0.0011310966195688106 -0.021656632314377079 0 -0.0013427551758958228 -0.021558810510740992 0 -0.0013427551758958228 -0.021558810510740992 0 -0.00093621094116331897 -0.021413651255654777 0 -0.001156247551369444 -0.021236501187222093 0 -0.0011310966195688106 -0.021656632314377079 0 -0.0013427551758958228 -0.021558810510740992 0 -0.00093621094116331897 -0.021413651255654777 0 -0.00093621094116331897 -0.021413651255654777 0 -0.00068486132585712453 -0.021561390003391953 0 -0.00055786338639606978 -0.021133415610640752 0 -0.00026323088277135925 -0.021088944565725687 0 -0.00027463359069880013 -0.021355259944371766 0 -0.00055786338639606978 -0.021133415610640752 0 -0.00027463359069880013 -0.021355259944371766 0 -0.00068486132585712453 -0.021561390003391953 0 -0.00055786338639606978 -0.021133415610640752 0 -0.00055702617684141181 -0.021816534451321572 0 -0.00027463359069880013 -0.021355259944371766 0 -0.00068486132585712453 -0.021561390003391953 0 -0.00027463359069880013 -0.021355259944371766 0 -0.0002166845993290087 -0.021313042857434544 0 -0.00013145775387283961 -0.021291870377606565 0 -0.0001494477422568814 -0.021274658321111639 0 -0.00027463359069880013 -0.021355259944371766 0 -0.0002166845993290087 -0.021313042857434544 0 -0.00042511018408915345 -0.021700289963295177 0 -0.00023867275832107596 -0.021334041364890716 0 -0.00077228475794500465 -0.021906518363918902 0 -0.00055702617684141181 -0.021816534451321572 0 -0.00068486132585712453 -0.021561390003391953 0 -0.00077228475794500465 -0.021906518363918902 0 -0.00094042373740982278 -0.021785550580945622 0 -0.00068486132585712453 -0.021561390003391953 0 -0.0024997287366219302 -0.021855242055330532 0 -0.0024988759200777482 -0.021977229383932526 0 -0.0023721280372977164 -0.021967068675796213 0 -0.0024997287366219302 -0.021855242055330532 0 -0.0024988759200777482 -0.021977229383932526 0 -0.0026858891175388514 -0.021962880111031313 0 -0.0024988759200777482 -0.021977229383932526 0 -0.0025174284431376003 -0.022144561343268917 0 -0.0026858891175388514 -0.021962880111031313 0 -0.0025174284431376003 -0.022144561343268917 0 -0.0024869517835680432 -0.02212978397929994 0 -0.0024166827796163856 -0.022241193899352404 0 -0.0025174284431376003 -0.022144561343268917 0 -0.0024869517835680432 -0.02212978397929994 0 -0.0024785790404780821 -0.022104207252669688 0 -0.0024785790404780821 -0.022104207252669688 0 -0.0023721280372977164 -0.021967068675796213 0 -0.0023878116312528196 -0.022042656487951715 0 -0.0024041248071082709 -0.022129408746361861 0 -0.0024785790404780821 -0.022104207252669688 0 -0.0023878116312528196 -0.022042656487951715 0 -0.0024988759200777482 -0.021977229383932526 0 -0.0025174284431376003 -0.022144561343268917 0 -0.0023721280372977164 -0.021967068675796213 0 -0.0025174284431376003 -0.022144561343268917 0 -0.0024785790404780821 -0.022104207252669688 0 -0.0023721280372977164 -0.021967068675796213 0 -0.0023721280372977164 -0.021967068675796213 0 -0.0023013649091871867 -0.021961861045683997 0 -0.0022389863529269265 -0.021832806078309723 0 -0.0023721280372977164 -0.021967068675796213 0 -0.0023878116312528196 -0.022042656487951715 0 -0.0023013649091871867 -0.021961861045683997 0 -0.0024041248071082709 -0.022129408746361861 0 -0.0023878116312528196 -0.022042656487951715 0 -0.0023013649091871867 -0.021961861045683997 0 -0.0024997287366219302 -0.021855242055330532 0 -0.0023721280372977164 -0.021967068675796213 0 -0.0022389863529269265 -0.021832806078309723 0 -0.0024115955030791459 -0.021835013600991576 0 -0.0021903960936906428 -0.021883259906293976 0 -0.0022389863529269265 -0.021832806078309723 0 -0.0022074375557622501 -0.021821801413663154 0 -0.0022411286004848721 -0.021846318788102854 0 -0.0021903960936906428 -0.021883259906293976 0 -0.0022464170724541981 -0.021850089995031744 0 -0.0023013649091871867 -0.021961861045683997 0 -0.0022389863529269265 -0.021832806078309723 0 -0.0022074375557622501 -0.021821801413663154 0 -0.0021900974784975409 -0.021874439486112222 0 -0.0023013649091871867 -0.021961861045683997 0 -0.0022074375557622501 -0.021821801413663154 0 -0.0021900974784975409 -0.021874439486112222 0 -0.0022074375557622501 -0.021821801413663154 0 -0.0022212665157415163 -0.021716448179791771 0 -0.0021900974784975409 -0.021874439486112222 0 -0.0022961160240222078 -0.021394487677400605 0 -0.0022212665157415163 -0.021716448179791771 0 -0.0022074375557622501 -0.021821801413663154 0 -0.0022212665157415163 -0.021716448179791771 0 -0.0022411286004848721 -0.021846318788102854 0 -0.0022961160240222078 -0.021394487677400605 0 -0.0023478183846096889 -0.0217340557715964 0 -0.0022212665157415163 -0.021716448179791771 0 -0.0023478183846096889 -0.0217340557715964 0 -0.0022212665157415163 -0.021716448179791771 0 -0.0022411286004848721 -0.021846318788102854 0 -0.0024530261539556235 -0.021985106378723321 0 -0.0022411286004848721 -0.021846318788102854 0 -0.0021667921713222271 -0.021978684941168829 0 -0.0019780450012097245 -0.022219535725736518 0 -0.0019400839149028603 -0.021823344050956747 0 -0.0012795308388019418 -0.0218622713516155 0 -0.0013427551758958228 -0.021558810510740992 0 -0.0016878159372281571 -0.021764650824660257 0 -0.0013427551758958228 -0.021558810510740992 0 -0.0016878159372281571 -0.021764650824660257 0 -0.0016047172369544598 -0.021407386206167462 0 -0.0016878159372281571 -0.021764650824660257 0 -0.0021177486277411763 -0.021843492317786137 0 -0.0016047172369544598 -0.021407386206167462 0 -0.0021667921713222271 -0.021978684941168829 0 -0.0021503450182297911 -0.021941119346738966 0 -0.0021177486277411763 -0.021843492317786137 0 -0.0019400839149028603 -0.021823344050956747 0 -0.0021197575330457806 -0.021839921608322554 0 -0.0021503929678509995 -0.021921151232119272 0 -0.0022411286004848721 -0.021846318788102854 0 -0.0021667921713222271 -0.021978684941168829 0 -0.0021503929678509995 -0.021921151232119272 0 -0.0021667921713222271 -0.021978684941168829 0 -0.0021503450182297911 -0.021941119346738966 0 -0.0021503929678509995 -0.021921151232119272 0 -0.0021503450182297911 -0.021941119346738966 0 -0.0022052638985455971 -0.021955529233394687 0 -0.0022161201649076021 -0.021938979074538768 0 -0.0021503929678509995 -0.021921151232119272 0 -0.0022052638985455971 -0.021955529233394687 0 -0.0021503450182297911 -0.021941119346738966 0 -0.0021177486277411763 -0.021843492317786137 0 -0.0022052638985455971 -0.021955529233394687 0 -0.0021177486277411763 -0.021843492317786137 0 -0.0022503248430784952 -0.021973311967244863 0 -0.002298637788596858 -0.021977702944600153 0 -0.0021177486277411763 -0.021843492317786137 0 -0.0022503248430784952 -0.021973311967244863 0 -0.0022052638985455971 -0.021955529233394687 0 -0.0022503248430784952 -0.021973311967244863 0 -0.0022052638985455971 -0.021955529233394687 0 -0.0022136257928173446 -0.021967160434997204 0 -0.0022161201649076021 -0.021938979074538768 0 -0.0022052638985455971 -0.021955529233394687 0 -0.0022136257928173446 -0.021967160434997204 0 -0.0022083685688322587 -0.021639267989702084 0 -0.0024338202930439799 -0.022064142058121537 0 -0.0023815290635922737 -0.021512567475506072 0 -0.0022083685688322587 -0.021639267989702084 0 -0.002298637788596858 -0.021977702944600153 0 -0.0024338202930439799 -0.022064142058121537 0 -0.0021177486277411763 -0.021843492317786137 0 -0.0022083685688322587 -0.021639267989702084 0 -0.002298637788596858 -0.021977702944600153 0 -0.0021177486277411763 -0.021843492317786137 0 -0.0022083685688322587 -0.021639267989702084 0 -0.0019157571843389839 -0.021395370446722031 0 -0.0022083685688322587 -0.021639267989702084 0 -0.0019157571843389839 -0.021395370446722031 0 -0.0019735838347783642 -0.020996296909733706 0 -0.0019157571843389839 -0.021395370446722031 0 -0.0016047172369544598 -0.021407386206167462 0 -0.0016289917339949893 -0.020978441340651559 0 -0.0021177486277411763 -0.021843492317786137 0 -0.0019157571843389839 -0.021395370446722031 0 -0.0016047172369544598 -0.021407386206167462 0 -0.0016047172369544598 -0.021407386206167462 0 -0.0016289917339949893 -0.020978441340651559 0 -0.0013534709080549488 -0.021020015813437591 0 -0.0016289917339949893 -0.020978441340651559 0 -0.0016917304822923276 -0.020624746040108805 0 -0.0013976402393450589 -0.020528096114761057 0 -0.0016289917339949893 -0.020978441340651559 0 -0.0013534709080549488 -0.021020015813437591 0 -0.0013976402393450589 -0.020528096114761057 0 -0.0016917304822923276 -0.020624746040108805 0 -0.0013976402393450589 -0.020528096114761057 0 -0.0014969956533453517 -0.020176154088161525 0 -0.0016917304822923276 -0.020624746040108805 0 -0.0020357766430460196 -0.020538721303421048 0 -0.0017955664889683506 -0.020314859998522242 0 -0.0019157571843389839 -0.021395370446722031 0 -0.0016289917339949893 -0.020978441340651559 0 -0.0019735838347783642 -0.020996296909733706 0 -0.0016289917339949893 -0.020978441340651559 0 -0.0016917304822923276 -0.020624746040108805 0 -0.0019735838347783642 -0.020996296909733706 0 -0.0019735838347783642 -0.020996296909733706 0 -0.0020357766430460196 -0.020538721303421048 0 -0.0022580546373780893 -0.020708024783329719 0 -0.0016917304822923276 -0.020624746040108805 0 -0.0019735838347783642 -0.020996296909733706 0 -0.0020357766430460196 -0.020538721303421048 0 -0.002348987270604049 -0.021232652997429668 0 -0.002520133291402795 -0.020957115365322649 0 -0.0022580546373780893 -0.020708024783329719 0 -0.0023324657282237857 -0.02123880234553387 0 -0.0026182824010767092 -0.020499623623999333 0 -0.0023324657282237857 -0.02123880234553387 0 -0.0024334995964969517 -0.021299289114854753 0 -0.0024536980511439591 -0.021382091385112736 0 -0.0023324657282237857 -0.02123880234553387 0 -0.0023815290635922737 -0.021512567475506072 0 -0.0024334995964969517 -0.021299289114854753 0 -0.0019735838347783642 -0.020996296909733706 0 -0.0022580546373780893 -0.020708024783329719 0 -0.0023324657282237857 -0.02123880234553387 0 -0.0022083685688322587 -0.021639267989702084 0 -0.0019735838347783642 -0.020996296909733706 0 -0.0023324657282237857 -0.02123880234553387 0 -0.0022083685688322587 -0.021639267989702084 0 -0.0023324657282237857 -0.02123880234553387 0 -0.0023815290635922737 -0.021512567475506072 0 -0.0003449737586586564 -0.020623530808272714 0 -0.00055995284483333551 -0.020427941692030448 0 -0.00014078319351196072 -0.02037476391682283 0 -0.00085986020861063685 -0.020837788578381925 0 -0.0003068939648094922 -0.020677026447410003 0 -0.00089542520699112318 -0.020799472800943058 0 -0.0003449737586586564 -0.020623530808272714 0 -0.00055995284483333551 -0.020427941692030448 0 -0.00026323088277135925 -0.021088944565725687 0 -0.00028461862688999509 -0.020732670100865266 0 -0.00055786338639606978 -0.021133415610640752 0 -0.00093621094116331897 -0.021413651255654777 0 -0.00080562548386957941 -0.020861739347424 0 -0.00055786338639606978 -0.021133415610640752 0 -0.00080562548386957941 -0.020861739347424 0 -0.00028461862688999509 -0.020732670100865266 0 -0.00055786338639606978 -0.021133415610640752 0 -0.00093621094116331897 -0.021413651255654777 0 -0.00080562548386957941 -0.020861739347424 0 -0.001156247551369444 -0.021236501187222093 0 -0.0016047172369544598 -0.021407386206167462 0 -0.001156247551369444 -0.021236501187222093 0 -0.0013534709080549488 -0.021020015813437591 0 -0.0013427551758958228 -0.021558810510740992 0 -0.0016047172369544598 -0.021407386206167462 0 -0.001156247551369444 -0.021236501187222093 0 -0.00089542520699112318 -0.020799472800943058 0 -0.0013534709080549488 -0.021020015813437591 0 -0.00099196952617233041 -0.020417864474163064 0 -0.00080562548386957941 -0.020861739347424 0 -0.001156247551369444 -0.021236501187222093 0 -0.0013534709080549488 -0.021020015813437591 0 -0.00085986020861063685 -0.020837788578381925 0 -0.0013303644555584873 -0.02098682688565039 0 -0.0013534709080549488 -0.021020015813437591 0 -0.00099196952617233041 -0.020417864474163064 0 -0.0013976402393450589 -0.020528096114761057 0 -0.0013976402393450589 -0.020528096114761057 0 -0.0012349275364933055 -0.020111355697916725 0 -0.0014969956533453517 -0.020176154088161525 0 -0.00099196952617233041 -0.020417864474163064 0 -0.00071834656005607565 -0.019759534649154215 0 -0.0012349275364933055 -0.020111355697916725 0 -0.00099196952617233041 -0.020417864474163064 0 -0.0013976402393450589 -0.020528096114761057 0 -0.0012349275364933055 -0.020111355697916725 0 -0.00099196952617233041 -0.020417864474163064 0 -0.00046614294735101915 -0.020051884372237195 0 -0.00071834656005607565 -0.019759534649154215 0 -0.00099196952617233041 -0.020417864474163064 0 -0.00055995284483333551 -0.020427941692030448 0 -0.00046614294735101915 -0.020051884372237195 0 -0.00089542520699112318 -0.020799472800943058 0 -0.00099196952617233041 -0.020417864474163064 0 -0.00055995284483333551 -0.020427941692030448 0 -0.00055995284483333551 -0.020427941692030448 0 -0.00046614294735101915 -0.020051884372237195 0 -0.00019801336726337485 -0.02003252253036341 0 -0.00046614294735101915 -0.020051884372237195 0 -0.00024212184175469162 -0.01980201756079044 0 -0.00019801336726337485 -0.02003252253036341 0 -0.00046614294735101915 -0.020051884372237195 0 -0.00033868584746411302 -0.019690413513721028 0 -0.00071834656005607565 -0.019759534649154215 0 -0.00046614294735101915 -0.020051884372237195 0 -0.00024212184175469162 -0.01980201756079044 0 -0.00033868584746411302 -0.019690413513721028 0 -9.8304435975592771e-05 -0.019753696010367024 0 4.1944245064987716e-05 -0.019643916549153918 0 -0.00019801336726337485 -0.02003252253036341 0 -0.00024212184175469162 -0.01980201756079044 0 -9.8304435975592771e-05 -0.019753696010367024 0 -7.4971454616497521e-05 -0.019587678006538149 0 -9.8304435975592771e-05 -0.019753696010367024 0 4.1944245064987716e-05 -0.019643916549153918 0 -7.4971454616497521e-05 -0.019587678006538149 0 -0.00024212184175469162 -0.01980201756079044 0 -9.8304435975592771e-05 -0.019753696010367024 0 -0.00019801336726337485 -0.02003252253036341 0 4.1944245064987716e-05 -0.019643916549153918 0 0.00049677683190349465 -0.019733559407884099 0 0.00016969718908757908 -0.017967885993506967 0 4.1944245064987716e-05 -0.019643916549153918 0 0.00011288262491286678 -0.020152230910168559 0 -0.00019801336726337485 -0.02003252253036341 0 0.00011288262491286678 -0.020152230910168559 0 0.00032120075480037373 -0.020227428838948479 0 0.00049677683190349465 -0.019733559407884099 0 4.1944245064987716e-05 -0.019643916549153918 0 0.00011288262491286678 -0.020152230910168559 0 0.00049677683190349465 -0.019733559407884099 0 0.00011288262491286678 -0.020152230910168559 0 -0.00019801336726337485 -0.02003252253036341 0 -0.00014078319351196072 -0.02037476391682283 0 -0.00055995284483333551 -0.020427941692030448 0 -0.00019801336726337485 -0.02003252253036341 0 -0.00014078319351196072 -0.02037476391682283 0 -0.0003449737586586564 -0.020623530808272714 0 -0.00014078319351196072 -0.02037476391682283 0 0.00021045529018935114 -0.020558329685824439 0 -0.0003068939648094922 -0.020677026447410003 0 0.00019021410812379517 -0.020579301619532808 0 0.00011288262491286678 -0.020152230910168559 0 0.00032120075480037373 -0.020227428838948479 0 0.00021045529018935114 -0.020558329685824439 0 0.00011288262491286678 -0.020152230910168559 0 -0.00014078319351196072 -0.02037476391682283 0 0.00021045529018935114 -0.020558329685824439 0 0.00021045529018935114 -0.020558329685824439 0 0.00027596533383966178 -0.020893138207971531 0 -1.5012601627647633e-05 -0.021010338702865571 0 -0.00026323088277135925 -0.021088944565725687 0 -0.00028461862688999509 -0.020732670100865266 0 -1.5012601627647633e-05 -0.021010338702865571 0 -0.00028461862688999509 -0.020732670100865266 0 0.00021045529018935114 -0.020558329685824439 0 -1.5012601627647633e-05 -0.021010338702865571 0 0.00084907584656867359 -0.010728148599806867 0 0.00088619842689680874 -0.01119372912986925 0 0.00068118827996240287 -0.011376936319464678 0 0.00084907584656867359 -0.010728148599806867 0 0.00030621232920336459 -0.010347597490076528 0 0.00068118827996240287 -0.011376936319464678 0 0.00084907584656867359 -0.010728148599806867 0 0.0011277359590592144 -0.010251462413842205 0 0.001318582152720221 -0.010766896059018325 0 0.00084907584656867359 -0.010728148599806867 0 0.0010692944762109601 -0.010950967778296758 0 0.001318582152720221 -0.010766896059018325 0 0.0010692944762109601 -0.010950967778296758 0 0.0011888134884776279 -0.011167898614625176 0 0.00088619842689680874 -0.01119372912986925 0 0.00084907584656867359 -0.010728148599806867 0 0.0010692944762109601 -0.010950967778296758 0 0.00088619842689680874 -0.01119372912986925 0 0.00027596533383966178 -0.020893138207971531 0 0.00048163251386730311 -0.02042835087522471 0 0.00058604322227987079 -0.02100400527175196 0 0.00021045529018935114 -0.020558329685824439 0 0.00027596533383966178 -0.020893138207971531 0 0.00048163251386730311 -0.02042835087522471 0 0.0005682646729919487 -0.015647975239622365 0 -0.00030149775874271836 -0.015480547518702507 0 0.00032120075480037373 -0.020227428838948479 0 0.00021045529018935114 -0.020558329685824439 0 0.00048163251386730311 -0.02042835087522471 0 0.00030621232920336459 -0.010347597490076528 0 0.0011277359590592144 -0.010251462413842205 0 0.001030949216850376 -0.0094817111885716846 0 0.00084907584656867359 -0.010728148599806867 0 0.00030621232920336459 -0.010347597490076528 0 0.0011277359590592144 -0.010251462413842205 0 0.00032120075480037373 -0.020227428838948479 0 0.00048163251386730311 -0.02042835087522471 0 0.00049677683190349465 -0.019733559407884099 0 0.0005682646729919487 -0.015647975239622365 0 0.00014878769140364695 -0.013976520044360769 0 0.00030621232920336459 -0.010347597490076528 0 0.001030949216850376 -0.0094817111885716846 0 -3.4429349807035279e-05 -0.0091908560174455943 0 -3.4429349807035279e-05 -0.0091908560174455943 0 0.000964866213136199 -0.0082913274472613038 0 0.00023564988159335959 -0.0083465503587121948 0 0.001030949216850376 -0.0094817111885716846 0 -3.4429349807035279e-05 -0.0091908560174455943 0 0.000964866213136199 -0.0082913274472613038 0 0.001030949216850376 -0.0094817111885716846 0 0.002012249434415225 -0.0087832266094619756 0 0.000964866213136199 -0.0082913274472613038 0 0.002035138614963699 -0.0088997968690199408 0 0.0020346403756983625 -0.0092940792792862922 0 0.002012249434415225 -0.0087832266094619756 0 0.0022030649357106078 -0.008795299854797399 0 0.0025257494651983554 -0.0086770242573529794 0 0.002012249434415225 -0.0087832266094619756 0 0.0022030649357106078 -0.008795299854797399 0 0.0022809829245875575 -0.0087632165979466079 0 0.001030949216850376 -0.0094817111885716846 0 0.002012249434415225 -0.0087832266094619756 0 0.001835632252739158 -0.010262741155392781 0 0.0031562562207354413 -0.0074576681477465786 0 0.0030219056931273004 -0.0073680797452349046 0 0.0029140277290594123 -0.0071485072069688094 0 0.0030219056931273004 -0.0073680797452349046 0 0.0031520626151998769 -0.0072752945948704939 0 0.0028717587742715833 -0.0074608215191723582 0 0.00074232885143681742 -0.00037769928552373389 0 0.00055538900107415822 -0.00038656089539002415 0 0.0030219056931273004 -0.0073680797452349046 0 0.0031520626151998769 -0.0072752945948704939 0 0.0029140277290594123 -0.0071485072069688094 0 0.0030854469810116811 -0.0090197578022620239 0 0.0028480249315558418 -0.007026700131092389 0 0.002012249434415225 -0.0087832266094619756 0 0.0025257494651983554 -0.0086770242573529794 0 0.0022700108613006751 -0.0081091567536442262 0 0.00055538900107415822 -0.00038656089539002415 0 4.1946354945907669e-05 -0.0026232542508839185 0 0.0031520626151998769 -0.0072752945948704939 0 0.0029140277290594123 -0.0071485072069688094 0 0.0032498711788572806 -0.0063026603712312348 0 0.0022030649357106078 -0.008795299854797399 0 0.0025257494651983554 -0.0086770242573529794 0 0.0021363916280646195 -0.0087588517132546253 0 0.0030854469810116811 -0.0090197578022620239 0 4.1946354945907669e-05 -0.0026232542508839185 0 -0.0014801208745765728 0.0047465272497214678 0 -0.0025126638161187846 0.0045773529370719667 0 -0.0019198626745139846 0.0039563846632281489 0 -0.0014801208745765728 0.0047465272497214678 0 -0.0021101923444702534 0.0056140731894505991 0 -0.0025126638161187846 0.0045773529370719667 0 4.1946354945907669e-05 -0.0026232542508839185 0 -0.00035072025428134978 -0.0045890728485598114 0 -0.002949270918066238 -0.00082824415297690589 0 -0.0023839154625586896 0.00024670878287541835 0 -0.0027294420549695071 0.00088309543724558682 0 -0.0025126638161187846 0.0045773529370719667 0 -0.0019198626745139846 0.0039563846632281489 0 -0.0025043914818691556 0.0034376277642561483 0 4.1946354945907669e-05 -0.0026232542508839185 0 -0.0029404340118492477 0.0032057788938080786 0 -0.0012428549335553899 0.0040480533277559259 0 -0.0019198626745139846 0.0039563846632281489 0 -0.0015414416036527037 0.0035704131989093158 0 0.0011277359590592144 -0.010251462413842205 0 0.001835632252739158 -0.010262741155392781 0 0.001318582152720221 -0.010766896059018325 0 0.0011277359590592144 -0.010251462413842205 0 0.001030949216850376 -0.0094817111885716846 0 0.001835632252739158 -0.010262741155392781 0 0.0022030649357106078 -0.008795299854797399 0 0.0021363916280646195 -0.0087588517132546253 0 0.0022809829245875575 -0.0087632165979466079 0 0.0021363916280646195 -0.0087588517132546253 0 0.0022809829245875575 -0.0087632165979466079 0 0.0021260172190136401 -0.0084760891188423448 0 0.0022809829245875575 -0.0087632165979466079 0 0.0021260172190136401 -0.0084760891188423448 0 0.0024206233385457446 -0.008280152859635655 0 0.0020346403756983625 -0.0092940792792862922 0 0.0021135561144027008 -0.0105988915267655 0 0.001835632252739158 -0.010262741155392781 0 0.001318582152720221 -0.010766896059018325 0 0.0015010990893368477 -0.011315837555435467 0 0.0010692944762109601 -0.010950967778296758 0 0.001318582152720221 -0.010766896059018325 0 0.0011888134884776279 -0.011167898614625176 0 0.001318582152720221 -0.010766896059018325 0 0.0011888134884776279 -0.011167898614625176 0 0.0015010990893368477 -0.011315837555435467 0 0.0011888134884776279 -0.011167898614625176 0 0.0015010990893368477 -0.011315837555435467 0 0.0010821536777362477 -0.011414886740391161 0 0.0015010990893368477 -0.011315837555435467 0 0.0011800179452340161 -0.011659715116738819 0 0.0010821536777362477 -0.011414886740391161 0 -0.0023839154625586896 0.00024670878287541835 0 -0.0019271305572220107 0.0012429962318036896 0 -0.0027294420549695071 0.00088309543724558682 0 -0.00035072025428134978 -0.0045890728485598114 0 0.00040633966498619109 -0.00279433086208498 0 0.0021260172190136401 -0.0084760891188423448 0 0.0024206233385457446 -0.008280152859635655 0 0.002253568531970123 -0.0080282912246265378 0 -0.0019271305572220107 0.0012429962318036896 0 -0.0021443235337889181 0.0017735856882007081 0 -0.0027294420549695071 0.00088309543724558682 0 -0.0021443235337889181 0.0017735856882007081 0 -0.0027294420549695071 0.00088309543724558682 0 -0.0023198371961499673 0.0022560491764255621 0 -0.0019271305572220107 0.0012429962318036896 0 -0.0019632654451786657 0.0018035923983397725 0 -0.0021443235337889181 0.0017735856882007081 0 0.00040633966498619109 -0.00279433086208498 0 0.00032480917827727783 -0.0059719475671633753 0 -0.0019271305572220107 0.0012429962318036896 0 -0.0019632654451786657 0.0018035923983397725 0 -0.001616230027713198 0.0019680143545056628 0 0.0021135561144027008 -0.0105988915267655 0 0.00032480917827727783 -0.0059719475671633753 0 0.0015010990893368477 -0.011315837555435467 0 0.0011800179452340161 -0.011659715116738819 0 0.0012678504366428617 -0.011909240219739515 0 0.0024206233385457446 -0.008280152859635655 0 0.002253568531970123 -0.0080282912246265378 0 0.00250683642612122 -0.0074991696944446363 0 0.0011800179452340161 -0.011659715116738819 0 0.0012678504366428617 -0.011909240219739515 0 0.0011296012487076491 -0.011866365804714077 0 -0.0015414416036527037 0.0035704131989093158 0 -0.0019849490474630979 0.0033954769388478074 0 -0.0017886784915104059 0.0030390545352856164 0 -0.0019198626745139846 0.0039563846632281489 0 -0.0015414416036527037 0.0035704131989093158 0 -0.0019849490474630979 0.0033954769388478074 0 -0.0019849490474630979 0.0033954769388478074 0 -0.0021628050832612719 0.0030764724469482196 0 -0.0017886784915104059 0.0030390545352856164 0 -0.0019198626745139846 0.0039563846632281489 0 -0.0019849490474630979 0.0033954769388478074 0 -0.0025043914818691556 0.0034376277642561483 0 -0.0019849490474630979 0.0033954769388478074 0 -0.0025043914818691556 0.0034376277642561483 0 -0.0021628050832612719 0.0030764724469482196 0 -0.0022768929013098843 0.0026865023159236838 0 -0.0016808226465490886 0.0029277482177807231 0 -0.0023136061570306577 0.0026440798656041284 0 -0.0015181556182766098 0.0029223409616326388 0 -0.0018892827949541361 0.0023686392213664704 0 -0.0029404340118492477 0.0032057788938080786 0 -0.0022918418754547644 0.0018215751299133108 0 -0.0023136061570306577 0.0026440798656041284 0 -0.0021628050832612719 0.0030764724469482196 0 -0.0017886784915104059 0.0030390545352856164 0 -0.0025043914818691556 0.0034376277642561483 0 -0.0023136061570306577 0.0026440798656041284 0 -0.0021628050832612719 0.0030764724469482196 0 -0.0025043914818691556 0.0034376277642561483 0 -0.0023136061570306577 0.0026440798656041284 0 -0.0023198371961499673 0.0022560491764255621 0 -0.0010666892770402248 0.0025897159745213155 0 -0.0015181556182766098 0.0029223409616326388 0 -0.0014142811468463466 0.0024103573002685953 0 -0.0014142811468463466 0.0024103573002685953 0 -0.0018892827949541361 0.0023686392213664704 0 -0.0017080914990439903 0.0020908188853260307 0 -0.0015181556182766098 0.0029223409616326388 0 -0.0014142811468463466 0.0024103573002685953 0 -0.0018892827949541361 0.0023686392213664704 0 -0.0012257041639768492 0.0021494657773525371 0 -0.0014142811468463466 0.0024103573002685953 0 -0.0017080914990439903 0.0020908188853260307 0 -0.0018892827949541361 0.0023686392213664704 0 -0.0020476029812328857 0.0020646784197312102 0 -0.0017080914990439903 0.0020908188853260307 0 -0.0023136061570306577 0.0026440798656041284 0 -0.0018892827949541361 0.0023686392213664704 0 -0.0023198371961499673 0.0022560491764255621 0 -0.0018892827949541361 0.0023686392213664704 0 -0.0020476029812328857 0.0020646784197312102 0 -0.0023198371961499673 0.0022560491764255621 0 -0.0018203698990036964 0.0017676913633938589 0 -0.0020476029812328857 0.0020646784197312102 0 -0.0021416164630255054 0.0018662413378363271 0 -0.0018203698990036964 0.0017676913633938589 0 -0.0020476029812328857 0.0020646784197312102 0 -0.0017080914990439903 0.0020908188853260307 0 -0.0012257041639768492 0.0021494657773525371 0 -0.0013442987619419321 0.0017382898562848732 0 -0.0014833009213196025 0.0019557176498887674 0 -0.0012257041639768492 0.0021494657773525371 0 -0.0017080914990439903 0.0020908188853260307 0 -0.0014833009213196025 0.0019557176498887674 0 -0.0018203698990036964 0.0017676913633938589 0 -0.0017080914990439903 0.0020908188853260307 0 -0.0014833009213196025 0.0019557176498887674 0 -0.0024590476158217233 0.0021839171774367806 0 -0.0021599453697888865 0.002189858295081613 0 -0.0023603860278124749 0.0019881866706429811 0 -0.0010739988279065036 -0.0058701849345681994 0 -0.0024542146758681346 -0.0080319598755174051 0 -0.0022394042897042614 -0.004981695745160661 0 -0.0023674412055097981 -0.004983276895972966 0 -0.0019985635494286121 -0.0045639046628873463 0 0.00031881513264312643 -0.005280061311061162 0 0.00029506386210443686 -0.0052800529305601154 0 0.00029093341796974985 -0.0053413369630742509 0 -0.0011668637093568139 -0.0026488299984944001 0 0.00032480917827727783 -0.0059719475671633753 0 -0.0010739988279065036 -0.0058701849345681994 0 0.00032480917827727783 -0.0059719475671633753 0 0.0011935032274391227 -0.012010193887516949 0 0.0012678504366428617 -0.011909240219739515 0 0.0011296012487076491 -0.011866365804714077 0 -0.0010739988279065036 -0.0058701849345681994 0 -0.0011668637093568139 -0.0026488299984944001 0 -0.0015809570607478256 0.0022020085029469359 0 -0.001616230027713198 0.0019680143545056628 0 -0.0021599453697888865 0.002189858295081613 0 -0.0019632654451786657 0.0018035923983397725 0 -0.001616230027713198 0.0019680143545056628 0 -0.0021599453697888865 0.002189858295081613 0 -0.0011668637093568139 -0.0026488299984944001 0 -0.0022725870072468871 0.0011374421975394564 0 -0.0021443235337889181 0.0017735856882007081 0 -0.0021599453697888865 0.002189858295081613 0 -0.0023198371961499673 0.0022560491764255621 0 -0.0019632654451786657 0.0018035923983397725 0 -0.0021443235337889181 0.0017735856882007081 0 -0.0021599453697888865 0.002189858295081613 0 -0.0020476029812328857 0.0020646784197312102 0 -0.0023198371961499673 0.0022560491764255621 0 -0.0022167086904921786 0.0020625729526080497 0 -0.0021599453697888865 0.002189858295081613 0 -0.0023198371961499673 0.0022560491764255621 0 -0.0022167086904921786 0.0020625729526080497 0 -0.0021599453697888865 0.002189858295081613 0 -0.0022167086904921786 0.0020625729526080497 0 -0.0023603860278124749 0.0019881866706429811 0 -0.0022167086904921786 0.0020625729526080497 0 -0.0023274726888858391 0.0017964823544473281 0 -0.0023603860278124749 0.0019881866706429811 0 -0.0020476029812328857 0.0020646784197312102 0 -0.0022167086904921786 0.0020625729526080497 0 -0.0021416164630255054 0.0018662413378363271 0 -0.0022167086904921786 0.0020625729526080497 0 -0.0021416164630255054 0.0018662413378363271 0 -0.0023274726888858391 0.0017964823544473281 0 -0.0023674412055097981 -0.004983276895972966 0 -0.0022087697922104784 -0.0038703095684918397 0 -0.0019985635494286121 -0.0045639046628873463 0 -0.0011668637093568139 -0.0026488299984944001 0 -0.002540851032454665 -0.0027481732347314925 0 -0.0024590476158217233 0.0021839171774367806 0 -0.0023603860278124749 0.0019881866706429811 0 -0.0025718629060209925 0.0018040822955534789 0 -0.0023274726888858391 0.0017964823544473281 0 -0.0023603860278124749 0.0019881866706429811 0 -0.0025718629060209925 0.0018040822955534789 0 -0.002540851032454665 -0.0027481732347314925 0 -0.0024542146758681346 -0.0080319598755174051 0 -0.0025546011820735391 -0.0077941988795027662 0 -0.0022972864398452752 -0.0076633097967521843 0 -0.0023646202446017421 -0.0074265147497653804 0 -0.0030460860198658823 -0.0088056861721853927 0 -0.0024542146758681346 -0.0080319598755174051 0 -0.0032964325653324642 -0.009405848098508824 0 -0.0039697416994079211 -0.010598353051138541 0 -0.0030099660356772279 -0.010385233051359541 0 -0.0024542146758681346 -0.0080319598755174051 0 -0.0016684546630066823 -0.011213898971858597 0 -0.0020643597768968962 -0.0081980441643621851 0 -0.0022476426545121088 -0.0085022983174915454 0 -0.0023300251833568348 -0.0082114052972077998 0 -0.0039697416994079211 -0.010598353051138541 0 -0.0038249872554933831 -0.011090009348204675 0 -0.0030099660356772279 -0.010385233051359541 0 -0.0010739988279065036 -0.0058701849345681994 0 -0.0016684546630066823 -0.011213898971858597 0 0.0011935032274391227 -0.012010193887516949 0 0.0010550772741427092 -0.012020485214989282 0 0.0011296012487076491 -0.011866365804714077 0 -0.0038249872554933831 -0.011090009348204675 0 -0.0022734605002583228 -0.01108392864350497 0 -0.0030099660356772279 -0.010385233051359541 0 -0.0016267758882389748 -0.014834755334102048 0 -0.0012258967874967685 -0.014869216078555013 0 -0.0013602721140637756 -0.015049793005526486 0 -0.0016684546630066823 -0.011213898971858597 0 -0.0020190054685851264 -0.012702214835065234 0 -0.0022510729666919554 -0.0093960192044019019 0 -0.0032964325653324642 -0.009405848098508824 0 -0.0030099660356772279 -0.010385233051359541 0 -0.0022510729666919554 -0.0093960192044019019 0 -0.0030099660356772279 -0.010385233051359541 0 -0.0014587568618218327 -0.010168973851665311 0 -0.0022734605002583228 -0.01108392864350497 0 -0.0030099660356772279 -0.010385233051359541 0 -0.0014587568618218327 -0.010168973851665311 0 0.00054166458008863248 -0.010033866953644124 0 -0.0014587568618218327 -0.010168973851665311 0 -0.00069749837190183003 -0.011085842872737591 0 -0.0010417570466042805 -0.0090238596998059358 0 0.00054166458008863248 -0.010033866953644124 0 -0.0014587568618218327 -0.010168973851665311 0 -0.0022734605002583228 -0.01108392864350497 0 -0.0014587568618218327 -0.010168973851665311 0 -0.00069749837190183003 -0.011085842872737591 0 -0.0020190054685851264 -0.012702214835065234 0 -0.00050552168047277729 -0.017368063799163024 0 -0.00050552168047277729 -0.017368063799163024 0 -0.00068777392286373479 -0.018776014382672356 0 -0.0012258967874967685 -0.014869216078555013 0 -0.00084756558331883951 -0.014900847744573236 0 -0.0011501245402967509 -0.015137361191378962 0 -0.0002166845993290087 -0.021313042857434544 0 -0.00019227263763719937 -0.021361237628591982 0 -0.00013145775387283961 -0.021291870377606565 0 -0.00019227263763719937 -0.021361237628591982 0 0.0001367010955346121 -0.021322203730436869 0 -0.00013145775387283961 -0.021291870377606565 0 -0.00026323088277135925 -0.021088944565725687 0 -0.00013145775387283961 -0.021291870377606565 0 -1.5012601627647633e-05 -0.021010338702865571 0 -0.00026323088277135925 -0.021088944565725687 0 -0.00027463359069880013 -0.021355259944371766 0 -0.00013145775387283961 -0.021291870377606565 0 0.00027596533383966178 -0.020893138207971531 0 0.0001367010955346121 -0.021322203730436869 0 -1.5012601627647633e-05 -0.021010338702865571 0 0.0001367010955346121 -0.021322203730436869 0 -0.00013145775387283961 -0.021291870377606565 0 -1.5012601627647633e-05 -0.021010338702865571 0 0.00027596533383966178 -0.020893138207971531 0 0.0001367010955346121 -0.021322203730436869 0 0.00058604322227987079 -0.02100400527175196 0 -0.00068777392286373479 -0.018776014382672356 0 -0.00030149775874271836 -0.015480547518702507 0 0.00077432792298423266 -0.011318826671781178 0 0.0010821536777362477 -0.011414886740391161 0 0.0009448025286139727 -0.011708974890668912 0 0.00088619842689680874 -0.01119372912986925 0 0.00077432792298423266 -0.011318826671781178 0 0.0010821536777362477 -0.011414886740391161 0 -0.00030149775874271836 -0.015480547518702507 0 -0.00028169656980810056 -0.013486385190058058 0 0.0014137301241067377 -0.012853957316004857 0 -0.00030149775874271836 -0.015480547518702507 0 0.0011888134884776279 -0.011167898614625176 0 0.00088619842689680874 -0.01119372912986925 0 0.0010821536777362477 -0.011414886740391161 0 -0.0014569622284683803 -0.015400752293331309 0 -0.0015438862597832342 -0.015127068541757414 0 -0.0013602721140637756 -0.015049793005526486 0 -0.0016684546630066823 -0.011213898971858597 0 -0.00028169656980810056 -0.013486385190058058 0 0.0010550772741427092 -0.012020485214989282 0 0.0009448025286139727 -0.011708974890668912 0 0.0011296012487076491 -0.011866365804714077 0 -0.0016267758882389748 -0.014834755334102048 0 -0.0015438862597832342 -0.015127068541757414 0 -0.0013602721140637756 -0.015049793005526486 0 0.0011800179452340161 -0.011659715116738819 0 0.0010821536777362477 -0.011414886740391161 0 0.0009448025286139727 -0.011708974890668912 0 0.0011800179452340161 -0.011659715116738819 0 0.0009448025286139727 -0.011708974890668912 0 0.0011296012487076491 -0.011866365804714077 0 -0.0011501245402967509 -0.015137361191378962 0 -0.0014569622284683803 -0.015400752293331309 0 -0.0013602721140637756 -0.015049793005526486 0 -0.0012258967874967685 -0.014869216078555013 0 -0.0011501245402967509 -0.015137361191378962 0 -0.0013602721140637756 -0.015049793005526486 0 -1.8868154340882239e-07 -0.024998897900601686 0 1.6945898710586803e-05 -0.024892519115792752 0 3.0013736465854588e-05 -0.024686883166876332 0 -1.8868154340882239e-07 -0.024998897900601686 0 1.6945898710586803e-05 -0.024892519115792752 0 -2.5114108196426005e-05 -0.024908646553658983 0 6.6821995248716464e-05 -0.024162877765602643 0 -3.2248263023725631e-06 -0.02427184976840726 0 0.00013800338175016337 -0.023426735342648275 0 0.00010804583776764038 -0.023409274233961185 0 -1.1028402839037942e-05 -0.023381770347017595 0 0.00013800338175016337 -0.023426735342648275 0 -1.1028402839037942e-05 -0.023381770347017595 0 0.00019497993848934073 -0.023609328359556384 0 6.6821995248716464e-05 -0.024162877765602643 0 9.8804256401274898e-05 -0.024164777332216052 0 0.00010804583776764038 -0.023409274233961185 0 5.1903143922799698e-05 -0.023270015995253104 0 -1.1028402839037942e-05 -0.023381770347017595 0 0.00013800338175016337 -0.023426735342648275 0 0.00010804583776764038 -0.023409274233961185 0 -5.5341209781716464e-05 -0.023586482634178695 0 7.8568825052219223e-05 -0.023527905496113784 0 2.7773573100775414e-05 -0.0230473341763551 0 0.00010804583776764038 -0.023409274233961185 0 7.2310082741933602e-05 -0.023628243792801127 0 5.1903143922799698e-05 -0.023270015995253104 0 0.00010804583776764038 -0.023409274233961185 0 7.2310082741933602e-05 -0.023628243792801127 0 -5.5341209781716464e-05 -0.023586482634178695 0 -5.6884834167298596e-05 -0.022810699131265641 0 -3.1624044513710946e-06 -0.023299052917061101 0 -6.6479472296056646e-05 -0.022660170243832649 0 7.2310082741933602e-05 -0.023628243792801127 0 -5.6884834167298596e-05 -0.022810699131265641 0 -3.1624044513710946e-06 -0.023299052917061101 0 7.2310082741933602e-05 -0.023628243792801127 0 -3.1624044513710946e-06 -0.023299052917061101 0 2.6130794634651752e-05 -0.023934689973555277 0 2.9171506796832299e-05 -0.024140219945308596 0 -1.9315523991949789e-05 -0.024846265461832582 0 2.6130794634651752e-05 -0.023934689973555277 0 7.2310082741933602e-05 -0.023628243792801127 0 2.9171506796832299e-05 -0.024140219945308596 0 2.6130794634651752e-05 -0.023934689973555277 0 -1.8868154340882239e-07 -0.024998897900601686 0 -2.5114108196426005e-05 -0.024908646553658983 0 -1.9315523991949789e-05 -0.024846265461832582 0 7.2310082741933602e-05 -0.023628243792801127 0 2.9171506796832299e-05 -0.024140219945308596 0 -5.5341209781716464e-05 -0.023586482634178695 0 2.9171506796832299e-05 -0.024140219945308596 0 -5.5341209781716464e-05 -0.023586482634178695 0 -1.9315523991949789e-05 -0.024846265461832582 0 -3.2248263023725631e-06 -0.02427184976840726 0 -4.0226489240062956e-05 -0.024743875287366747 0 -1.8868154340882239e-07 -0.024998897900601686 0 -1.9315523991949789e-05 -0.024846265461832582 0 3.1173599996711027e-08 -0.024996997647500747 0 -1.9315523991949789e-05 -0.024846265461832582 0 2.6130794634651752e-05 -0.023934689973555277 0 6.0888553368922486e-05 -0.023928590099503738 0 -1.9315523991949789e-05 -0.024846265461832582 0 3.1173599996711027e-08 -0.024996997647500747 0 6.0888553368922486e-05 -0.023928590099503738 0 3.1173599996711027e-08 -0.024996997647500747 0 6.0888553368922486e-05 -0.023928590099503738 0 6.4156742032309988e-07 -0.022996268521413614 0 6.4156742032309988e-07 -0.022996268521413614 0 3.5297965428197263e-05 -0.022934966944560663 0 -1.1265167592866616e-06 -0.021503291873221465 0 6.0888553368922486e-05 -0.023928590099503738 0 6.4156742032309988e-07 -0.022996268521413614 0 3.5297965428197263e-05 -0.022934966944560663 0 6.0888553368922486e-05 -0.023928590099503738 0 3.5297965428197263e-05 -0.022934966944560663 0 -4.5037513546301725e-06 -0.023375507995534454 0 2.6130794634651752e-05 -0.023934689973555277 0 6.0888553368922486e-05 -0.023928590099503738 0 -4.5037513546301725e-06 -0.023375507995534454 0 -3.1624044513710946e-06 -0.023299052917061101 0 2.6130794634651752e-05 -0.023934689973555277 0 -4.5037513546301725e-06 -0.023375507995534454 0 -3.1624044513710946e-06 -0.023299052917061101 0 -4.5037513546301725e-06 -0.023375507995534454 0 -6.6479472296056646e-05 -0.022660170243832649 0 -4.5037513546301725e-06 -0.023375507995534454 0 -6.6479472296056646e-05 -0.022660170243832649 0 -0.00010788488504517793 -0.022958110568763807 0 -6.6479472296056646e-05 -0.022660170243832649 0 -0.00010788488504517793 -0.022958110568763807 0 0.00030117779982053919 -0.022571408885906398 0 -6.6479472296056646e-05 -0.022660170243832649 0 0.00030117779982053919 -0.022571408885906398 0 0.00031758425930489048 -0.021744831247475092 0 -0.00010788488504517793 -0.022958110568763807 0 -0.00026678745655803204 -0.022863165351902161 0 0.00030117779982053919 -0.022571408885906398 0 3.5297965428197263e-05 -0.022934966944560663 0 -4.5037513546301725e-06 -0.023375507995534454 0 -0.00010788488504517793 -0.022958110568763807 0 3.5297965428197263e-05 -0.022934966944560663 0 -0.00010788488504517793 -0.022958110568763807 0 -0.00026678745655803204 -0.022863165351902161 0 8.0178782363680084e-05 -0.019721769167027919 0 -1.1535339537017563e-06 -0.021498113292045259 0 1.0045919547280552e-06 -0.019999734854355172 0 -1.5356626191279734e-05 -0.021264434522796288 0 8.8166352276205959e-08 -0.021500027676105263 0 3.5297965428197263e-05 -0.022934966944560663 0 -0.00026678745655803204 -0.022863165351902161 0 -1.1265167592866616e-06 -0.021503291873221465 0 1.0045919547280552e-06 -0.019999734854355172 0 0.00036340228120284039 -0.019396849497422486 0 4.4264897044358722e-07 -0.018499074987806549 0 8.0178782363680084e-05 -0.019721769167027919 0 1.0045919547280552e-06 -0.019999734854355172 0 0.00036340228120284039 -0.019396849497422486 0 8.0178782363680084e-05 -0.019721769167027919 0 0.00036340228120284039 -0.019396849497422486 0 0.00074113219996493462 -0.019475821687160357 0 0.00036340228120284039 -0.019396849497422486 0 0.00040642752406431918 -0.019069839568730623 0 4.4264897044358722e-07 -0.018499074987806549 0 0.00036340228120284039 -0.019396849497422486 0 0.00074113219996493462 -0.019475821687160357 0 0.00040642752406431918 -0.019069839568730623 0 0.00074113219996493462 -0.019475821687160357 0 0.0004441459714840647 -0.019660038116592931 0 0.00040642752406431918 -0.019069839568730623 0 -1.5356626191279734e-05 -0.021264434522796288 0 0.00046676225891786465 -0.021051275099184349 0 0.00030117779982053919 -0.022571408885906398 0 0.00072294297628046236 -0.020852997802263164 0 0.00031758425930489048 -0.021744831247475092 0 0.00074113219996493462 -0.019475821687160357 0 0.00072294297628046236 -0.020852997802263164 0 0.0004441459714840647 -0.019660038116592931 0 0.00046676225891786465 -0.021051275099184349 0 0.00067315896725368186 -0.020917003923211653 0 0.00072294297628046236 -0.020852997802263164 0 0.00064342485130799965 -0.020921655449258079 0 0.00031758425930489048 -0.021744831247475092 0 0.00072294297628046236 -0.020852997802263164 0 0.00064342485130799965 -0.020921655449258079 0 0.00055708575429693635 -0.020625592794694472 0 9.9009962297371846e-05 -0.021915875637574654 0 1.7942106612654057e-05 -0.022426825076691644 0 0.00064342485130799965 -0.020921655449258079 0 0.00031758425930489048 -0.021744831247475092 0 0.00015920866635629722 -0.021781669024477049 0 -6.6479472296056646e-05 -0.022660170243832649 0 0.00031758425930489048 -0.021744831247475092 0 0.00015920866635629722 -0.021781669024477049 0 -5.6884834167298596e-05 -0.022810699131265641 0 -6.6479472296056646e-05 -0.022660170243832649 0 0.00015920866635629722 -0.021781669024477049 0 2.7773573100775414e-05 -0.0230473341763551 0 1.7942106612654057e-05 -0.022426825076691644 0 -1.1028402839037942e-05 -0.023381770347017595 0 -0.00033529617282886375 -0.023145651761684562 0 -0.00027353686949511074 -0.023422459749576827 0 -0.00020131902907570608 -0.023068504169588243 0 -1.1028402839037942e-05 -0.023381770347017595 0 -0.00033529617282886375 -0.023145651761684562 0 5.1903143922799698e-05 -0.023270015995253104 0 -0.00020131902907570608 -0.023068504169588243 0 -1.1028402839037942e-05 -0.023381770347017595 0 -1.1028402839037942e-05 -0.023381770347017595 0 -0.00027353686949511074 -0.023422459749576827 0 -8.3054021494270605e-05 -0.023649465886054814 0 -0.00048718987932866399 -0.023134026478633111 0 -0.00033529617282886375 -0.023145651761684562 0 -0.00027353686949511074 -0.023422459749576827 0 -0.00046504424324607266 -0.02288747365841947 0 -0.00048718987932866399 -0.023134026478633111 0 -0.00033529617282886375 -0.023145651761684562 0 -0.00046504424324607266 -0.02288747365841947 0 -0.00048718987932866399 -0.023134026478633111 0 -0.00064592823815618199 -0.022900650395958011 0 -0.00046504424324607266 -0.02288747365841947 0 -0.00020131902907570608 -0.023068504169588243 0 -0.00033529617282886375 -0.023145651761684562 0 -0.00079808164326004112 -0.022685571503244524 0 -0.00064592823815618199 -0.022900650395958011 0 -0.00069285755608199931 -0.022682494991170893 0 -0.00046504424324607266 -0.02288747365841947 0 -0.00064592823815618199 -0.022900650395958011 0 -0.00069285755608199931 -0.022682494991170893 0 -0.00048718987932866399 -0.023134026478633111 0 -0.00064592823815618199 -0.022900650395958011 0 -0.00060289280329701512 -0.023191573434005595 0 -0.00064592823815618199 -0.022900650395958011 0 -0.00076350567081093646 -0.022947447744768337 0 -0.00060289280329701512 -0.023191573434005595 0 -0.00079808164326004112 -0.022685571503244524 0 -0.00064592823815618199 -0.022900650395958011 0 -0.00076350567081093646 -0.022947447744768337 0 -0.00079808164326004112 -0.022685571503244524 0 -0.00091605982465770475 -0.022709113954444107 0 -0.00076350567081093646 -0.022947447744768337 0 -0.00091605982465770475 -0.022709113954444107 0 -0.00092333556953722051 -0.022392063430174417 0 -0.001113054123963762 -0.022415946712291517 0 -0.00036009691370919182 -0.021291297777540033 0 -0.00074103580704369665 -0.021191421589883283 0 -0.00092333556953722051 -0.022392063430174417 0 -0.0012186141414124794 -0.021994168085427476 0 -0.001113054123963762 -0.022415946712291517 0 -0.00079808164326004112 -0.022685571503244524 0 -0.00091605982465770475 -0.022709113954444107 0 -0.00092333556953722051 -0.022392063430174417 0 -0.00036009691370919182 -0.021291297777540033 0 -0.00013213310039610464 -0.021575993703814123 0 -0.00079808164326004112 -0.022685571503244524 0 -0.00092333556953722051 -0.022392063430174417 0 -0.00069285755608199931 -0.022682494991170893 0 0.00020893591036945071 -0.020155187786445563 0 2.9349812937562224e-05 -0.019706056320441943 0 0.0002467203104695958 -0.020125326893790346 0 0.00020893591036945071 -0.020155187786445563 0 0.00041311471086736721 -0.020475231282959281 0 0.0002467203104695958 -0.020125326893790346 0 0.00020893591036945071 -0.020155187786445563 0 2.9349812937562224e-05 -0.019706056320441943 0 6.0571067307979536e-05 -0.019535235386751733 0 2.9349812937562224e-05 -0.019706056320441943 0 -0.00052403816847215495 -0.019258796291773836 0 6.0571067307979536e-05 -0.019535235386751733 0 2.9349812937562224e-05 -0.019706056320441943 0 0.00034069963558268216 -0.020012507358598011 0 0.0002467203104695958 -0.020125326893790346 0 0.00034069963558268216 -0.020012507358598011 0 0.0002467203104695958 -0.020125326893790346 0 0.00055708575429693635 -0.020625592794694472 0 0.00041311471086736721 -0.020475231282959281 0 0.0002467203104695958 -0.020125326893790346 0 0.00055708575429693635 -0.020625592794694472 0 0.00064342485130799965 -0.020921655449258079 0 0.00041311471086736721 -0.020475231282959281 0 0.00055708575429693635 -0.020625592794694472 0 9.9009962297371846e-05 -0.021915875637574654 0 -0.00013213310039610464 -0.021575993703814123 0 0.00072294297628046236 -0.020852997802263164 0 0.00034069963558268216 -0.020012507358598011 0 0.00055708575429693635 -0.020625592794694472 0 0.00072294297628046236 -0.020852997802263164 0 0.00034069963558268216 -0.020012507358598011 0 0.0004441459714840647 -0.019660038116592931 0 0.00034069963558268216 -0.020012507358598011 0 0.0004441459714840647 -0.019660038116592931 0 0.00023742998474960873 -0.019126466021150181 0 2.9349812937562224e-05 -0.019706056320441943 0 0.00034069963558268216 -0.020012507358598011 0 0.00023742998474960873 -0.019126466021150181 0 0.0004441459714840647 -0.019660038116592931 0 0.00023742998474960873 -0.019126466021150181 0 0.00040642752406431918 -0.019069839568730623 0 0.00040642752406431918 -0.019069839568730623 0 0.00022908960565877644 -0.018315605914166054 0 4.4264897044358722e-07 -0.018499074987806549 0 0.00023742998474960873 -0.019126466021150181 0 0.00022908960565877644 -0.018315605914166054 0 4.4063453045258733e-05 -0.01792297153766638 0 0.00023742998474960873 -0.019126466021150181 0 0.00040642752406431918 -0.019069839568730623 0 0.00022908960565877644 -0.018315605914166054 0 0.00022908960565877644 -0.018315605914166054 0 4.4264897044358722e-07 -0.018499074987806549 0 1.0508905839592593e-06 -0.016998249868770618 0 1.0508905839592593e-06 -0.016998249868770618 0 4.4063453045258733e-05 -0.01792297153766638 0 -2.7139755934150648e-06 -0.015500497382140098 0 0.00022908960565877644 -0.018315605914166054 0 1.0508905839592593e-06 -0.016998249868770618 0 4.4063453045258733e-05 -0.01792297153766638 0 4.4063453045258733e-05 -0.01792297153766638 0 -0.00083746666594629782 -0.017973666482683157 0 -2.7139755934150648e-06 -0.015500497382140098 0 4.4063453045258733e-05 -0.01792297153766638 0 -0.00011778971422082428 -0.01899815577546482 0 -0.00083746666594629782 -0.017973666482683157 0 -0.00011778971422082428 -0.01899815577546482 0 -0.00052403816847215495 -0.019258796291773836 0 -0.00083746666594629782 -0.017973666482683157 0 0.00023742998474960873 -0.019126466021150181 0 4.4063453045258733e-05 -0.01792297153766638 0 -0.00011778971422082428 -0.01899815577546482 0 2.9349812937562224e-05 -0.019706056320441943 0 0.00023742998474960873 -0.019126466021150181 0 -0.00011778971422082428 -0.01899815577546482 0 2.9349812937562224e-05 -0.019706056320441943 0 -0.00011778971422082428 -0.01899815577546482 0 -0.00052403816847215495 -0.019258796291773836 0 0.00082875185252320206 -0.016860600128974123 0 -0.00045453277773332761 -0.015708241882730345 0 -0.00063190126413519118 -0.018115548828784106 0 0.0001115276239556821 -0.018028578836669681 0 -9.3939240358851308e-05 -0.016453185317726399 0 0.00082875185252320206 -0.016860600128974123 0 -0.00045453277773332761 -0.015708241882730345 0 0.00056110967502573307 -0.014791978260486468 0 -0.00045453277773332761 -0.015708241882730345 0 0.00056110967502573307 -0.014791978260486468 0 6.2461895853466724e-05 -0.014357498675828624 0 -0.00045453277773332761 -0.015708241882730345 0 6.2461895853466724e-05 -0.014357498675828624 0 -0.00068403465165003778 -0.013537492165946751 0 6.2461895853466724e-05 -0.014357498675828624 0 -5.5124063056367905e-07 -0.014137724162177111 0 -0.00068403465165003778 -0.013537492165946751 0 6.2461895853466724e-05 -0.014357498675828624 0 -5.5124063056367905e-07 -0.014137724162177111 0 4.2588324349590593e-07 -0.015494904352254386 0 0.00056110967502573307 -0.014791978260486468 0 6.2461895853466724e-05 -0.014357498675828624 0 4.2588324349590593e-07 -0.015494904352254386 0 -9.3939240358851308e-05 -0.016453185317726399 0 -7.9759455446692131e-08 -0.015497726049527961 0 3.1517819938292077e-05 -0.011940503219247316 0 -5.3380388807147274e-07 -0.012777946491799499 0 -0.00068403465165003778 -0.013537492165946751 0 -5.5124063056367905e-07 -0.014137724162177111 0 -5.3380388807147274e-07 -0.012777946491799499 0 -0.00068403465165003778 -0.013537492165946751 0 -0.00082491332080383037 -0.013477282239113856 0 -0.0013807613411180514 -0.013704563512580625 0 3.1517819938292077e-05 -0.011940503219247316 0 -0.00068403465165003778 -0.013537492165946751 0 -0.00038277474141501435 -0.011672074232010372 0 -6.3358886847771803e-07 -0.011458027633412209 0 -9.7227263946894488e-05 -0.011482164729259279 0 -0.00038277474141501435 -0.011672074232010372 0 3.1517819938292077e-05 -0.011940503219247316 0 -9.7227263946894488e-05 -0.011482164729259279 0 -0.00038277474141501435 -0.011672074232010372 0 -0.00045453277773332761 -0.015708241882730345 0 -0.00068403465165003778 -0.013537492165946751 0 -0.0025320181235867533 -0.015635735409381516 0 -0.00045453277773332761 -0.015708241882730345 0 -0.0025320181235867533 -0.015635735409381516 0 -0.0020451097711186115 -0.017316846656683097 0 -0.00045453277773332761 -0.015708241882730345 0 -0.0020451097711186115 -0.017316846656683097 0 -0.00063190126413519118 -0.018115548828784106 0 -0.0036292569755622993 -0.017508483862712365 0 -0.0020451097711186115 -0.017316846656683097 0 -0.0030002219891987853 -0.018541828103034896 0 -0.0036292569755622993 -0.017508483862712365 0 -0.0025320181235867533 -0.015635735409381516 0 -0.0020451097711186115 -0.017316846656683097 0 -0.0018150176552403498 -0.014526215665916945 0 -0.0013807613411180514 -0.013704563512580625 0 -0.0044378137735829101 -0.019149563225797125 0 -0.0030002219891987853 -0.018541828103034896 0 -0.0030750446782783244 -0.019766146515374634 0 -0.0030002219891987853 -0.018541828103034896 0 -0.0030750446782783244 -0.019766146515374634 0 -0.0017502296462678371 -0.018862340569895327 0 -0.0030750446782783244 -0.019766146515374634 0 -0.0019615616172712468 -0.02003866326172301 0 -0.0025439443238625867 -0.020814186465351412 0 -0.0030750446782783244 -0.019766146515374634 0 -0.0019615616172712468 -0.02003866326172301 0 -0.0017502296462678371 -0.018862340569895327 0 -0.0019615616172712468 -0.02003866326172301 0 -0.00088642788556958063 -0.019868184170471152 0 -0.001792276002672348 -0.021213388029198695 0 -0.0019615616172712468 -0.02003866326172301 0 -0.0017502296462678371 -0.018862340569895327 0 -0.00088642788556958063 -0.019868184170471152 0 -0.0020451097711186115 -0.017316846656683097 0 -0.0030002219891987853 -0.018541828103034896 0 -0.0017502296462678371 -0.018862340569895327 0 -0.0020451097711186115 -0.017316846656683097 0 -0.0017502296462678371 -0.018862340569895327 0 -0.00063190126413519118 -0.018115548828784106 0 -0.00063190126413519118 -0.018115548828784106 0 6.0571067307979536e-05 -0.019535235386751733 0 -0.00088642788556958063 -0.019868184170471152 0 -0.0017502296462678371 -0.018862340569895327 0 -0.00063190126413519118 -0.018115548828784106 0 -0.00088642788556958063 -0.019868184170471152 0 0.00082875185252320206 -0.016860600128974123 0 -0.00063190126413519118 -0.018115548828784106 0 6.0571067307979536e-05 -0.019535235386751733 0 0.0001115276239556821 -0.018028578836669681 0 7.8957643876303291e-05 -0.01938685653510867 0 6.0571067307979536e-05 -0.019535235386751733 0 -0.00088642788556958063 -0.019868184170471152 0 -9.457288994857973e-05 -0.020374302303742802 0 0.00020893591036945071 -0.020155187786445563 0 6.0571067307979536e-05 -0.019535235386751733 0 -9.457288994857973e-05 -0.020374302303742802 0 -0.00088642788556958063 -0.019868184170471152 0 -9.457288994857973e-05 -0.020374302303742802 0 -0.001792276002672348 -0.021213388029198695 0 -0.00074103580704369665 -0.021191421589883283 0 -0.0017974953673516847 -0.0212296957103504 0 -0.0015101989681239572 -0.021852017945350709 0 -0.0012186141414124794 -0.021994168085427476 0 -0.0013793513409353861 -0.022193479412126529 0 -0.0015101989681239572 -0.021852017945350709 0 -0.0012186141414124794 -0.021994168085427476 0 -0.001792276002672348 -0.021213388029198695 0 -0.0012186141414124794 -0.021994168085427476 0 -0.001113054123963762 -0.022415946712291517 0 -0.0013793513409353861 -0.022193479412126529 0 -0.001113054123963762 -0.022415946712291517 0 -0.0013793513409353861 -0.022193479412126529 0 -0.0012836398164465092 -0.022537558013613603 0 -0.0015101989681239572 -0.021852017945350709 0 -0.0013793513409353861 -0.022193479412126529 0 -0.0018254664287545162 -0.022175148664074659 0 -0.0013793513409353861 -0.022193479412126529 0 -0.0018254664287545162 -0.022175148664074659 0 -0.001546517749714183 -0.02249986497762755 0 -0.0018254664287545162 -0.022175148664074659 0 -0.0023662414811120728 -0.021975629685113504 0 -0.00222987974865145 -0.022330161865469357 0 -0.0015101989681239572 -0.021852017945350709 0 -0.0018254664287545162 -0.022175148664074659 0 -0.001792276002672348 -0.021213388029198695 0 -0.0018254664287545162 -0.022175148664074659 0 -0.0023662414811120728 -0.021975629685113504 0 -0.001792276002672348 -0.021213388029198695 0 -0.0023662414811120728 -0.021975629685113504 0 -0.0024376229609557516 -0.022104738913224672 0 -0.00222987974865145 -0.022330161865469357 0 -0.0025375308925871722 -0.022093648485479539 0 -0.0023662414811120728 -0.021975629685113504 0 -0.0024376229609557516 -0.022104738913224672 0 -0.0035263668557880489 -0.020910358896080134 0 -0.0023662414811120728 -0.021975629685113504 0 -0.0025439443238625867 -0.020814186465351412 0 -0.0036927058664970053 -0.021572865721463393 0 -0.0035263668557880489 -0.020910358896080134 0 -0.0023662414811120728 -0.021975629685113504 0 -0.0035263668557880489 -0.020910358896080134 0 -0.0030750446782783244 -0.019766146515374634 0 -0.0025439443238625867 -0.020814186465351412 0 -0.0019615616172712468 -0.02003866326172301 0 -0.0025439443238625867 -0.020814186465351412 0 -0.001792276002672348 -0.021213388029198695 0 -0.0023662414811120728 -0.021975629685113504 0 -0.0025439443238625867 -0.020814186465351412 0 -0.001792276002672348 -0.021213388029198695 0 -0.0019695088160382309 -0.022697491513871744 0 -0.0020151988490858196 -0.022949435789558523 0 -0.0023520175227700118 -0.022609947470145501 0 -0.0019695088160382309 -0.022697491513871744 0 -0.001775939603929449 -0.022960933568128266 0 -0.0016532852397018428 -0.022735475747948194 0 -0.0019695088160382309 -0.022697491513871744 0 -0.0018279382607299321 -0.022505290385357087 0 -0.0016532852397018428 -0.022735475747948194 0 -0.0018493577556582962 -0.022640401566672467 0 -0.00222546018633867 -0.022364259233897316 0 -0.0019695088160382309 -0.022697491513871744 0 -0.001775939603929449 -0.022960933568128266 0 -0.0020151988490858196 -0.022949435789558523 0 -0.0024115955030791459 -0.021835013600991576 0 -0.00222546018633867 -0.022364259233897316 0 -0.0024997287366219302 -0.021855242055330532 0 -0.0028465426222987096 -0.021836508426741785 0 -0.0026858891175388514 -0.021962880111031313 0 -0.0022161201649076021 -0.021938979074538768 0 -0.0021272488277337834 -0.021866762888551151 0 -0.0021773444699224598 -0.021929546785362235 0 -0.00222546018633867 -0.022364259233897316 0 -0.0025099557594132648 -0.022266534859482028 0 -0.0019695088160382309 -0.022697491513871744 0 -0.0023520175227700118 -0.022609947470145501 0 -0.00222987974865145 -0.022330161865469357 0 -0.0023520175227700118 -0.022609947470145501 0 -0.0024166827796163856 -0.022241193899352404 0 -0.00222987974865145 -0.022330161865469357 0 -0.0025174284431376003 -0.022144561343268917 0 -0.0023520175227700118 -0.022609947470145501 0 -0.0024166827796163856 -0.022241193899352404 0 -0.0025081226223215049 -0.022205707699624513 0 -0.0025099557594132648 -0.022266534859482028 0 -0.0024376229609557516 -0.022104738913224672 0 -0.0024166827796163856 -0.022241193899352404 0 -0.00222987974865145 -0.022330161865469357 0 -0.0024869517835680432 -0.02212978397929994 0 -0.0024376229609557516 -0.022104738913224672 0 -0.0024166827796163856 -0.022241193899352404 0 -0.0018254664287545162 -0.022175148664074659 0 -0.00222987974865145 -0.022330161865469357 0 -0.0018279382607299321 -0.022505290385357087 0 -0.0019695088160382309 -0.022697491513871744 0 -0.00222987974865145 -0.022330161865469357 0 -0.0018279382607299321 -0.022505290385357087 0 -0.0018254664287545162 -0.022175148664074659 0 -0.0018279382607299321 -0.022505290385357087 0 -0.001546517749714183 -0.02249986497762755 0 -0.0013793513409353861 -0.022193479412126529 0 -0.001546517749714183 -0.02249986497762755 0 -0.0012836398164465092 -0.022537558013613603 0 -0.001546517749714183 -0.02249986497762755 0 -0.0012836398164465092 -0.022537558013613603 0 -0.0013634004821161799 -0.022785948084842196 0 -0.001546517749714183 -0.02249986497762755 0 -0.0013634004821161799 -0.022785948084842196 0 -0.0016532852397018428 -0.022735475747948194 0 -0.0018279382607299321 -0.022505290385357087 0 -0.001546517749714183 -0.02249986497762755 0 -0.0016532852397018428 -0.022735475747948194 0 -0.001113054123963762 -0.022415946712291517 0 -0.0012836398164465092 -0.022537558013613603 0 -0.0011065938418144833 -0.022784069166892906 0 -0.0012836398164465092 -0.022537558013613603 0 -0.0013634004821161799 -0.022785948084842196 0 -0.0011065938418144833 -0.022784069166892906 0 -0.0013634004821161799 -0.022785948084842196 0 -0.0012312310595366813 -0.023070115182545745 0 -0.0011065938418144833 -0.022784069166892906 0 -0.0013634004821161799 -0.022785948084842196 0 -0.0014947460172923162 -0.022965357614915489 0 -0.0012312310595366813 -0.023070115182545745 0 -0.0013634004821161799 -0.022785948084842196 0 -0.0016532852397018428 -0.022735475747948194 0 -0.0014947460172923162 -0.022965357614915489 0 -0.001775939603929449 -0.022960933568128266 0 -0.0016532852397018428 -0.022735475747948194 0 -0.0014947460172923162 -0.022965357614915489 0 -0.0014947460172923162 -0.022965357614915489 0 -0.0015346773175662345 -0.023180327608728048 0 -0.0012312310595366813 -0.023070115182545745 0 -0.001775939603929449 -0.022960933568128266 0 -0.0014947460172923162 -0.022965357614915489 0 -0.0015346773175662345 -0.023180327608728048 0 -0.0015346773175662345 -0.023180327608728048 0 -0.0012312310595366813 -0.023070115182545745 0 -0.0012087439661866612 -0.023268457797850913 0 -0.0012312310595366813 -0.023070115182545745 0 -0.0012087439661866612 -0.023268457797850913 0 -0.0010687778861510724 -0.023226863683510967 0 -0.0013735769797558711 -0.022809399404822035 0 -0.0011460994238709466 -0.023067708951388221 0 -0.0014722324626766669 -0.022352975921970518 0 -0.0019431705249898482 -0.02213957101287704 0 -0.0019160732229853434 -0.022362881577370743 0 -0.001862956647696807 -0.021961958577437931 0 -0.0014722324626766669 -0.022352975921970518 0 -0.0019431705249898482 -0.02213957101287704 0 -0.001672383840639188 -0.022592236924297859 0 -0.0013735769797558711 -0.022809399404822035 0 -0.0019431705249898482 -0.02213957101287704 0 -0.0021027315192392966 -0.021990904241581764 0 -0.0021921413464625191 -0.022069217884883311 0 -0.0019431705249898482 -0.02213957101287704 0 -0.0021921413464625191 -0.022069217884883311 0 -0.0019160732229853434 -0.022362881577370743 0 -0.001862956647696807 -0.021961958577437931 0 -0.0019431705249898482 -0.02213957101287704 0 -0.0021027315192392966 -0.021990904241581764 0 -0.001775939603929449 -0.022960933568128266 0 -0.0019542266817135028 -0.022961029366520953 0 -0.0015346773175662345 -0.023180327608728048 0 -0.00222546018633867 -0.022364259233897316 0 -0.001672383840639188 -0.022592236924297859 0 -0.0021272488277337834 -0.021866762888551151 0 -0.001862956647696807 -0.021961958577437931 0 -0.0021027315192392966 -0.021990904241581764 0 -0.0021272488277337834 -0.021866762888551151 0 -0.0021027315192392966 -0.021990904241581764 0 -0.0021773444699224598 -0.021929546785362235 0 -0.0022161201649076021 -0.021938979074538768 0 -0.0021773444699224598 -0.021929546785362235 0 -0.0022136257928173446 -0.021967160434997204 0 -0.0021027315192392966 -0.021990904241581764 0 -0.0021773444699224598 -0.021929546785362235 0 -0.0022136257928173446 -0.021967160434997204 0 -0.0022503248430784952 -0.021973311967244863 0 -0.002298637788596858 -0.021977702944600153 0 -0.0021921413464625191 -0.022069217884883311 0 -0.0022503248430784952 -0.021973311967244863 0 -0.0022136257928173446 -0.021967160434997204 0 -0.0021921413464625191 -0.022069217884883311 0 -0.0021027315192392966 -0.021990904241581764 0 -0.0022136257928173446 -0.021967160434997204 0 -0.0021921413464625191 -0.022069217884883311 0 -0.002298637788596858 -0.021977702944600153 0 -0.0022096194904599742 -0.022191464610758455 0 -0.0024338202930439799 -0.022064142058121537 0 -0.002298637788596858 -0.021977702944600153 0 -0.0021921413464625191 -0.022069217884883311 0 -0.0022096194904599742 -0.022191464610758455 0 -0.0022096194904599742 -0.022191464610758455 0 -0.0019039460029633547 -0.022611419417204532 0 -0.0024338202930439799 -0.022064142058121537 0 -0.0022096194904599742 -0.022191464610758455 0 -0.0019039460029633547 -0.022611419417204532 0 -0.0019160732229853434 -0.022362881577370743 0 -0.0021921413464625191 -0.022069217884883311 0 -0.0022096194904599742 -0.022191464610758455 0 -0.0019160732229853434 -0.022362881577370743 0 -0.0019039460029633547 -0.022611419417204532 0 -0.0024338202930439799 -0.022064142058121537 0 -0.0018274051090675023 -0.023031284204025781 0 -0.0024246428087679886 -0.022109698084942706 0 -0.0023305295781862268 -0.022298768417680283 0 -0.0024338202930439799 -0.022064142058121537 0 -0.0023815290635922737 -0.021512567475506072 0 -0.0025624920188637994 -0.021308695433242118 0 -0.0023815290635922737 -0.021512567475506072 0 -0.0024334995964969517 -0.021299289114854753 0 -0.0025624920188637994 -0.021308695433242118 0 -0.0018274051090675023 -0.023031284204025781 0 -0.0021562197677219889 -0.023282940900572955 0 -0.0017184835927406847 -0.023449236217010318 0 -0.0024338202930439799 -0.022064142058121537 0 -0.0018274051090675023 -0.023031284204025781 0 -0.0021562197677219889 -0.023282940900572955 0 -0.0023305295781862268 -0.022298768417680283 0 -0.0019912613430174957 -0.022560055357254114 0 -0.0021562197677219889 -0.023282940900572955 0 -0.0017184835927406847 -0.023449236217010318 0 -0.001676465868799281 -0.02371816357747511 0 -0.0025624920188637994 -0.021308695433242118 0 -0.0024658873839265225 -0.021372082691736224 0 -0.0022907011740452353 -0.021421116183177272 0 -0.0024334995964969517 -0.021299289114854753 0 -0.0024536980511439591 -0.021382091385112736 0 -0.0023247071688810008 -0.021458650600839208 0 -0.0024369635499721055 -0.021314155219197745 0 -0.0023963433332687095 -0.02147766610376348 0 -0.0024334995964969517 -0.021299289114854753 0 -0.0024658873839265225 -0.021372082691736224 0 -0.0024894718540504693 -0.021484461301701844 0 -0.0024334995964969517 -0.021299289114854753 0 -0.0025624920188637994 -0.021308695433242118 0 -0.0024658873839265225 -0.021372082691736224 0 -0.0014031263137768866 -0.023698864917895773 0 -0.0014976754933152066 -0.023419484728538158 0 -0.0013037674335365864 -0.023591571342382819 0 -0.0014031263137768866 -0.023698864917895773 0 -0.0015315911767595162 -0.023630480315684668 0 -0.0014976754933152066 -0.023419484728538158 0 -0.0014031263137768866 -0.023698864917895773 0 -0.0015315911767595162 -0.023630480315684668 0 -0.0014409246897262623 -0.02369370982470561 0 -0.0015315911767595162 -0.023630480315684668 0 -0.0017184835927406847 -0.023449236217010318 0 -0.0014976754933152066 -0.023419484728538158 0 -0.0015315911767595162 -0.023630480315684668 0 -0.0017184835927406847 -0.023449236217010318 0 -0.001676465868799281 -0.02371816357747511 0 -0.0018274051090675023 -0.023031284204025781 0 -0.0014976754933152066 -0.023419484728538158 0 -0.0015716215809205151 -0.023076452781444282 0 -0.0018274051090675023 -0.023031284204025781 0 -0.0017184835927406847 -0.023449236217010318 0 -0.0014976754933152066 -0.023419484728538158 0 -0.0014976754933152066 -0.023419484728538158 0 -0.0015716215809205151 -0.023076452781444282 0 -0.0012699582354911204 -0.023327157312673662 0 -0.0014976754933152066 -0.023419484728538158 0 -0.0012699582354911204 -0.023327157312673662 0 -0.0013037674335365864 -0.023591571342382819 0 -0.0015716215809205151 -0.023076452781444282 0 -0.0015113685850322207 -0.022872202811108786 0 -0.0012699582354911204 -0.023327157312673662 0 -0.0019039460029633547 -0.022611419417204532 0 -0.0015716215809205151 -0.023076452781444282 0 -0.0015113685850322207 -0.022872202811108786 0 -0.0019039460029633547 -0.022611419417204532 0 -0.0018274051090675023 -0.023031284204025781 0 -0.0015716215809205151 -0.023076452781444282 0 -0.0014722324626766669 -0.022352975921970518 0 -0.0019160732229853434 -0.022362881577370743 0 -0.0015113685850322207 -0.022872202811108786 0 -0.0019039460029633547 -0.022611419417204532 0 -0.0019160732229853434 -0.022362881577370743 0 -0.0015113685850322207 -0.022872202811108786 0 -0.0015113685850322207 -0.022872202811108786 0 -0.0011160038861787271 -0.023128949344240042 0 -0.0012699582354911204 -0.023327157312673662 0 -0.0014722324626766669 -0.022352975921970518 0 -0.0015113685850322207 -0.022872202811108786 0 -0.0011160038861787271 -0.023128949344240042 0 -0.0011160038861787271 -0.023128949344240042 0 -0.00091530732814586126 -0.023443059151768256 0 -0.00093513097758085963 -0.023341344106456014 0 -0.0011160038861787271 -0.023128949344240042 0 -0.00091530732814586126 -0.023443059151768256 0 -0.001079206217773947 -0.023365696593125349 0 -0.00091530732814586126 -0.023443059151768256 0 -0.001079206217773947 -0.023365696593125349 0 -0.0010022240563488088 -0.02359262143928418 0 -0.0012699582354911204 -0.023327157312673662 0 -0.001079206217773947 -0.023365696593125349 0 -0.0010022240563488088 -0.02359262143928418 0 -0.0011160038861787271 -0.023128949344240042 0 -0.0012699582354911204 -0.023327157312673662 0 -0.001079206217773947 -0.023365696593125349 0 -0.0012699582354911204 -0.023327157312673662 0 -0.0013037674335365864 -0.023591571342382819 0 -0.0010022240563488088 -0.02359262143928418 0 -0.0013037674335365864 -0.023591571342382819 0 -0.0010022240563488088 -0.02359262143928418 0 -0.0010128067900494519 -0.02392154593702803 0 -0.0010128067900494519 -0.02392154593702803 0 -0.0013463205946029394 -0.023841808593009536 0 -0.0011208826456330231 -0.02427407156714868 0 -0.0013037674335365864 -0.023591571342382819 0 -0.0010128067900494519 -0.02392154593702803 0 -0.0013463205946029394 -0.023841808593009536 0 -0.0014031263137768866 -0.023698864917895773 0 -0.0013037674335365864 -0.023591571342382819 0 -0.0013463205946029394 -0.023841808593009536 0 -0.00059735650668966663 -0.024186568274916911 0 -0.00074070146047128043 -0.023942026578548471 0 -0.00074151326486128011 -0.024237175240121575 0 -0.00059735650668966663 -0.024186568274916911 0 -0.00074070146047128043 -0.023942026578548471 0 -0.00055147681597930861 -0.024051267597753893 0 -0.0010128067900494519 -0.02392154593702803 0 -0.00074070146047128043 -0.023942026578548471 0 -0.00074151326486128011 -0.024237175240121575 0 -0.0010022240563488088 -0.02359262143928418 0 -0.00074070146047128043 -0.023942026578548471 0 -0.00080255963686089974 -0.023666904187989182 0 -0.0010022240563488088 -0.02359262143928418 0 -0.0010128067900494519 -0.02392154593702803 0 -0.00074070146047128043 -0.023942026578548471 0 -0.00074070146047128043 -0.023942026578548471 0 -0.00060288402671071289 -0.023859184441045327 0 -0.00080255963686089974 -0.023666904187989182 0 -0.00074070146047128043 -0.023942026578548471 0 -0.00060288402671071289 -0.023859184441045327 0 -0.00055147681597930861 -0.024051267597753893 0 -0.00060288402671071289 -0.023859184441045327 0 -0.00080255963686089974 -0.023666904187989182 0 -0.00069166544496862851 -0.023606586291169906 0 -0.00091530732814586126 -0.023443059151768256 0 -0.0010022240563488088 -0.02359262143928418 0 -0.00080255963686089974 -0.023666904187989182 0 -0.00091530732814586126 -0.023443059151768256 0 -0.00080255963686089974 -0.023666904187989182 0 -0.00069166544496862851 -0.023606586291169906 0 -0.00091530732814586126 -0.023443059151768256 0 -0.00069166544496862851 -0.023606586291169906 0 -0.00093513097758085963 -0.023341344106456014 0 -0.00060288402671071289 -0.023859184441045327 0 -0.00069166544496862851 -0.023606586291169906 0 -0.00045242797815792514 -0.023907831792765406 0 -0.00069166544496862851 -0.023606586291169906 0 -0.00072744220257713944 -0.023407932099976447 0 -0.00045815045883256487 -0.023737801560880529 0 -0.00072744220257713944 -0.023407932099976447 0 -0.00073779132323656166 -0.0232093838483797 0 -0.00053984352979947114 -0.023463568319351622 0 -0.00072744220257713944 -0.023407932099976447 0 -0.00093513097758085963 -0.023341344106456014 0 -0.00090182965310103944 -0.023223183239891011 0 -0.00072744220257713944 -0.023407932099976447 0 -0.00090182965310103944 -0.023223183239891011 0 -0.00073779132323656166 -0.0232093838483797 0 -0.00069166544496862851 -0.023606586291169906 0 -0.00072744220257713944 -0.023407932099976447 0 -0.00093513097758085963 -0.023341344106456014 0 -0.0012087439661866612 -0.023268457797850913 0 -0.0011160038861787271 -0.023128949344240042 0 -0.0010687778861510724 -0.023226863683510967 0 -0.0011160038861787271 -0.023128949344240042 0 -0.00093513097758085963 -0.023341344106456014 0 -0.0010687778861510724 -0.023226863683510967 0 -0.0012312310595366813 -0.023070115182545745 0 -0.0010687778861510724 -0.023226863683510967 0 -0.0010340849530217531 -0.023077681614277645 0 -0.0010687778861510724 -0.023226863683510967 0 -0.00090182965310103944 -0.023223183239891011 0 -0.0010340849530217531 -0.023077681614277645 0 -0.00093513097758085963 -0.023341344106456014 0 -0.0010687778861510724 -0.023226863683510967 0 -0.00090182965310103944 -0.023223183239891011 0 -0.00090182965310103944 -0.023223183239891011 0 -0.00090022080912844098 -0.023001523669164827 0 -0.0010340849530217531 -0.023077681614277645 0 -0.0012312310595366813 -0.023070115182545745 0 -0.0010340849530217531 -0.023077681614277645 0 -0.0011065938418144833 -0.022784069166892906 0 -0.00090022080912844098 -0.023001523669164827 0 -0.0010340849530217531 -0.023077681614277645 0 -0.0011065938418144833 -0.022784069166892906 0 -0.00091605982465770475 -0.022709113954444107 0 -0.001113054123963762 -0.022415946712291517 0 -0.0011065938418144833 -0.022784069166892906 0 -0.00091605982465770475 -0.022709113954444107 0 -0.00090022080912844098 -0.023001523669164827 0 -0.0011065938418144833 -0.022784069166892906 0 -0.00091605982465770475 -0.022709113954444107 0 -0.00090022080912844098 -0.023001523669164827 0 -0.00076350567081093646 -0.022947447744768337 0 -0.00090022080912844098 -0.023001523669164827 0 -0.00076350567081093646 -0.022947447744768337 0 -0.00073779132323656166 -0.0232093838483797 0 -0.00076350567081093646 -0.022947447744768337 0 -0.00060289280329701512 -0.023191573434005595 0 -0.00073779132323656166 -0.0232093838483797 0 -0.00060289280329701512 -0.023191573434005595 0 -0.00073779132323656166 -0.0232093838483797 0 -0.00053984352979947114 -0.023463568319351622 0 -0.00090182965310103944 -0.023223183239891011 0 -0.00090022080912844098 -0.023001523669164827 0 -0.00073779132323656166 -0.0232093838483797 0 -0.00053984352979947114 -0.023463568319351622 0 -0.00043800126260766048 -0.023395579296285954 0 -0.00028449690633704905 -0.023800315168983659 0 -0.00060289280329701512 -0.023191573434005595 0 -0.00053984352979947114 -0.023463568319351622 0 -0.00043800126260766048 -0.023395579296285954 0 -0.00048718987932866399 -0.023134026478633111 0 -0.00060289280329701512 -0.023191573434005595 0 -0.00043800126260766048 -0.023395579296285954 0 -0.00048718987932866399 -0.023134026478633111 0 -0.00043800126260766048 -0.023395579296285954 0 -0.00027353686949511074 -0.023422459749576827 0 -0.00043800126260766048 -0.023395579296285954 0 -0.00027353686949511074 -0.023422459749576827 0 -0.00028449690633704905 -0.023800315168983659 0 -8.3054021494270605e-05 -0.023649465886054814 0 -0.00028449690633704905 -0.023800315168983659 0 4.8225658118601662e-05 -0.024226963146984588 0 -0.00027353686949511074 -0.023422459749576827 0 -8.3054021494270605e-05 -0.023649465886054814 0 -0.00028449690633704905 -0.023800315168983659 0 -0.00028449690633704905 -0.023800315168983659 0 -0.00011262952953547708 -0.024143915298255554 0 -0.00023793973324520048 -0.024097228156481805 0 -0.00028449690633704905 -0.023800315168983659 0 -0.00011262952953547708 -0.024143915298255554 0 4.8225658118601662e-05 -0.024226963146984588 0 -0.00011262952953547708 -0.024143915298255554 0 -0.00023793973324520048 -0.024097228156481805 0 -6.7813979966015341e-05 -0.024393504722295664 0 -0.00028449690633704905 -0.023800315168983659 0 -0.00045815045883256487 -0.023737801560880529 0 -0.00023793973324520048 -0.024097228156481805 0 -0.00053984352979947114 -0.023463568319351622 0 -0.00028449690633704905 -0.023800315168983659 0 -0.00045815045883256487 -0.023737801560880529 0 -0.00072744220257713944 -0.023407932099976447 0 -0.00053984352979947114 -0.023463568319351622 0 -0.00045815045883256487 -0.023737801560880529 0 -0.00069166544496862851 -0.023606586291169906 0 -0.00045815045883256487 -0.023737801560880529 0 -0.00045242797815792514 -0.023907831792765406 0 -0.00045815045883256487 -0.023737801560880529 0 -0.00045242797815792514 -0.023907831792765406 0 -0.00023793973324520048 -0.024097228156481805 0 -0.00045242797815792514 -0.023907831792765406 0 -0.00025547495818194113 -0.024205727163788517 0 -0.00023793973324520048 -0.024097228156481805 0 -0.00045242797815792514 -0.023907831792765406 0 -0.00042945880141618333 -0.024061454282322644 0 -0.00025547495818194113 -0.024205727163788517 0 -0.00060288402671071289 -0.023859184441045327 0 -0.00045242797815792514 -0.023907831792765406 0 -0.00042945880141618333 -0.024061454282322644 0 -0.00042945880141618333 -0.024061454282322644 0 -0.00055147681597930861 -0.024051267597753893 0 -0.00043262896253415308 -0.024215891401699819 0 -0.00060288402671071289 -0.023859184441045327 0 -0.00042945880141618333 -0.024061454282322644 0 -0.00055147681597930861 -0.024051267597753893 0 -0.00042945880141618333 -0.024061454282322644 0 -0.00027477164975267868 -0.024273193304706942 0 -0.00025547495818194113 -0.024205727163788517 0 -0.00042945880141618333 -0.024061454282322644 0 -0.00027477164975267868 -0.024273193304706942 0 -0.00043262896253415308 -0.024215891401699819 0 -0.00027477164975267868 -0.024273193304706942 0 -0.00043262896253415308 -0.024215891401699819 0 -0.00035410801513334532 -0.02440107812991979 0 -0.00059735650668966663 -0.024186568274916911 0 -0.00043262896253415308 -0.024215891401699819 0 -0.00053916767108963678 -0.024426920929747773 0 -0.00059735650668966663 -0.024186568274916911 0 -0.00055147681597930861 -0.024051267597753893 0 -0.00043262896253415308 -0.024215891401699819 0 -0.00014957572318572115 -0.024565990717008934 0 -0.00022056037143294724 -0.024592261904560059 0 -0.00027477164975267868 -0.024273193304706942 0 -0.00013729550641447994 -0.024376582991283924 0 -0.00019638232300891144 -0.024404499396701737 0 -0.00027477164975267868 -0.024273193304706942 0 -0.00013729550641447994 -0.024376582991283924 0 -0.00025547495818194113 -0.024205727163788517 0 -0.00013729550641447994 -0.024376582991283924 0 -0.00015159134403978729 -0.024365844076778963 0 -0.00025547495818194113 -0.024205727163788517 0 -0.00015159134403978729 -0.024365844076778963 0 -0.00025547495818194113 -0.024205727163788517 0 -0.00023793973324520048 -0.024097228156481805 0 -0.00015159134403978729 -0.024365844076778963 0 -0.00023793973324520048 -0.024097228156481805 0 -6.7813979966015341e-05 -0.024393504722295664 0 -5.2175752071732828e-06 -0.024850440502649156 0 7.6454764224050997e-08 -0.024999240380972031 0 1.3057029604683068e-09 -0.024999929686189505 0 -6.7813979966015341e-05 -0.024393504722295664 0 -7.959759455881622e-06 -0.024670499202321498 0 -8.6601818437575571e-05 -0.02461390596413196 0 -0.00015159134403978729 -0.024365844076778963 0 -6.7813979966015341e-05 -0.024393504722295664 0 -8.6601818437575571e-05 -0.02461390596413196 0 -7.959759455881622e-06 -0.024670499202321498 0 -8.6601818437575571e-05 -0.02461390596413196 0 -5.2175752071732828e-06 -0.024850440502649156 0 -0.00014957572318572115 -0.024565990717008934 0 -8.9292722053569806e-05 -0.024593984566320334 0 -0.00013729550641447994 -0.024376582991283924 0 -0.00015159134403978729 -0.024365844076778963 0 -8.6601818437575571e-05 -0.02461390596413196 0 -8.6601818437575571e-05 -0.02461390596413196 0 -6.2535883686192957e-05 -0.024855726025820143 0 -5.2175752071732828e-06 -0.024850440502649156 0 -0.00018200899927534338 -0.024754537888706567 0 -8.6601818437575571e-05 -0.02461390596413196 0 -6.2535883686192957e-05 -0.024855726025820143 0 -7.959759455881622e-06 -0.024670499202321498 0 7.6454764224050997e-08 -0.024999240380972031 0 -1.3535550170721892e-05 -0.024734327846965276 0 -7.959759455881622e-06 -0.024670499202321498 0 -5.2175752071732828e-06 -0.024850440502649156 0 7.6454764224050997e-08 -0.024999240380972031 0 -1.8868154340882239e-07 -0.024998897900601686 0 7.6454764224050997e-08 -0.024999240380972031 0 -1.3535550170721892e-05 -0.024734327846965276 0 -6.7813979966015341e-05 -0.024393504722295664 0 -7.959759455881622e-06 -0.024670499202321498 0 1.6252013794864969e-05 -0.024446127117100213 0 -7.959759455881622e-06 -0.024670499202321498 0 -1.3535550170721892e-05 -0.024734327846965276 0 1.6252013794864969e-05 -0.024446127117100213 0 -0.00011262952953547708 -0.024143915298255554 0 -6.7813979966015341e-05 -0.024393504722295664 0 1.6252013794864969e-05 -0.024446127117100213 0 -0.00011262952953547708 -0.024143915298255554 0 1.6252013794864969e-05 -0.024446127117100213 0 4.8225658118601662e-05 -0.024226963146984588 0 -1.3535550170721892e-05 -0.024734327846965276 0 1.6252013794864969e-05 -0.024446127117100213 0 3.0013736465854588e-05 -0.024686883166876332 0 1.6252013794864969e-05 -0.024446127117100213 0 4.8225658118601662e-05 -0.024226963146984588 0 3.0013736465854588e-05 -0.024686883166876332 0 4.3821410109274522e-05 -0.024240938761709924 0 9.8804256401274898e-05 -0.024164777332216052 0 -8.3054021494270605e-05 -0.023649465886054814 0 4.8225658118601662e-05 -0.024226963146984588 0 0.00019497993848934073 -0.023609328359556384 0 -1.1028402839037942e-05 -0.023381770347017595 0 -8.3054021494270605e-05 -0.023649465886054814 0 0.00019497993848934073 -0.023609328359556384 0 -1.8868154340882239e-07 -0.024998897900601686 0 -1.3535550170721892e-05 -0.024734327846965276 0 3.0013736465854588e-05 -0.024686883166876332 0 -7.6914293489751632e-08 -0.024999986047667261 0 -1.0056590304441119e-05 -0.024998235876016402 0 1.3057029604683068e-09 -0.024999929686189505 0 -1.289965254096376e-05 -0.024988930966594922 0 -1.9101834056604339e-05 -0.024968245577808013 0 -8.3416334676939566e-06 -0.024960212296593037 0 -1.289965254096376e-05 -0.024988930966594922 0 -8.3416334676939566e-06 -0.024960212296593037 0 -7.7132376583039901e-06 -0.02498808954492698 0 -1.289965254096376e-05 -0.024988930966594922 0 -7.6914293489751632e-08 -0.024999986047667261 0 -1.9101834056604339e-05 -0.024968245577808013 0 -9.3654963728795974e-09 -0.024999985431772478 0 -2.0577527657549991e-05 -0.024966578151746813 0 2.2468543354868549e-09 -0.024999977549146797 0 -2.1679613747018137e-05 -0.024965690978253366 0 -3.4861548724765945e-08 -0.024999916697707989 0 -2.0577527657549991e-05 -0.024966578151746813 0 -2.147228626363504e-05 -0.024916560020213134 0 -1.9101834056604339e-05 -0.024968245577808013 0 -1.3547246999619699e-05 -0.024917551489455819 0 -8.3416334676939566e-06 -0.024960212296593037 0 -1.3547246999619699e-05 -0.024917551489455819 0 1.4922903744164713e-05 -0.024924110773900887 0 -8.3416334676939566e-06 -0.024960212296593037 0 1.4922903744164713e-05 -0.024924110773900887 0 3.9372650607256094e-05 -0.024970274319339431 0 6.7731005164718539e-05 -0.024896116818935339 0 1.4922903744164713e-05 -0.024924110773900887 0 6.7731005164718539e-05 -0.024896116818935339 0 1.1077277018702579e-05 -0.024844544623208033 0 1.4922903744164713e-05 -0.024924110773900887 0 3.9372650607256094e-05 -0.024970274319339431 0 -8.3416334676939566e-06 -0.024960212296593037 0 -3.3858362629799595e-05 -0.025008027658099116 0 -3.4211710199516751e-05 -0.025008812614756175 0 3.9372650607256094e-05 -0.024970274319339431 0 -8.3416334676939566e-06 -0.024960212296593037 0 -7.7132376583039901e-06 -0.02498808954492698 0 -5.968117089966783e-05 -0.025028675802048973 0 -0.00010115644777000404 -0.024999489051269447 0 -5.4255149962790864e-05 -0.024970961172255408 0 -0.00011767717714867986 -0.025051655638458424 0 -5.968117089966783e-05 -0.025028675802048973 0 -0.00010115644777000404 -0.024999489051269447 0 -5.968117089966783e-05 -0.025028675802048973 0 -1.0056590304441119e-05 -0.024998235876016402 0 -5.4255149962790864e-05 -0.024970961172255408 0 -1.289965254096376e-05 -0.024988930966594922 0 -7.7132376583039901e-06 -0.02498808954492698 0 -1.0056590304441119e-05 -0.024998235876016402 0 -3.4211710199516751e-05 -0.025008812614756175 0 -1.1709499236486148e-05 -0.024998784181451354 0 -1.289965254096376e-05 -0.024988930966594922 0 -7.6914293489751632e-08 -0.024999986047667261 0 -1.0056590304441119e-05 -0.024998235876016402 0 -1.0056590304441119e-05 -0.024998235876016402 0 1.3057029604683068e-09 -0.024999929686189505 0 -5.4255149962790864e-05 -0.024970961172255408 0 1.3057029604683068e-09 -0.024999929686189505 0 -8.3420257735935673e-05 -0.02490629821300816 0 -5.4255149962790864e-05 -0.024970961172255408 0 -6.2535883686192957e-05 -0.024855726025820143 0 -5.2175752071732828e-06 -0.024850440502649156 0 1.3057029604683068e-09 -0.024999929686189505 0 -6.2535883686192957e-05 -0.024855726025820143 0 1.3057029604683068e-09 -0.024999929686189505 0 -8.3420257735935673e-05 -0.02490629821300816 0 -0.00018200899927534338 -0.024754537888706567 0 -6.2535883686192957e-05 -0.024855726025820143 0 -0.00015145360003958821 -0.024827305494533585 0 -6.2535883686192957e-05 -0.024855726025820143 0 -8.3420257735935673e-05 -0.02490629821300816 0 -0.00015145360003958821 -0.024827305494533585 0 -8.3420257735935673e-05 -0.02490629821300816 0 -5.4255149962790864e-05 -0.024970961172255408 0 -0.00011650957019294142 -0.024938375938043385 0 -0.00010115644777000404 -0.024999489051269447 0 -5.4255149962790864e-05 -0.024970961172255408 0 -0.00011650957019294142 -0.024938375938043385 0 -8.3420257735935673e-05 -0.02490629821300816 0 -0.00011650957019294142 -0.024938375938043385 0 -0.00019224385024548324 -0.024843607024000403 0 -0.00011650957019294142 -0.024938375938043385 0 -0.00018873516261299359 -0.024933107293782848 0 -0.00014806015987577808 -0.024984085330740202 0 -0.00018873516261299359 -0.024933107293782848 0 -0.0002643550835250658 -0.024995331413304435 0 -0.00014806015987577808 -0.024984085330740202 0 -0.00018873516261299359 -0.024933107293782848 0 -0.00024041260959527713 -0.024906252441413573 0 -0.0002643550835250658 -0.024995331413304435 0 -0.00018873516261299359 -0.024933107293782848 0 -0.00024041260959527713 -0.024906252441413573 0 -0.00019224385024548324 -0.024843607024000403 0 -0.00024041260959527713 -0.024906252441413573 0 -0.00019224385024548324 -0.024843607024000403 0 -0.00032332064825769025 -0.02486822296756501 0 -0.00011650957019294142 -0.024938375938043385 0 -0.00018873516261299359 -0.024933107293782848 0 -0.00019224385024548324 -0.024843607024000403 0 -0.00019224385024548324 -0.024843607024000403 0 -0.00022764717647014154 -0.024764196386259318 0 -0.00015145360003958821 -0.024827305494533585 0 -8.3420257735935673e-05 -0.02490629821300816 0 -0.00019224385024548324 -0.024843607024000403 0 -0.00015145360003958821 -0.024827305494533585 0 -0.00019224385024548324 -0.024843607024000403 0 -0.00022764717647014154 -0.024764196386259318 0 -0.00034051656321058588 -0.024691820589437918 0 -0.00018200899927534338 -0.024754537888706567 0 -0.00022764717647014154 -0.024764196386259318 0 -0.00015145360003958821 -0.024827305494533585 0 -0.00053916767108963678 -0.024426920929747773 0 -0.00035410801513334532 -0.02440107812991979 0 -0.00034051656321058588 -0.024691820589437918 0 -0.00043262896253415308 -0.024215891401699819 0 -0.00053916767108963678 -0.024426920929747773 0 -0.00035410801513334532 -0.02440107812991979 0 -0.00019638232300891144 -0.024404499396701737 0 -0.00035410801513334532 -0.02440107812991979 0 -0.00034051656321058588 -0.024691820589437918 0 -0.00027477164975267868 -0.024273193304706942 0 -0.00019638232300891144 -0.024404499396701737 0 -0.00035410801513334532 -0.02440107812991979 0 -0.00022056037143294724 -0.024592261904560059 0 -0.00034088747552613085 -0.024695053407063124 0 -0.00053916767108963678 -0.024426920929747773 0 -0.00034051656321058588 -0.024691820589437918 0 -0.00060230598299227777 -0.024629137754237248 0 -0.00034051656321058588 -0.024691820589437918 0 -0.00047700709644990502 -0.024793273198532664 0 -0.00060230598299227777 -0.024629137754237248 0 -0.00047700709644990502 -0.024793273198532664 0 -0.00045290791247491551 -0.024990515525835651 0 -0.00070845743743687504 -0.024765517968904742 0 -0.00034051656321058588 -0.024691820589437918 0 -0.00047700709644990502 -0.024793273198532664 0 -0.00032332064825769025 -0.02486822296756501 0 -0.00019224385024548324 -0.024843607024000403 0 -0.00034051656321058588 -0.024691820589437918 0 -0.00032332064825769025 -0.02486822296756501 0 -0.00032332064825769025 -0.02486822296756501 0 -0.00045290791247491551 -0.024990515525835651 0 -0.0002643550835250658 -0.024995331413304435 0 -0.00024041260959527713 -0.024906252441413573 0 -0.00032332064825769025 -0.02486822296756501 0 -0.0002643550835250658 -0.024995331413304435 0 -0.00059962696052957723 -0.024555376975746702 0 -0.00018202070409157974 -0.025014807474205605 0 -0.00047700709644990502 -0.024793273198532664 0 -0.00032332064825769025 -0.02486822296756501 0 -0.00045290791247491551 -0.024990515525835651 0 -0.00059962696052957723 -0.024555376975746702 0 -0.001268943614910825 -0.023835494718174619 0 -0.0008702886363192257 -0.023861809987126371 0 -0.00098952523517934388 -0.024036669993932145 0 -0.0010759585466231594 -0.023822903488586053 0 -0.00059962696052957723 -0.024555376975746702 0 -0.00035908060107812348 -0.024682770968063185 0 -0.0008702886363192257 -0.023861809987126371 0 -0.00098952523517934388 -0.024036669993932145 0 -0.00093240879217931013 -0.024125101313205093 0 -0.0008702886363192257 -0.023861809987126371 0 -0.00093240879217931013 -0.024125101313205093 0 -0.00063072625833209515 -0.024113227837332048 0 -0.0015390806396842823 -0.023482443421064009 0 -0.0011227468964790542 -0.024026092926029669 0 -0.00093240879217931013 -0.024125101313205093 0 -0.00087239919145634681 -0.024327582837090467 0 -0.00063072625833209515 -0.024113227837332048 0 -0.0022261208465565742 -0.02293511883053501 0 -0.0023221621344607394 -0.022698294237021497 0 -0.0021562634710202361 -0.022723479952525379 0 -0.00099204354494643386 -0.024033931794764953 0 -0.00093240879217931013 -0.024125101313205093 0 -0.00087239919145634681 -0.024327582837090467 0 -0.0015390806396842823 -0.023482443421064009 0 -0.00072539229389553491 -0.024045989987731262 0 -0.00072539229389553491 -0.024045989987731262 0 -0.00035908060107812348 -0.024682770968063185 0 -0.00029053080977582186 -0.024977348943557069 0 -0.00023571694489960416 -0.0249947411903844 0 -0.0002338851431645392 -0.024928251489749621 0 -0.00023571694489960416 -0.0249947411903844 0 -0.0002338851431645392 -0.024928251489749621 0 -0.00018672710641782754 -0.024986602569664649 0 -0.00022414564887128133 -0.024985350286141135 0 -0.00023212542366670734 -0.024992193164071658 0 -0.00018561009841734131 -0.025027508546268163 0 -0.00035908060107812348 -0.024682770968063185 0 -0.00015177642318029347 -0.025048785475385811 0 -0.00030893607507885941 -0.024921999070094222 0 -0.00022414564887128133 -0.024985350286141135 0 -0.00023779220402017924 -0.024996831331584268 0 -0.00022414564887128133 -0.024985350286141135 0 -0.00019809169725632682 -0.024982380010014148 0 -0.00018561009841734131 -0.025027508546268163 0 -0.00030893607507885941 -0.024921999070094222 0 -0.00022414564887128133 -0.024985350286141135 0 -0.00020451520434096058 -0.024951684792678907 0 -0.0003644324092362769 -0.024743981144243331 0 -0.00035908060107812348 -0.024682770968063185 0 -0.00022414564887128133 -0.024985350286141135 0 -0.00020451520434096058 -0.024951684792678907 0 -0.00019809169725632682 -0.024982380010014148 0 -0.00020451520434096058 -0.024951684792678907 0 -0.000177564467058421 -0.024991952342913081 0 -0.00014806015987577808 -0.024984085330740202 0 -0.00020451520434096058 -0.024951684792678907 0 -0.000177564467058421 -0.024991952342913081 0 -0.00019809169725632682 -0.024982380010014148 0 -0.00018202070409157974 -0.025014807474205605 0 -0.00018027699668984567 -0.024973925373915299 0 -0.00010115644777000404 -0.024999489051269447 0 -0.00011650957019294142 -0.024938375938043385 0 -0.00014806015987577808 -0.024984085330740202 0 -0.00010115644777000404 -0.024999489051269447 0 -0.00014806015987577808 -0.024984085330740202 0 -0.00014639054354171672 -0.025017907967659833 0 -0.000177564467058421 -0.024991952342913081 0 -0.00014806015987577808 -0.024984085330740202 0 -0.00014639054354171672 -0.025017907967659833 0 -0.00011767717714867986 -0.025051655638458424 0 -0.00010115644777000404 -0.024999489051269447 0 -0.00014639054354171672 -0.025017907967659833 0 -0.00014639054354171672 -0.025017907967659833 0 -0.00018561009841734131 -0.025027508546268163 0 -0.00015136362723923774 -0.025047539044763378 0 -0.000177564467058421 -0.024991952342913081 0 -0.00019809169725632682 -0.024982380010014148 0 -0.00018561009841734131 -0.025027508546268163 0 -0.000177564467058421 -0.024991952342913081 0 -0.00014639054354171672 -0.025017907967659833 0 -0.00018561009841734131 -0.025027508546268163 0 -0.00018672710641782754 -0.024986602569664649 0 -0.00015136362723923774 -0.025047539044763378 0 -0.0002086001629310999 -0.025035089618438307 0 -0.00015136362723923774 -0.025047539044763378 0 -0.00018038795533124828 -0.025074837199395628 0 -0.0002086001629310999 -0.025035089618438307 0 -0.00015177642318029347 -0.025048785475385811 0 -0.00016906877199318225 -0.025027388850032254 0 -0.00011767717714867986 -0.025051655638458424 0 -0.00014639054354171672 -0.025017907967659833 0 -0.00015136362723923774 -0.025047539044763378 0 -0.00011767717714867986 -0.025051655638458424 0 -0.00015136362723923774 -0.025047539044763378 0 -0.00018038795533124828 -0.025074837199395628 0 -3.3858362629799595e-05 -0.025008027658099116 0 -2.9300224515403086e-05 -0.024998397598793607 0 6.7731005164718539e-05 -0.024896116818935339 0 0.00016138008247134681 -0.02490519690141485 0 0.00011930535221482383 -0.024813195674999421 0 3.9372650607256094e-05 -0.024970274319339431 0 6.7731005164718539e-05 -0.024896116818935339 0 0.00016138008247134681 -0.02490519690141485 0 -0.00018038795533124828 -0.025074837199395628 0 -0.00021904506508766178 -0.025065012454445527 0 -0.0002329578599409463 -0.025100213766159417 0 5.781973711491082e-05 -0.024819785541345007 0 6.1362110576363183e-05 -0.024913213484638385 0 0.00016138008247134681 -0.02490519690141485 0 0.00021057188678957312 -0.024830859797592746 0 0.00019979035820618933 -0.024819453344567772 0 -2.9300224515403086e-05 -0.024998397598793607 0 5.781973711491082e-05 -0.024819785541345007 0 -0.00021904506508766178 -0.025065012454445527 0 -0.0002329578599409463 -0.025100213766159417 0 -0.00026037971870849244 -0.025043588281753043 0 -0.00018038795533124828 -0.025074837199395628 0 -0.00021904506508766178 -0.025065012454445527 0 -0.0002086001629310999 -0.025035089618438307 0 0.00034482625465686369 -0.024741951974363133 0 0.00021777910147262791 -0.024657545035814653 0 0.00025970885670955561 -0.024505828486965166 0 0.00034482625465686369 -0.024741951974363133 0 0.00021777910147262791 -0.024657545035814653 0 0.00020894938299598358 -0.02480242006617242 0 0.00015194760282166383 -0.02469690110807516 0 0.00021777910147262791 -0.024657545035814653 0 0.00020894938299598358 -0.02480242006617242 0 0.00015194760282166383 -0.02469690110807516 0 3.9131983176591852e-05 -0.024621323023698564 0 0.00016513655677890382 -0.024820603322590666 0 0.00015194760282166383 -0.02469690110807516 0 0.00021777910147262791 -0.024657545035814653 0 0.0001204134467545601 -0.024539487982251383 0 0.00015194760282166383 -0.02469690110807516 0 0.0001204134467545601 -0.024539487982251383 0 3.9131983176591852e-05 -0.024621323023698564 0 0.00021777910147262791 -0.024657545035814653 0 0.00025970885670955561 -0.024505828486965166 0 0.0001204134467545601 -0.024539487982251383 0 -0.00029053080977582186 -0.024977348943557069 0 -0.00023571694489960416 -0.0249947411903844 0 -0.00026037971870849244 -0.025043588281753043 0 0.00016338528481395426 -0.024269471471973954 0 0.0001204134467545601 -0.024539487982251383 0 -1.7893834163467375e-05 -0.024435002726626142 0 -0.00072539229389553491 -0.024045989987731262 0 6.1362110576363183e-05 -0.024913213484638385 0 0.00016338528481395426 -0.024269471471973954 0 0.00025970885670955561 -0.024505828486965166 0 0.0001204134467545601 -0.024539487982251383 0 -0.00072539229389553491 -0.024045989987731262 0 -0.0010940255736135685 -0.023447346528516339 0 -0.00023571694489960416 -0.0249947411903844 0 -0.00026037971870849244 -0.025043588281753043 0 -0.0002086001629310999 -0.025035089618438307 0 -0.00023571694489960416 -0.0249947411903844 0 -0.00018672710641782754 -0.024986602569664649 0 -0.0002086001629310999 -0.025035089618438307 0 -0.00021904506508766178 -0.025065012454445527 0 -0.00026037971870849244 -0.025043588281753043 0 -0.0002086001629310999 -0.025035089618438307 0 -0.0019590884225283317 -0.022480845270145527 0 -0.0018992678190343794 -0.022306018604617485 0 -0.0019471203099811604 -0.022347344524912896 0 -0.0013200656053753892 -0.022819415070053025 0 -0.0019331460747064229 -0.022262671153463847 0 -0.0019590884225283317 -0.022480845270145527 0 -0.0018992678190343794 -0.022306018604617485 0 -0.0017288944497279297 -0.022354827709047356 0 -0.0019590884225283317 -0.022480845270145527 0 -0.00180081204876817 -0.022684153214176352 0 -0.0019341620192562482 -0.022682164986748493 0 -0.0019590884225283317 -0.022480845270145527 0 -0.0020512891103078718 -0.022614148903990845 0 -0.0019341620192562482 -0.022682164986748493 0 -0.0019590884225283317 -0.022480845270145527 0 -0.0020512891103078718 -0.022614148903990845 0 -0.0021495592356525596 -0.022510519641451298 0 0.0001204134467545601 -0.024539487982251383 0 -1.7893834163467375e-05 -0.024435002726626142 0 3.9131983176591852e-05 -0.024621323023698564 0 -0.0021495592356525596 -0.022510519641451298 0 -0.001938652098259667 -0.022286023767807629 0 -0.0019471203099811604 -0.022347344524912896 0 -0.0010940255736135685 -0.023447346528516339 0 -0.00073864062684638604 -0.023706923829319104 0 -0.0019590884225283317 -0.022480845270145527 0 -0.0021495592356525596 -0.022510519641451298 0 -0.0019471203099811604 -0.022347344524912896 0 -1.7893834163467375e-05 -0.024435002726626142 0 3.9131983176591852e-05 -0.024621323023698564 0 -0.00021667549963104316 -0.0246059830199351 0 -0.00073864062684638604 -0.023706923829319104 0 6.710300587617304e-05 -0.024423812252322014 0 -0.00038143926565207029 -0.023789018736869925 0 -0.00047510600960278286 -0.023672784635175668 0 -0.00021111424161319962 -0.023854934468408251 0 3.9131983176591852e-05 -0.024621323023698564 0 -0.00021667549963104316 -0.0246059830199351 0 0.00016513655677890382 -0.024820603322590666 0 -0.00044953665204523096 -0.023761225395643674 0 -0.00047510600960278286 -0.023672784635175668 0 -0.00049932380226820237 -0.02378074310136901 0 -0.00038143926565207029 -0.023789018736869925 0 -0.00044953665204523096 -0.023761225395643674 0 -0.00043952826554110908 -0.023801206377304793 0 -0.00038143926565207029 -0.023789018736869925 0 -0.00044953665204523096 -0.023761225395643674 0 -0.00047510600960278286 -0.023672784635175668 0 -0.00044953665204523096 -0.023761225395643674 0 -0.00049932380226820237 -0.02378074310136901 0 -0.00043952826554110908 -0.023801206377304793 0 -0.001938652098259667 -0.022286023767807629 0 -0.0018957929474643061 -0.022313299797105991 0 -0.0019471203099811604 -0.022347344524912896 0 -0.00073864062684638604 -0.023706923829319104 0 -0.0013200656053753892 -0.022819415070053025 0 -0.0013200656053753892 -0.022819415070053025 0 -0.001438849361761189 -0.022794867253913852 0 -0.001946721479598592 -0.022199190236134429 0 -0.0017109727690906942 -0.02216091156425332 0 -0.0017288944497279297 -0.022354827709047356 0 -0.00073864062684638604 -0.023706923829319104 0 -0.00053749043341767789 -0.023773604352568693 0 -0.00059245585326712425 -0.023780102583580501 0 -0.00058770859360560384 -0.023783129427895951 0 -0.00055558540573729938 -0.023764704007765345 0 -0.00047510600960278286 -0.023672784635175668 0 -0.00049932380226820237 -0.02378074310136901 0 -0.00057656754633013494 -0.023817843127500175 0 -0.001946721479598592 -0.022199190236134429 0 -0.0016164856880337987 -0.021953228720128243 0 -0.0017109727690906942 -0.02216091156425332 0 -0.00058770859360560384 -0.023783129427895951 0 -0.00054891908021808601 -0.023767809118401092 0 -0.00055558540573729938 -0.023764704007765345 0 -0.0013200656053753892 -0.022819415070053025 0 -0.0013040727751095316 -0.023275827052699899 0 -0.0016164856880337987 -0.021953228720128243 0 -0.0015949264910302369 -0.022099934027380048 0 -0.0017109727690906942 -0.02216091156425332 0 -0.0016164856880337987 -0.021953228720128243 0 -0.0015219785689389925 -0.022042750961232246 0 -0.0015949264910302369 -0.022099934027380048 0 -0.0015219785689389925 -0.022042750961232246 0 -0.0015949264910302369 -0.022099934027380048 0 -0.0014906259982930613 -0.022158044003170323 0 -0.0015949264910302369 -0.022099934027380048 0 -0.0014906259982930613 -0.022158044003170323 0 -0.0015950953846449658 -0.022237914029115968 0 -0.0015949264910302369 -0.022099934027380048 0 -0.0017109727690906942 -0.02216091156425332 0 -0.0015950953846449658 -0.022237914029115968 0 -0.0013877821485163524 -0.021958578234385375 0 -0.0014906259982930613 -0.022158044003170323 0 -0.0013147004907146421 -0.022213344657106646 0 -0.0013877821485163524 -0.021958578234385375 0 -0.0013147004907146421 -0.022213344657106646 0 -0.0011754831605310769 -0.02208595255826902 0 -0.0015219785689389925 -0.022042750961232246 0 -0.0013877821485163524 -0.021958578234385375 0 -0.0014906259982930613 -0.022158044003170323 0 -0.0016164856880337987 -0.021953228720128243 0 -0.0015219785689389925 -0.022042750961232246 0 -0.0013877821485163524 -0.021958578234385375 0 -0.0013147004907146421 -0.022213344657106646 0 -0.0014754431745098726 -0.022389189514398881 0 -0.0010377632778947306 -0.022393363182708202 0 -0.0014906259982930613 -0.022158044003170323 0 -0.0013147004907146421 -0.022213344657106646 0 -0.0014754431745098726 -0.022389189514398881 0 -0.0020091991805887407 -0.022366916875412812 0 -0.0014620353412514496 -0.022923343835205737 0 -0.0019590884225283317 -0.022480845270145527 0 -0.0016282295689717141 -0.022687091766753615 0 -0.00180081204876817 -0.022684153214176352 0 -0.0019590884225283317 -0.022480845270145527 0 -0.0014754431745098726 -0.022389189514398881 0 -0.0017288944497279297 -0.022354827709047356 0 -0.0017109727690906942 -0.02216091156425332 0 -0.0017288944497279297 -0.022354827709047356 0 -0.0015950953846449658 -0.022237914029115968 0 -0.0014906259982930613 -0.022158044003170323 0 -0.0014754431745098726 -0.022389189514398881 0 -0.0015950953846449658 -0.022237914029115968 0 -0.0014754431745098726 -0.022389189514398881 0 -0.0017288944497279297 -0.022354827709047356 0 -0.0015950953846449658 -0.022237914029115968 0 -0.0016282295689717141 -0.022687091766753615 0 -0.00180081204876817 -0.022684153214176352 0 -0.0016847900779646719 -0.022753204707151104 0 -0.00180081204876817 -0.022684153214176352 0 -0.0016847900779646719 -0.022753204707151104 0 -0.0018499131577415801 -0.022828680402632851 0 -0.0016282295689717141 -0.022687091766753615 0 -0.0016847900779646719 -0.022753204707151104 0 -0.0016230519727033479 -0.022760791537979583 0 -0.0016847900779646719 -0.022753204707151104 0 -0.0016230519727033479 -0.022760791537979583 0 -0.0015593368324897921 -0.022780581369182006 0 -0.0015593368324897921 -0.022780581369182006 0 -0.0016597126855773048 -0.023003701486160873 0 -0.0015539654723919756 -0.023129160343672416 0 -0.0016847900779646719 -0.022753204707151104 0 -0.0015593368324897921 -0.022780581369182006 0 -0.0017063958530567894 -0.022876695670126915 0 -0.0015593368324897921 -0.022780581369182006 0 -0.0016597126855773048 -0.023003701486160873 0 -0.0017063958530567894 -0.022876695670126915 0 -0.0017063958530567894 -0.022876695670126915 0 -0.0018499131577415801 -0.022828680402632851 0 -0.0017912153233397797 -0.023022642782207031 0 -0.0016847900779646719 -0.022753204707151104 0 -0.0017063958530567894 -0.022876695670126915 0 -0.0018499131577415801 -0.022828680402632851 0 -0.0016597126855773048 -0.023003701486160873 0 -0.0017063958530567894 -0.022876695670126915 0 -0.0017912153233397797 -0.023022642782207031 0 -0.0018996832840550162 -0.023007059732300193 0 -0.0019926140015468531 -0.022956666294407829 0 -0.0018499131577415801 -0.022828680402632851 0 -0.0018996832840550162 -0.023007059732300193 0 -0.0018499131577415801 -0.022828680402632851 0 -0.0017912153233397797 -0.023022642782207031 0 -0.0019926140015468531 -0.022956666294407829 0 -0.0018499131577415801 -0.022828680402632851 0 -0.002023231976704498 -0.022764051693175406 0 -0.0018499131577415801 -0.022828680402632851 0 -0.0019341620192562482 -0.022682164986748493 0 -0.002023231976704498 -0.022764051693175406 0 -0.0020512891103078718 -0.022614148903990845 0 -0.0019341620192562482 -0.022682164986748493 0 -0.002023231976704498 -0.022764051693175406 0 -0.00180081204876817 -0.022684153214176352 0 -0.0018499131577415801 -0.022828680402632851 0 -0.0019341620192562482 -0.022682164986748493 0 -0.0023221621344607394 -0.022698294237021497 0 -0.0021495592356525596 -0.022510519641451298 0 -0.0021562634710202361 -0.022723479952525379 0 -0.0020512891103078718 -0.022614148903990845 0 -0.0021562634710202361 -0.022723479952525379 0 -0.002023231976704498 -0.022764051693175406 0 -0.0020512891103078718 -0.022614148903990845 0 -0.0021495592356525596 -0.022510519641451298 0 -0.0021562634710202361 -0.022723479952525379 0 -0.0021562634710202361 -0.022723479952525379 0 -0.002023231976704498 -0.022764051693175406 0 -0.0021016265046893386 -0.022900631882095162 0 -0.0019926140015468531 -0.022956666294407829 0 -0.0021016265046893386 -0.022900631882095162 0 -0.0021118204798818681 -0.023117415300239766 0 -0.0022261208465565742 -0.02293511883053501 0 -0.0021016265046893386 -0.022900631882095162 0 -0.0021118204798818681 -0.023117415300239766 0 -0.0022261208465565742 -0.02293511883053501 0 -0.0021562634710202361 -0.022723479952525379 0 -0.0021016265046893386 -0.022900631882095162 0 -0.0019926140015468531 -0.022956666294407829 0 -0.002023231976704498 -0.022764051693175406 0 -0.0021016265046893386 -0.022900631882095162 0 -0.0015390806396842823 -0.023482443421064009 0 -0.001268943614910825 -0.023835494718174619 0 -0.0015390806396842823 -0.023482443421064009 0 -0.0017916909940004662 -0.023451787792313775 0 -0.00088233918856329475 -0.024341883973150492 0 -0.00093721968082428734 -0.024331795335265988 0 -0.00097068848800701418 -0.024253881491414636 0 -0.0014671288636315732 -0.023809881400501092 0 -0.0014447599365526595 -0.023814183523176116 0 -0.0014219109530975867 -0.023929973300979148 0 -0.0015549368922084894 -0.023507700291291525 0 -0.0015035461271242026 -0.023644687036933489 0 -0.0014665875598887232 -0.023651842640416774 0 -0.00059962696052957723 -0.024555376975746702 0 -0.00095429754932524057 -0.024421612235622604 0 -0.001268943614910825 -0.023835494718174619 0 -0.0017916909940004662 -0.023451787792313775 0 -0.0019520374518805744 -0.023151205467274595 0 -0.0018084907007843865 -0.023274332339693879 0 -0.0017912153233397797 -0.023022642782207031 0 -0.0021406851729801014 -0.023117436949378595 0 -0.0019520374518805744 -0.023151205467274595 0 -0.0019189151910923635 -0.023452154681427181 0 -0.0018996832840550162 -0.023007059732300193 0 -0.0019520374518805744 -0.023151205467274595 0 -0.0017912153233397797 -0.023022642782207031 0 -0.0019926140015468531 -0.022956666294407829 0 -0.0021118204798818681 -0.023117415300239766 0 -0.0019520374518805744 -0.023151205467274595 0 -0.0018996832840550162 -0.023007059732300193 0 -0.0019926140015468531 -0.022956666294407829 0 -0.0019520374518805744 -0.023151205467274595 0 -0.0017916909940004662 -0.023451787792313775 0 -0.0020828608266547587 -0.023175888437911737 0 -0.0017916909940004662 -0.023451787792313775 0 -0.0016589700093883771 -0.023680211004257556 0 -0.0019520374518805744 -0.023151205467274595 0 -0.0019189151910923635 -0.023452154681427181 0 -0.0018084907007843865 -0.023274332339693879 0 -0.0014447599365526595 -0.023814183523176116 0 -0.0013603564807669617 -0.023954635484005282 0 -0.0014219109530975867 -0.023929973300979148 0 -0.001268943614910825 -0.023835494718174619 0 -0.00095429754932524057 -0.024421612235622604 0 -0.00047700709644990502 -0.024793273198532664 0 -0.00070845743743687504 -0.024765517968904742 0 -0.00060230598299227777 -0.024629137754237248 0 -0.00053916767108963678 -0.024426920929747773 0 -0.00060230598299227777 -0.024629137754237248 0 -0.00067868533550287347 -0.024486007848405763 0 -0.00060230598299227777 -0.024629137754237248 0 -0.00067868533550287347 -0.024486007848405763 0 -0.00078630434509253748 -0.024586418610454849 0 -0.00095429754932524057 -0.024421612235622604 0 -0.00075705151540227502 -0.024711789011826284 0 -0.00070845743743687504 -0.024765517968904742 0 -0.00060230598299227777 -0.024629137754237248 0 -0.00078630434509253748 -0.024586418610454849 0 -0.00095429754932524057 -0.024421612235622604 0 -0.0011159460788778737 -0.024295557859201313 0 -0.00071504768653453377 -0.024767082681502416 0 -0.00078630434509253748 -0.024586418610454849 0 -0.00090996307172004989 -0.02455703237559698 0 -0.0013603564807669617 -0.023954635484005282 0 -0.0013500125108576635 -0.024008756165329957 0 -0.001281728568891697 -0.024086317949833933 0 -0.0013603564807669617 -0.023954635484005282 0 -0.0014219109530975867 -0.023929973300979148 0 -0.0013500125108576635 -0.024008756165329957 0 -0.00067868533550287347 -0.024486007848405763 0 -0.00078630434509253748 -0.024586418610454849 0 -0.00080920306927850327 -0.024397432856996311 0 -0.00078630434509253748 -0.024586418610454849 0 -0.00090996307172004989 -0.02455703237559698 0 -0.00080920306927850327 -0.024397432856996311 0 -0.00090996307172004989 -0.02455703237559698 0 -0.00080920306927850327 -0.024397432856996311 0 -0.00092942113793426822 -0.024250139170291219 0 -0.00090996307172004989 -0.02455703237559698 0 -0.00092942113793426822 -0.024250139170291219 0 -0.0011208826456330231 -0.02427407156714868 0 -0.0010128067900494519 -0.02392154593702803 0 -0.00092942113793426822 -0.024250139170291219 0 -0.00074151326486128011 -0.024237175240121575 0 -0.00080920306927850327 -0.024397432856996311 0 -0.00092942113793426822 -0.024250139170291219 0 -0.00074151326486128011 -0.024237175240121575 0 -0.00053916767108963678 -0.024426920929747773 0 -0.00067868533550287347 -0.024486007848405763 0 -0.00074151326486128011 -0.024237175240121575 0 -0.00059735650668966663 -0.024186568274916911 0 -0.00053916767108963678 -0.024426920929747773 0 -0.00074151326486128011 -0.024237175240121575 0 -0.00067868533550287347 -0.024486007848405763 0 -0.00080920306927850327 -0.024397432856996311 0 -0.00074151326486128011 -0.024237175240121575 0 -0.0013463205946029394 -0.023841808593009536 0 -0.001423345334341439 -0.023715604770184012 0 -0.0016450501353695651 -0.023734583331541093 0 -0.001423345334341439 -0.023715604770184012 0 -0.0016450501353695651 -0.023734583331541093 0 -0.0016198067435747997 -0.023576026737232251 0 -0.0014031263137768866 -0.023698864917895773 0 -0.0013463205946029394 -0.023841808593009536 0 -0.001423345334341439 -0.023715604770184012 0 -0.0010128067900494519 -0.02392154593702803 0 -0.00092942113793426822 -0.024250139170291219 0 -0.0011208826456330231 -0.02427407156714868 0 -0.0013765751062919836 -0.023872830472071348 0 -0.001352302116074058 -0.023999900277978221 0 -0.0019189151910923635 -0.023452154681427181 0 -0.0016450501353695651 -0.023734583331541093 0 -0.0016198067435747997 -0.023576026737232251 0 -0.0016589700093883771 -0.023680211004257556 0 -0.001352302116074058 -0.023999900277978221 0 -0.0019189151910923635 -0.023452154681427181 0 -0.0016198067435747997 -0.023576026737232251 0 -0.0016576674275093834 -0.023407220049343543 0 -0.0011159460788778737 -0.024295557859201313 0 -0.001352302116074058 -0.023999900277978221 0 -0.001423345334341439 -0.023715604770184012 0 -0.001498334595451346 -0.023549600971570571 0 -0.0014220935816562244 -0.023655256929419763 0 -0.001423345334341439 -0.023715604770184012 0 -0.0016198067435747997 -0.023576026737232251 0 -0.001498334595451346 -0.023549600971570571 0 -0.0016198067435747997 -0.023576026737232251 0 -0.001498334595451346 -0.023549600971570571 0 -0.0016576674275093834 -0.023407220049343543 0 -0.001498334595451346 -0.023549600971570571 0 -0.0015202838281566081 -0.023350642639179228 0 -0.0014202396064157072 -0.023498998375233428 0 -0.001498334595451346 -0.023549600971570571 0 -0.0015202838281566081 -0.023350642639179228 0 -0.0016576674275093834 -0.023407220049343543 0 -0.0015202838281566081 -0.023350642639179228 0 -0.0016576674275093834 -0.023407220049343543 0 -0.0016662701608085415 -0.023203725705346619 0 -0.0019189151910923635 -0.023452154681427181 0 -0.0016576674275093834 -0.023407220049343543 0 -0.0018084907007843865 -0.023274332339693879 0 -0.0016576674275093834 -0.023407220049343543 0 -0.0018084907007843865 -0.023274332339693879 0 -0.0016662701608085415 -0.023203725705346619 0 -0.0018084907007843865 -0.023274332339693879 0 -0.0016662701608085415 -0.023203725705346619 0 -0.0017912153233397797 -0.023022642782207031 0 -0.0016597126855773048 -0.023003701486160873 0 -0.0016662701608085415 -0.023203725705346619 0 -0.0017912153233397797 -0.023022642782207031 0 -0.0015593368324897921 -0.022780581369182006 0 -0.0015539654723919756 -0.023129160343672416 0 -0.0013326736844931041 -0.023253721153768895 0 -0.0015202838281566081 -0.023350642639179228 0 -0.0015539654723919756 -0.023129160343672416 0 -0.0013326736844931041 -0.023253721153768895 0 -0.0015202838281566081 -0.023350642639179228 0 -0.0016662701608085415 -0.023203725705346619 0 -0.0015539654723919756 -0.023129160343672416 0 -0.0016597126855773048 -0.023003701486160873 0 -0.0016662701608085415 -0.023203725705346619 0 -0.0015539654723919756 -0.023129160343672416 0 -0.0015504466661201228 -0.022773283308644542 0 -0.0015216459646980294 -0.022791862734574637 0 -0.0015593368324897921 -0.022780581369182006 0 -0.0016735338961259586 -0.022335101704617322 0 -0.0018099592633785151 -0.022533853218473184 0 -0.0016735338961259586 -0.022335101704617322 0 -0.0018099592633785151 -0.022533853218473184 0 -0.0021702751649976706 -0.022054685163565811 0 -0.0018099592633785151 -0.022533853218473184 0 -0.0022179712670125583 -0.02217819347139225 0 -0.0019614262754498188 -0.022656250570919516 0 -0.0018099592633785151 -0.022533853218473184 0 -0.0020661769836791944 -0.021926430397304856 0 -0.0022179712670125583 -0.02217819347139225 0 -0.0018290845500657453 -0.02250459309461755 0 -0.0021176776324542661 -0.021991644637698697 0 -0.0016735338961259586 -0.022335101704617322 0 -0.0021702751649976706 -0.022054685163565811 0 -0.0019524385650022307 -0.021871970497140944 0 -0.0015202838281566081 -0.023350642639179228 0 -0.0013326736844931041 -0.023253721153768895 0 -0.0014202396064157072 -0.023498998375233428 0 -0.0015216459646980294 -0.022791862734574637 0 -0.0016708451770803133 -0.022740859924547503 0 -0.0013326736844931041 -0.023253721153768895 0 -0.0014202396064157072 -0.023498998375233428 0 -0.001365971500266876 -0.023629641384402177 0 -0.0014220935816562244 -0.023655256929419763 0 -0.001365971500266876 -0.023629641384402177 0 -0.0014764548427198614 -0.023691833549640454 0 -0.001498334595451346 -0.023549600971570571 0 -0.0014202396064157072 -0.023498998375233428 0 -0.0014220935816562244 -0.023655256929419763 0 -0.0014202396064157072 -0.023498998375233428 0 -0.0014220935816562244 -0.023655256929419763 0 -0.001365971500266876 -0.023629641384402177 0 -0.0019524385650022307 -0.021871970497140944 0 -0.0022907011740452353 -0.021421116183177272 0 -0.0022259898081621148 -0.021703676483077892 0 -0.0021702751649976706 -0.022054685163565811 0 -0.0019524385650022307 -0.021871970497140944 0 -0.0022259898081621148 -0.021703676483077892 0 -0.001365971500266876 -0.023629641384402177 0 -0.0014764548427198614 -0.023691833549640454 0 -0.001676465868799281 -0.02371816357747511 0 -0.0016708451770803133 -0.022740859924547503 0 -0.0019912613430174957 -0.022560055357254114 0 -0.0015315911767595162 -0.023630480315684668 0 -0.0014764548427198614 -0.023691833549640454 0 -0.001676465868799281 -0.02371816357747511 0 -0.0015315911767595162 -0.023630480315684668 0 -0.0014764548427198614 -0.023691833549640454 0 -0.0014409246897262623 -0.02369370982470561 0 -0.0014031263137768866 -0.023698864917895773 0 -0.001423345334341439 -0.023715604770184012 0 -0.0014409246897262623 -0.02369370982470561 0 -0.001423345334341439 -0.023715604770184012 0 -0.0014220935816562244 -0.023655256929419763 0 -0.0014409246897262623 -0.02369370982470561 0 -0.0014220935816562244 -0.023655256929419763 0 -0.0014764548427198614 -0.023691833549640454 0 -0.0014409246897262623 -0.02369370982470561 0 -0.002520133291402795 -0.020957115365322649 0 -0.0025672792547812334 -0.020867225331713462 0 -0.0024536980511439591 -0.021382091385112736 0 -0.0023247071688810008 -0.021458650600839208 0 -0.0023976797972428353 -0.021696661750291325 0 -0.0024658873839265225 -0.021372082691736224 0 -0.0022907011740452353 -0.021421116183177272 0 -0.0024894718540504693 -0.021484461301701844 0 -0.0022907011740452353 -0.021421116183177272 0 -0.0024894718540504693 -0.021484461301701844 0 -0.0022259898081621148 -0.021703676483077892 0 -0.0021176776324542661 -0.021991644637698697 0 -0.0023963433332687095 -0.02147766610376348 0 -0.0021702751649976706 -0.022054685163565811 0 -0.0024894718540504693 -0.021484461301701844 0 -0.0022259898081621148 -0.021703676483077892 0 -0.0020661769836791944 -0.021926430397304856 0 -0.0023247071688810008 -0.021458650600839208 0 -0.0023976797972428353 -0.021696661750291325 0 -0.0026182824010767092 -0.020499623623999333 0 -0.0027433123481474279 -0.02001449080648102 0 -0.0024997258684798206 -0.020043279572908145 0 -0.0027433123481474279 -0.02001449080648102 0 -0.0025897883725256791 -0.019827420915189835 0 -0.0024997258684798206 -0.020043279572908145 0 -0.0027433123481474279 -0.02001449080648102 0 -0.0025897883725256791 -0.019827420915189835 0 -0.0028703161172294262 -0.01960394505597798 0 -0.0025897883725256791 -0.019827420915189835 0 -0.0026283624002575367 -0.019621412672603419 0 -0.0028703161172294262 -0.01960394505597798 0 -0.0025897883725256791 -0.019827420915189835 0 -0.0026283624002575367 -0.019621412672603419 0 -0.0024071084083672777 -0.01961317018162987 0 -0.0025672792547812334 -0.020867225331713462 0 -0.0025370191119629677 -0.020872173045406797 0 -0.0020661769836791944 -0.021926430397304856 0 -0.0023976797972428353 -0.021696661750291325 0 -0.0022179712670125583 -0.02217819347139225 0 -0.0028703161172294262 -0.01960394505597798 0 -0.0028386218603472105 -0.019377946024539596 0 -0.0029852507903222734 -0.019236272650745779 0 -0.0025370191119629677 -0.020872173045406797 0 -0.0025322087422377675 -0.021064067747459784 0 -0.0028703161172294262 -0.01960394505597798 0 -0.0028386218603472105 -0.019377946024539596 0 -0.0027164365883466123 -0.019472084668116316 0 -0.0026283624002575367 -0.019621412672603419 0 -0.0028703161172294262 -0.01960394505597798 0 -0.0027164365883466123 -0.019472084668116316 0 -0.0028386218603472105 -0.019377946024539596 0 -0.0027164365883466123 -0.019472084668116316 0 -0.0027298988570568154 -0.019317963578279338 0 -0.0026283624002575367 -0.019621412672603419 0 -0.0025468770130616259 -0.019472821675228805 0 -0.0024071084083672777 -0.01961317018162987 0 -0.0026283624002575367 -0.019621412672603419 0 -0.0027164365883466123 -0.019472084668116316 0 -0.0025468770130616259 -0.019472821675228805 0 -0.0026211759785597041 -0.019369705470431257 0 -0.0027164365883466123 -0.019472084668116316 0 -0.0027298988570568154 -0.019317963578279338 0 -0.0026211759785597041 -0.019369705470431257 0 -0.0027164365883466123 -0.019472084668116316 0 -0.0025468770130616259 -0.019472821675228805 0 -0.0026211759785597041 -0.019369705470431257 0 -0.0025468770130616259 -0.019472821675228805 0 -0.0024980741123248112 -0.019334747449359362 0 -0.0025468770130616259 -0.019472821675228805 0 -0.0024980741123248112 -0.019334747449359362 0 -0.0024019613886067646 -0.019432437966262008 0 -0.0026211759785597041 -0.019369705470431257 0 -0.0024980741123248112 -0.019334747449359362 0 -0.0025996735401056167 -0.019229863133618033 0 -0.0024980741123248112 -0.019334747449359362 0 -0.0025996735401056167 -0.019229863133618033 0 -0.0024614573798463469 -0.019184116496351357 0 -0.0025996735401056167 -0.019229863133618033 0 -0.0027319357902655375 -0.019195009366655063 0 -0.0027298988570568154 -0.019317963578279338 0 -0.0026211759785597041 -0.019369705470431257 0 -0.0025996735401056167 -0.019229863133618033 0 -0.0027298988570568154 -0.019317963578279338 0 -0.0025996735401056167 -0.019229863133618033 0 -0.0025456415778627307 -0.019139358341124776 0 -0.0026229242751499206 -0.019097760639194026 0 -0.0026229242751499206 -0.019097760639194026 0 -0.0027193609197720056 -0.019063080740027522 0 -0.0027319357902655375 -0.019195009366655063 0 -0.0025996735401056167 -0.019229863133618033 0 -0.0026229242751499206 -0.019097760639194026 0 -0.0027319357902655375 -0.019195009366655063 0 -0.0025996735401056167 -0.019229863133618033 0 -0.0025456415778627307 -0.019139358341124776 0 -0.0024614573798463469 -0.019184116496351357 0 -0.0025456415778627307 -0.019139358341124776 0 -0.002480297014588885 -0.019077522403135747 0 -0.0024614573798463469 -0.019184116496351357 0 -0.0024848331434020833 -0.018954407306424018 0 -0.002538492353186757 -0.018975336714050123 0 -0.0028167867762183027 -0.018946842154723455 0 -0.000517819264012773 -0.015266733327883674 0 -0.00054312323843313593 -0.01527636005889014 0 -0.00052286793649532236 -0.015253356562634489 0 -0.002538492353186757 -0.018975336714050123 0 -0.0028167867762183027 -0.018946842154723455 0 -0.0027193609197720056 -0.019063080740027522 0 -0.0017428404967180947 -0.017882910011238467 0 -0.0017203625427810285 -0.016802326606536744 0 -0.0025456415778627307 -0.019139358341124776 0 -0.002480297014588885 -0.019077522403135747 0 -0.0025373477708480596 -0.019061771773811409 0 -0.002480297014588885 -0.019077522403135747 0 -0.0024852511504765058 -0.019019178458218582 0 -0.0025373477708480596 -0.019061771773811409 0 -0.0024852511504765058 -0.019019178458218582 0 -0.0024820278575040716 -0.018952965739175421 0 -0.002538492353186757 -0.018975336714050123 0 -0.0024852511504765058 -0.019019178458218582 0 -0.0025373477708480596 -0.019061771773811409 0 -0.002538492353186757 -0.018975336714050123 0 -0.0025373477708480596 -0.019061771773811409 0 -0.0026229242751499206 -0.019097760639194026 0 -0.002538492353186757 -0.018975336714050123 0 -0.0025456415778627307 -0.019139358341124776 0 -0.0025373477708480596 -0.019061771773811409 0 -0.0026229242751499206 -0.019097760639194026 0 -0.0026229242751499206 -0.019097760639194026 0 -0.002538492353186757 -0.018975336714050123 0 -0.0027193609197720056 -0.019063080740027522 0 -0.00051309332293212066 -0.015253289925850563 0 -0.000517819264012773 -0.015266733327883674 0 -0.00052286793649532236 -0.015253356562634489 0 -0.0017428404967180947 -0.017882910011238467 0 -0.0021180456267657706 -0.018095685383091677 0 -0.0028167867762183027 -0.018946842154723455 0 -0.0027193609197720056 -0.019063080740027522 0 -0.0028780198584070649 -0.019098845417925388 0 -0.0028780198584070649 -0.019098845417925388 0 -0.0027319357902655375 -0.019195009366655063 0 -0.0028573795122527126 -0.019239798195653787 0 -0.0028780198584070649 -0.019098845417925388 0 -0.0028573795122527126 -0.019239798195653787 0 -0.0029852507903222734 -0.019236272650745779 0 -0.0027193609197720056 -0.019063080740027522 0 -0.0028780198584070649 -0.019098845417925388 0 -0.0027319357902655375 -0.019195009366655063 0 -0.0028386218603472105 -0.019377946024539596 0 -0.0027298988570568154 -0.019317963578279338 0 -0.0028573795122527126 -0.019239798195653787 0 -0.0027319357902655375 -0.019195009366655063 0 -0.0027298988570568154 -0.019317963578279338 0 -0.0028573795122527126 -0.019239798195653787 0 -0.0028386218603472105 -0.019377946024539596 0 -0.0028573795122527126 -0.019239798195653787 0 -0.0029852507903222734 -0.019236272650745779 0 -0.0018099592633785151 -0.022533853218473184 0 -0.0019614262754498188 -0.022656250570919516 0 -0.0017130740885256948 -0.022736353142413766 0 -0.0015593368324897921 -0.022780581369182006 0 -0.0018099592633785151 -0.022533853218473184 0 -0.0017130740885256948 -0.022736353142413766 0 -0.0016282295689717141 -0.022687091766753615 0 -0.0016230519727033479 -0.022760791537979583 0 -0.0017152803607142404 -0.022831429043437965 0 -0.0016230519727033479 -0.022760791537979583 0 -0.0017130740885256948 -0.022736353142413766 0 -0.0017152803607142404 -0.022831429043437965 0 -0.0016230519727033479 -0.022760791537979583 0 -0.0015593368324897921 -0.022780581369182006 0 -0.0017130740885256948 -0.022736353142413766 0 -0.0025322087422377675 -0.021064067747459784 0 -0.0017016503231803638 -0.020095757589539701 0 -0.0019614262754498188 -0.022656250570919516 0 -0.0017130740885256948 -0.022736353142413766 0 -0.0017152803607142404 -0.022831429043437965 0 -0.0028167867762183027 -0.018946842154723455 0 -0.0028780198584070649 -0.019098845417925388 0 -0.0031028402704831792 -0.018926616537670384 0 -0.0017203625427810285 -0.016802326606536744 0 -0.0017016503231803638 -0.020095757589539701 0 -0.0028780198584070649 -0.019098845417925388 0 -0.0029852507903222734 -0.019236272650745779 0 -0.0031028402704831792 -0.018926616537670384 0 -0.00057154583837072497 -0.01530312907994459 0 -0.00057907082771501707 -0.015264067814408047 0 -0.00054631631971568961 -0.015246967460778393 0 -0.00054312323843313593 -0.01527636005889014 0 -0.00057154583837072497 -0.01530312907994459 0 -0.00054631631971568961 -0.015246967460778393 0 -0.0013147004907146421 -0.022213344657106646 0 -0.0010377632778947306 -0.022393363182708202 0 -0.0011754831605310769 -0.02208595255826902 0 -0.0017016503231803638 -0.020095757589539701 0 -0.00086572745946957084 -0.018348940301831058 0 -0.0014620353412514496 -0.022923343835205737 0 -0.0017016503231803638 -0.020095757589539701 0 -0.00057907082771501707 -0.015264067814408047 0 -0.00054631631971568961 -0.015246967460778393 0 -0.00055189083817427454 -0.015214259087374449 0 -0.00054631631971568961 -0.015246967460778393 0 -0.00052286144870098523 -0.015189715116132547 0 -0.00055189083817427454 -0.015214259087374449 0 -0.00052459120853025874 -0.01521722432489309 0 -0.00050957285433254895 -0.015175136301374487 0 -0.00052286144870098523 -0.015189715116132547 0 -0.00054631631971568961 -0.015246967460778393 0 -0.00052459120853025874 -0.01521722432489309 0 -0.00052286144870098523 -0.015189715116132547 0 -0.00050957285433254895 -0.015175136301374487 0 -0.00049880348290549177 -0.01516330547408648 0 -0.00050991566287577554 -0.015201883961697549 0 -0.00049880348290549177 -0.01516330547408648 0 -0.00050991566287577554 -0.015201883961697549 0 -0.00049807415956643173 -0.015184987893348661 0 -0.00052459120853025874 -0.01521722432489309 0 -0.00050957285433254895 -0.015175136301374487 0 -0.00050991566287577554 -0.015201883961697549 0 -0.00052459120853025874 -0.01521722432489309 0 -0.00051879446453938162 -0.015233581003147957 0 -0.00053153821588248725 -0.0152452879703908 0 -0.00052459120853025874 -0.01521722432489309 0 -0.00050991566287577554 -0.015201883961697549 0 -0.00051879446453938162 -0.015233581003147957 0 -0.00050991566287577554 -0.015201883961697549 0 -0.00051879446453938162 -0.015233581003147957 0 -0.0005097105111309708 -0.01522253220270107 0 -0.00050991566287577554 -0.015201883961697549 0 -0.0005097105111309708 -0.01522253220270107 0 -0.00050047026431904922 -0.015210567154490137 0 -0.00051879446453938162 -0.015233581003147957 0 -0.0005097105111309708 -0.01522253220270107 0 -0.00050860198960121544 -0.015238868100487845 0 -0.00051309332293212066 -0.015253289925850563 0 -0.00052286793649532236 -0.015253356562634489 0 -0.00050860198960121544 -0.015238868100487845 0 -0.00051879446453938162 -0.015233581003147957 0 -0.00052286793649532236 -0.015253356562634489 0 -0.00050860198960121544 -0.015238868100487845 0 -0.00051879446453938162 -0.015233581003147957 0 -0.00052286793649532236 -0.015253356562634489 0 -0.00053153821588248725 -0.0152452879703908 0 -0.00054312323843313593 -0.01527636005889014 0 -0.00052286793649532236 -0.015253356562634489 0 -0.00053153821588248725 -0.0152452879703908 0 -0.00054312323843313593 -0.01527636005889014 0 -0.00054631631971568961 -0.015246967460778393 0 -0.00053153821588248725 -0.0152452879703908 0 -0.00054631631971568961 -0.015246967460778393 0 -0.00052459120853025874 -0.01521722432489309 0 -0.00053153821588248725 -0.0152452879703908 0 -0.00050293247524409905 -0.015144930638443025 0 -0.00048295224821725261 -0.015135897295204322 0 -0.00049046102082995514 -0.015125249309527336 0 -0.00050293247524409905 -0.015144930638443025 0 -0.00049141314434372882 -0.015109918725781251 0 -0.00050397693169784003 -0.015149295741759584 0 -0.00050293247524409905 -0.015144930638443025 0 -0.00049141314434372882 -0.015109918725781251 0 -0.00049046102082995514 -0.015125249309527336 0 -0.00049141314434372882 -0.015109918725781251 0 -0.00049581430486570106 -0.015133867140683183 0 -0.00048315510062662393 -0.015100130192776081 0 -0.00049141314434372882 -0.015109918725781251 0 -0.00049581430486570106 -0.015133867140683183 0 -0.00050397693169784003 -0.015149295741759584 0 -0.00050957285433254895 -0.015175136301374487 0 -0.00049880348290549177 -0.01516330547408648 0 -0.00049581430486570106 -0.015133867140683183 0 -0.00050957285433254895 -0.015175136301374487 0 -0.00049581430486570106 -0.015133867140683183 0 -0.00050397693169784003 -0.015149295741759584 0 -0.00050293247524409905 -0.015144930638443025 0 -0.00052286144870098523 -0.015189715116132547 0 -0.00050397693169784003 -0.015149295741759584 0 -0.00050957285433254895 -0.015175136301374487 0 -0.00052286144870098523 -0.015189715116132547 0 -0.00050397693169784003 -0.015149295741759584 0 -0.00050293247524409905 -0.015144930638443025 0 -0.00052286144870098523 -0.015189715116132547 0 -0.00052346870560930983 -0.01517353298681982 0 -0.00052286144870098523 -0.015189715116132547 0 -0.00055189083817427454 -0.015214259087374449 0 -0.00052346870560930983 -0.01517353298681982 0 -0.00055189083817427454 -0.015214259087374449 0 -0.00052346870560930983 -0.01517353298681982 0 -0.00055947784399844043 -0.015167143143921726 0 -0.00055189083817427454 -0.015214259087374449 0 -0.00055947784399844043 -0.015167143143921726 0 -0.00060343237542230066 -0.015220412343069775 0 -0.00086572745946957084 -0.018348940301831058 0 -0.00087369460282817567 -0.019162750631269137 0 -0.00057907082771501707 -0.015264067814408047 0 -0.00055189083817427454 -0.015214259087374449 0 -0.00060343237542230066 -0.015220412343069775 0 -0.00041786768863149351 -0.015163279532346708 0 -0.00048295224821725261 -0.015135897295204322 0 -0.00041320932925058068 -0.015163198800781191 0 -0.00011897139607442214 -0.014917848078581982 0 -0.00087369460282817567 -0.019162750631269137 0 -0.00041786768863149351 -0.015163279532346708 0 -0.00040928655297520851 -0.015182660958907829 0 -0.0004162808574822923 -0.015214441411215317 0 -0.00041786768863149351 -0.015163279532346708 0 -0.00041320932925058068 -0.015163198800781191 0 -0.00040928655297520851 -0.015182660958907829 0 -0.00050293247524409905 -0.015144930638443025 0 -0.00052346870560930983 -0.01517353298681982 0 -0.00048295224821725261 -0.015135897295204322 0 -0.00052346870560930983 -0.01517353298681982 0 -0.00055947784399844043 -0.015167143143921726 0 -0.00048295224821725261 -0.015135897295204322 0 -0.00011897139607442214 -0.014917848078581982 0 -0.00060716526530801764 -0.015232219181085017 0 -0.00048295224821725261 -0.015135897295204322 0 -0.00047738061631937885 -0.015137642604399362 0 -0.00043699739874148721 -0.015156328487716414 0 -0.00048295224821725261 -0.015135897295204322 0 -0.00047738061631937885 -0.015137642604399362 0 -0.00049046102082995514 -0.015125249309527336 0 -0.00048295224821725261 -0.015135897295204322 0 -0.00041320932925058068 -0.015163198800781191 0 -0.00043699739874148721 -0.015156328487716414 0 -0.00041320932925058068 -0.015163198800781191 0 -0.00043699739874148721 -0.015156328487716414 0 -0.00035936450117456066 -0.015171482811485009 0 -0.00041320932925058068 -0.015163198800781191 0 -0.0003985983365508118 -0.015176210071306314 0 -0.00040928655297520851 -0.015182660958907829 0 -0.00043699739874148721 -0.015156328487716414 0 -0.00041960775413535053 -0.015183855936736724 0 -0.00035936450117456066 -0.015171482811485009 0 -0.00043699739874148721 -0.015156328487716414 0 -0.0004775244161908446 -0.015152719624285096 0 -0.00041960775413535053 -0.015183855936736724 0 -0.00047738061631937885 -0.015137642604399362 0 -0.00043699739874148721 -0.015156328487716414 0 -0.0004775244161908446 -0.015152719624285096 0 -0.0004775244161908446 -0.015152719624285096 0 -0.00048895456536928198 -0.015128648982863261 0 -0.00048932777487871589 -0.015159487219506483 0 -0.0004775244161908446 -0.015152719624285096 0 -0.00048895456536928198 -0.015128648982863261 0 -0.00048542666177432334 -0.015130174177915569 0 -0.00048895456536928198 -0.015128648982863261 0 -0.00048542666177432334 -0.015130174177915569 0 -0.00048805631452027035 -0.015111781446454848 0 -0.00047738061631937885 -0.015137642604399362 0 -0.0004775244161908446 -0.015152719624285096 0 -0.00048542666177432334 -0.015130174177915569 0 -0.00049141314434372882 -0.015109918725781251 0 -0.00049046102082995514 -0.015125249309527336 0 -0.00048805631452027035 -0.015111781446454848 0 -0.00047738061631937885 -0.015137642604399362 0 -0.00048542666177432334 -0.015130174177915569 0 -0.00049046102082995514 -0.015125249309527336 0 -0.00048542666177432334 -0.015130174177915569 0 -0.00049046102082995514 -0.015125249309527336 0 -0.00048805631452027035 -0.015111781446454848 0 -0.00049141314434372882 -0.015109918725781251 0 -0.00048805631452027035 -0.015111781446454848 0 -0.00047951309559976258 -0.015085609551299659 0 -0.00048805631452027035 -0.015111781446454848 0 -0.00047952641121612937 -0.01509193146237865 0 -0.00047951309559976258 -0.015085609551299659 0 -0.00048895456536928198 -0.015128648982863261 0 -0.00048805631452027035 -0.015111781446454848 0 -0.00047952641121612937 -0.01509193146237865 0 -0.00048895456536928198 -0.015128648982863261 0 -0.00047952641121612937 -0.01509193146237865 0 -0.00048442170775214532 -0.015122460045779017 0 -0.00047952641121612937 -0.01509193146237865 0 -0.00048442170775214532 -0.015122460045779017 0 -0.00047523195464478098 -0.015088208048772707 0 -0.00048442170775214532 -0.015122460045779017 0 -0.00048696654631265172 -0.01514871636938659 0 -0.00048228747234187517 -0.015128475024930255 0 -0.00048442170775214532 -0.015122460045779017 0 -0.00047784103342699225 -0.015098441965565632 0 -0.00048228747234187517 -0.015128475024930255 0 -0.00048442170775214532 -0.015122460045779017 0 -0.00047784103342699225 -0.015098441965565632 0 -0.00047523195464478098 -0.015088208048772707 0 -0.0004775244161908446 -0.015152719624285096 0 -0.00048932777487871589 -0.015159487219506483 0 -0.00049391229847609637 -0.015205610088168725 0 -0.00048442170775214532 -0.015122460045779017 0 -0.00048932777487871589 -0.015159487219506483 0 -0.00048696654631265172 -0.01514871636938659 0 -0.00048895456536928198 -0.015128648982863261 0 -0.00048442170775214532 -0.015122460045779017 0 -0.00048932777487871589 -0.015159487219506483 0 -0.00048696654631265172 -0.01514871636938659 0 -0.00048905599009660633 -0.015172638233694294 0 -0.00048315666120534551 -0.01514491020124013 0 -0.00048696654631265172 -0.01514871636938659 0 -0.00048315666120534551 -0.01514491020124013 0 -0.00048228747234187517 -0.015128475024930255 0 -0.00048932777487871589 -0.015159487219506483 0 -0.00048905599009660633 -0.015172638233694294 0 -0.00049391229847609637 -0.015205610088168725 0 -0.00048932777487871589 -0.015159487219506483 0 -0.00048696654631265172 -0.01514871636938659 0 -0.00048905599009660633 -0.015172638233694294 0 -0.00048905599009660633 -0.015172638233694294 0 -0.00049182578401197772 -0.015196521898179331 0 -0.00049391229847609637 -0.015205610088168725 0 -0.00048905599009660633 -0.015172638233694294 0 -0.00048308580430643484 -0.01514614629891743 0 -0.00049182578401197772 -0.015196521898179331 0 -0.00048315666120534551 -0.01514491020124013 0 -0.00048228747234187517 -0.015128475024930255 0 -0.0004797037693102913 -0.015119809237792343 0 -0.00048905599009660633 -0.015172638233694294 0 -0.00048315666120534551 -0.01514491020124013 0 -0.00048308580430643484 -0.01514614629891743 0 -0.00048315666120534551 -0.01514491020124013 0 -0.00048308580430643484 -0.01514614629891743 0 -0.0004797037693102913 -0.015119809237792343 0 -0.00048308580430643484 -0.01514614629891743 0 -0.0004797037693102913 -0.015119809237792343 0 -0.00047795313538726876 -0.015108408145077875 0 -0.00048308580430643484 -0.01514614629891743 0 -0.00049058068085224699 -0.015141295626664209 0 -0.00049182578401197772 -0.015196521898179331 0 -0.00047784103342699225 -0.015098441965565632 0 -0.00047881678199543495 -0.015090993127508265 0 -0.00047348231910729691 -0.015073267687446575 0 -0.00047784103342699225 -0.015098441965565632 0 -0.00048228747234187517 -0.015128475024930255 0 -0.0004797037693102913 -0.015119809237792343 0 -0.00047784103342699225 -0.015098441965565632 0 -0.0004797037693102913 -0.015119809237792343 0 -0.00047881678199543495 -0.015090993127508265 0 -0.00047881678199543495 -0.015090993127508265 0 -0.00047795313538726876 -0.015108408145077875 0 -0.00048512748120648825 -0.015065381985703584 0 -0.00047795313538726876 -0.015108408145077875 0 -0.00047912437947076068 -0.015092068200545514 0 -0.00048512748120648825 -0.015065381985703584 0 -0.0004797037693102913 -0.015119809237792343 0 -0.00047881678199543495 -0.015090993127508265 0 -0.00047795313538726876 -0.015108408145077875 0 -0.00047795313538726876 -0.015108408145077875 0 -0.00047834351619786933 -0.015095082380422372 0 -0.00050506068331935725 -0.015133814342167777 0 -0.00050036935094370115 -0.015411181988313019 0 -0.00054394692649768013 -0.015511084270259346 0 -0.00049058068085224699 -0.015141295626664209 0 -0.00047795313538726876 -0.015108408145077875 0 -0.00050506068331935725 -0.015133814342167777 0 -0.00048308580430643484 -0.01514614629891743 0 -0.00049058068085224699 -0.015141295626664209 0 -0.00047795313538726876 -0.015108408145077875 0 -0.00053675052573360228 -0.015764936103783943 0 -0.00047330256979931048 -0.015816906550557796 0 -0.00063277761805201381 -0.015923556774568848 0 -0.00053675052573360228 -0.015764936103783943 0 -0.00047330256979931048 -0.015816906550557796 0 -0.00044206231382855679 -0.01560359663376984 0 -0.00047834351619786933 -0.015095082380422372 0 -0.00047974075948633313 -0.015102236399150861 0 -0.00047912437947076068 -0.015092068200545514 0 -0.00047795313538726876 -0.015108408145077875 0 -0.00047834351619786933 -0.015095082380422372 0 -0.00047912437947076068 -0.015092068200545514 0 -0.00047974075948633313 -0.015102236399150861 0 -0.00047912437947076068 -0.015092068200545514 0 -0.00049320819045107719 -0.015107707900442555 0 -0.00044726441322085972 -0.016730800944150716 0 -0.00035038548407688035 -0.016471623043803903 0 -0.00056484769333367947 -0.01684889019628931 0 -0.00045703670698948266 -0.016729228767798188 0 -0.00046470476770459816 -0.017059831491838057 0 -0.00045703670698948266 -0.016729228767798188 0 -0.00056934761606811752 -0.016302515988684634 0 -0.00021356173745823418 -0.015915878885041538 0 -0.0007189491430693427 -0.016684983997510949 0 -0.00045703670698948266 -0.016729228767798188 0 -0.00056934761606811752 -0.016302515988684634 0 -0.00056934761606811752 -0.016302515988684634 0 -0.00079526480830494376 -0.015825078319512225 0 -0.00021356173745823418 -0.015915878885041538 0 -0.0007189491430693427 -0.016684983997510949 0 -0.00056934761606811752 -0.016302515988684634 0 -0.00079526480830494376 -0.015825078319512225 0 -0.00061611388674487713 -0.016304180950422058 0 -0.00054394692649768013 -0.015511084270259346 0 -0.00054394692649768013 -0.015511084270259346 0 -0.00053715712804004126 -0.015464328901454414 0 -0.00056484769333367947 -0.01684889019628931 0 -0.00046470476770459816 -0.017059831491838057 0 -0.00062515694605772335 -0.016990559979767134 0 -0.00035038548407688035 -0.016471623043803903 0 -0.00040448032136190202 -0.016434485631345083 0 -0.00021356173745823418 -0.015915878885041538 0 -0.00050075632382454995 -0.015297421745407573 0 -0.00025025848156144963 -0.015278153634689581 0 -0.00079526480830494376 -0.015825078319512225 0 -0.00021356173745823418 -0.015915878885041538 0 -0.00050075632382454995 -0.015297421745407573 0 -0.00054394692649768013 -0.015511084270259346 0 -0.00052393185793047292 -0.01530943594472969 0 -0.000514236620034564 -0.015125150817841911 0 -0.00050836086418718993 -0.01514494176282051 0 -0.00050075632382454995 -0.015297421745407573 0 -0.00049058068085224699 -0.015141295626664209 0 -0.00050836086418718993 -0.01514494176282051 0 -0.00049182578401197772 -0.015196521898179331 0 -0.00049058068085224699 -0.015141295626664209 0 -0.00050506068331935725 -0.015133814342167777 0 -0.00050836086418718993 -0.01514494176282051 0 -0.00050075632382454995 -0.015297421745407573 0 -0.00049182578401197772 -0.015196521898179331 0 -0.00049391229847609637 -0.015205610088168725 0 -0.00050836086418718993 -0.01514494176282051 0 -0.00050075632382454995 -0.015297421745407573 0 -0.00049182578401197772 -0.015196521898179331 0 -0.00050075632382454995 -0.015297421745407573 0 -0.00049391229847609637 -0.015205610088168725 0 -0.00041960775413535053 -0.015183855936736724 0 -0.0004775244161908446 -0.015152719624285096 0 -0.00049391229847609637 -0.015205610088168725 0 -0.00041960775413535053 -0.015183855936736724 0 -0.00050075632382454995 -0.015297421745407573 0 -0.00025025848156144963 -0.015278153634689581 0 -0.00041960775413535053 -0.015183855936736724 0 -0.00025025848156144963 -0.015278153634689581 0 -0.00041960775413535053 -0.015183855936736724 0 -0.00035936450117456066 -0.015171482811485009 0 -0.00049175889632754627 -0.017294548656859799 0 -0.00069239872791601207 -0.01731144117719894 0 -0.00053683124441244318 -0.017588222052010796 0 -0.00040448032136190202 -0.016434485631345083 0 -0.00035198042048336753 -0.015781020633103326 0 -0.00069239872791601207 -0.01731144117719894 0 -0.00080346033399617076 -0.017537660190046798 0 -0.00053683124441244318 -0.017588222052010796 0 -0.00069239872791601207 -0.01731144117719894 0 -0.00087635310900389496 -0.017191831401965146 0 -0.00080346033399617076 -0.017537660190046798 0 -0.00069239872791601207 -0.01731144117719894 0 -0.00067501499187679298 -0.017122088542685099 0 -0.00087635310900389496 -0.017191831401965146 0 -0.00046470476770459816 -0.017059831491838057 0 -0.00049175889632754627 -0.017294548656859799 0 -0.00067501499187679298 -0.017122088542685099 0 -0.00049175889632754627 -0.017294548656859799 0 -0.00069239872791601207 -0.01731144117719894 0 -0.00067501499187679298 -0.017122088542685099 0 -0.00067501499187679298 -0.017122088542685099 0 -0.00062515694605772335 -0.016990559979767134 0 -0.00071685028266451256 -0.016999983643022659 0 -0.00046470476770459816 -0.017059831491838057 0 -0.00067501499187679298 -0.017122088542685099 0 -0.00062515694605772335 -0.016990559979767134 0 -0.00067501499187679298 -0.017122088542685099 0 -0.00080920709894968042 -0.017015538202669708 0 -0.00087635310900389496 -0.017191831401965146 0 -0.00067501499187679298 -0.017122088542685099 0 -0.00080920709894968042 -0.017015538202669708 0 -0.00071685028266451256 -0.016999983643022659 0 -0.00071685028266451256 -0.016999983643022659 0 -0.00077612479849803429 -0.01697894814672745 0 -0.00066682131415160952 -0.016915220759830995 0 -0.00080920709894968042 -0.017015538202669708 0 -0.00071685028266451256 -0.016999983643022659 0 -0.00077612479849803429 -0.01697894814672745 0 -0.00077612479849803429 -0.01697894814672745 0 -0.00066682131415160952 -0.016915220759830995 0 -0.00073796241436139848 -0.016874088421213095 0 -0.00056484769333367947 -0.01684889019628931 0 -0.00066682131415160952 -0.016915220759830995 0 -0.00062719976918107793 -0.016826044942370309 0 -0.00056484769333367947 -0.01684889019628931 0 -0.00062515694605772335 -0.016990559979767134 0 -0.00066682131415160952 -0.016915220759830995 0 -0.00062515694605772335 -0.016990559979767134 0 -0.00071685028266451256 -0.016999983643022659 0 -0.00066682131415160952 -0.016915220759830995 0 -0.00062150674065108145 -0.023979271375640619 0 -0.00036023192061480745 -0.024196334192285982 0 -0.00037438392901262399 -0.024531467868305058 0 -0.00062150674065108145 -0.023979271375640619 0 -0.00036741740281128735 -0.023743509116889345 0 -0.00036023192061480745 -0.024196334192285982 0 -0.00080920709894968042 -0.017015538202669708 0 -0.00076576549502749671 -0.016950293373027885 0 -0.0009018728754046514 -0.017065421092500199 0 -0.00080920709894968042 -0.017015538202669708 0 -0.00077612479849803429 -0.01697894814672745 0 -0.0009018728754046514 -0.017065421092500199 0 -0.0006762503475953159 -0.020491413944754691 0 -0.00079704565559391208 -0.020330674221546899 0 -0.00080920709894968042 -0.017015538202669708 0 -0.00076576549502749671 -0.016950293373027885 0 -0.00087635310900389496 -0.017191831401965146 0 -0.00062150674065108145 -0.023979271375640619 0 -0.00071669764341982542 -0.023554774891568413 0 -0.00036741740281128735 -0.023743509116889345 0 -0.00040745126457805014 -0.023966905341817786 0 -0.00022733455113233483 -0.024103332768638148 0 -0.00071669764341982542 -0.023554774891568413 0 -0.00060351245508278792 -0.023477373656862838 0 -0.00036741740281128735 -0.023743509116889345 0 -0.00071669764341982542 -0.023554774891568413 0 -0.00060351245508278792 -0.023477373656862838 0 -0.00064769128760567218 -0.023461888311232484 0 -0.00079704565559391208 -0.020330674221546899 0 -0.00071217703774766245 -0.020754993335498208 0 -0.00040745126457805014 -0.023966905341817786 0 -0.00054706586665587695 -0.02390648852555988 0 -0.00021142087836746254 -0.024456260390797617 0 -0.00041208780738402476 -0.024289502740792512 0 -0.00018122825578204883 -0.02434824173802521 0 -0.00041208780738402476 -0.024289502740792512 0 -0.000263585633126406 -0.024109749555085516 0 -0.00042107086141319604 -0.023989954758792349 0 -0.00041208780738402476 -0.024289502740792512 0 -0.000263585633126406 -0.024109749555085516 0 -0.00018122825578204883 -0.02434824173802521 0 -0.00054706586665587695 -0.02390648852555988 0 -0.0005947299166266729 -0.02387369212340763 0 -0.00069453144803284246 -0.023524343486409111 0 -0.00058932099680740349 -0.023688834206981594 0 -0.00059954383541376693 -0.023868899219498887 0 -0.00069453144803284246 -0.023524343486409111 0 -0.0006038526242048949 -0.023592520118749412 0 -0.00058932099680740349 -0.023688834206981594 0 -0.00060351245508278792 -0.023477373656862838 0 -0.00069453144803284246 -0.023524343486409111 0 -0.00064769128760567218 -0.023461888311232484 0 -0.00069453144803284246 -0.023524343486409111 0 -0.00064769128760567218 -0.023461888311232484 0 -0.0006038526242048949 -0.023592520118749412 0 -0.00080346033399617076 -0.017537660190046798 0 -0.00053683124441244318 -0.017588222052010796 0 -0.00064098295386649036 -0.017940528770212551 0 -0.00041320932925058068 -0.015163198800781191 0 -0.00035936450117456066 -0.015171482811485009 0 -0.0003985983365508118 -0.015176210071306314 0 -0.00035198042048336753 -0.015781020633103326 0 -0.00037020692386176729 -0.019634036665481046 0 -0.00035936450117456066 -0.015171482811485009 0 -0.00041323153323280867 -0.015193354160014366 0 -0.0003985983365508118 -0.015176210071306314 0 -0.00041323153323280867 -0.015193354160014366 0 -0.0003985983365508118 -0.015176210071306314 0 -0.00040928655297520851 -0.015182660958907829 0 -0.00064769128760567218 -0.023461888311232484 0 -0.00047590329743711689 -0.023677034208948497 0 -0.0006038526242048949 -0.023592520118749412 0 -0.00071217703774766245 -0.020754993335498208 0 -0.00037020692386176729 -0.019634036665481046 0 -0.00047590329743711689 -0.023677034208948497 0 -0.0006038526242048949 -0.023592520118749412 0 -0.0005499064765678895 -0.023689704893830116 0 -0.0006038526242048949 -0.023592520118749412 0 -0.0005499064765678895 -0.023689704893830116 0 -0.00058932099680740349 -0.023688834206981594 0 -0.00058932099680740349 -0.023688834206981594 0 -0.00055711420047736544 -0.023772236500715624 0 -0.00059954383541376693 -0.023868899219498887 0 -0.0005499064765678895 -0.023689704893830116 0 -0.00058932099680740349 -0.023688834206981594 0 -0.00055711420047736544 -0.023772236500715624 0 -0.0005499064765678895 -0.023689704893830116 0 -0.00055711420047736544 -0.023772236500715624 0 -0.00051427443197788933 -0.023751338350715509 0 -0.00047590329743711689 -0.023677034208948497 0 -0.0005499064765678895 -0.023689704893830116 0 -0.00051427443197788933 -0.023751338350715509 0 -0.00055711420047736544 -0.023772236500715624 0 -0.00051427443197788933 -0.023751338350715509 0 -0.00054511363878288332 -0.023798527937868751 0 -0.00054511363878288332 -0.023798527937868751 0 -0.00053165123529982439 -0.023787025581213733 0 -0.00056238540986096666 -0.023818803208369568 0 -0.00051427443197788933 -0.023751338350715509 0 -0.00054511363878288332 -0.023798527937868751 0 -0.00052287070635735069 -0.02376811067494403 0 -0.00054511363878288332 -0.023798527937868751 0 -0.00059954383541376693 -0.023868899219498887 0 -0.00056238540986096666 -0.023818803208369568 0 -0.00055711420047736544 -0.023772236500715624 0 -0.00054511363878288332 -0.023798527937868751 0 -0.00059954383541376693 -0.023868899219498887 0 -0.00037020692386176729 -0.019634036665481046 0 -0.00087369460282817567 -0.019162750631269137 0 -0.00050525785281193246 -0.023727187220212401 0 -0.00052287070635735069 -0.02376811067494403 0 -0.00052636103402227896 -0.023779744250346714 0 -0.00041323153323280867 -0.015193354160014366 0 -0.00040928655297520851 -0.015182660958907829 0 -0.0004162808574822923 -0.015214441411215317 0 -0.00050525785281193246 -0.023727187220212401 0 -0.00051427443197788933 -0.023751338350715509 0 -0.00052287070635735069 -0.02376811067494403 0 -0.00037020692386176729 -0.019634036665481046 0 -0.0010088037333157935 -0.022686699945092929 0 -0.00052287070635735069 -0.02376811067494403 0 -0.00052636103402227896 -0.023779744250346714 0 -0.00053165123529982439 -0.023787025581213733 0 -0.00054511363878288332 -0.023798527937868751 0 -0.00052287070635735069 -0.02376811067494403 0 -0.00053165123529982439 -0.023787025581213733 0 -0.0016164856880337987 -0.021953228720128243 0 -0.0013877821485163524 -0.021958578234385375 0 -0.0013210506042795277 -0.02172116892471472 0 -0.0013040727751095316 -0.023275827052699899 0 -0.00087369460282817567 -0.019162750631269137 0 -0.0013877821485163524 -0.021958578234385375 0 -0.0011754831605310769 -0.02208595255826902 0 -0.0013210506042795277 -0.02172116892471472 0 -0.00054891908021808601 -0.023767809118401092 0 -0.00052636103402227896 -0.023779744250346714 0 -0.00053165123529982439 -0.023787025581213733 0 -0.00054891908021808601 -0.023767809118401092 0 -0.00053165123529982439 -0.023787025581213733 0 -0.00055558540573729938 -0.023764704007765345 0 -0.00059954383541376693 -0.023868899219498887 0 -0.00056238540986096666 -0.023818803208369568 0 -0.00056240551422914677 -0.023833220881600739 0 -0.00056238540986096666 -0.023818803208369568 0 -0.00056240551422914677 -0.023833220881600739 0 -0.00057656754633013494 -0.023817843127500175 0 -0.00053165123529982439 -0.023787025581213733 0 -0.00056238540986096666 -0.023818803208369568 0 -0.00057656754633013494 -0.023817843127500175 0 -0.00054820713718585934 -0.023793880672524189 0 -0.00053749043341767789 -0.023773604352568693 0 -0.00056240551422914677 -0.023833220881600739 0 -0.00057656754633013494 -0.023817843127500175 0 -0.00053256871126574148 -0.023822931186705098 0 -0.00049932380226820237 -0.02378074310136901 0 -0.00057656754633013494 -0.023817843127500175 0 -0.00053256871126574148 -0.023822931186705098 0 -0.00049932380226820237 -0.02378074310136901 0 -0.00053256871126574148 -0.023822931186705098 0 -0.00048787262467428949 -0.023822740647279506 0 -0.00053256871126574148 -0.023822931186705098 0 -0.00051838369909810783 -0.023854912953067922 0 -0.00048787262467428949 -0.023822740647279506 0 -0.00059954383541376693 -0.023868899219498887 0 -0.00056240551422914677 -0.023833220881600739 0 -0.00051838369909810783 -0.023854912953067922 0 -0.00056240551422914677 -0.023833220881600739 0 -0.00053256871126574148 -0.023822931186705098 0 -0.00051838369909810783 -0.023854912953067922 0 -0.00051838369909810783 -0.023854912953067922 0 -0.00042374085496419566 -0.023862428690174787 0 -0.00048787262467428949 -0.023822740647279506 0 -0.00051838369909810783 -0.023854912953067922 0 -0.00042374085496419566 -0.023862428690174787 0 -0.00042107086141319604 -0.023989954758792349 0 -0.00042374085496419566 -0.023862428690174787 0 -0.00048787262467428949 -0.023822740647279506 0 -0.00043952826554110908 -0.023801206377304793 0 -0.00049932380226820237 -0.02378074310136901 0 -0.00048787262467428949 -0.023822740647279506 0 -0.00043952826554110908 -0.023801206377304793 0 -0.00038143926565207029 -0.023789018736869925 0 -0.00032309855473058787 -0.023847999108623553 0 -0.00021111424161319962 -0.023854934468408251 0 -0.00038143926565207029 -0.023789018736869925 0 -0.00043952826554110908 -0.023801206377304793 0 -0.00039228308437792104 -0.023825290426605864 0 -0.00042374085496419566 -0.023862428690174787 0 -0.00039228308437792104 -0.023825290426605864 0 -0.00032309855473058787 -0.023847999108623553 0 -0.00038143926565207029 -0.023789018736869925 0 -0.00039228308437792104 -0.023825290426605864 0 -0.00032309855473058787 -0.023847999108623553 0 -0.00042374085496419566 -0.023862428690174787 0 -0.00043952826554110908 -0.023801206377304793 0 -0.00039228308437792104 -0.023825290426605864 0 -0.00032309855473058787 -0.023847999108623553 0 -0.00025652809150779424 -0.023963308421290994 0 -0.00034025532402077682 -0.023952841945312334 0 -0.00032309855473058787 -0.023847999108623553 0 -0.00025652809150779424 -0.023963308421290994 0 -0.00021111424161319962 -0.023854934468408251 0 -0.00042374085496419566 -0.023862428690174787 0 -0.00032309855473058787 -0.023847999108623553 0 -0.00034025532402077682 -0.023952841945312334 0 -0.00034025532402077682 -0.023952841945312334 0 -0.000263585633126406 -0.024109749555085516 0 -0.00042107086141319604 -0.023989954758792349 0 -0.00042374085496419566 -0.023862428690174787 0 -0.00034025532402077682 -0.023952841945312334 0 -0.00042107086141319604 -0.023989954758792349 0 -0.00025652809150779424 -0.023963308421290994 0 -0.00034025532402077682 -0.023952841945312334 0 -0.000263585633126406 -0.024109749555085516 0 -0.00041208780738402476 -0.024289502740792512 0 -0.00059954383541376693 -0.023868899219498887 0 -0.00042107086141319604 -0.023989954758792349 0 -0.00059954383541376693 -0.023868899219498887 0 -0.00051838369909810783 -0.023854912953067922 0 -0.00042107086141319604 -0.023989954758792349 0 7.8682744436717868e-07 -0.024143269598606586 0 -0.00016622657905732851 -0.024069393048758644 0 -0.00010347884113310884 -0.024254830269180322 0 7.8682744436717868e-07 -0.024143269598606586 0 -0.00016622657905732851 -0.024069393048758644 0 -0.00021111424161319962 -0.023854934468408251 0 -0.000263585633126406 -0.024109749555085516 0 -0.00016622657905732851 -0.024069393048758644 0 -0.00010347884113310884 -0.024254830269180322 0 -0.00025652809150779424 -0.023963308421290994 0 -0.000263585633126406 -0.024109749555085516 0 -0.00016622657905732851 -0.024069393048758644 0 0.0002381913912938972 -0.024758073905485421 0 0.00016513655677890382 -0.024820603322590666 0 0.00020894938299598358 -0.02480242006617242 0 -0.00025652809150779424 -0.023963308421290994 0 -0.00016622657905732851 -0.024069393048758644 0 -0.00021111424161319962 -0.023854934468408251 0 0.00015194760282166383 -0.02469690110807516 0 0.00016513655677890382 -0.024820603322590666 0 0.00020894938299598358 -0.02480242006617242 0 0.0002381913912938972 -0.024758073905485421 0 0.00020894938299598358 -0.02480242006617242 0 0.00019979035820618933 -0.024819453344567772 0 0.00021057188678957312 -0.024830859797592746 0 0.00020894938299598358 -0.02480242006617242 0 0.00019979035820618933 -0.024819453344567772 0 5.781973711491082e-05 -0.024819785541345007 0 0.00023592177847557596 -0.024771599431100792 0 7.7637089829490894e-05 -0.024426719885360101 0 6.710300587617304e-05 -0.024423812252322014 0 0.0002381913912938972 -0.024758073905485421 0 0.00019979035820618933 -0.024819453344567772 0 0.00011930535221482383 -0.024813195674999421 0 0.00016138008247134681 -0.02490519690141485 0 0.00019979035820618933 -0.024819453344567772 0 0.00011930535221482383 -0.024813195674999421 0 6.7731005164718539e-05 -0.024896116818935339 0 0.00011930535221482383 -0.024813195674999421 0 1.1077277018702579e-05 -0.024844544623208033 0 0.00011930535221482383 -0.024813195674999421 0 3.2764567364594501e-05 -0.024732704287219371 0 1.1077277018702579e-05 -0.024844544623208033 0 0.00011930535221482383 -0.024813195674999421 0 3.2764567364594501e-05 -0.024732704287219371 0 8.1103681941968104e-05 -0.024518201727979586 0 3.2764567364594501e-05 -0.024732704287219371 0 8.1103681941968104e-05 -0.024518201727979586 0 -5.6021974128724589e-05 -0.024782177319187922 0 0.0002381913912938972 -0.024758073905485421 0 0.00011930535221482383 -0.024813195674999421 0 8.1103681941968104e-05 -0.024518201727979586 0 7.7637089829490894e-05 -0.024426719885360101 0 8.6131704083172576e-05 -0.024506592596289647 0 -5.76699154641062e-06 -0.02435895633046585 0 8.1103681941968104e-05 -0.024518201727979586 0 2.7495817148360008e-05 -0.024435491151961957 0 7.8682744436717868e-07 -0.024143269598606586 0 -5.76699154641062e-06 -0.02435895633046585 0 8.1103681941968104e-05 -0.024518201727979586 0 8.1103681941968104e-05 -0.024518201727979586 0 3.0855270683482812e-05 -0.02445092798807201 0 2.7495817148360008e-05 -0.024435491151961957 0 8.1103681941968104e-05 -0.024518201727979586 0 3.0855270683482812e-05 -0.02445092798807201 0 -1.0700349995125696e-06 -0.024432656775940215 0 6.072999371771429e-06 -0.024453734356040875 0 2.7495817148360008e-05 -0.024435491151961957 0 -1.5649354287398649e-05 -0.024443786845706417 0 6.072999371771429e-06 -0.024453734356040875 0 9.0939896542269265e-06 -0.024513897692009758 0 -1.0700349995125696e-06 -0.024432656775940215 0 -2.3218542210838027e-05 -0.02468670335533818 0 -2.9788128141052839e-05 -0.024663251674990921 0 3.0855270683482812e-05 -0.02445092798807201 0 6.072999371771429e-06 -0.024453734356040875 0 -1.0700349995125696e-06 -0.024432656775940215 0 3.0855270683482812e-05 -0.02445092798807201 0 6.072999371771429e-06 -0.024453734356040875 0 2.7495817148360008e-05 -0.024435491151961957 0 2.7495817148360008e-05 -0.024435491151961957 0 -5.259272327805215e-05 -0.024406207291837755 0 -1.5649354287398649e-05 -0.024443786845706417 0 -5.76699154641062e-06 -0.02435895633046585 0 2.7495817148360008e-05 -0.024435491151961957 0 -5.259272327805215e-05 -0.024406207291837755 0 -5.76699154641062e-06 -0.02435895633046585 0 -5.259272327805215e-05 -0.024406207291837755 0 -0.00010347884113310884 -0.024254830269180322 0 7.8682744436717868e-07 -0.024143269598606586 0 -5.76699154641062e-06 -0.02435895633046585 0 -0.00010347884113310884 -0.024254830269180322 0 -0.000263585633126406 -0.024109749555085516 0 -0.00010347884113310884 -0.024254830269180322 0 -0.00018122825578204883 -0.02434824173802521 0 -5.259272327805215e-05 -0.024406207291837755 0 -0.00018122825578204883 -0.02434824173802521 0 -0.00011381404700460846 -0.024447744372583301 0 -5.259272327805215e-05 -0.024406207291837755 0 -0.00010347884113310884 -0.024254830269180322 0 -0.00018122825578204883 -0.02434824173802521 0 -0.00021142087836746254 -0.024456260390797617 0 -0.00018122825578204883 -0.02434824173802521 0 -0.00011381404700460846 -0.024447744372583301 0 -0.00011381404700460846 -0.024447744372583301 0 -5.8737798529587618e-05 -0.024450398631585168 0 -8.5387935785229471e-05 -0.024452952608023309 0 -5.259272327805215e-05 -0.024406207291837755 0 -0.00011381404700460846 -0.024447744372583301 0 -5.8737798529587618e-05 -0.024450398631585168 0 -5.8737798529587618e-05 -0.024450398631585168 0 -8.5387935785229471e-05 -0.024452952608023309 0 -7.9265993181485439e-05 -0.024447225378944337 0 -8.5387935785229471e-05 -0.024452952608023309 0 -9.1606661306642358e-05 -0.024435594285625382 0 -7.9265993181485439e-05 -0.024447225378944337 0 -0.00011381404700460846 -0.024447744372583301 0 -8.5387935785229471e-05 -0.024452952608023309 0 -8.0319922093299232e-05 -0.024456359559126388 0 -0.00021142087836746254 -0.024456260390797617 0 -0.00011381404700460846 -0.024447744372583301 0 -8.0319922093299232e-05 -0.024456359559126388 0 -8.0319922093299232e-05 -0.024456359559126388 0 -9.1606661306642358e-05 -0.024435594285625382 0 -9.1848655623688225e-05 -0.024400595829480516 0 -8.5387935785229471e-05 -0.024452952608023309 0 -8.0319922093299232e-05 -0.024456359559126388 0 -9.1606661306642358e-05 -0.024435594285625382 0 -9.1606661306642358e-05 -0.024435594285625382 0 -0.00011608198484036172 -0.024416635178321076 0 -7.9265993181485439e-05 -0.024447225378944337 0 -9.1606661306642358e-05 -0.024435594285625382 0 -9.1848655623688225e-05 -0.024400595829480516 0 -0.00011608198484036172 -0.024416635178321076 0 -8.4979718242855505e-05 -0.024297583772264507 0 -0.00011608198484036172 -0.024416635178321076 0 -7.0435244519355758e-05 -0.02431192060423315 0 -9.9352701554059129e-05 -0.024552950519335839 0 -0.00010981253385486102 -0.024558053160629558 0 -9.1848655623688225e-05 -0.024400595829480516 0 -8.4979718242855505e-05 -0.024297583772264507 0 -0.00011608198484036172 -0.024416635178321076 0 -8.4979718242855505e-05 -0.024297583772264507 0 -0.00036023192061480745 -0.024196334192285982 0 -0.00023192801582019726 -0.024329475949905002 0 -0.00022733455113233483 -0.024103332768638148 0 -9.5380186069147542e-05 -0.02428668654720198 0 -0.00036741740281128735 -0.023743509116889345 0 -8.4979718242855505e-05 -0.024297583772264507 0 -0.00036023192061480745 -0.024196334192285982 0 -8.0319922093299232e-05 -0.024456359559126388 0 -9.1848655623688225e-05 -0.024400595829480516 0 -8.4979718242855505e-05 -0.024297583772264507 0 -7.7297758357720088e-05 -0.024806517903218833 0 -7.0808270688771382e-05 -0.024823917324161518 0 -7.9183948916487396e-05 -0.024815235862932754 0 -7.7297758357720088e-05 -0.024806517903218833 0 -8.6648438436571473e-05 -0.024798138611873018 0 -7.9183948916487396e-05 -0.024815235862932754 0 -8.5452210525580009e-05 -0.024778965319871626 0 -4.9675648325319125e-05 -0.024740740910864228 0 -9.105433529344157e-05 -0.024777900031775522 0 -9.7270996383131352e-05 -0.02469930347970925 0 -0.00012988768184369099 -0.024785620190190018 0 -7.7297758357720088e-05 -0.024806517903218833 0 -9.105433529344157e-05 -0.024777900031775522 0 -6.0440324085883717e-05 -0.024825976067725828 0 -7.7297758357720088e-05 -0.024806517903218833 0 -9.105433529344157e-05 -0.024777900031775522 0 -8.6648438436571473e-05 -0.024798138611873018 0 -3.3017201969426209e-05 -0.024653225395245872 0 -9.7270996383131352e-05 -0.02469930347970925 0 -3.3555280386690509e-05 -0.024556637893061173 0 -9.105433529344157e-05 -0.024777900031775522 0 -3.3017201969426209e-05 -0.024653225395245872 0 -9.7270996383131352e-05 -0.02469930347970925 0 -7.7297758357720088e-05 -0.024806517903218833 0 -6.0440324085883717e-05 -0.024825976067725828 0 -7.0808270688771382e-05 -0.024823917324161518 0 -6.0440324085883717e-05 -0.024825976067725828 0 -5.9088312804618749e-05 -0.024841439975618416 0 -7.0808270688771382e-05 -0.024823917324161518 0 -6.0440324085883717e-05 -0.024825976067725828 0 -5.9088312804618749e-05 -0.024841439975618416 0 -4.8348529397868749e-05 -0.024857975227139978 0 -4.9675648325319125e-05 -0.024740740910864228 0 -2.3218542210838027e-05 -0.02468670335533818 0 -3.3017201969426209e-05 -0.024653225395245872 0 -3.3555280386690509e-05 -0.024556637893061173 0 9.0939896542269265e-06 -0.024513897692009758 0 -5.9088312804618749e-05 -0.024841439975618416 0 -4.8348529397868749e-05 -0.024857975227139978 0 -5.7227629862242976e-05 -0.024854234726108006 0 -9.9352701554059129e-05 -0.024552950519335839 0 -3.9589064592823884e-05 -0.024502007822567642 0 -0.00011608198484036172 -0.024416635178321076 0 -7.9265993181485439e-05 -0.024447225378944337 0 -4.481212346552695e-05 -0.024454865554388024 0 -5.8737798529587618e-05 -0.024450398631585168 0 -7.9265993181485439e-05 -0.024447225378944337 0 -4.481212346552695e-05 -0.024454865554388024 0 -5.259272327805215e-05 -0.024406207291837755 0 -5.8737798529587618e-05 -0.024450398631585168 0 -1.5649354287398649e-05 -0.024443786845706417 0 -5.8737798529587618e-05 -0.024450398631585168 0 -4.481212346552695e-05 -0.024454865554388024 0 -1.5649354287398649e-05 -0.024443786845706417 0 6.072999371771429e-06 -0.024453734356040875 0 -4.481212346552695e-05 -0.024454865554388024 0 -1.5649354287398649e-05 -0.024443786845706417 0 6.072999371771429e-06 -0.024453734356040875 0 -3.3555280386690509e-05 -0.024556637893061173 0 9.0939896542269265e-06 -0.024513897692009758 0 3.0182434756933846e-06 -0.024453503546885011 0 -3.9589064592823884e-05 -0.024502007822567642 0 -4.8348529397868749e-05 -0.024857975227139978 0 -5.6968716820982164e-05 -0.024866639038411166 0 -5.8595760853756799e-05 -0.024874980940030607 0 -5.6968716820982164e-05 -0.024866639038411166 0 -5.4038634946248648e-05 -0.024871824050514395 0 -5.7734310609149939e-05 -0.024859850760276983 0 -5.6968716820982164e-05 -0.024866639038411166 0 -5.4038634946248648e-05 -0.024871824050514395 0 -5.8595760853756799e-05 -0.024874980940030607 0 -4.8348529397868749e-05 -0.024857975227139978 0 -5.6968716820982164e-05 -0.024866639038411166 0 -5.7227629862242976e-05 -0.024854234726108006 0 -5.6968716820982164e-05 -0.024866639038411166 0 -5.7734310609149939e-05 -0.024859850760276983 0 -5.7227629862242976e-05 -0.024854234726108006 0 -5.4802287207849817e-05 -0.024865403736293982 0 -4.752733958176266e-05 -0.024880736206993468 0 -4.7871940315910507e-05 -0.024877075811873612 0 -5.5876231863159828e-05 -0.024863038182789062 0 -5.4802287207849817e-05 -0.024865403736293982 0 -4.7871940315910507e-05 -0.024877075811873612 0 -5.4038634946248648e-05 -0.024871824050514395 0 -5.5876231863159828e-05 -0.024863038182789062 0 -4.7871940315910507e-05 -0.024877075811873612 0 -5.4038634946248648e-05 -0.024871824050514395 0 -5.7734310609149939e-05 -0.024859850760276983 0 -5.5876231863159828e-05 -0.024863038182789062 0 -5.7734310609149939e-05 -0.024859850760276983 0 -5.5876231863159828e-05 -0.024863038182789062 0 -5.980458328912071e-05 -0.024853341650520281 0 -5.5876231863159828e-05 -0.024863038182789062 0 -6.0182526127701682e-05 -0.024853777859858543 0 -5.4802287207849817e-05 -0.024865403736293982 0 -5.5876231863159828e-05 -0.024863038182789062 0 -6.0182526127701682e-05 -0.024853777859858543 0 -5.980458328912071e-05 -0.024853341650520281 0 -6.0182526127701682e-05 -0.024853777859858543 0 -5.980458328912071e-05 -0.024853341650520281 0 -6.3829749538763103e-05 -0.024843467928252257 0 -5.980458328912071e-05 -0.024853341650520281 0 -6.3829749538763103e-05 -0.024843467928252257 0 -6.100688888201118e-05 -0.024846778829034216 0 -6.0182526127701682e-05 -0.024853777859858543 0 -6.3829749538763103e-05 -0.024843467928252257 0 -6.3529254017237807e-05 -0.024847747388021171 0 -5.9088312804618749e-05 -0.024841439975618416 0 -6.100688888201118e-05 -0.024846778829034216 0 -7.0808270688771382e-05 -0.024823917324161518 0 -5.9088312804618749e-05 -0.024841439975618416 0 -5.7227629862242976e-05 -0.024854234726108006 0 -6.100688888201118e-05 -0.024846778829034216 0 -5.7734310609149939e-05 -0.024859850760276983 0 -5.7227629862242976e-05 -0.024854234726108006 0 -6.100688888201118e-05 -0.024846778829034216 0 -5.7734310609149939e-05 -0.024859850760276983 0 -5.980458328912071e-05 -0.024853341650520281 0 -6.100688888201118e-05 -0.024846778829034216 0 -6.3829749538763103e-05 -0.024843467928252257 0 -6.100688888201118e-05 -0.024846778829034216 0 -7.0808270688771382e-05 -0.024823917324161518 0 -6.3829749538763103e-05 -0.024843467928252257 0 -7.0808270688771382e-05 -0.024823917324161518 0 -6.5101196312528949e-05 -0.024839781678829158 0 -6.3829749538763103e-05 -0.024843467928252257 0 -6.5101196312528949e-05 -0.024839781678829158 0 -6.3529254017237807e-05 -0.024847747388021171 0 -7.0808270688771382e-05 -0.024823917324161518 0 -6.5101196312528949e-05 -0.024839781678829158 0 -6.6496210565241765e-05 -0.024839159589715297 0 -7.024451349733176e-05 -0.024825038897748668 0 -6.5333609232964322e-05 -0.024832468584931645 0 -7.0808270688771382e-05 -0.024823917324161518 0 -6.4920354092122914e-05 -0.024824271233720028 0 -7.9183948916487396e-05 -0.024815235862932754 0 -2.1339769790854777e-09 -0.024999995075364524 0 3.9396894899065438e-06 -0.025000205649526475 0 8.5471033258072168e-10 -0.024999996903722215 0 -6.7668596132090635e-05 -0.024840921813148713 0 -6.6511620206343626e-05 -0.024840170327657628 0 -7.2415765558869435e-05 -0.024844630807286654 0 -6.6992064944368797e-05 -0.024840466222153287 0 -6.6945765511219806e-05 -0.024840319244465864 0 -6.6674278844617649e-05 -0.024841176946642399 0 -6.7668596132090635e-05 -0.024840921813148713 0 -6.6511620206343626e-05 -0.024840170327657628 0 -6.6992064944368797e-05 -0.024840466222153287 0 -6.7668596132090635e-05 -0.024840921813148713 0 -6.6992064944368797e-05 -0.024840466222153287 0 -6.6945765511219806e-05 -0.024840319244465864 0 -6.5101196312528949e-05 -0.024839781678829158 0 -6.6496210565241765e-05 -0.024839159589715297 0 -6.6623689875471489e-05 -0.024840415782570048 0 -6.6496210565241765e-05 -0.024839159589715297 0 -6.6945765511219806e-05 -0.024840319244465864 0 -6.6623689875471489e-05 -0.024840415782570048 0 -6.7668596132090635e-05 -0.024840921813148713 0 -6.6945765511219806e-05 -0.024840319244465864 0 -6.6623689875471489e-05 -0.024840415782570048 0 -6.7668596132090635e-05 -0.024840921813148713 0 -6.6623689875471489e-05 -0.024840415782570048 0 -6.843381860962712e-05 -0.024842683118367383 0 -6.6623689875471489e-05 -0.024840415782570048 0 -6.6700844728158335e-05 -0.024843806917453248 0 -6.843381860962712e-05 -0.024842683118367383 0 -6.5101196312528949e-05 -0.024839781678829158 0 -6.6623689875471489e-05 -0.024840415782570048 0 -6.6700844728158335e-05 -0.024843806917453248 0 -6.5101196312528949e-05 -0.024839781678829158 0 -6.6700844728158335e-05 -0.024843806917453248 0 -6.3529254017237807e-05 -0.024847747388021171 0 -6.6700844728158335e-05 -0.024843806917453248 0 -6.8779985608133655e-05 -0.024845002782039417 0 -6.843381860962712e-05 -0.024842683118367383 0 3.9396894899065438e-06 -0.025000205649526475 0 8.5471033258072168e-10 -0.024999996903722215 0 -2.4664980879216432e-07 -0.025000128465757113 0 -3.1870014991635589e-05 -0.024918611379092251 0 -3.6305813180290308e-05 -0.024923348622898658 0 -6.8779985608133655e-05 -0.024845002782039417 0 -6.843381860962712e-05 -0.024842683118367383 0 -7.2415765558869435e-05 -0.024844630807286654 0 -6.7668596132090635e-05 -0.024840921813148713 0 -6.843381860962712e-05 -0.024842683118367383 0 -7.2415765558869435e-05 -0.024844630807286654 0 -3.6305813180290308e-05 -0.024923348622898658 0 -3.837402334388332e-05 -0.024936220644876519 0 8.5471033258072168e-10 -0.024999996903722215 0 -2.4664980879216432e-07 -0.025000128465757113 0 -2.1078894360781049e-09 -0.025000026514634132 0 -7.2415765558869435e-05 -0.024844630807286654 0 -6.6468037804105103e-05 -0.024851572892432196 0 -7.5407537827608409e-05 -0.024869175640465702 0 -6.8779985608133655e-05 -0.024845002782039417 0 -7.2415765558869435e-05 -0.024844630807286654 0 -6.6468037804105103e-05 -0.024851572892432196 0 -6.6700844728158335e-05 -0.024843806917453248 0 -6.3529254017237807e-05 -0.024847747388021171 0 -6.6468037804105103e-05 -0.024851572892432196 0 -6.6700844728158335e-05 -0.024843806917453248 0 -6.8779985608133655e-05 -0.024845002782039417 0 -6.6468037804105103e-05 -0.024851572892432196 0 -6.6468037804105103e-05 -0.024851572892432196 0 -6.201337599258386e-05 -0.024855079589568965 0 -6.1190053227815007e-05 -0.024864377185097833 0 -6.0182526127701682e-05 -0.024853777859858543 0 -6.201337599258386e-05 -0.024855079589568965 0 -5.4802287207849817e-05 -0.024865403736293982 0 -6.3529254017237807e-05 -0.024847747388021171 0 -6.6468037804105103e-05 -0.024851572892432196 0 -6.201337599258386e-05 -0.024855079589568965 0 -6.0182526127701682e-05 -0.024853777859858543 0 -6.3529254017237807e-05 -0.024847747388021171 0 -6.201337599258386e-05 -0.024855079589568965 0 -6.6468037804105103e-05 -0.024851572892432196 0 -6.1190053227815007e-05 -0.024864377185097833 0 -7.5407537827608409e-05 -0.024869175640465702 0 -6.201337599258386e-05 -0.024855079589568965 0 -5.4802287207849817e-05 -0.024865403736293982 0 -6.1190053227815007e-05 -0.024864377185097833 0 -6.1190053227815007e-05 -0.024864377185097833 0 -4.8767359829897462e-05 -0.024890795042419027 0 -4.752733958176266e-05 -0.024880736206993468 0 -6.1190053227815007e-05 -0.024864377185097833 0 -7.5407537827608409e-05 -0.024869175640465702 0 -4.8767359829897462e-05 -0.024890795042419027 0 -5.4802287207849817e-05 -0.024865403736293982 0 -6.1190053227815007e-05 -0.024864377185097833 0 -4.752733958176266e-05 -0.024880736206993468 0 -2.4664980879216432e-07 -0.025000128465757113 0 -3.6590728024947973e-06 -0.025005401561062193 0 -2.1078894360781049e-09 -0.025000026514634132 0 -3.6590728024947973e-06 -0.025005401561062193 0 -2.1078894360781049e-09 -0.025000026514634132 0 -4.6387058772054582e-06 -0.024990808625929818 0 -2.1078894360781049e-09 -0.025000026514634132 0 -4.6387058772054582e-06 -0.024990808625929818 0 -1.9522575301796134e-08 -0.024999896466025576 0 -3.837402334388332e-05 -0.024936220644876519 0 -3.1020620215906551e-05 -0.024952259011609954 0 -7.5407537827608409e-05 -0.024869175640465702 0 -2.8921874093769838e-05 -0.024956052683818501 0 -4.8767359829897462e-05 -0.024890795042419027 0 -3.6590728024947973e-06 -0.025005401561062193 0 -4.6387058772054582e-06 -0.024990808625929818 0 -2.8921874093769838e-05 -0.024956052683818501 0 -2.8921874093769838e-05 -0.024956052683818501 0 -1.9522575301796134e-08 -0.024999896466025576 0 -2.6951155629769356e-05 -0.024943677758359088 0 -4.6387058772054582e-06 -0.024990808625929818 0 -2.8921874093769838e-05 -0.024956052683818501 0 -1.9522575301796134e-08 -0.024999896466025576 0 -2.8921874093769838e-05 -0.024956052683818501 0 -3.1485862809180318e-05 -0.024906942921155997 0 -2.6951155629769356e-05 -0.024943677758359088 0 -2.8921874093769838e-05 -0.024956052683818501 0 -3.1485862809180318e-05 -0.024906942921155997 0 -3.6781956277043614e-05 -0.024903229717105766 0 -3.1485862809180318e-05 -0.024906942921155997 0 -3.6781956277043614e-05 -0.024903229717105766 0 -3.6526314557188676e-05 -0.024886719112331094 0 -2.8921874093769838e-05 -0.024956052683818501 0 -3.6781956277043614e-05 -0.024903229717105766 0 -4.8767359829897462e-05 -0.024890795042419027 0 -3.6781956277043614e-05 -0.024903229717105766 0 -4.752733958176266e-05 -0.024880736206993468 0 -3.6526314557188676e-05 -0.024886719112331094 0 -3.6781956277043614e-05 -0.024903229717105766 0 -4.8767359829897462e-05 -0.024890795042419027 0 -4.752733958176266e-05 -0.024880736206993468 0 -4.752733958176266e-05 -0.024880736206993468 0 -4.7871940315910507e-05 -0.024877075811873612 0 -3.6526314557188676e-05 -0.024886719112331094 0 -5.4038634946248648e-05 -0.024871824050514395 0 -4.7871940315910507e-05 -0.024877075811873612 0 -4.943099683107071e-05 -0.024878715335707222 0 -3.6526314557188676e-05 -0.024886719112331094 0 -4.943099683107071e-05 -0.024878715335707222 0 -4.4383576351396498e-05 -0.024863844362904217 0 -4.7871940315910507e-05 -0.024877075811873612 0 -3.6526314557188676e-05 -0.024886719112331094 0 -4.943099683107071e-05 -0.024878715335707222 0 -4.8348529397868749e-05 -0.024857975227139978 0 -5.8595760853756799e-05 -0.024874980940030607 0 -6.5567490126759468e-05 -0.024881647329412431 0 -5.8595760853756799e-05 -0.024874980940030607 0 -4.943099683107071e-05 -0.024878715335707222 0 -6.5567490126759468e-05 -0.024881647329412431 0 -5.4038634946248648e-05 -0.024871824050514395 0 -5.8595760853756799e-05 -0.024874980940030607 0 -4.943099683107071e-05 -0.024878715335707222 0 -4.943099683107071e-05 -0.024878715335707222 0 -6.5567490126759468e-05 -0.024881647329412431 0 -4.4383576351396498e-05 -0.024863844362904217 0 -6.5567490126759468e-05 -0.024881647329412431 0 -4.4383576351396498e-05 -0.024863844362904217 0 -5.6021974128724589e-05 -0.024782177319187922 0 8.1103681941968104e-05 -0.024518201727979586 0 -1.0700349995125696e-06 -0.024432656775940215 0 -5.6021974128724589e-05 -0.024782177319187922 0 -2.9788128141052839e-05 -0.024663251674990921 0 -5.5609052467385243e-05 -0.024765098636179265 0 -4.4383576351396498e-05 -0.024863844362904217 0 -3.4141779910138611e-05 -0.02487067763106297 0 -5.6021974128724589e-05 -0.024782177319187922 0 -3.1485862809180318e-05 -0.024906942921155997 0 -3.6526314557188676e-05 -0.024886719112331094 0 -3.4141779910138611e-05 -0.02487067763106297 0 -3.6526314557188676e-05 -0.024886719112331094 0 -4.4383576351396498e-05 -0.024863844362904217 0 -3.4141779910138611e-05 -0.02487067763106297 0 -3.1485862809180318e-05 -0.024906942921155997 0 -3.4141779910138611e-05 -0.02487067763106297 0 -3.3620387003478905e-05 -0.024888542288595793 0 -4.2745905802706318e-05 -0.02487207364789186 0 -3.3620387003478905e-05 -0.024888542288595793 0 -3.1889540333042346e-05 -0.024931474147139962 0 -4.2745905802706318e-05 -0.02487207364789186 0 -3.3620387003478905e-05 -0.024888542288595793 0 -5.6021974128724589e-05 -0.024782177319187922 0 -3.4141779910138611e-05 -0.02487067763106297 0 -3.3620387003478905e-05 -0.024888542288595793 0 -5.6021974128724589e-05 -0.024782177319187922 0 -4.2745905802706318e-05 -0.02487207364789186 0 -5.6021974128724589e-05 -0.024782177319187922 0 1.1077277018702579e-05 -0.024844544623208033 0 3.2764567364594501e-05 -0.024732704287219371 0 -5.6021974128724589e-05 -0.024782177319187922 0 1.1077277018702579e-05 -0.024844544623208033 0 -2.147228626363504e-05 -0.024916560020213134 0 1.2004172646441005e-05 -0.024857551720887414 0 -1.3547246999619699e-05 -0.024917551489455819 0 1.4922903744164713e-05 -0.024924110773900887 0 1.1077277018702579e-05 -0.024844544623208033 0 -3.2701469172922237e-05 -0.024921103928464673 0 -4.2745905802706318e-05 -0.02487207364789186 0 -3.1889540333042346e-05 -0.024931474147139962 0 -3.2701469172922237e-05 -0.024921103928464673 0 -4.2745905802706318e-05 -0.02487207364789186 0 1.1077277018702579e-05 -0.024844544623208033 0 -2.1679613747018137e-05 -0.024965690978253366 0 -3.2701469172922237e-05 -0.024921103928464673 0 -3.1889540333042346e-05 -0.024931474147139962 0 -3.1889540333042346e-05 -0.024931474147139962 0 -3.4861548724765945e-08 -0.024999916697707989 0 -2.6951155629769356e-05 -0.024943677758359088 0 -2.1679613747018137e-05 -0.024965690978253366 0 -3.1889540333042346e-05 -0.024931474147139962 0 -3.4861548724765945e-08 -0.024999916697707989 0 -1.9522575301796134e-08 -0.024999896466025576 0 -3.4861548724765945e-08 -0.024999916697707989 0 -2.6951155629769356e-05 -0.024943677758359088 0 -3.3620387003478905e-05 -0.024888542288595793 0 -3.1889540333042346e-05 -0.024931474147139962 0 -2.6951155629769356e-05 -0.024943677758359088 0 -3.1485862809180318e-05 -0.024906942921155997 0 -3.3620387003478905e-05 -0.024888542288595793 0 -2.6951155629769356e-05 -0.024943677758359088 0 -0.00036321748293769969 -0.013329820576373214 0 -0.00043426970656680239 -0.013332961521848197 0 -0.00034364359553519649 -0.013570963393113984 0 -0.00036321748293769969 -0.013329820576373214 0 -0.00043426970656680239 -0.013332961521848197 0 -0.00053702362043810082 -0.013353004008628209 0 -0.00040966801709993125 -0.013172712865660513 0 -0.00053702362043810082 -0.013353004008628209 0 -0.00017671592715137448 -0.01294683627990317 0 0.00026680537396511447 -0.0050293096323407579 0 0.00094410658230491479 -0.0043161270599100868 0 0.0010888751084822922 -0.0049994992938070604 0 -0.00013309744365669251 -0.0089695435012403894 0 0.00037524091943428169 -0.0086600154630729793 0 -0.00043426970656680239 -0.013332961521848197 0 -0.00040966801709993125 -0.013172712865660513 0 -0.00053702362043810082 -0.013353004008628209 0 0.00026680537396511447 -0.0050293096323407579 0 0.0010888751084822922 -0.0049994992938070604 0 0.00096959910534021542 -0.005802021072275153 0 -0.00013309744365669251 -0.0089695435012403894 0 0.0001196838050618479 -0.010751574512528551 0 -0.00036321748293769969 -0.013329820576373214 0 -0.00053702362043810082 -0.013353004008628209 0 -0.0003130844673106022 -0.01299792048466583 0 -0.00040326096507627786 -0.014003863895444595 0 0.0001196838050618479 -0.010751574512528551 0 -0.000257473135544329 -0.013529033961313611 0 -0.00023536164181963735 -0.013512239466789783 0 -0.00026668930939150262 -0.01348821646695212 0 -0.0002940601629660821 -0.01354103013354596 0 -0.000257473135544329 -0.013529033961313611 0 -0.00026668930939150262 -0.01348821646695212 0 0.00033425842875133428 -0.015487846211241213 0 0.00016455646281412326 -0.014764220393782038 0 -0.000257473135544329 -0.013529033961313611 0 -0.00023536164181963735 -0.013512239466789783 0 -0.00020842818739152111 -0.013550962521879506 0 0.00080974310658509451 -0.017124011553907827 0 0.00055763440313197929 -0.016053237027907011 0 1.8562713523028662e-05 -0.01676767811129061 0 -0.000257473135544329 -0.013529033961313611 0 -0.00020842818739152111 -0.013550962521879506 0 -0.00026994817962187472 -0.013561891713790913 0 -0.0002940601629660821 -0.01354103013354596 0 -0.000257473135544329 -0.013529033961313611 0 -0.00026994817962187472 -0.013561891713790913 0 -0.00026994817962187472 -0.013561891713790913 0 -0.00026577984446975167 -0.013629195365242756 0 -0.00034364359553519649 -0.013570963393113984 0 -0.0002940601629660821 -0.01354103013354596 0 -0.00026994817962187472 -0.013561891713790913 0 -0.00034364359553519649 -0.013570963393113984 0 -0.00020842818739152111 -0.013550962521879506 0 -0.00026994817962187472 -0.013561891713790913 0 -0.00026577984446975167 -0.013629195365242756 0 0.00016455646281412326 -0.014764220393782038 0 4.3015272181002116e-05 -0.014293401208340334 0 -0.00020842818739152111 -0.013550962521879506 0 -0.00026577984446975167 -0.013629195365242756 0 -0.00015137652978506293 -0.013653645912538219 0 -0.00026577984446975167 -0.013629195365242756 0 -0.0002025615856689037 -0.013775056157770587 0 -0.0002806081741093263 -0.013785165726191666 0 -0.00026577984446975167 -0.013629195365242756 0 -0.0002025615856689037 -0.013775056157770587 0 -0.00015137652978506293 -0.013653645912538219 0 -0.00026577984446975167 -0.013629195365242756 0 -0.00038107756030834715 -0.013733711891323344 0 -0.00034364359553519649 -0.013570963393113984 0 -0.00026577984446975167 -0.013629195365242756 0 -0.00038107756030834715 -0.013733711891323344 0 -0.0002806081741093263 -0.013785165726191666 0 -0.00041654763593597025 -0.013690960213827244 0 -0.00034364359553519649 -0.013570963393113984 0 -0.00047006920154443212 -0.013568222784133064 0 -0.00038107756030834715 -0.013733711891323344 0 -0.00041654763593597025 -0.013690960213827244 0 -0.00034364359553519649 -0.013570963393113984 0 -0.00038107756030834715 -0.013733711891323344 0 -0.00041654763593597025 -0.013690960213827244 0 -0.00039514216337487555 -0.013882672932076441 0 -0.00040326096507627786 -0.014003863895444595 0 -0.00031520315401699166 -0.013334026776047154 0 -0.00034364359553519649 -0.013570963393113984 0 -0.00042900194753367227 -0.013428245713730398 0 -0.00047006920154443212 -0.013568222784133064 0 -0.00043426970656680239 -0.013332961521848197 0 -0.00034364359553519649 -0.013570963393113984 0 -0.00042900194753367227 -0.013428245713730398 0 -0.00040966801709993125 -0.013172712865660513 0 -0.00042900194753367227 -0.013428245713730398 0 -0.00054670300093834754 -0.013555123237703864 0 -0.00040966801709993125 -0.013172712865660513 0 -0.00054670300093834754 -0.013555123237703864 0 -0.00075215503192102313 -0.013595527272184611 0 -0.00043426970656680239 -0.013332961521848197 0 -0.00040966801709993125 -0.013172712865660513 0 -0.00042900194753367227 -0.013428245713730398 0 -0.00042900194753367227 -0.013428245713730398 0 -0.00054670300093834754 -0.013555123237703864 0 -0.00047006920154443212 -0.013568222784133064 0 -0.00054670300093834754 -0.013555123237703864 0 -0.00059869279773420579 -0.013694655732906725 0 -0.00053253870969120602 -0.013668660528978416 0 -0.00054670300093834754 -0.013555123237703864 0 -0.00059869279773420579 -0.013694655732906725 0 -0.00066474434606577173 -0.013668866612723769 0 -0.00054670300093834754 -0.013555123237703864 0 -0.00047006920154443212 -0.013568222784133064 0 -0.00053253870969120602 -0.013668660528978416 0 -0.00041654763593597025 -0.013690960213827244 0 -0.00047006920154443212 -0.013568222784133064 0 -0.00053253870969120602 -0.013668660528978416 0 -0.00041654763593597025 -0.013690960213827244 0 -0.00051783483756967735 -0.013761466304409633 0 -0.00039514216337487555 -0.013882672932076441 0 -0.00041654763593597025 -0.013690960213827244 0 -0.00053253870969120602 -0.013668660528978416 0 -0.00051783483756967735 -0.013761466304409633 0 -0.00059869279773420579 -0.013694655732906725 0 -0.00053253870969120602 -0.013668660528978416 0 -0.00056339555690025276 -0.013728358583393154 0 -0.00053253870969120602 -0.013668660528978416 0 -0.00056339555690025276 -0.013728358583393154 0 -0.00051783483756967735 -0.013761466304409633 0 -0.00059869279773420579 -0.013694655732906725 0 -0.00056339555690025276 -0.013728358583393154 0 -0.00060331414988320706 -0.013741488221840657 0 -0.00059869279773420579 -0.013694655732906725 0 -0.00060331414988320706 -0.013741488221840657 0 -0.0006462487754458154 -0.013732682816455484 0 -0.00066474434606577173 -0.013668866612723769 0 -0.00072081094260962437 -0.013706819652853051 0 -0.0006462487754458154 -0.013732682816455484 0 -0.00059869279773420579 -0.013694655732906725 0 -0.00066474434606577173 -0.013668866612723769 0 -0.0006462487754458154 -0.013732682816455484 0 -0.00054670300093834754 -0.013555123237703864 0 -0.00066474434606577173 -0.013668866612723769 0 -0.00075215503192102313 -0.013595527272184611 0 -0.00066474434606577173 -0.013668866612723769 0 -0.00075215503192102313 -0.013595527272184611 0 -0.00072081094260962437 -0.013706819652853051 0 -0.00046796776975107767 -0.013361674184362056 0 0.0002563926025081479 -0.010720402362037876 0 0.0015914613292615975 -0.0036705429220813481 0 0.0022011692974038188 -0.0037855340048190116 0 0.0021833468693206021 -0.003057528327721229 0 6.763015068623339e-05 -0.01238606533269471 0 0.00040924675702093849 -0.012190072935973897 0 0.00079558710301035236 -0.011311156001060434 0 -0.00075215503192102313 -0.013595527272184611 0 -0.00072081094260962437 -0.013706819652853051 0 -0.00083255431931327916 -0.013753931811140201 0 0.0015914613292615975 -0.0036705429220813481 0 0.0022011692974038188 -0.0037855340048190116 0 0.0018155186599806102 -0.0044498856318112134 0 -0.0003354746511734763 -0.013006928830430853 0 -0.00046796776975107767 -0.013361674184362056 0 0.0015914613292615975 -0.0036705429220813481 0 0.00094410658230491479 -0.0043161270599100868 0 0.0018155186599806102 -0.0044498856318112134 0 -0.00040966801709993125 -0.013172712865660513 0 6.763015068623339e-05 -0.01238606533269471 0 -0.00017671592715137448 -0.01294683627990317 0 0.00098469018077573822 -0.0079719594286508152 0 0.00037524091943428169 -0.0086600154630729793 0 6.763015068623339e-05 -0.01238606533269471 0 0.00040924675702093849 -0.012190072935973897 0 -0.00017671592715137448 -0.01294683627990317 0 0.0028142735159635314 -0.0036746178192659388 0 0.0022011692974038188 -0.0037855340048190116 0 0.0021833468693206021 -0.003057528327721229 0 0.0022011692974038188 -0.0037855340048190116 0 0.0024572598870513723 -0.0042901069674390084 0 0.0018155186599806102 -0.0044498856318112134 0 0.0028142735159635314 -0.0036746178192659388 0 0.0022011692974038188 -0.0037855340048190116 0 0.0024572598870513723 -0.0042901069674390084 0 0.0033578949883395952 -0.0043470872086203895 0 0.0028142735159635314 -0.0036746178192659388 0 0.0024572598870513723 -0.0042901069674390084 0 0.0033578949883395952 -0.0043470872086203895 0 0.0031617508709783195 -0.0049810719081462848 0 0.0025304021937238835 -0.004894370745029613 0 0.0033578949883395952 -0.0043470872086203895 0 0.0024572598870513723 -0.0042901069674390084 0 0.0025304021937238835 -0.004894370745029613 0 0.0024572598870513723 -0.0042901069674390084 0 0.0025304021937238835 -0.004894370745029613 0 0.0018155186599806102 -0.0044498856318112134 0 0.0025304021937238835 -0.004894370745029613 0 0.0018155186599806102 -0.0044498856318112134 0 0.0018394782745727476 -0.0052617090108018913 0 0.0025304021937238835 -0.004894370745029613 0 0.0018394782745727476 -0.0052617090108018913 0 0.0025582608936814046 -0.0056267571860026261 0 0.0031617508709783195 -0.0049810719081462848 0 0.0025304021937238835 -0.004894370745029613 0 0.0025582608936814046 -0.0056267571860026261 0 0.00094410658230491479 -0.0043161270599100868 0 0.0018155186599806102 -0.0044498856318112134 0 0.0010888751084822922 -0.0049994992938070604 0 0.0018155186599806102 -0.0044498856318112134 0 0.0018394782745727476 -0.0052617090108018913 0 0.0010888751084822922 -0.0049994992938070604 0 0.0018394782745727476 -0.0052617090108018913 0 0.0010888751084822922 -0.0049994992938070604 0 0.00096959910534021542 -0.005802021072275153 0 0.0018394782745727476 -0.0052617090108018913 0 0.00096959910534021542 -0.005802021072275153 0 0.0018522498687881387 -0.0059952294472320313 0 0.00096959910534021542 -0.005802021072275153 0 0.0018522498687881387 -0.0059952294472320313 0 0.0015744062557191336 -0.006707450146092548 0 0.0018522498687881387 -0.0059952294472320313 0 0.0015744062557191336 -0.006707450146092548 0 0.0027220033484258374 -0.0067528020872376282 0 0.0017577011789893042 -0.0068969609017980812 0 0.00062662156007807339 -0.0066330511324352156 0 0.00096959910534021542 -0.005802021072275153 0 0.0015744062557191336 -0.006707450146092548 0 0.0005420793704557596 -0.0067132120353043381 0 0.0031617508709783195 -0.0049810719081462848 0 0.0033323683904561176 -0.0060026403324030739 0 0.0025582608936814046 -0.0056267571860026261 0 0.0018394782745727476 -0.0052617090108018913 0 0.0018522498687881387 -0.0059952294472320313 0 0.0025582608936814046 -0.0056267571860026261 0 0.0018522498687881387 -0.0059952294472320313 0 0.0025582608936814046 -0.0056267571860026261 0 0.0027220033484258374 -0.0067528020872376282 0 0.0033323683904561176 -0.0060026403324030739 0 0.0032221197225490001 -0.0070100700294111161 0 0.0027220033484258374 -0.0067528020872376282 0 0.0033323683904561176 -0.0060026403324030739 0 0.0025582608936814046 -0.0056267571860026261 0 0.0027220033484258374 -0.0067528020872376282 0 0.0032221197225490001 -0.0070100700294111161 0 0.0027220033484258374 -0.0067528020872376282 0 0.0028717587742715833 -0.0074608215191723582 0 0.0017577011789893042 -0.0068969609017980812 0 0.0026790159333862223 -0.006766924773653496 0 0.0018675069160097894 -0.0070255750836737581 0 0.0027220033484258374 -0.0067528020872376282 0 0.0022734461119668361 -0.0074103487111338061 0 0.0027220033484258374 -0.0067528020872376282 0 0.0022734461119668361 -0.0074103487111338061 0 0.0028717587742715833 -0.0074608215191723582 0 0.0025257494651983554 -0.0086770242573529794 0 0.0022700108613006751 -0.0081091567536442262 0 0.0028717587742715833 -0.0074608215191723582 0 0.0022734461119668361 -0.0074103487111338061 0 0.0022700108613006751 -0.0081091567536442262 0 0.0028717587742715833 -0.0074608215191723582 0 0.0031562562207354413 -0.0074576681477465786 0 0.0030219056931273004 -0.0073680797452349046 0 0.0028717587742715833 -0.0074608215191723582 0 0.0031562562207354413 -0.0074576681477465786 0 0.0032221197225490001 -0.0070100700294111161 0 0.0028717587742715833 -0.0074608215191723582 0 0.0018675069160097894 -0.0070255750836737581 0 0.0016838842823387336 -0.0077958047427214693 0 0.00084443644289795112 -0.0071272833054084727 0 0.0016838842823387336 -0.0077958047427214693 0 0.000964866213136199 -0.0082913274472613038 0 0.00084443644289795112 -0.0071272833054084727 0 0.0018675069160097894 -0.0070255750836737581 0 0.0022734461119668361 -0.0074103487111338061 0 0.0016838842823387336 -0.0077958047427214693 0 0.002012249434415225 -0.0087832266094619756 0 0.0022700108613006751 -0.0081091567536442262 0 0.0016838842823387336 -0.0077958047427214693 0 0.0022734461119668361 -0.0074103487111338061 0 0.0022700108613006751 -0.0081091567536442262 0 0.0016838842823387336 -0.0077958047427214693 0 0.002012249434415225 -0.0087832266094619756 0 0.0016838842823387336 -0.0077958047427214693 0 0.000964866213136199 -0.0082913274472613038 0 -3.4429349807035279e-05 -0.0091908560174455943 0 0.00023564988159335959 -0.0083465503587121948 0 -0.0003730579553179383 -0.0079939880284137961 0 0.000964866213136199 -0.0082913274472613038 0 0.00023564988159335959 -0.0083465503587121948 0 0.00028284731678830644 -0.0076987990914524282 0 0.00023564988159335959 -0.0083465503587121948 0 0.00028284731678830644 -0.0076987990914524282 0 -0.0003730579553179383 -0.0079939880284137961 0 0.00028284731678830644 -0.0076987990914524282 0 0.00084443644289795112 -0.0071272833054084727 0 -0.00028571568183238794 -0.0071757494021114617 0 0.000964866213136199 -0.0082913274472613038 0 0.00028284731678830644 -0.0076987990914524282 0 0.00084443644289795112 -0.0071272833054084727 0 0.00096959910534021542 -0.005802021072275153 0 0.0005420793704557596 -0.0067132120353043381 0 0.00017588273790148022 -0.0060097971035103859 0 0.00062662156007807339 -0.0066330511324352156 0 -0.00012767957479105344 -0.0091623649584215514 0 0.0005420793704557596 -0.0067132120353043381 0 0.00017588273790148022 -0.0060097971035103859 0 -0.00049723833372651528 -0.0067304148841548098 0 0.00017588273790148022 -0.0060097971035103859 0 -0.00039709464736064411 -0.0057790596172781119 0 -0.00049723833372651528 -0.0067304148841548098 0 0.00026680537396511447 -0.0050293096323407579 0 0.00017588273790148022 -0.0060097971035103859 0 -0.00039709464736064411 -0.0057790596172781119 0 0.00026680537396511447 -0.0050293096323407579 0 0.00096959910534021542 -0.005802021072275153 0 0.00017588273790148022 -0.0060097971035103859 0 0.00080974310658509451 -0.017124011553907827 0 0.0010874019173669437 -0.018175744890214656 0 0.00031892924870184413 -0.018071006779939121 0 0.00033425842875133428 -0.015487846211241213 0 0.00023763539876940596 -0.014988765021392271 0 -0.00023536164181963735 -0.013512239466789783 0 -0.00026668930939150262 -0.01348821646695212 0 -0.00024370108713207936 -0.013485863670418473 0 0.0001196838050618479 -0.010751574512528551 0 0.00023763539876940596 -0.014988765021392271 0 0.00056883383109088061 -0.01155084046910201 0 0.00012075081117783188 -0.012062124169826351 0 0.00047634633731220399 -0.012407593064385372 0 0.0001196838050618479 -0.010751574512528551 0 -0.00012767957479105344 -0.0091623649584215514 0 0.00012075081117783188 -0.012062124169826351 0 0.00047634633731220399 -0.012407593064385372 0 0.0002225350816998518 -0.012409283498531102 0 0.00023763539876940596 -0.014988765021392271 0 0.00031425737176257648 -0.014803726292153508 0 -0.00012767957479105344 -0.0091623649584215514 0 0.00031425737176257648 -0.014803726292153508 0 0.00031425737176257648 -0.014803726292153508 0 8.2047281512492942e-06 -0.017889185856225957 0 0.00023763539876940596 -0.014988765021392271 0 8.2047281512492942e-06 -0.017889185856225957 0 0.00036500146859336306 -0.015587445572103748 0 0.00052959004579370707 -0.016155076818621251 0 -0.00013188796329851102 -0.016146346135378215 0 0.0010874019173669437 -0.018175744890214656 0 0.00031892924870184413 -0.018071006779939121 0 0.00063503179762219972 -0.018685582186973627 0 8.2047281512492942e-06 -0.017889185856225957 0 0.00022834664514126049 -0.018470610249533132 0 0.00031892924870184413 -0.018071006779939121 0 0.00063503179762219972 -0.018685582186973627 0 -8.3324848620960304e-06 -0.018676104210969834 0 8.2047281512492942e-06 -0.017889185856225957 0 -0.00024290067869124681 -0.019497907205374115 0 6.971330844719628e-05 -0.019146888727625107 0 -8.0867138550365622e-05 -0.019167353646200414 0 9.3766970131654988e-06 -0.019270423048447369 0 -8.0867138550365622e-05 -0.019167353646200414 0 9.3766970131654988e-06 -0.019270423048447369 0 -6.7693544919425613e-05 -0.019358222958074857 0 -8.0867138550365622e-05 -0.019167353646200414 0 -6.7693544919425613e-05 -0.019358222958074857 0 -0.00018665185439901687 -0.019317825619538275 0 -6.7693544919425613e-05 -0.019358222958074857 0 -0.00015621043004952542 -0.019478738052987596 0 -0.00018665185439901687 -0.019317825619538275 0 7.2956575570613032e-05 -0.012314728338262002 0 -0.00077966053132571135 -0.012299597780649664 0 -0.00016334137615312593 -0.01444876090097256 0 0.00028284731678830644 -0.0076987990914524282 0 -0.00028571568183238794 -0.0071757494021114617 0 -0.0003730579553179383 -0.0079939880284137961 0 6.971330844719628e-05 -0.019146888727625107 0 9.3766970131654988e-06 -0.019270423048447369 0 0.0001213517949085462 -0.019412600974277678 0 9.3766970131654988e-06 -0.019270423048447369 0 -6.7693544919425613e-05 -0.019358222958074857 0 0.0001213517949085462 -0.019412600974277678 0 0.00031425737176257648 -0.014803726292153508 0 -8.7191378365062262e-05 -0.014893181123953408 0 -0.00012767957479105344 -0.0091623649584215514 0 -8.7191378365062262e-05 -0.014893181123953408 0 0.00014878769140364695 -0.013976520044360769 0 -8.7191378365062262e-05 -0.014893181123953408 0 8.6960798845842697e-06 -0.021125271703493931 0 -8.7191378365062262e-05 -0.014893181123953408 0 4.1944245064987716e-05 -0.019643916549153918 0 0.0001213517949085462 -0.019412600974277678 0 -7.4971454616497521e-05 -0.019587678006538149 0 -6.7693544919425613e-05 -0.019358222958074857 0 0.0001213517949085462 -0.019412600974277678 0 -7.4971454616497521e-05 -0.019587678006538149 0 -6.7693544919425613e-05 -0.019358222958074857 0 -0.00015621043004952542 -0.019478738052987596 0 -7.4971454616497521e-05 -0.019587678006538149 0 -0.00015621043004952542 -0.019478738052987596 0 -7.4971454616497521e-05 -0.019587678006538149 0 -0.00033868584746411302 -0.019690413513721028 0 -0.00024212184175469162 -0.01980201756079044 0 -7.4971454616497521e-05 -0.019587678006538149 0 -0.00033868584746411302 -0.019690413513721028 0 -0.00033868584746411302 -0.019690413513721028 0 -0.00018665185439901687 -0.019317825619538275 0 -0.00071834656005607565 -0.019759534649154215 0 -0.00015621043004952542 -0.019478738052987596 0 -0.00033868584746411302 -0.019690413513721028 0 -0.00018665185439901687 -0.019317825619538275 0 -0.00018665185439901687 -0.019317825619538275 0 -0.00071242092544607693 -0.018958727616329281 0 -8.3324848620960304e-06 -0.018676104210969834 0 0.00051517320659400271 -0.018685547395698422 0 -0.00018665185439901687 -0.019317825619538275 0 -8.3324848620960304e-06 -0.018676104210969834 0 -0.00071242092544607693 -0.018958727616329281 0 -0.00071834656005607565 -0.019759534649154215 0 -0.001099046548118973 -0.019483655367422519 0 -0.00018665185439901687 -0.019317825619538275 0 -0.00071242092544607693 -0.018958727616329281 0 -0.00071834656005607565 -0.019759534649154215 0 -0.00071834656005607565 -0.019759534649154215 0 -0.001099046548118973 -0.019483655367422519 0 -0.0012349275364933055 -0.020111355697916725 0 -0.0012740864751244665 -0.020060748016508135 0 -0.0015046529921915726 -0.019480452166339476 0 -0.001099046548118973 -0.019483655367422519 0 -0.0012349275364933055 -0.020111355697916725 0 -0.0017960570108655404 -0.01901819334844462 0 -0.0012349275364933055 -0.020111355697916725 0 -0.0012370742308586856 -0.019945980626686406 0 -0.0014969956533453517 -0.020176154088161525 0 -0.0012370742308586856 -0.019945980626686406 0 -0.0014969956533453517 -0.020176154088161525 0 -0.0015017268361145841 -0.01984181523098626 0 -0.00071242092544607693 -0.018958727616329281 0 -0.001099046548118973 -0.019483655367422519 0 -0.0017960570108655404 -0.01901819334844462 0 -0.0017960570108655404 -0.01901819334844462 0 -0.0021879886415180762 -0.017816411798679328 0 -0.0010230912279654261 -0.018155611449998502 0 -0.00071242092544607693 -0.018958727616329281 0 -0.0017960570108655404 -0.01901819334844462 0 -0.0010230912279654261 -0.018155611449998502 0 -0.0015046529921915726 -0.019480452166339476 0 -0.0017175289687447407 -0.018612132783867804 0 -0.0012370742308586856 -0.019945980626686406 0 -0.001250205100236876 -0.019517584534408737 0 -0.0015017268361145841 -0.01984181523098626 0 -0.0021879886415180762 -0.017816411798679328 0 -0.001323562933404844 -0.017461602402111566 0 -0.0017323123777174703 -0.016826555811303316 0 -0.0021879886415180762 -0.017816411798679328 0 -0.001323562933404844 -0.017461602402111566 0 -0.0010230912279654261 -0.018155611449998502 0 -0.001323562933404844 -0.017461602402111566 0 -0.00026093735621154468 -0.017579503108690834 0 -0.0010230912279654261 -0.018155611449998502 0 -0.00026093735621154468 -0.017579503108690834 0 -0.00039396992734479891 -0.018267370430423906 0 -0.0010230912279654261 -0.018155611449998502 0 -0.001323562933404844 -0.017461602402111566 0 -0.00026093735621154468 -0.017579503108690834 0 -0.00071430981280169834 -0.01687098820568015 0 0.00080974310658509451 -0.017124011553907827 0 0.00031892924870184413 -0.018071006779939121 0 -0.00026093735621154468 -0.017579503108690834 0 0.00031892924870184413 -0.018071006779939121 0 -0.00026093735621154468 -0.017579503108690834 0 -0.00039396992734479891 -0.018267370430423906 0 -0.00071242092544607693 -0.018958727616329281 0 -0.00039396992734479891 -0.018267370430423906 0 -8.3324848620960304e-06 -0.018676104210969834 0 0.00031892924870184413 -0.018071006779939121 0 -0.00039396992734479891 -0.018267370430423906 0 -8.3324848620960304e-06 -0.018676104210969834 0 -0.00071242092544607693 -0.018958727616329281 0 -0.00039396992734479891 -0.018267370430423906 0 -0.0010230912279654261 -0.018155611449998502 0 -0.0022964343297958122 -0.020214452977056343 0 -0.0020642349246258532 -0.019917184465827926 0 -0.0023299914317832303 -0.019858604453816764 0 -0.0024997258684798206 -0.020043279572908145 0 -0.0022964343297958122 -0.020214452977056343 0 -0.0023299914317832303 -0.019858604453816764 0 -0.0025897883725256791 -0.019827420915189835 0 -0.0024997258684798206 -0.020043279572908145 0 -0.0023299914317832303 -0.019858604453816764 0 -0.0022580546373780893 -0.020708024783329719 0 -0.0026182824010767092 -0.020499623623999333 0 -0.0022964343297958122 -0.020214452977056343 0 -0.0026182824010767092 -0.020499623623999333 0 -0.0024997258684798206 -0.020043279572908145 0 -0.0022964343297958122 -0.020214452977056343 0 -0.0020357766430460196 -0.020538721303421048 0 -0.0022580546373780893 -0.020708024783329719 0 -0.0022964343297958122 -0.020214452977056343 0 -0.0020357766430460196 -0.020538721303421048 0 -0.0022964343297958122 -0.020214452977056343 0 -0.002001282338096903 -0.020198945326591111 0 -0.0020357766430460196 -0.020538721303421048 0 -0.002001282338096903 -0.020198945326591111 0 -0.0017955664889683506 -0.020314859998522242 0 -0.002001282338096903 -0.020198945326591111 0 -0.0020642349246258532 -0.019917184465827926 0 -0.0018023464025080154 -0.019999741772176116 0 -0.0022964343297958122 -0.020214452977056343 0 -0.002001282338096903 -0.020198945326591111 0 -0.0020642349246258532 -0.019917184465827926 0 -0.0018023464025080154 -0.019999741772176116 0 -0.0017955664889683506 -0.020314859998522242 0 -0.0014969956533453517 -0.020176154088161525 0 -0.0016917304822923276 -0.020624746040108805 0 -0.0017955664889683506 -0.020314859998522242 0 -0.0014969956533453517 -0.020176154088161525 0 -0.002001282338096903 -0.020198945326591111 0 -0.0018023464025080154 -0.019999741772176116 0 -0.0017955664889683506 -0.020314859998522242 0 -0.0018023464025080154 -0.019999741772176116 0 -0.0014969956533453517 -0.020176154088161525 0 -0.0015017268361145841 -0.01984181523098626 0 -0.001250205100236876 -0.019517584534408737 0 -0.0015017268361145841 -0.01984181523098626 0 -0.0015450509243461002 -0.01955629570687651 0 -0.0015017268361145841 -0.01984181523098626 0 -0.0015450509243461002 -0.01955629570687651 0 -0.0018169435740288925 -0.019650719203995769 0 -0.001250205100236876 -0.019517584534408737 0 -0.0015450509243461002 -0.01955629570687651 0 -0.001430444409354718 -0.019295508392446151 0 -0.0016623288210757506 -0.019325816938674821 0 -0.0015450509243461002 -0.01955629570687651 0 -0.001430444409354718 -0.019295508392446151 0 -0.0016623288210757506 -0.019325816938674821 0 -0.0018169435740288925 -0.019650719203995769 0 -0.00200500316281011 -0.019359673331753327 0 -0.0016623288210757506 -0.019325816938674821 0 -0.0015450509243461002 -0.01955629570687651 0 -0.0018169435740288925 -0.019650719203995769 0 -0.0018023464025080154 -0.019999741772176116 0 -0.0015017268361145841 -0.01984181523098626 0 -0.0018169435740288925 -0.019650719203995769 0 -0.0020642349246258532 -0.019917184465827926 0 -0.0018023464025080154 -0.019999741772176116 0 -0.0018169435740288925 -0.019650719203995769 0 -0.0020642349246258532 -0.019917184465827926 0 -0.0018169435740288925 -0.019650719203995769 0 -0.0021449322608149139 -0.019602137522085911 0 -0.0020642349246258532 -0.019917184465827926 0 -0.0021449322608149139 -0.019602137522085911 0 -0.0023299914317832303 -0.019858604453816764 0 -0.0018169435740288925 -0.019650719203995769 0 -0.00200500316281011 -0.019359673331753327 0 -0.0021449322608149139 -0.019602137522085911 0 -0.00200500316281011 -0.019359673331753327 0 -0.0021449322608149139 -0.019602137522085911 0 -0.0022213326644480009 -0.019418446820273411 0 -0.00200500316281011 -0.019359673331753327 0 -0.0022213326644480009 -0.019418446820273411 0 -0.0022264807935568976 -0.019239239872542356 0 -0.0021449322608149139 -0.019602137522085911 0 -0.0022213326644480009 -0.019418446820273411 0 -0.0024071084083672777 -0.01961317018162987 0 -0.0022213326644480009 -0.019418446820273411 0 -0.0024019613886067646 -0.019432437966262008 0 -0.0023613923499598705 -0.019290168721684528 0 -0.0024980741123248112 -0.019334747449359362 0 -0.0024019613886067646 -0.019432437966262008 0 -0.0023613923499598705 -0.019290168721684528 0 -0.0025468770130616259 -0.019472821675228805 0 -0.0024019613886067646 -0.019432437966262008 0 -0.0024071084083672777 -0.01961317018162987 0 -0.0022213326644480009 -0.019418446820273411 0 -0.0024019613886067646 -0.019432437966262008 0 -0.0024071084083672777 -0.01961317018162987 0 -0.0021449322608149139 -0.019602137522085911 0 -0.0024071084083672777 -0.01961317018162987 0 -0.0023299914317832303 -0.019858604453816764 0 -0.0025897883725256791 -0.019827420915189835 0 -0.0024071084083672777 -0.01961317018162987 0 -0.0023299914317832303 -0.019858604453816764 0 -0.000517819264012773 -0.015266733327883674 0 -0.00050024532862664236 -0.01525021168386642 0 -0.0004792695392514581 -0.015246571076944982 0 -0.0017428404967180947 -0.017882910011238467 0 -0.0021703705037892187 -0.018901791070592755 0 -0.0024820278575040716 -0.018952965739175421 0 -0.0023855150876715401 -0.019028576641103124 0 -0.0021503193776517366 -0.018971778036543558 0 -0.0021760351800756326 -0.018695144744165205 0 -0.0020094386118482228 -0.018740764099922678 0 -0.0020097002939364343 -0.018655980348475033 0 -0.0017428404967180947 -0.017882910011238467 0 -0.0011478294123491968 -0.016871286810487472 0 -0.00051309332293212066 -0.015253289925850563 0 -0.000517819264012773 -0.015266733327883674 0 -0.00050024532862664236 -0.01525021168386642 0 -0.00050024532862664236 -0.01525021168386642 0 -0.0004792695392514581 -0.015246571076944982 0 -0.00048807360687689184 -0.015235149840118025 0 -0.0023009253693085253 -0.019065540944532312 0 -0.0022114007133902155 -0.019115188963291747 0 -0.0021503193776517366 -0.018971778036543558 0 -0.0023009253693085253 -0.019065540944532312 0 -0.0023855150876715401 -0.019028576641103124 0 -0.0021503193776517366 -0.018971778036543558 0 -0.0023009253693085253 -0.019065540944532312 0 -0.0023855150876715401 -0.019028576641103124 0 -0.0023918303437851203 -0.019103876046039029 0 -0.0024852511504765058 -0.019019178458218582 0 -0.0024820278575040716 -0.018952965739175421 0 -0.0023855150876715401 -0.019028576641103124 0 -0.002480297014588885 -0.019077522403135747 0 -0.0024852511504765058 -0.019019178458218582 0 -0.0023855150876715401 -0.019028576641103124 0 -0.002480297014588885 -0.019077522403135747 0 -0.0023855150876715401 -0.019028576641103124 0 -0.0023918303437851203 -0.019103876046039029 0 -0.0023918303437851203 -0.019103876046039029 0 -0.0024614573798463469 -0.019184116496351357 0 -0.002329707378718974 -0.019163794902627724 0 -0.0024614573798463469 -0.019184116496351357 0 -0.0023613923499598705 -0.019290168721684528 0 -0.002329707378718974 -0.019163794902627724 0 -0.002480297014588885 -0.019077522403135747 0 -0.0023918303437851203 -0.019103876046039029 0 -0.0024614573798463469 -0.019184116496351357 0 -0.0023009253693085253 -0.019065540944532312 0 -0.0023918303437851203 -0.019103876046039029 0 -0.002329707378718974 -0.019163794902627724 0 -0.0024980741123248112 -0.019334747449359362 0 -0.0024614573798463469 -0.019184116496351357 0 -0.0023613923499598705 -0.019290168721684528 0 -0.0023613923499598705 -0.019290168721684528 0 -0.0022264807935568976 -0.019239239872542356 0 -0.002329707378718974 -0.019163794902627724 0 -0.0022213326644480009 -0.019418446820273411 0 -0.0023613923499598705 -0.019290168721684528 0 -0.0022264807935568976 -0.019239239872542356 0 -0.0022264807935568976 -0.019239239872542356 0 -0.002329707378718974 -0.019163794902627724 0 -0.0022114007133902155 -0.019115188963291747 0 -0.0023009253693085253 -0.019065540944532312 0 -0.002329707378718974 -0.019163794902627724 0 -0.0022114007133902155 -0.019115188963291747 0 -0.0022264807935568976 -0.019239239872542356 0 -0.0022114007133902155 -0.019115188963291747 0 -0.0020477630689909104 -0.019137422553356823 0 -0.0022114007133902155 -0.019115188963291747 0 -0.0020477630689909104 -0.019137422553356823 0 -0.0021503193776517366 -0.018971778036543558 0 -0.00200500316281011 -0.019359673331753327 0 -0.0022264807935568976 -0.019239239872542356 0 -0.0020477630689909104 -0.019137422553356823 0 -0.00200500316281011 -0.019359673331753327 0 -0.0020477630689909104 -0.019137422553356823 0 -0.0018502381624775528 -0.019181476710283554 0 -0.0021703705037892187 -0.018901791070592755 0 -0.0017464848106007805 -0.018909989397256455 0 -0.0020097002939364343 -0.018655980348475033 0 -0.001877970387343412 -0.018705790710841844 0 -0.0017647650989402069 -0.01856265353739453 0 -0.0020477630689909104 -0.019137422553356823 0 -0.0021503193776517366 -0.018971778036543558 0 -0.0018037078159430346 -0.018983978143545188 0 -0.0020094386118482228 -0.018740764099922678 0 -0.001877970387343412 -0.018705790710841844 0 -0.0017591932045501583 -0.018833831693414047 0 -0.0020094386118482228 -0.018740764099922678 0 -0.0020097002939364343 -0.018655980348475033 0 -0.001877970387343412 -0.018705790710841844 0 -0.001877970387343412 -0.018705790710841844 0 -0.0017591932045501583 -0.018833831693414047 0 -0.0017647650989402069 -0.01856265353739453 0 -0.0017591932045501583 -0.018833831693414047 0 -0.0015394271529590644 -0.018750461649740098 0 -0.0017647650989402069 -0.01856265353739453 0 -0.0020477630689909104 -0.019137422553356823 0 -0.0018037078159430346 -0.018983978143545188 0 -0.0018502381624775528 -0.019181476710283554 0 -0.0016623288210757506 -0.019325816938674821 0 -0.00200500316281011 -0.019359673331753327 0 -0.0018502381624775528 -0.019181476710283554 0 -0.0016623288210757506 -0.019325816938674821 0 -0.0018502381624775528 -0.019181476710283554 0 -0.0016543847661539743 -0.019120745885767565 0 -0.0018037078159430346 -0.018983978143545188 0 -0.0018502381624775528 -0.019181476710283554 0 -0.0016543847661539743 -0.019120745885767565 0 -0.0018037078159430346 -0.018983978143545188 0 -0.0016543847661539743 -0.019120745885767565 0 -0.001411539206911647 -0.018966075284015938 0 -0.0016623288210757506 -0.019325816938674821 0 -0.0016543847661539743 -0.019120745885767565 0 -0.0014855852964281411 -0.01914005718661568 0 -0.0016623288210757506 -0.019325816938674821 0 -0.001430444409354718 -0.019295508392446151 0 -0.0014855852964281411 -0.01914005718661568 0 -0.001430444409354718 -0.019295508392446151 0 -0.0014855852964281411 -0.01914005718661568 0 -0.0013046588734810869 -0.018974588284059891 0 -0.0016543847661539743 -0.019120745885767565 0 -0.0014855852964281411 -0.01914005718661568 0 -0.001411539206911647 -0.018966075284015938 0 -0.0014855852964281411 -0.01914005718661568 0 -0.001411539206911647 -0.018966075284015938 0 -0.0013046588734810869 -0.018974588284059891 0 -0.0017591932045501583 -0.018833831693414047 0 -0.001411539206911647 -0.018966075284015938 0 -0.0015394271529590644 -0.018750461649740098 0 -0.001411539206911647 -0.018966075284015938 0 -0.0015394271529590644 -0.018750461649740098 0 -0.0013046588734810869 -0.018974588284059891 0 -0.0017464848106007805 -0.018909989397256455 0 -0.0014415891094884728 -0.018961150853517638 0 -0.0014221450423840653 -0.015808934680853589 0 -0.0019782120241454786 -0.017961269508644708 0 -0.0015394271529590644 -0.018750461649740098 0 -0.0014024427016519252 -0.018423974291025137 0 -0.0013046588734810869 -0.018974588284059891 0 -0.0014221450423840653 -0.015808934680853589 0 -0.0010427119905357944 -0.016952941076307286 0 -0.00034324246770084464 -0.015205592723596948 0 -0.00039309479774604579 -0.015158105799895832 0 -0.00042330032780503544 -0.015227412303275081 0 -0.0015394271529590644 -0.018750461649740098 0 -0.0014024427016519252 -0.018423974291025137 0 -0.0017647650989402069 -0.01856265353739453 0 -0.0014221450423840653 -0.015808934680853589 0 -0.00065799657042355474 -0.014656885618623506 0 -0.0014792489784697948 -0.014726684366047087 0 -0.0012389712250908554 -0.014338907729617672 0 -0.0016079841966424077 -0.014124763321966098 0 -0.00034324246770084464 -0.015205592723596948 0 -0.00039309479774604579 -0.015158105799895832 0 -0.00036027660744216106 -0.015085240091346194 0 -0.00039309479774604579 -0.015158105799895832 0 -0.00043126395352060252 -0.015097144233915885 0 -0.00043328967899348731 -0.015170939877089911 0 -0.00039309479774604579 -0.015158105799895832 0 -0.00043126395352060252 -0.015097144233915885 0 -0.00036027660744216106 -0.015085240091346194 0 -0.00043126395352060252 -0.015097144233915885 0 -0.00043328967899348731 -0.015170939877089911 0 -0.00046041418784962943 -0.015125973219433172 0 -0.00043328967899348731 -0.015170939877089911 0 -0.00042330032780503544 -0.015227412303275081 0 -0.00045692605941693185 -0.015208113354153646 0 -0.00039309479774604579 -0.015158105799895832 0 -0.00043328967899348731 -0.015170939877089911 0 -0.00042330032780503544 -0.015227412303275081 0 -0.0004792695392514581 -0.015246571076944982 0 -0.00042330032780503544 -0.015227412303275081 0 -0.00045692605941693185 -0.015208113354153646 0 -0.0011478294123491968 -0.016871286810487472 0 -0.0010427119905357944 -0.016952941076307286 0 -0.0004792695392514581 -0.015246571076944982 0 -0.00047823064393964733 -0.015216495962506311 0 -0.00045692605941693185 -0.015208113354153646 0 -0.0004792695392514581 -0.015246571076944982 0 -0.00047823064393964733 -0.015216495962506311 0 -0.00048807360687689184 -0.015235149840118025 0 -0.00047823064393964733 -0.015216495962506311 0 -0.00045692605941693185 -0.015208113354153646 0 -0.0004657051376945641 -0.015176100875594518 0 -0.00047823064393964733 -0.015216495962506311 0 -0.0004657051376945641 -0.015176100875594518 0 -0.00048790081011597364 -0.015195655314940673 0 -0.00043328967899348731 -0.015170939877089911 0 -0.00045692605941693185 -0.015208113354153646 0 -0.0004657051376945641 -0.015176100875594518 0 -0.00043328967899348731 -0.015170939877089911 0 -0.00046041418784962943 -0.015125973219433172 0 -0.0004657051376945641 -0.015176100875594518 0 -0.00046041418784962943 -0.015125973219433172 0 -0.0004657051376945641 -0.015176100875594518 0 -0.00048547562029013655 -0.015159153655536262 0 -0.00046041418784962943 -0.015125973219433172 0 -0.00048547562029013655 -0.015159153655536262 0 -0.00047157421284402658 -0.015105301221337802 0 -0.0004657051376945641 -0.015176100875594518 0 -0.00048547562029013655 -0.015159153655536262 0 -0.00048790081011597364 -0.015195655314940673 0 -0.00048547562029013655 -0.015159153655536262 0 -0.00049807415956643173 -0.015184987893348661 0 -0.00048790081011597364 -0.015195655314940673 0 -0.00049880348290549177 -0.01516330547408648 0 -0.00048547562029013655 -0.015159153655536262 0 -0.00049807415956643173 -0.015184987893348661 0 -0.00049880348290549177 -0.01516330547408648 0 -0.00048547562029013655 -0.015159153655536262 0 -0.00048534909674502713 -0.015122806014101655 0 -0.00049807415956643173 -0.015184987893348661 0 -0.00050047026431904922 -0.015210567154490137 0 -0.00048790081011597364 -0.015195655314940673 0 -0.00050991566287577554 -0.015201883961697549 0 -0.00049807415956643173 -0.015184987893348661 0 -0.00050047026431904922 -0.015210567154490137 0 -0.0005097105111309708 -0.01522253220270107 0 -0.00050047026431904922 -0.015210567154490137 0 -0.00050860198960121544 -0.015238868100487845 0 -0.00047823064393964733 -0.015216495962506311 0 -0.00048790081011597364 -0.015195655314940673 0 -0.00049359743195986645 -0.015226590111227598 0 -0.00050047026431904922 -0.015210567154490137 0 -0.00048790081011597364 -0.015195655314940673 0 -0.00049359743195986645 -0.015226590111227598 0 -0.00047823064393964733 -0.015216495962506311 0 -0.00049359743195986645 -0.015226590111227598 0 -0.00048807360687689184 -0.015235149840118025 0 -0.00050024532862664236 -0.01525021168386642 0 -0.00049359743195986645 -0.015226590111227598 0 -0.00048807360687689184 -0.015235149840118025 0 -0.00050024532862664236 -0.01525021168386642 0 -0.00049359743195986645 -0.015226590111227598 0 -0.00050860198960121544 -0.015238868100487845 0 -0.00050047026431904922 -0.015210567154490137 0 -0.00049359743195986645 -0.015226590111227598 0 -0.00050860198960121544 -0.015238868100487845 0 -0.00051309332293212066 -0.015253289925850563 0 -0.00050024532862664236 -0.01525021168386642 0 -0.00050860198960121544 -0.015238868100487845 0 -0.00098242701097762237 -0.016209065420329623 0 -0.0015745390765223167 -0.015950939411001272 0 -0.00077614218502489749 -0.015632810142352713 0 -0.00098242701097762237 -0.016209065420329623 0 -0.00029849733918623671 -0.016196520570834552 0 -0.00071430981280169834 -0.01687098820568015 0 -0.00098242701097762237 -0.016209065420329623 0 -0.00029849733918623671 -0.016196520570834552 0 -0.00077614218502489749 -0.015632810142352713 0 -0.00029849733918623671 -0.016196520570834552 0 -0.00077614218502489749 -0.015632810142352713 0 -0.00011236890076651528 -0.015564171197399177 0 0.00055763440313197929 -0.016053237027907011 0 -0.00029849733918623671 -0.016196520570834552 0 1.8562713523028662e-05 -0.01676767811129061 0 0.00055763440313197929 -0.016053237027907011 0 -0.00029849733918623671 -0.016196520570834552 0 -0.00011236890076651528 -0.015564171197399177 0 -0.00026093735621154468 -0.017579503108690834 0 1.8562713523028662e-05 -0.01676767811129061 0 -0.00071430981280169834 -0.01687098820568015 0 -0.00029849733918623671 -0.016196520570834552 0 1.8562713523028662e-05 -0.01676767811129061 0 -0.00071430981280169834 -0.01687098820568015 0 0.00080974310658509451 -0.017124011553907827 0 -0.00026093735621154468 -0.017579503108690834 0 1.8562713523028662e-05 -0.01676767811129061 0 -0.001323562933404844 -0.017461602402111566 0 -0.00071430981280169834 -0.01687098820568015 0 -0.0017323123777174703 -0.016826555811303316 0 -0.00098242701097762237 -0.016209065420329623 0 -0.00071430981280169834 -0.01687098820568015 0 -0.0017323123777174703 -0.016826555811303316 0 -0.001250205100236876 -0.019517584534408737 0 -0.001430444409354718 -0.019295508392446151 0 -0.0013046588734810869 -0.018974588284059891 0 -0.0017323123777174703 -0.016826555811303316 0 -0.0025267978717536887 -0.016534728360824386 0 -0.0020107800260640691 -0.016315523553308873 0 -0.0017175289687447407 -0.018612132783867804 0 -0.0019782120241454786 -0.017961269508644708 0 -0.0021879886415180762 -0.017816411798679328 0 -0.0017323123777174703 -0.016826555811303316 0 -0.0025267978717536887 -0.016534728360824386 0 -0.00280814308338764 -0.015252545961635052 0 -0.0025267978717536887 -0.016534728360824386 0 -0.0021999517524945418 -0.015798311860870377 0 -0.0025267978717536887 -0.016534728360824386 0 -0.0020107800260640691 -0.016315523553308873 0 -0.0021999517524945418 -0.015798311860870377 0 -0.0020107800260640691 -0.016315523553308873 0 -0.0021999517524945418 -0.015798311860870377 0 -0.0015745390765223167 -0.015950939411001272 0 -0.0017323123777174703 -0.016826555811303316 0 -0.0020107800260640691 -0.016315523553308873 0 -0.0015745390765223167 -0.015950939411001272 0 -0.00098242701097762237 -0.016209065420329623 0 -0.0017323123777174703 -0.016826555811303316 0 -0.0015745390765223167 -0.015950939411001272 0 -0.0015745390765223167 -0.015950939411001272 0 -0.0015349905302814543 -0.014871295233251182 0 -0.00077614218502489749 -0.015632810142352713 0 -0.0021999517524945418 -0.015798311860870377 0 -0.0015745390765223167 -0.015950939411001272 0 -0.0015349905302814543 -0.014871295233251182 0 -0.00280814308338764 -0.015252545961635052 0 -0.0021999517524945418 -0.015798311860870377 0 -0.0015349905302814543 -0.014871295233251182 0 -0.0014221450423840653 -0.015808934680853589 0 -0.0013266369711656381 -0.014614608753067108 0 -0.0014792489784697948 -0.014726684366047087 0 -0.0012389712250908554 -0.014338907729617672 0 -0.00086382831604402447 -0.014547563067833134 0 -0.0012389712250908554 -0.014338907729617672 0 -0.00086382831604402447 -0.014547563067833134 0 -0.00079988526820001468 -0.014125959997129438 0 -0.00086382831604402447 -0.014547563067833134 0 -0.00052555686747611052 -0.014178963564335928 0 -0.00079988526820001468 -0.014125959997129438 0 -0.0015349905302814543 -0.014871295233251182 0 -0.00047867874560350197 -0.015083058647863173 0 -0.00022678486591020376 -0.014439763743896631 0 -0.00086382831604402447 -0.014547563067833134 0 -0.00022678486591020376 -0.014439763743896631 0 -0.00052555686747611052 -0.014178963564335928 0 -0.0013266369711656381 -0.014614608753067108 0 -0.00021583138044296455 -0.014469855652237271 0 -0.0015349905302814543 -0.014871295233251182 0 -0.00047867874560350197 -0.015083058647863173 0 -0.00077614218502489749 -0.015632810142352713 0 -0.00047867874560350197 -0.015083058647863173 0 -0.00077614218502489749 -0.015632810142352713 0 -0.00011236890076651528 -0.015564171197399177 0 0.00055763440313197929 -0.016053237027907011 0 -0.00011236890076651528 -0.015564171197399177 0 0.00026254699222189737 -0.014906173475730731 0 -0.00047867874560350197 -0.015083058647863173 0 -0.00011236890076651528 -0.015564171197399177 0 0.00026254699222189737 -0.014906173475730731 0 -0.00022678486591020376 -0.014439763743896631 0 -0.00013733362174344818 -0.013942533753301444 0 -0.00052555686747611052 -0.014178963564335928 0 0.00026254699222189737 -0.014906173475730731 0 -0.00022678486591020376 -0.014439763743896631 0 -0.00013733362174344818 -0.013942533753301444 0 -0.0002025615856689037 -0.013775056157770587 0 -0.00015137652978506293 -0.013653645912538219 0 -0.00013733362174344818 -0.013942533753301444 0 4.3015272181002116e-05 -0.014293401208340334 0 -0.00010787090241042248 -0.013960804136771986 0 -0.00047867874560350197 -0.015083058647863173 0 0.00026254699222189737 -0.014906173475730731 0 -0.00022678486591020376 -0.014439763743896631 0 -0.0002025615856689037 -0.013775056157770587 0 -0.00013733362174344818 -0.013942533753301444 0 -0.00017437335478203217 -0.013866661418338 0 -0.00013733362174344818 -0.013942533753301444 0 -0.00013420083626440664 -0.013837697761745661 0 -0.00053872855410277553 -0.013833526931112972 0 -0.00013733362174344818 -0.013942533753301444 0 -0.00013420083626440664 -0.013837697761745661 0 -0.00017437335478203217 -0.013866661418338 0 -0.00027148933789154523 -0.014452263661577142 0 -0.00032510683826048769 -0.014431298386512789 0 -0.0003809608843036498 -0.01454857590107364 0 -0.00027148933789154523 -0.014452263661577142 0 -0.00027870185706836611 -0.014327392854630458 0 -0.00024855265552171311 -0.01422669245973039 0 -0.00027148933789154523 -0.014452263661577142 0 -0.00032510683826048769 -0.014431298386512789 0 -0.00027870185706836611 -0.014327392854630458 0 -0.00024631583450417284 -0.014143133812331466 0 -0.0004829167458345796 -0.014271740493300836 0 -0.0003809608843036498 -0.01454857590107364 0 -0.00047844054689515889 -0.014739800139169272 0 -0.00038258195032011953 -0.014515212747370882 0 -0.00027148933789154523 -0.014452263661577142 0 -0.0003809608843036498 -0.01454857590107364 0 -0.00043920344492082532 -0.014703977846211386 0 -0.0003809608843036498 -0.01454857590107364 0 -0.00043920344492082532 -0.014703977846211386 0 -0.00047844054689515889 -0.014739800139169272 0 -0.00032510683826048769 -0.014431298386512789 0 -0.0003809608843036498 -0.01454857590107364 0 -0.00038258195032011953 -0.014515212747370882 0 -0.00013733362174344818 -0.013942533753301444 0 -0.00053872855410277553 -0.013833526931112972 0 -0.00052555686747611052 -0.014178963564335928 0 -0.00053872855410277553 -0.013833526931112972 0 -0.00052555686747611052 -0.014178963564335928 0 -0.00079988526820001468 -0.014125959997129438 0 -0.0004829167458345796 -0.014271740493300836 0 -0.00084634110474686745 -0.014405003753660045 0 -0.00053872855410277553 -0.013833526931112972 0 -0.00079988526820001468 -0.014125959997129438 0 -0.0010975426555813708 -0.013981336968856702 0 -0.0012389712250908554 -0.014338907729617672 0 -0.0010975426555813708 -0.013981336968856702 0 -0.0016079841966424077 -0.014124763321966098 0 -0.00084634110474686745 -0.014405003753660045 0 -0.00065799657042355474 -0.014656885618623506 0 -0.0012389712250908554 -0.014338907729617672 0 -0.00079988526820001468 -0.014125959997129438 0 -0.0010975426555813708 -0.013981336968856702 0 -0.00045499381764854029 -0.01483595756707019 0 -0.00043594626179932066 -0.014886734704680816 0 -0.00041465008738538259 -0.014904094511501638 0 -0.00043594626179932066 -0.014886734704680816 0 -0.00045676777322483422 -0.014805163920177822 0 -0.0004332854521004389 -0.014880680257414982 0 -0.00045499381764854029 -0.01483595756707019 0 -0.00043594626179932066 -0.014886734704680816 0 -0.00045676777322483422 -0.014805163920177822 0 -0.00045676777322483422 -0.014805163920177822 0 -0.0004332854521004389 -0.014880680257414982 0 -0.00044668890114206032 -0.014839813208910826 0 -0.00043920344492082532 -0.014703977846211386 0 -0.00045676777322483422 -0.014805163920177822 0 -0.00047844054689515889 -0.014739800139169272 0 -0.00043920344492082532 -0.014703977846211386 0 -0.00045499381764854029 -0.01483595756707019 0 -0.00045676777322483422 -0.014805163920177822 0 -0.00045676777322483422 -0.014805163920177822 0 -0.00047844054689515889 -0.014739800139169272 0 -0.00044668890114206032 -0.014839813208910826 0 -0.00044668890114206032 -0.014839813208910826 0 -0.00044633456854586186 -0.014897154516930555 0 -0.00050014218203267569 -0.014867501323440946 0 -0.00047844054689515889 -0.014739800139169272 0 -0.00044668890114206032 -0.014839813208910826 0 -0.00050014218203267569 -0.014867501323440946 0 -0.0004332854521004389 -0.014880680257414982 0 -0.00044633456854586186 -0.014897154516930555 0 -0.00042688228361100448 -0.014934454453500549 0 -0.0004332854521004389 -0.014880680257414982 0 -0.00044668890114206032 -0.014839813208910826 0 -0.00044633456854586186 -0.014897154516930555 0 -0.00044002921552296702 -0.014947621205198011 0 -0.00044633456854586186 -0.014897154516930555 0 -0.00047001194836958159 -0.014930354537425021 0 -0.00044002921552296702 -0.014947621205198011 0 -0.00044633456854586186 -0.014897154516930555 0 -0.00043222655849993848 -0.014954692817568177 0 -0.00050014218203267569 -0.014867501323440946 0 -0.00053189812073638275 -0.014917480809016661 0 -0.00047001194836958159 -0.014930354537425021 0 -0.00044633456854586186 -0.014897154516930555 0 -0.00050014218203267569 -0.014867501323440946 0 -0.00047001194836958159 -0.014930354537425021 0 -0.00050014218203267569 -0.014867501323440946 0 -0.00054863540826476738 -0.014872689789422966 0 -0.0005744282275990649 -0.01481489945646397 0 -0.00050014218203267569 -0.014867501323440946 0 -0.00054863540826476738 -0.014872689789422966 0 -0.00053189812073638275 -0.014917480809016661 0 -0.0011979432905372309 -0.013143443325232484 0 -0.0014413050141900688 -0.013598251924669453 0 -0.0010748169425275063 -0.013482841270034332 0 -0.00054863540826476738 -0.014872689789422966 0 -0.00057825191320807958 -0.014885094934869792 0 -0.0005744282275990649 -0.01481489945646397 0 -0.00054863540826476738 -0.014872689789422966 0 -0.00057825191320807958 -0.014885094934869792 0 -0.00053189812073638275 -0.014917480809016661 0 -0.0008951193230395801 -0.013984463555982232 0 -0.00079136934825203939 -0.014205225004137075 0 -0.00033169225553839613 -0.014335778008250852 0 -0.00027870185706836611 -0.014327392854630458 0 -0.00023914571102332598 -0.01422986346941778 0 -0.00079136934825203939 -0.014205225004137075 0 -0.00063318952513632878 -0.013854275187339454 0 -0.00032510683826048769 -0.014431298386512789 0 -0.00033169225553839613 -0.014335778008250852 0 -0.00027870185706836611 -0.014327392854630458 0 -0.00032510683826048769 -0.014431298386512789 0 -0.00033169225553839613 -0.014335778008250852 0 -0.00038258195032011953 -0.014515212747370882 0 -0.00034024304397458727 -0.014773342947244476 0 -0.00079136934825203939 -0.014205225004137075 0 -0.00047844054689515889 -0.014739800139169272 0 -0.00033169225553839613 -0.014335778008250852 0 -0.00038258195032011953 -0.014515212747370882 0 -0.00047844054689515889 -0.014739800139169272 0 -0.00050014218203267569 -0.014867501323440946 0 -0.0005744282275990649 -0.01481489945646397 0 -0.00049141314434372882 -0.015109918725781251 0 -0.00048315510062662393 -0.015100130192776081 0 -0.00047173049193194137 -0.015067258227266381 0 -0.00048315510062662393 -0.015100130192776081 0 -0.00046909392682006505 -0.015074191279143149 0 -0.00047173049193194137 -0.015067258227266381 0 -0.00049581430486570106 -0.015133867140683183 0 -0.00048315510062662393 -0.015100130192776081 0 -0.00048534909674502713 -0.015122806014101655 0 -0.00049880348290549177 -0.01516330547408648 0 -0.00049581430486570106 -0.015133867140683183 0 -0.00048534909674502713 -0.015122806014101655 0 -0.00048547562029013655 -0.015159153655536262 0 -0.00048534909674502713 -0.015122806014101655 0 -0.00047157421284402658 -0.015105301221337802 0 -0.00048315510062662393 -0.015100130192776081 0 -0.00048534909674502713 -0.015122806014101655 0 -0.00046909392682006505 -0.015074191279143149 0 -0.00048534909674502713 -0.015122806014101655 0 -0.00047157421284402658 -0.015105301221337802 0 -0.00046909392682006505 -0.015074191279143149 0 -0.00047157421284402658 -0.015105301221337802 0 -0.00045532822417697274 -0.015067794808438678 0 -0.00046909392682006505 -0.015074191279143149 0 -0.00046041418784962943 -0.015125973219433172 0 -0.00047157421284402658 -0.015105301221337802 0 -0.00045532822417697274 -0.015067794808438678 0 -0.00043126395352060252 -0.015097144233915885 0 -0.00046041418784962943 -0.015125973219433172 0 -0.00045532822417697274 -0.015067794808438678 0 -0.00046909392682006505 -0.015074191279143149 0 -0.00044675052600604606 -0.01502271622548197 0 -0.00047173049193194137 -0.015067258227266381 0 -0.00045532822417697274 -0.015067794808438678 0 -0.00046909392682006505 -0.015074191279143149 0 -0.00044675052600604606 -0.01502271622548197 0 -0.00044675052600604606 -0.01502271622548197 0 -0.00042103893521571351 -0.014972245754607727 0 -0.00042688128269219533 -0.014963837913336338 0 -0.00044675052600604606 -0.01502271622548197 0 -0.00042688128269219533 -0.014963837913336338 0 -0.00044038567420350016 -0.015001640937487392 0 -0.00045532822417697274 -0.015067794808438678 0 -0.00044675052600604606 -0.01502271622548197 0 -0.00043538895294215361 -0.015021673316165661 0 -0.00044675052600604606 -0.01502271622548197 0 -0.00042103893521571351 -0.014972245754607727 0 -0.00043538895294215361 -0.015021673316165661 0 -0.00043126395352060252 -0.015097144233915885 0 -0.00041778598718251157 -0.01501862680013346 0 -0.00037579407686969614 -0.015031260342462409 0 -0.00043126395352060252 -0.015097144233915885 0 -0.00045532822417697274 -0.015067794808438678 0 -0.00043538895294215361 -0.015021673316165661 0 -0.00037463963667981853 -0.015066053880100096 0 -0.00065799657042355474 -0.014656885618623506 0 -0.00042103893521571351 -0.014972245754607727 0 -0.00043538895294215361 -0.015021673316165661 0 -0.00041778598718251157 -0.01501862680013346 0 -0.00043126395352060252 -0.015097144233915885 0 -0.00043538895294215361 -0.015021673316165661 0 -0.00041778598718251157 -0.01501862680013346 0 -0.00042103893521571351 -0.014972245754607727 0 -0.00041778598718251157 -0.01501862680013346 0 -0.00040191884913936854 -0.014952939407275878 0 -0.00041778598718251157 -0.01501862680013346 0 -0.00040191884913936854 -0.014952939407275878 0 -0.00037579407686969614 -0.015031260342462409 0 -0.00048066387341424012 -0.014990814119486233 0 -0.00065799657042355474 -0.014656885618623506 0 -0.00043594626179932066 -0.014886734704680816 0 -0.00040191884913936854 -0.014952939407275878 0 -0.00041465008738538259 -0.014904094511501638 0 -0.00043594626179932066 -0.014886734704680816 0 -0.0004332854521004389 -0.014880680257414982 0 -0.00042181275332321536 -0.014926241800046789 0 -0.00043594626179932066 -0.014886734704680816 0 -0.00040191884913936854 -0.014952939407275878 0 -0.00042181275332321536 -0.014926241800046789 0 -0.00042103893521571351 -0.014972245754607727 0 -0.00040191884913936854 -0.014952939407275878 0 -0.00042181275332321536 -0.014926241800046789 0 -0.00042103893521571351 -0.014972245754607727 0 -0.00042181275332321536 -0.014926241800046789 0 -0.00042688128269219533 -0.014963837913336338 0 -0.0004332854521004389 -0.014880680257414982 0 -0.00042181275332321536 -0.014926241800046789 0 -0.00042688228361100448 -0.014934454453500549 0 -0.00042181275332321536 -0.014926241800046789 0 -0.00042688228361100448 -0.014934454453500549 0 -0.00042688128269219533 -0.014963837913336338 0 -0.00044633456854586186 -0.014897154516930555 0 -0.00042688228361100448 -0.014934454453500549 0 -0.00043222655849993848 -0.014954692817568177 0 -0.00044002921552296702 -0.014947621205198011 0 -0.00043222655849993848 -0.014954692817568177 0 -0.0004353529253202537 -0.014989691885139799 0 -0.00042688228361100448 -0.014934454453500549 0 -0.00043222655849993848 -0.014954692817568177 0 -0.00043845841960156218 -0.014996938783808696 0 -0.00043222655849993848 -0.014954692817568177 0 -0.00043845841960156218 -0.014996938783808696 0 -0.0004353529253202537 -0.014989691885139799 0 -0.00043845841960156218 -0.014996938783808696 0 -0.00045187094596832678 -0.015032606975195968 0 -0.0004353529253202537 -0.014989691885139799 0 -0.00042688228361100448 -0.014934454453500549 0 -0.00043845841960156218 -0.014996938783808696 0 -0.00042688128269219533 -0.014963837913336338 0 -0.00043845841960156218 -0.014996938783808696 0 -0.00042688128269219533 -0.014963837913336338 0 -0.00044038567420350016 -0.015001640937487392 0 -0.00043845841960156218 -0.014996938783808696 0 -0.00044038567420350016 -0.015001640937487392 0 -0.0004528391821332724 -0.015029053879801807 0 -0.00044675052600604606 -0.01502271622548197 0 -0.0004528391821332724 -0.015029053879801807 0 -0.00047173049193194137 -0.015067258227266381 0 -0.0004528391821332724 -0.015029053879801807 0 -0.00046350113977713643 -0.015052226494339599 0 -0.00047173049193194137 -0.015067258227266381 0 -0.00043845841960156218 -0.014996938783808696 0 -0.0004528391821332724 -0.015029053879801807 0 -0.00046350113977713643 -0.015052226494339599 0 -0.00044675052600604606 -0.01502271622548197 0 -0.00044038567420350016 -0.015001640937487392 0 -0.0004528391821332724 -0.015029053879801807 0 -0.00043845841960156218 -0.014996938783808696 0 -0.00046350113977713643 -0.015052226494339599 0 -0.00045187094596832678 -0.015032606975195968 0 -0.00046350113977713643 -0.015052226494339599 0 -0.00046678959896435224 -0.015063637281752022 0 -0.00045187094596832678 -0.015032606975195968 0 -0.00047952641121612937 -0.01509193146237865 0 -0.00046350113977713643 -0.015052226494339599 0 -0.00047951309559976258 -0.015085609551299659 0 -0.00047952641121612937 -0.01509193146237865 0 -0.00046350113977713643 -0.015052226494339599 0 -0.00046678959896435224 -0.015063637281752022 0 -0.00049141314434372882 -0.015109918725781251 0 -0.00047951309559976258 -0.015085609551299659 0 -0.00047173049193194137 -0.015067258227266381 0 -0.00046350113977713643 -0.015052226494339599 0 -0.00047951309559976258 -0.015085609551299659 0 -0.00047173049193194137 -0.015067258227266381 0 -0.00047348231910729691 -0.015073267687446575 0 -0.00046658163775665991 -0.015063958131426186 0 -0.00046360379672224887 -0.015047107323187368 0 -0.00047881678199543495 -0.015090993127508265 0 -0.00047348231910729691 -0.015073267687446575 0 -0.00048512748120648825 -0.015065381985703584 0 -0.00047348231910729691 -0.015073267687446575 0 -0.00046360379672224887 -0.015047107323187368 0 -0.00048512748120648825 -0.015065381985703584 0 -0.00047784103342699225 -0.015098441965565632 0 -0.00047348231910729691 -0.015073267687446575 0 -0.00046658163775665991 -0.015063958131426186 0 -0.00047784103342699225 -0.015098441965565632 0 -0.00047523195464478098 -0.015088208048772707 0 -0.00046658163775665991 -0.015063958131426186 0 -0.00046678959896435224 -0.015063637281752022 0 -0.00047523195464478098 -0.015088208048772707 0 -0.00046658163775665991 -0.015063958131426186 0 -0.00047952641121612937 -0.01509193146237865 0 -0.00046678959896435224 -0.015063637281752022 0 -0.00047523195464478098 -0.015088208048772707 0 -0.00046658163775665991 -0.015063958131426186 0 -0.00045187094596832678 -0.015032606975195968 0 -0.00044787925385826859 -0.015025802860242193 0 -0.00046678959896435224 -0.015063637281752022 0 -0.00046658163775665991 -0.015063958131426186 0 -0.00045187094596832678 -0.015032606975195968 0 -0.00044787925385826859 -0.015025802860242193 0 -0.00046360379672224887 -0.015047107323187368 0 -0.00044668160588485069 -0.015019199085061384 0 -0.00046658163775665991 -0.015063958131426186 0 -0.00044787925385826859 -0.015025802860242193 0 -0.00046360379672224887 -0.015047107323187368 0 -0.00043782469253200197 -0.015002287486238068 0 -0.00043515504108530942 -0.015003015107734843 0 -0.00044668160588485069 -0.015019199085061384 0 -0.00044787925385826859 -0.015025802860242193 0 -0.00043782469253200197 -0.015002287486238068 0 -0.00044668160588485069 -0.015019199085061384 0 -0.00045187094596832678 -0.015032606975195968 0 -0.00044787925385826859 -0.015025802860242193 0 -0.0004353529253202537 -0.014989691885139799 0 -0.00044787925385826859 -0.015025802860242193 0 -0.00043782469253200197 -0.015002287486238068 0 -0.0004353529253202537 -0.014989691885139799 0 -0.00043782469253200197 -0.015002287486238068 0 -0.0004353529253202537 -0.014989691885139799 0 -0.00043770759815338833 -0.014979147868709328 0 -0.00044002921552296702 -0.014947621205198011 0 -0.0004353529253202537 -0.014989691885139799 0 -0.00043770759815338833 -0.014979147868709328 0 -0.00043782469253200197 -0.015002287486238068 0 -0.00043515504108530942 -0.015003015107734843 0 -0.00043770759815338833 -0.014979147868709328 0 -0.00043515504108530942 -0.015003015107734843 0 -0.00043770759815338833 -0.014979147868709328 0 -0.00043072963077881734 -0.014998294805099276 0 -0.00043515504108530942 -0.015003015107734843 0 -0.00043072963077881734 -0.014998294805099276 0 -0.00043020613622235917 -0.014965679892595226 0 -0.00043515504108530942 -0.015003015107734843 0 -0.00044634599978880514 -0.014998779415711047 0 -0.00043020613622235917 -0.014965679892595226 0 -0.00044634599978880514 -0.014998779415711047 0 -0.00045626866913901499 -0.014979698939374795 0 -0.00043020613622235917 -0.014965679892595226 0 -0.00043515504108530942 -0.015003015107734843 0 -0.00044634599978880514 -0.014998779415711047 0 -0.00044668160588485069 -0.015019199085061384 0 -0.00046360379672224887 -0.015047107323187368 0 -0.00044668160588485069 -0.015019199085061384 0 -0.00046378796098798446 -0.015020613828630283 0 -0.00044634599978880514 -0.014998779415711047 0 -0.00044668160588485069 -0.015019199085061384 0 -0.00046378796098798446 -0.015020613828630283 0 -0.00044634599978880514 -0.014998779415711047 0 -0.00046378796098798446 -0.015020613828630283 0 -0.00045626866913901499 -0.014979698939374795 0 -0.00045626866913901499 -0.014979698939374795 0 -0.00048797807866955559 -0.014983635142046444 0 -0.00047001895954143611 -0.014935637286875018 0 -0.00046378796098798446 -0.015020613828630283 0 -0.00045626866913901499 -0.014979698939374795 0 -0.00048797807866955559 -0.014983635142046444 0 -0.00046378796098798446 -0.015020613828630283 0 -0.00048797807866955559 -0.014983635142046444 0 -0.00048512748120648825 -0.015065381985703584 0 -0.00047912437947076068 -0.015092068200545514 0 -0.00051149350980389736 -0.015098182542863355 0 -0.00048512748120648825 -0.015065381985703584 0 -0.00047912437947076068 -0.015092068200545514 0 -0.00051149350980389736 -0.015098182542863355 0 -0.00049320819045107719 -0.015107707900442555 0 -0.00049732694983592462 -0.015040542762653668 0 -0.00048892293610155557 -0.015059017433364404 0 -0.00046360379672224887 -0.015047107323187368 0 -0.00046378796098798446 -0.015020613828630283 0 -0.00048512748120648825 -0.015065381985703584 0 -0.00052033975433974278 -0.014956023988074271 0 -0.00053189812073638275 -0.014917480809016661 0 -0.00047720699245737039 -0.01496139461959148 0 -0.00052033975433974278 -0.014956023988074271 0 -0.00055447933167817036 -0.014924089052968973 0 -0.00053189812073638275 -0.014917480809016661 0 -0.00052033975433974278 -0.014956023988074271 0 -0.00055600335786237212 -0.014938408943193147 0 -0.00054259828588243181 -0.014953972773803332 0 -0.00055600335786237212 -0.014938408943193147 0 -0.00055447933167817036 -0.014924089052968973 0 -0.0005762313981600843 -0.014918082614556646 0 -0.00052033975433974278 -0.014956023988074271 0 -0.00055600335786237212 -0.014938408943193147 0 -0.00055447933167817036 -0.014924089052968973 0 -0.00057825191320807958 -0.014885094934869792 0 -0.00055447933167817036 -0.014924089052968973 0 -0.00053189812073638275 -0.014917480809016661 0 -0.00053189812073638275 -0.014917480809016661 0 -0.00047001194836958159 -0.014930354537425021 0 -0.00047720699245737039 -0.01496139461959148 0 -0.00044002921552296702 -0.014947621205198011 0 -0.00047001194836958159 -0.014930354537425021 0 -0.00043770759815338833 -0.014979147868709328 0 -0.00047001194836958159 -0.014930354537425021 0 -0.00043770759815338833 -0.014979147868709328 0 -0.00047720699245737039 -0.01496139461959148 0 -0.00043770759815338833 -0.014979147868709328 0 -0.00047720699245737039 -0.01496139461959148 0 -0.00043072963077881734 -0.014998294805099276 0 -0.00052033975433974278 -0.014956023988074271 0 -0.00047720699245737039 -0.01496139461959148 0 -0.00048916511968152777 -0.014992479533663582 0 -0.00047720699245737039 -0.01496139461959148 0 -0.00048916511968152777 -0.014992479533663582 0 -0.00043072963077881734 -0.014998294805099276 0 -0.00035543122150691699 -0.015002816926894404 0 -0.00043072963077881734 -0.014998294805099276 0 -0.00039138010769126252 -0.014946034134244581 0 -0.00042416559132971821 -0.01499401988100668 0 -0.0004271636632432858 -0.014998406566099961 0 -0.00035837267048238693 -0.014931304697538393 0 -0.00041820215092186073 -0.01493829851332814 0 -0.00043072963077881734 -0.014998294805099276 0 -0.00039138010769126252 -0.014946034134244581 0 -0.00043020613622235917 -0.014965679892595226 0 -0.00035543122150691699 -0.015002816926894404 0 -0.00039138010769126252 -0.014946034134244581 0 -0.00030623116689657682 -0.014968396989303908 0 -0.00039138010769126252 -0.014946034134244581 0 -0.00030623116689657682 -0.014968396989303908 0 -0.00024770682849211643 -0.01493561437339005 0 -0.00033414972792659135 -0.014914971629153163 0 -0.00024770682849211643 -0.01493561437339005 0 -0.00026823468897217885 -0.014892938422473296 0 -0.00035837267048238693 -0.014931304697538393 0 -0.00025228061783036886 -0.014937177196440861 0 -0.00030623116689657682 -0.014968396989303908 0 -0.00024896976476183023 -0.014984956960221819 0 -0.00024770682849211643 -0.01493561437339005 0 -0.00035543122150691699 -0.015002816926894404 0 -0.00030623116689657682 -0.014968396989303908 0 -0.00024896976476183023 -0.014984956960221819 0 -0.00042416559132971821 -0.01499401988100668 0 -0.00036999811729699619 -0.015004378516563898 0 -0.00052033975433974278 -0.014956023988074271 0 -0.00054259828588243181 -0.014953972773803332 0 -0.00053789617545516575 -0.01497098877761315 0 -0.00052033975433974278 -0.014956023988074271 0 -0.00048916511968152777 -0.014992479533663582 0 -0.00053789617545516575 -0.01497098877761315 0 -0.00036999811729699619 -0.015004378516563898 0 -0.0005206920529099503 -0.014470947948284643 0 -0.00053789617545516575 -0.01497098877761315 0 -0.00055348222527393503 -0.014949840101939539 0 -0.00056850396000944871 -0.014940464495425831 0 -0.00055600335786237212 -0.014938408943193147 0 -0.00055348222527393503 -0.014949840101939539 0 -0.00056398320798305287 -0.014937919113547903 0 -0.00055600335786237212 -0.014938408943193147 0 -0.00054259828588243181 -0.014953972773803332 0 -0.00055348222527393503 -0.014949840101939539 0 -0.00054259828588243181 -0.014953972773803332 0 -0.00053789617545516575 -0.01497098877761315 0 -0.00055348222527393503 -0.014949840101939539 0 -0.00024896976476183023 -0.014984956960221819 0 -0.00020559428661606931 -0.014941674267546553 0 -0.00015750080975120259 -0.01495815047561091 0 -0.00024896976476183023 -0.014984956960221819 0 -0.00020559428661606931 -0.014941674267546553 0 -0.00024770682849211643 -0.01493561437339005 0 -0.00024770682849211643 -0.01493561437339005 0 -0.00022270243782188673 -0.014903099493329269 0 -0.00026823468897217885 -0.014892938422473296 0 -0.00020559428661606931 -0.014941674267546553 0 -0.00024770682849211643 -0.01493561437339005 0 -0.00022270243782188673 -0.014903099493329269 0 -0.00020559428661606931 -0.014941674267546553 0 -0.00018808372693357992 -0.014907334630619275 0 -0.0001767468778960507 -0.014930049052160681 0 -0.00020559428661606931 -0.014941674267546553 0 -0.00022270243782188673 -0.014903099493329269 0 -0.00018808372693357992 -0.014907334630619275 0 -0.0005206920529099503 -0.014470947948284643 0 -0.00011009117189540248 -0.013730876970742947 0 -0.00045934178771094535 -0.013678290800244535 0 -0.00026298084650157782 -0.013332718275193008 0 -0.00029747961570471423 -0.013301384505342243 0 -0.00016313185492113341 -0.01491113327404236 0 -0.00015750080975120259 -0.01495815047561091 0 -0.00013333223788541748 -0.014887935910604571 0 -0.00016313185492113341 -0.01491113327404236 0 -0.00013333223788541748 -0.014887935910604571 0 -0.00016864462923803461 -0.014892694045360012 0 -0.00018808372693357992 -0.014907334630619275 0 -0.00016313185492113341 -0.01491113327404236 0 -0.00016864462923803461 -0.014892694045360012 0 -0.00018808372693357992 -0.014907334630619275 0 -0.00016313185492113341 -0.01491113327404236 0 -0.0001767468778960507 -0.014930049052160681 0 -0.00016313185492113341 -0.01491113327404236 0 -0.0001767468778960507 -0.014930049052160681 0 -0.00015750080975120259 -0.01495815047561091 0 -0.00020559428661606931 -0.014941674267546553 0 -0.0001767468778960507 -0.014930049052160681 0 -0.00015750080975120259 -0.01495815047561091 0 -0.0005206920529099503 -0.014470947948284643 0 -0.00030573932665249625 -0.012738538055824174 0 -0.00045934178771094535 -0.013678290800244535 0 -0.00026298084650157782 -0.013332718275193008 0 -0.00018873158629133393 -0.013636816372420073 0 -0.0002268275737572813 -0.013009401896421999 0 -0.00067325965783234995 -0.010967749747300982 0 -0.0002268275737572813 -0.013009401896421999 0 -0.00030573932665249625 -0.012738538055824174 0 -0.00024462453052950871 -0.010993955024953135 0 -0.00018477563493735189 -0.010452957289597732 0 -0.00039700272621778548 -0.010702021025229092 0 0.00040792429413841441 -0.011008829615290391 0 -0.00024462453052950871 -0.010993955024953135 0 -0.00018477563493735189 -0.010452957289597732 0 -0.00080625064463873877 -0.010604532565321479 0 -0.00080541723137599367 -0.010605347346413654 0 -0.0008553193064541534 -0.010604326351870495 0 -0.00080625064463873877 -0.010604532565321479 0 -0.00080541723137599367 -0.010605347346413654 0 -0.00084357479947241658 -0.010571406533250541 0 -0.00067325965783234995 -0.010967749747300982 0 -0.00030573932665249625 -0.012738538055824174 0 -3.4211101497594368e-05 -0.012653845579503558 0 -0.00075941279892595653 -0.011985216028612588 0 -0.00021709336511362316 -0.011913693496898992 0 -0.00030573932665249625 -0.012738538055824174 0 -0.0007372758046287199 -0.012361418512827193 0 -0.00080625064463873877 -0.010604532565321479 0 -0.0008553193064541534 -0.010604326351870495 0 -0.00084223969964734445 -0.010694634745613656 0 -0.00056737259205361134 -0.014919936075620093 0 -0.00057058195499137972 -0.014920593444878883 0 -0.00056836816101025003 -0.014930429977975846 0 -0.00080625064463873877 -0.010604532565321479 0 -0.00081557024144416528 -0.010552294833502417 0 -0.00077280628803859147 -0.010540266151615041 0 -0.00045614024198145642 -0.01048075816546002 0 -0.0007372758046287199 -0.012361418512827193 0 -0.00080625064463873877 -0.010604532565321479 0 -0.00081557024144416528 -0.010552294833502417 0 -0.00084357479947241658 -0.010571406533250541 0 -0.00081557024144416528 -0.010552294833502417 0 -0.00077280628803859147 -0.010540266151615041 0 -0.00084371566537771482 -0.010505983408298327 0 -0.00057058195499137972 -0.014920593444878883 0 -0.00056836816101025003 -0.014930429977975846 0 -0.00056931011645917321 -0.014928728919343298 0 -0.00056398320798305287 -0.014937919113547903 0 -0.00056836816101025003 -0.014930429977975846 0 -0.00056931011645917321 -0.014928728919343298 0 -0.00055600335786237212 -0.014938408943193147 0 -0.00056398320798305287 -0.014937919113547903 0 -0.00056931011645917321 -0.014928728919343298 0 -0.00055348222527393503 -0.014949840101939539 0 -0.00056850396000944871 -0.014940464495425831 0 -0.00056670762769292634 -0.014938885632528431 0 -0.00056398320798305287 -0.014937919113547903 0 -0.00056670762769292634 -0.014938885632528431 0 -0.00056836816101025003 -0.014930429977975846 0 -0.00055348222527393503 -0.014949840101939539 0 -0.00056398320798305287 -0.014937919113547903 0 -0.00056670762769292634 -0.014938885632528431 0 -0.00056698030518653156 -0.014933379920317631 0 -0.00056670762769292634 -0.014938885632528431 0 -0.00056836816101025003 -0.014930429977975846 0 -0.0005206920529099503 -0.014470947948284643 0 -0.00056799427391137226 -0.014619037509961802 0 -0.00056698030518653156 -0.014933379920317631 0 -0.00056737259205361134 -0.014919936075620093 0 -0.00056836816101025003 -0.014930429977975846 0 -0.00048024783911737888 -0.005027395369088034 0 -0.00086208577806632216 -0.0053003966625161511 0 -0.0014143846522757279 -0.0050949986383853471 0 -0.00045357104478716806 -0.005797832771554122 0 -0.00013338191312101813 -0.0057009689149065132 0 -0.00033600817837772963 -0.0052841141585309474 0 -0.00013969793198692718 -0.0056671783874451985 0 -3.6944545368936925e-05 -0.0052423391937760069 0 -0.00045357104478716806 -0.005797832771554122 0 -2.4016958898871044e-05 -0.0054314402445144018 0 -9.1250217790511234e-05 -0.0052335508532398555 0 -3.6944545368936925e-05 -0.0052423391937760069 0 -5.6327990695254766e-05 -0.0051205875538939656 0 -0.00045357104478716806 -0.005797832771554122 0 -0.00011170067421094917 -0.0068529898917589439 0 -0.00048024783911737888 -0.005027395369088034 0 -0.00086208577806632216 -0.0053003966625161511 0 -0.000519020643147165 -0.0058303773612278674 0 -0.00045357104478716806 -0.005797832771554122 0 -0.00078633479869547193 -0.0081550955277798157 0 -0.00037664410816071349 -0.0072209583462662383 0 -0.00054070200666041528 -0.0072029200704242374 0 -0.00055559918667127614 -0.0072545993328808379 0 -0.00086208577806632216 -0.0053003966625161511 0 -0.001155177524461068 -0.0053283926805155505 0 -0.0014143846522757279 -0.0050949986383853471 0 -0.001155177524461068 -0.0053283926805155505 0 -0.0013503599035906821 -0.0052045010498578499 0 -0.0014143846522757279 -0.0050949986383853471 0 -0.00064368695335612828 -0.0089831303493305321 0 -0.00078633479869547193 -0.0081550955277798157 0 -0.00099184328679976803 -0.0077104044108114748 0 -0.00078633479869547193 -0.0081550955277798157 0 -0.00037664410816071349 -0.0072209583462662383 0 -0.00054070200666041528 -0.0072029200704242374 0 -0.00049652832148668969 -0.0070533214311323551 0 -0.00024462453052950871 -0.010993955024953135 0 -0.00072599338341921161 -0.010712879888712929 0 -0.00039700272621778548 -0.010702021025229092 0 -0.00072599338341921161 -0.010712879888712929 0 -0.00039700272621778548 -0.010702021025229092 0 -0.00067027496610372642 -0.01051195567454811 0 -0.00018477563493735189 -0.010452957289597732 0 -0.00039700272621778548 -0.010702021025229092 0 -0.00067027496610372642 -0.01051195567454811 0 -0.00067325965783234995 -0.010967749747300982 0 -0.00078633479869547193 -0.0081550955277798157 0 -0.0008139140744388417 -0.010597376369441863 0 -0.00086043803470623305 -0.010603772896960777 0 -0.00084357479947241658 -0.010571406533250541 0 -0.00067325965783234995 -0.010967749747300982 0 -0.00089547034392702942 -0.010639011978156056 0 -0.0013503599035906821 -0.0052045010498578499 0 -0.0014054175435519671 -0.005092619421806434 0 -0.0019677915102975004 -0.0063021790745902678 0 -0.0019677915102975004 -0.0063021790745902678 0 -0.001114675458360752 -0.0056821671926203087 0 -0.00056600051423658549 -0.0066638244193196958 0 -0.00086043803470623305 -0.010603772896960777 0 -0.00084357479947241658 -0.010571406533250541 0 -0.00084371566537771482 -0.010505983408298327 0 -0.0013503599035906821 -0.0052045010498578499 0 -0.0019677915102975004 -0.0063021790745902678 0 -0.001114675458360752 -0.0056821671926203087 0 -0.00078633479869547193 -0.0081550955277798157 0 -0.001424565724008048 -0.0081929328931417307 0 -0.00081557024144416528 -0.010552294833502417 0 -0.00084357479947241658 -0.010571406533250541 0 -0.00084371566537771482 -0.010505983408298327 0 -0.001155177524461068 -0.0053283926805155505 0 -0.0013503599035906821 -0.0052045010498578499 0 -0.001114675458360752 -0.0056821671926203087 0 -0.00086208577806632216 -0.0053003966625161511 0 -0.001155177524461068 -0.0053283926805155505 0 -0.001114675458360752 -0.0056821671926203087 0 -0.001114675458360752 -0.0056821671926203087 0 -0.000519020643147165 -0.0058303773612278674 0 -0.00056600051423658549 -0.0066638244193196958 0 -0.00086208577806632216 -0.0053003966625161511 0 -0.001114675458360752 -0.0056821671926203087 0 -0.000519020643147165 -0.0058303773612278674 0 -0.000519020643147165 -0.0058303773612278674 0 -0.00016148633001803245 -0.0063884473113767415 0 -0.00056600051423658549 -0.0066638244193196958 0 -0.000519020643147165 -0.0058303773612278674 0 -0.00016148633001803245 -0.0063884473113767415 0 -2.1765541452005677e-05 -0.0058467518661110681 0 -0.00048024783911737888 -0.005027395369088034 0 -0.000519020643147165 -0.0058303773612278674 0 -2.1765541452005677e-05 -0.0058467518661110681 0 -0.00016148633001803245 -0.0063884473113767415 0 -0.00056600051423658549 -0.0066638244193196958 0 -0.00015781183121895838 -0.006796514000162378 0 -0.0019677915102975004 -0.0063021790745902678 0 -0.00056600051423658549 -0.0066638244193196958 0 -0.0010204243452689285 -0.0080071516793273501 0 -0.0019677915102975004 -0.0063021790745902678 0 -0.0010204243452689285 -0.0080071516793273501 0 -0.0027193165889045799 -0.0083671807208574953 0 -0.0016657237888442981 -0.0093501084486108769 0 -0.0010204243452689285 -0.0080071516793273501 0 -0.0027193165889045799 -0.0083671807208574953 0 -0.0016657237888442981 -0.0093501084486108769 0 -0.0027193165889045799 -0.0083671807208574953 0 -0.0022286375534454469 -0.010798703482161002 0 -0.0016657237888442981 -0.0093501084486108769 0 -0.00079937439171843942 -0.0088215188524416611 0 -0.0010412393651661176 -0.0097346294067282464 0 -0.00079937439171843942 -0.0088215188524416611 0 -0.00014073098201313535 -0.0093942131423723312 0 -0.0010412393651661176 -0.0097346294067282464 0 -0.0016657237888442981 -0.0093501084486108769 0 -0.00079937439171843942 -0.0088215188524416611 0 -0.0010204243452689285 -0.0080071516793273501 0 -0.00046545957816777845 -0.0067802279698492597 0 -0.00044731548642754077 -0.0083425936172964212 0 -0.00056600051423658549 -0.0066638244193196958 0 -0.00048344542393348461 -0.0072291506250473569 0 -0.00015781183121895838 -0.006796514000162378 0 -0.00056600051423658549 -0.0066638244193196958 0 -0.0010204243452689285 -0.0080071516793273501 0 0.00011109792783002877 -0.0093586112702123657 0 -0.00079937439171843942 -0.0088215188524416611 0 -0.0010204243452689285 -0.0080071516793273501 0 0.00011109792783002877 -0.0093586112702123657 0 -0.00079937439171843942 -0.0088215188524416611 0 -0.00014073098201313535 -0.0093942131423723312 0 0.00011109792783002877 -0.0093586112702123657 0 -0.00014073098201313535 -0.0093942131423723312 0 0.00011459063290220392 -0.0094199122220502089 0 -0.00040673836338772157 -0.010328355460996549 0 -0.00040017072452706756 -0.0083839095251413247 0 -0.00044731548642754077 -0.0083425936172964212 0 -0.00057058195499137972 -0.014920593444878883 0 -0.0005762313981600843 -0.014918082614556646 0 -0.00056931011645917321 -0.014928728919343298 0 -0.00055600335786237212 -0.014938408943193147 0 -0.0005762313981600843 -0.014918082614556646 0 -0.00056931011645917321 -0.014928728919343298 0 -0.00069590374161652058 -0.012230952947062113 0 -0.00094850293007508872 -0.012684930025828543 0 -0.00055308421790066129 -0.012802255131073109 0 -0.0007372758046287199 -0.012361418512827193 0 -0.0012275848736867344 -0.01056282094181135 0 -0.0007372758046287199 -0.012361418512827193 0 -0.0008120122385454632 -0.014007388374312427 0 -0.001424565724008048 -0.0081929328931417307 0 -0.0012275848736867344 -0.01056282094181135 0 -0.00077280628803859147 -0.010540266151615041 0 -0.00084371566537771482 -0.010505983408298327 0 -0.00082125384797066632 -0.010391600309494892 0 -0.00094850293007508872 -0.012684930025828543 0 -0.00055308421790066129 -0.012802255131073109 0 -0.00085314269657528431 -0.013035057997042158 0 -0.0012275848736867344 -0.01056282094181135 0 -0.001190595124103811 -0.011799273898950132 0 -0.0011979432905372309 -0.013143443325232484 0 -0.00094850293007508872 -0.012684930025828543 0 -0.00085314269657528431 -0.013035057997042158 0 -0.00057825191320807958 -0.014885094934869792 0 -0.00055447933167817036 -0.014924089052968973 0 -0.0005762313981600843 -0.014918082614556646 0 -0.0008951193230395801 -0.013984463555982232 0 -0.0008120122385454632 -0.014007388374312427 0 -0.0011979432905372309 -0.013143443325232484 0 -0.00085314269657528431 -0.013035057997042158 0 -0.0010748169425275063 -0.013482841270034332 0 -0.00085314269657528431 -0.013035057997042158 0 -0.0010748169425275063 -0.013482841270034332 0 -0.00070372542904438725 -0.013367216280318575 0 -0.00063318952513632878 -0.013854275187339454 0 -0.00075173975799027609 -0.013599264323547494 0 -0.00023914571102332598 -0.01422986346941778 0 -0.00028525028225951027 -0.014142463426462087 0 -0.00031984232067085302 -0.014232568012754949 0 -0.00023914571102332598 -0.01422986346941778 0 -0.00024855265552171311 -0.01422669245973039 0 -0.00028525028225951027 -0.014142463426462087 0 -0.00027870185706836611 -0.014327392854630458 0 -0.00023914571102332598 -0.01422986346941778 0 -0.00024855265552171311 -0.01422669245973039 0 -0.00041398981386216453 -0.014186041518830602 0 -0.00061436706040779833 -0.014122782760167624 0 -0.00042207237806272154 -0.013989384975011603 0 -0.00028525028225951027 -0.014142463426462087 0 -0.00041398981386216453 -0.014186041518830602 0 -0.00042207237806272154 -0.013989384975011603 0 -0.00028525028225951027 -0.014142463426462087 0 -0.00041398981386216453 -0.014186041518830602 0 -0.0003482012731813369 -0.014308029966184396 0 -0.00039183427212681043 -0.014290862346629678 0 -0.00075173975799027609 -0.013599264323547494 0 -0.00041398981386216453 -0.014186041518830602 0 -0.0003482012731813369 -0.014308029966184396 0 -0.00053164691344622652 -0.014366138199363918 0 -0.00055308421790066129 -0.012802255131073109 0 -0.00085314269657528431 -0.013035057997042158 0 -0.00070372542904438725 -0.013367216280318575 0 -0.00096654221912139738 -0.01087295736308738 0 -0.0014565109857529691 -0.012653123532152472 0 -0.00058986670607983867 -0.012393608483637476 0 -0.00075173975799027609 -0.013599264323547494 0 -0.001190595124103811 -0.011799273898950132 0 -0.0012275848736867344 -0.01056282094181135 0 -0.00075173975799027609 -0.013599264323547494 0 -0.0016657237888442981 -0.0093501084486108769 0 -0.0010412393651661176 -0.0097346294067282464 0 -0.0022286375534454469 -0.010798703482161002 0 -0.001190595124103811 -0.011799273898950132 0 -0.00072209459596002303 -0.010512553195280175 0 -0.0010412393651661176 -0.0097346294067282464 0 -0.0022286375534454469 -0.010798703482161002 0 -0.00040673836338772157 -0.010328355460996549 0 -0.0017875528459113806 -0.01088506007228438 0 -0.00040673836338772157 -0.010328355460996549 0 -0.0007852676111931205 -0.011550061347415189 0 0.00011459063290220392 -0.0094199122220502089 0 -0.00040673836338772157 -0.010328355460996549 0 0.00032006574143401582 -0.012586961425685817 0 -0.00088598281896241015 -0.0078707862063840325 0 -0.00070293647892837399 -0.0094999079485010903 0 0.00026948591461067195 -0.0089600305914453709 0 -0.00044731548642754077 -0.0083425936172964212 0 -0.00014155938206520795 -0.011045861593953311 0 -0.00014073098201313535 -0.0093942131423723312 0 -0.0010412393651661176 -0.0097346294067282464 0 -0.00040673836338772157 -0.010328355460996549 0 -0.00040673836338772157 -0.010328355460996549 0 0.00032006574143401582 -0.012586961425685817 0 -0.0007852676111931205 -0.011550061347415189 0 0.00032006574143401582 -0.012586961425685817 0 -0.0007852676111931205 -0.011550061347415189 0 -0.0012667997071130358 -0.012356457360995653 0 0.00032006574143401582 -0.012586961425685817 0 -0.0012667997071130358 -0.012356457360995653 0 -0.00065070778238800425 -0.013589830842518269 0 -0.0017875528459113806 -0.01088506007228438 0 -0.0007852676111931205 -0.011550061347415189 0 -0.0012667997071130358 -0.012356457360995653 0 -0.00041398981386216453 -0.014186041518830602 0 -0.00053164691344622652 -0.014366138199363918 0 -0.00061436706040779833 -0.014122782760167624 0 -0.001190595124103811 -0.011799273898950132 0 -0.00088877492243495508 -0.013336848996232369 0 -0.00088877492243495508 -0.013336848996232369 0 -0.0007454482125007092 -0.013503618370869195 0 -0.00061436706040779833 -0.014122782760167624 0 -0.00065070778238800425 -0.013589830842518269 0 -0.00042207237806272154 -0.013989384975011603 0 0.00032006574143401582 -0.012586961425685817 0 -0.00065070778238800425 -0.013589830842518269 0 0.00014005998287045657 -0.014010797898628273 0 -0.00014155938206520795 -0.011045861593953311 0 -0.00054865237755759104 -0.012742612393304683 0 -0.00065070778238800425 -0.013589830842518269 0 0.00014005998287045657 -0.014010797898628273 0 -0.00039514216337487555 -0.013882672932076441 0 -0.00051783483756967735 -0.013761466304409633 0 -0.00060053234001269885 -0.013836384264137604 0 -0.00039514216337487555 -0.013882672932076441 0 -0.00054865237755759104 -0.012742612393304683 0 -0.00030329246096561955 -0.013710085061854258 0 -0.00072103294395624285 -0.012549559056881082 0 -0.00072863353435957191 -0.01248383568814628 0 -0.0005901229638649 -0.012469329887978043 0 -0.00056339555690025276 -0.013728358583393154 0 -0.00051783483756967735 -0.013761466304409633 0 -0.00060443774858688995 -0.013776197171143119 0 -0.00051783483756967735 -0.013761466304409633 0 -0.00060443774858688995 -0.013776197171143119 0 -0.00060053234001269885 -0.013836384264137604 0 -0.00056339555690025276 -0.013728358583393154 0 -0.00060443774858688995 -0.013776197171143119 0 -0.00060331414988320706 -0.013741488221840657 0 -0.00060443774858688995 -0.013776197171143119 0 -0.00060331414988320706 -0.013741488221840657 0 -0.0006462487754458154 -0.013732682816455484 0 -0.00077327811040413784 -0.012925872167970363 0 -0.00054865237755759104 -0.012742612393304683 0 -0.00065070778238800425 -0.013589830842518269 0 -0.00050465360929235407 -0.013755619814455798 0 -0.00039514216337487555 -0.013882672932076441 0 -0.00065070778238800425 -0.013589830842518269 0 -0.00050465360929235407 -0.013755619814455798 0 -0.00041710173746972929 -0.013785397923740271 0 -0.00038107756030834715 -0.013733711891323344 0 -0.00050465360929235407 -0.013755619814455798 0 -0.00041710173746972929 -0.013785397923740271 0 -0.00038107756030834715 -0.013733711891323344 0 -0.00050465360929235407 -0.013755619814455798 0 -0.00039514216337487555 -0.013882672932076441 0 -0.00038107756030834715 -0.013733711891323344 0 -0.00041710173746972929 -0.013785397923740271 0 -0.0002806081741093263 -0.013785165726191666 0 -0.00041710173746972929 -0.013785397923740271 0 -0.0002806081741093263 -0.013785165726191666 0 -0.00031446147491754332 -0.013854587412357695 0 -0.0002025615856689037 -0.013775056157770587 0 -0.0002806081741093263 -0.013785165726191666 0 -0.00017437335478203217 -0.013866661418338 0 -0.00013420083626440664 -0.013837697761745661 0 -0.00017437335478203217 -0.013866661418338 0 -0.00021217885982692753 -0.013859588396197612 0 -0.0002806081741093263 -0.013785165726191666 0 -0.00017437335478203217 -0.013866661418338 0 -0.00021217885982692753 -0.013859588396197612 0 -0.0002806081741093263 -0.013785165726191666 0 -0.00021217885982692753 -0.013859588396197612 0 -0.00031446147491754332 -0.013854587412357695 0 -0.00027148933789154523 -0.014452263661577142 0 -0.00024855265552171311 -0.01422669245973039 0 -0.00027544973470812809 -0.014025400652699969 0 -0.00013420083626440664 -0.013837697761745661 0 -0.00021217885982692753 -0.013859588396197612 0 -0.00027544973470812809 -0.014025400652699969 0 -0.00024631583450417284 -0.014143133812331466 0 -0.00029097100881939525 -0.014062568850636446 0 -0.00021217885982692753 -0.013859588396197612 0 -0.00027544973470812809 -0.014025400652699969 0 -0.00031446147491754332 -0.013854587412357695 0 -0.00024855265552171311 -0.01422669245973039 0 -0.00028525028225951027 -0.014142463426462087 0 -0.00027544973470812809 -0.014025400652699969 0 -0.00028525028225951027 -0.014142463426462087 0 -0.00027544973470812809 -0.014025400652699969 0 -0.00042207237806272154 -0.013989384975011603 0 -0.00027544973470812809 -0.014025400652699969 0 -0.00042207237806272154 -0.013989384975011603 0 -0.00040289018370447837 -0.013853710481961068 0 -0.00065070778238800425 -0.013589830842518269 0 -0.00042207237806272154 -0.013989384975011603 0 -0.00040289018370447837 -0.013853710481961068 0 -0.00041710173746972929 -0.013785397923740271 0 -0.00040289018370447837 -0.013853710481961068 0 -0.00031446147491754332 -0.013854587412357695 0 -0.00065070778238800425 -0.013589830842518269 0 -0.00041710173746972929 -0.013785397923740271 0 -0.00040289018370447837 -0.013853710481961068 0 -0.00027544973470812809 -0.014025400652699969 0 -0.00040289018370447837 -0.013853710481961068 0 -0.00031446147491754332 -0.013854587412357695 0 0.0010959706855802433 -0.01038503954199411 0 0.0017488184844727855 -0.0094441557858487273 0 0.00226475947839967 -0.0096628253903546096 0 0.0023006449155167212 -0.0072481150239939148 0 0.0011566293439649578 -0.0085304654482746146 0 0.0021055217358482846 -0.0065063511323194068 0 0.00087653410993501031 -0.0102088754398346 0 0.0022731961730215974 -0.0079162977941485257 0 0.0011566293439649578 -0.0085304654482746146 0 0.00043018401991872169 -0.0086032303623918439 0 0.0021055217358482846 -0.0065063511323194068 0 0.0002563926025081479 -0.010720402362037876 0 0.0022731961730215974 -0.0079162977941485257 0 0.00087197816780440604 -0.010886715403841368 0 0.00064447517783685802 -0.009967829927818769 0 0.0025023409847477569 -0.0088401405329355028 0 0.0021396184808355331 -0.0054455389607805261 0 0.001681397988048244 -0.00690144076126118 0 0.0026640949748008807 -0.0043020002666115699 0 0.0019530008196974697 -0.0037145242966065131 0 0.0012969676789885167 -0.0044645516982982367 0 0.0019530008196974697 -0.0037145242966065131 0 0.0026308294303831591 -0.0036938208073629291 0 0.0026063990043616913 -0.0029822194621199056 0 0.0021396184808355331 -0.0054455389607805261 0 0.0028716920218668728 -0.0046168647863526627 0 0.0026640949748008807 -0.0043020002666115699 0 0.0019530008196974697 -0.0037145242966065131 0 0.0026308294303831591 -0.0036938208073629291 0 0.0030346533767528711 -0.0029720331319258797 0 0.0028142735159635314 -0.0036746178192659388 0 0.0021833468693206021 -0.003057528327721229 0 0.0028714386181985861 -0.0033749435054021785 0 0.001681397988048244 -0.00690144076126118 0 0.001681397988048244 -0.00690144076126118 0 0.0002563926025081479 -0.010720402362037876 0 0.0002563926025081479 -0.010720402362037876 0 -0.00064143294540714205 -0.012135191207905663 0 0.00087197816780440604 -0.010886715403841368 0 -0.0012019837332457365 -0.011092292472207178 0 0.00064447517783685802 -0.009967829927818769 0 0.00098469018077573822 -0.0079719594286508152 0 0.001681397988048244 -0.00690144076126118 0 0.00040924675702093849 -0.012190072935973897 0 0.0011548702854137221 -0.011259278258505012 0 0.00079558710301035236 -0.011311156001060434 0 -0.00072081094260962437 -0.013706819652853051 0 -0.00083255431931327916 -0.013753931811140201 0 -0.00068204368603898952 -0.013770208857079275 0 -0.00064143294540714205 -0.012135191207905663 0 0.00087653410993501031 -0.0102088754398346 0 -0.00052110838413875547 -0.011150092705834051 0 -7.2815543803435049e-05 -0.011105342419206273 0 0.00017460071728741817 -0.010172830463896811 0 -0.00054865237755759104 -0.012742612393304683 0 -0.00064143294540714205 -0.012135191207905663 0 -0.00072081094260962437 -0.013706819652853051 0 -0.0006462487754458154 -0.013732682816455484 0 -0.00068204368603898952 -0.013770208857079275 0 -0.00077327811040413784 -0.012925872167970363 0 -0.00064143294540714205 -0.012135191207905663 0 -0.00060443774858688995 -0.013776197171143119 0 -0.0006462487754458154 -0.013732682816455484 0 -0.00068204368603898952 -0.013770208857079275 0 -7.2815543803435049e-05 -0.011105342419206273 0 0.00017460071728741817 -0.010172830463896811 0 0.0010959706855802433 -0.01038503954199411 0 -0.00070293647892837399 -0.0094999079485010903 0 -0.00052110838413875547 -0.011150092705834051 0 0.00017460071728741817 -0.010172830463896811 0 0.00017460071728741817 -0.010172830463896811 0 0.0010959706855802433 -0.01038503954199411 0 0.00090880012176560256 -0.0095549453062140806 0 0.0010959706855802433 -0.01038503954199411 0 0.00090880012176560256 -0.0095549453062140806 0 0.0017488184844727855 -0.0094441557858487273 0 0.00090880012176560256 -0.0095549453062140806 0 0.00026948591461067195 -0.0089600305914453709 0 0.0012539771448413835 -0.0088201306686395333 0 0.00090880012176560256 -0.0095549453062140806 0 0.0012539771448413835 -0.0088201306686395333 0 0.0017488184844727855 -0.0094441557858487273 0 0.00017460071728741817 -0.010172830463896811 0 0.00090880012176560256 -0.0095549453062140806 0 0.00026948591461067195 -0.0089600305914453709 0 -0.00070293647892837399 -0.0094999079485010903 0 0.00017460071728741817 -0.010172830463896811 0 0.00026948591461067195 -0.0089600305914453709 0 -0.00088598281896241015 -0.0078707862063840325 0 0.00026948591461067195 -0.0089600305914453709 0 0.00071911362085466527 -0.0077721315990659425 0 0.00026948591461067195 -0.0089600305914453709 0 0.0012539771448413835 -0.0088201306686395333 0 0.00071911362085466527 -0.0077721315990659425 0 0.0012539771448413835 -0.0088201306686395333 0 0.0019442150294653379 -0.0084134910676402289 0 0.00071911362085466527 -0.0077721315990659425 0 0.0012539771448413835 -0.0088201306686395333 0 0.0019442150294653379 -0.0084134910676402289 0 0.0021085677533546981 -0.0089503949741668639 0 0.0012539771448413835 -0.0088201306686395333 0 0.0021085677533546981 -0.0089503949741668639 0 0.0017488184844727855 -0.0094441557858487273 0 0.0021085677533546981 -0.0089503949741668639 0 0.0017488184844727855 -0.0094441557858487273 0 0.0024643641595537822 -0.0093760936945103835 0 0.0018632461655783393 -0.0091261919656291119 0 0.0023310125039445163 -0.0078243172372535613 0 0.0017488184844727855 -0.0094441557858487273 0 0.00226475947839967 -0.0096628253903546096 0 0.0024924679109796974 -0.00937499831510334 0 0.0031777898813727338 -0.0084743854038660613 0 0.0021085677533546981 -0.0089503949741668639 0 0.0024643641595537822 -0.0093760936945103835 0 0.0030157094523507173 -0.0072660954964009093 0 0.0023310125039445163 -0.0078243172372535613 0 0.0029014542876899629 -0.0063382244235537684 0 0.0027988787101399719 -0.0060480957471134413 0 0.0025359547582775978 -0.0065626594535564296 0 0.0027988787101399719 -0.0060480957471134413 0 0.0025359547582775978 -0.0065626594535564296 0 0.0023761796416479066 -0.0065769138304945978 0 0.0023006449155167212 -0.0072481150239939148 0 0.0029226478052281246 -0.0060114672241735508 0 0.0034369402329572927 -0.0059691714969437315 0 0.0026555808580573277 -0.0063485651387484628 0 0.0028716920218668728 -0.0046168647863526627 0 0.0026555808580573277 -0.0063485651387484628 0 0.0022731961730215974 -0.0079162977941485257 0 0.0023006449155167212 -0.0072481150239939148 0 0.0029226478052281246 -0.0060114672241735508 0 0.0021055217358482846 -0.0065063511323194068 0 0.0026906607450421292 -0.0070970987683147743 0 0.0020087348979046251 -0.00750694916363391 0 0.0023135134751376837 -0.0071266859771421994 0 0.0022731961730215974 -0.0079162977941485257 0 0.0023310125039445163 -0.0078243172372535613 0 0.0026555808580573277 -0.0063485651387484628 0 0.0023310125039445163 -0.0078243172372535613 0 0.0028963632037813016 -0.0046826702226647737 0 0.0026555808580573277 -0.0063485651387484628 0 0.0032081338315945486 -0.005086061879079503 0 0.0025587277239989552 -0.0054785928589407154 0 0.002881262795315225 -0.0054524713685487969 0 0.0031777898813727338 -0.0084743854038660613 0 0.0019442150294653379 -0.0084134910676402289 0 0.0023134016345715798 -0.0076762721888709567 0 0.0031777898813727338 -0.0084743854038660613 0 0.0019442150294653379 -0.0084134910676402289 0 0.0021085677533546981 -0.0089503949741668639 0 0.0016799606629124869 -0.007153129156885216 0 0.00047133668672094035 -0.0072075640606597243 0 0.00087440938824051757 -0.0065015670069945358 0 0.0019442150294653379 -0.0084134910676402289 0 0.0023134016345715798 -0.0076762721888709567 0 0.00071911362085466527 -0.0077721315990659425 0 0.0020320960195935492 -0.0075426114277649904 0 0.00054430821481292371 -0.0073638816951769387 0 0.00087440938824051757 -0.0065015670069945358 0 0.00058330358739575202 -0.0056676658457401642 0 0.0015050952245748476 -0.006055558147877161 0 0.0016799606629124869 -0.007153129156885216 0 0.00087440938824051757 -0.0065015670069945358 0 0.0015050952245748476 -0.006055558147877161 0 0.0019961539859698224 -0.0061940594729162201 0 0.0012689370601819856 -0.0059041802424200035 0 0.002348837152415178 -0.006386299875863569 0 0.0016799606629124869 -0.007153129156885216 0 0.0015050952245748476 -0.006055558147877161 0 -0.00048344542393348461 -0.0072291506250473569 0 0.00047133668672094035 -0.0072075640606597243 0 -0.00015781183121895838 -0.006796514000162378 0 -0.00044731548642754077 -0.0083425936172964212 0 0.00054430821481292371 -0.0073638816951769387 0 0.00087440938824051757 -0.0065015670069945358 0 0.00019352890083129147 -0.0063348007494067838 0 0.00058330358739575202 -0.0056676658457401642 0 0.00047133668672094035 -0.0072075640606597243 0 0.00087440938824051757 -0.0065015670069945358 0 0.00019352890083129147 -0.0063348007494067838 0 0.00047133668672094035 -0.0072075640606597243 0 0.00019352890083129147 -0.0063348007494067838 0 -0.00015781183121895838 -0.006796514000162378 0 -0.00016148633001803245 -0.0063884473113767415 0 0.00019352890083129147 -0.0063348007494067838 0 -0.00015781183121895838 -0.006796514000162378 0 0.00019613863887107358 -0.0062713878223441145 0 -0.00013338191312101813 -0.0057009689149065132 0 -0.00016148633001803245 -0.0063884473113767415 0 0.00019352890083129147 -0.0063348007494067838 0 -2.1765541452005677e-05 -0.0058467518661110681 0 0.00019352890083129147 -0.0063348007494067838 0 -0.00013969793198692718 -0.0056671783874451985 0 0.00021870334565077826 -0.0057855047555686635 0 0.00021870334565077826 -0.0057855047555686635 0 0.00058330358739575202 -0.0056676658457401642 0 0.00014453413472807417 -0.005420144445375176 0 -0.00013969793198692718 -0.0056671783874451985 0 0.00021870334565077826 -0.0057855047555686635 0 0.00014453413472807417 -0.005420144445375176 0 0.00058330358739575202 -0.0056676658457401642 0 0.00040909262711945815 -0.0052609006991066213 0 0.00014453413472807417 -0.005420144445375176 0 0.00019352890083129147 -0.0063348007494067838 0 0.00021870334565077826 -0.0057855047555686635 0 0.00058330358739575202 -0.0056676658457401642 0 0.00040909262711945815 -0.0052609006991066213 0 0.0007799133985959448 -0.0052805444472319284 0 0.00071623804181312394 -0.0047759004271826517 0 0.00058330358739575202 -0.0056676658457401642 0 0.00040909262711945815 -0.0052609006991066213 0 0.0007799133985959448 -0.0052805444472319284 0 0.00040909262711945815 -0.0052609006991066213 0 0.00014453413472807417 -0.005420144445375176 0 5.7034790021105233e-05 -0.0051473384213240004 0 0.00014453413472807417 -0.005420144445375176 0 -3.6944545368936925e-05 -0.0052423391937760069 0 5.7034790021105233e-05 -0.0051473384213240004 0 -3.6944545368936925e-05 -0.0052423391937760069 0 5.7034790021105233e-05 -0.0051473384213240004 0 -5.6327990695254766e-05 -0.0051205875538939656 0 -0.00013969793198692718 -0.0056671783874451985 0 0.00014453413472807417 -0.005420144445375176 0 -3.6944545368936925e-05 -0.0052423391937760069 0 0.0014834778434262537 -0.0055377634545893638 0 0.0010570082905351406 -0.0057601755592846015 0 0.0010965717510999589 -0.0049484650050555514 0 0.0019390064530946671 -0.0053453156866690504 0 0.0014834778434262537 -0.0055377634545893638 0 0.0010965717510999589 -0.0049484650050555514 0 0.0016730709822294504 -0.0059682789173792347 0 0.0014834778434262537 -0.0055377634545893638 0 0.0010570082905351406 -0.0057601755592846015 0 0.00058330358739575202 -0.0056676658457401642 0 0.0010570082905351406 -0.0057601755592846015 0 0.0007799133985959448 -0.0052805444472319284 0 0.0010570082905351406 -0.0057601755592846015 0 0.0010965717510999589 -0.0049484650050555514 0 0.0007799133985959448 -0.0052805444472319284 0 0.0006331739393721841 -0.0056792484881037332 0 0.0012689370601819856 -0.0059041802424200035 0 0.0010965717510999589 -0.0049484650050555514 0 0.0007799133985959448 -0.0052805444472319284 0 0.00071623804181312394 -0.0047759004271826517 0 0.0016785267791191434 -0.0052751572109447182 0 0.0011063492882835303 -0.0049152264779344064 0 0.0013815592040265631 -0.0046188034170674061 0 0.0010965717510999589 -0.0049484650050555514 0 0.0012401028914479726 -0.0046241158322597878 0 0.0012401028914479726 -0.0046241158322597878 0 0.0010096709032457666 -0.0044927370309720271 0 0.0012883433570199645 -0.0043666437019530919 0 0.0010965717510999589 -0.0049484650050555514 0 0.0012401028914479726 -0.0046241158322597878 0 0.0010096709032457666 -0.0044927370309720271 0 0.00071623804181312394 -0.0047759004271826517 0 0.0010096709032457666 -0.0044927370309720271 0 0.00069176123247715715 -0.0043173914223815528 0 0.0010965717510999589 -0.0049484650050555514 0 0.00071623804181312394 -0.0047759004271826517 0 0.0010096709032457666 -0.0044927370309720271 0 0.0010096709032457666 -0.0044927370309720271 0 0.00069176123247715715 -0.0043173914223815528 0 0.0009668424095574191 -0.0041840628988210563 0 0.00069176123247715715 -0.0043173914223815528 0 0.0009668424095574191 -0.0041840628988210563 0 0.0007067447203089101 -0.0039417170420566949 0 0.0010096709032457666 -0.0044927370309720271 0 0.0009668424095574191 -0.0041840628988210563 0 0.0012883433570199645 -0.0043666437019530919 0 0.00040909262711945815 -0.0052609006991066213 0 5.7034790021105233e-05 -0.0051473384213240004 0 8.2538266811723975e-05 -0.0050231002198134148 0 5.7034790021105233e-05 -0.0051473384213240004 0 -5.3339892894339795e-06 -0.005051656613533146 0 8.2538266811723975e-05 -0.0050231002198134148 0 5.7034790021105233e-05 -0.0051473384213240004 0 -5.3339892894339795e-06 -0.005051656613533146 0 -5.6327990695254766e-05 -0.0051205875538939656 0 0.00036852122813747784 -0.0052077061552181633 0 0.00018304128236422954 -0.0049198798212181189 0 0.00071623804181312394 -0.0047759004271826517 0 0.00069176123247715715 -0.0043173914223815528 0 0.00019395338378596003 -0.0045831436963053793 0 0.00040909262711945815 -0.0052609006991066213 0 0.00071623804181312394 -0.0047759004271826517 0 0.00019395338378596003 -0.0045831436963053793 0 0.00069176123247715715 -0.0043173914223815528 0 0.00019395338378596003 -0.0045831436963053793 0 0.00038293101856859256 -0.0040441446261015234 0 0.00018304128236422954 -0.0049198798212181189 0 -0.00010480247448724761 -0.0040537763419331036 0 8.2538266811723975e-05 -0.0050231002198134148 0 -2.3532621192014617e-05 -0.0049808051225532692 0 -3.0530167338412686e-05 -0.0050008828140309138 0 0.00019395338378596003 -0.0045831436963053793 0 1.901270830622475e-07 -0.0040300142276534371 0 0.00038293101856859256 -0.0040441446261015234 0 -5.3339892894339795e-06 -0.005051656613533146 0 8.2538266811723975e-05 -0.0050231002198134148 0 -3.0530167338412686e-05 -0.0050008828140309138 0 1.901270830622475e-07 -0.0040300142276534371 0 0.00017780598741389786 -0.0037109054823898429 0 -0.00018713217165126434 -0.003492964951016541 0 1.901270830622475e-07 -0.0040300142276534371 0 0.00038293101856859256 -0.0040441446261015234 0 0.00017780598741389786 -0.0037109054823898429 0 0.00038293101856859256 -0.0040441446261015234 0 0.00044294324193458896 -0.0036743777126192535 0 0.00017780598741389786 -0.0037109054823898429 0 0.00069176123247715715 -0.0043173914223815528 0 0.00038293101856859256 -0.0040441446261015234 0 0.0007067447203089101 -0.0039417170420566949 0 0.00038293101856859256 -0.0040441446261015234 0 0.00044294324193458896 -0.0036743777126192535 0 0.0007067447203089101 -0.0039417170420566949 0 0.00044294324193458896 -0.0036743777126192535 0 0.0007067447203089101 -0.0039417170420566949 0 0.0007127771529420265 -0.0036255475538941426 0 0.00051533245884992894 -0.0034251010485870995 0 0.0007127771529420265 -0.0036255475538941426 0 0.00064467534100310839 -0.0030754942284412752 0 0.00051533245884992894 -0.0034251010485870995 0 0.00044294324193458896 -0.0036743777126192535 0 0.0007127771529420265 -0.0036255475538941426 0 0.00051533245884992894 -0.0034251010485870995 0 0.00044294324193458896 -0.0036743777126192535 0 0.0002786937657258678 -0.0033208200728171312 0 0.00044294324193458896 -0.0036743777126192535 0 0.00017780598741389786 -0.0037109054823898429 0 0.0002786937657258678 -0.0033208200728171312 0 0.00017780598741389786 -0.0037109054823898429 0 0.0002786937657258678 -0.0033208200728171312 0 -0.00018713217165126434 -0.003492964951016541 0 0.00080274881205124932 -0.003514590642604864 0 0.00077909484071906775 -0.0032178521791017085 0 0.00071528322112354215 -0.0031318672738436973 0 0.0010581863156757896 -0.0039533855753691258 0 0.00086035723698660435 -0.0034395555617925868 0 0.00077909484071906775 -0.0032178521791017085 0 0.00088398060195601783 -0.002734740744649329 0 0.0010462417685055321 -0.0029427483515987968 0 0.0009668424095574191 -0.0041840628988210563 0 0.0012883433570199645 -0.0043666437019530919 0 0.0010309276573920458 -0.0037476138781816913 0 0.00077909484071906775 -0.0032178521791017085 0 0.0010462417685055321 -0.0029427483515987968 0 0.0010567339192425822 -0.0032508524117651609 0 0.00080274881205124932 -0.003514590642604864 0 0.00077909484071906775 -0.0032178521791017085 0 0.0010567339192425822 -0.0032508524117651609 0 0.0009668424095574191 -0.0041840628988210563 0 0.0007067447203089101 -0.0039417170420566949 0 0.0010309276573920458 -0.0037476138781816913 0 0.0007067447203089101 -0.0039417170420566949 0 0.0010309276573920458 -0.0037476138781816913 0 0.0007127771529420265 -0.0036255475538941426 0 0.0010309276573920458 -0.0037476138781816913 0 0.0007127771529420265 -0.0036255475538941426 0 0.00064467534100310839 -0.0030754942284412752 0 0.00071528322112354215 -0.0031318672738436973 0 0.00070316148756076129 -0.0030920482053888245 0 0.00064467534100310839 -0.0030754942284412752 0 0.00086035723698660435 -0.0034395555617925868 0 0.00065852999978771468 -0.0030906452965298761 0 0.00064024117066539192 -0.0025268088543124812 0 0.00088398060195601783 -0.002734740744649329 0 0.00086563225219682871 -0.0024487441208272784 0 0.00078195820899615938 -0.0031968514819193236 0 0.00068228812456885086 -0.0028251028201431213 0 0.00077909484071906775 -0.0032178521791017085 0 0.00071528322112354215 -0.0031318672738436973 0 0.00070316148756076129 -0.0030920482053888245 0 0.00077909484071906775 -0.0032178521791017085 0 0.00064024117066539192 -0.0025268088543124812 0 0.00088398060195601783 -0.002734740744649329 0 0.00088398060195601783 -0.002734740744649329 0 0.0010649473189361272 -0.0026169486420500429 0 0.0010462417685055321 -0.0029427483515987968 0 0.00088398060195601783 -0.002734740744649329 0 0.00086563225219682871 -0.0024487441208272784 0 0.0010649473189361272 -0.0026169486420500429 0 0.00064024117066539192 -0.0025268088543124812 0 0.00086563225219682871 -0.0024487441208272784 0 0.00076160029903320822 -0.0023125754752998384 0 0.00086563225219682871 -0.0024487441208272784 0 0.00090468030796342857 -0.0022396829398700245 0 0.00076160029903320822 -0.0023125754752998384 0 0.00086563225219682871 -0.0024487441208272784 0 0.00090468030796342857 -0.0022396829398700245 0 0.0010811339984113967 -0.0023410517136868134 0 0.00090468030796342857 -0.0022396829398700245 0 0.00077979879101217216 -0.0021837793379491282 0 0.00098991868841568275 -0.0020712157242056472 0 0.00090468030796342857 -0.0022396829398700245 0 0.00076160029903320822 -0.0023125754752998384 0 0.00077979879101217216 -0.0021837793379491282 0 0.00076160029903320822 -0.0023125754752998384 0 0.00064696153936290865 -0.002247772512242719 0 0.00077979879101217216 -0.0021837793379491282 0 0.00068228812456885086 -0.0028251028201431213 0 0.00065294478734837479 -0.0025377116789210637 0 0.00070316148756076129 -0.0030920482053888245 0 0.00069239334034474525 -0.002848105579019503 0 0.00064467534100310839 -0.0030754942284412752 0 0.00064024117066539192 -0.0025268088543124812 0 0.00076160029903320822 -0.0023125754752998384 0 0.00064696153936290865 -0.002247772512242719 0 0.00064467534100310839 -0.0030754942284412752 0 0.00040593413856671918 -0.0029886166754199326 0 0.0002786937657258678 -0.0033208200728171312 0 0.00051533245884992894 -0.0034251010485870995 0 0.00064467534100310839 -0.0030754942284412752 0 0.0002786937657258678 -0.0033208200728171312 0 0.00069239334034474525 -0.002848105579019503 0 0.00064467534100310839 -0.0030754942284412752 0 0.00040593413856671918 -0.0029886166754199326 0 0.00040593413856671918 -0.0029886166754199326 0 0.0002786937657258678 -0.0033208200728171312 0 -7.376543299361429e-06 -0.0029416503101240637 0 0.0002786937657258678 -0.0033208200728171312 0 -7.376543299361429e-06 -0.0029416503101240637 0 -0.00018713217165126434 -0.003492964951016541 0 -0.00021014512285980478 -0.010420822724689765 0 -0.00048728160340745589 -0.011686020859379873 0 0.00010148991941803489 -0.010962675505684987 0 -0.00010618710110333541 -0.0067057268938997515 0 -0.00018393154401770285 -0.0066373891887084235 0 0.00040593413856671918 -0.0029886166754199326 0 -7.376543299361429e-06 -0.0029416503101240637 0 0.00034007778274535496 -0.002724581107560126 0 -7.376543299361429e-06 -0.0029416503101240637 0 0.00034007778274535496 -0.002724581107560126 0 0.00018661139825362628 -0.0023615173359323011 0 0.00069239334034474525 -0.002848105579019503 0 0.00034007778274535496 -0.002724581107560126 0 0.00043063587297361832 -0.0025335109741636374 0 0.00069239334034474525 -0.002848105579019503 0 0.00040593413856671918 -0.0029886166754199326 0 0.00034007778274535496 -0.002724581107560126 0 0.00065294478734837479 -0.0025377116789210637 0 0.00051631846665571156 -0.0022143024113454599 0 0.00064696153936290865 -0.002247772512242719 0 0.0005068901208334489 -0.0022041955613279146 0 0.00065893741879000046 -0.002179688250837876 0 0.00069239334034474525 -0.002848105579019503 0 0.00043063587297361832 -0.0025335109741636374 0 0.0005068901208334489 -0.0022041955613279146 0 0.00043063587297361832 -0.0025335109741636374 0 0.00018661139825362628 -0.0023615173359323011 0 0.0005068901208334489 -0.0022041955613279146 0 0.0005068901208334489 -0.0022041955613279146 0 0.00063155437728633151 -0.0021189344572306395 0 0.00065893741879000046 -0.002179688250837876 0 0.00034007778274535496 -0.002724581107560126 0 0.00043063587297361832 -0.0025335109741636374 0 0.00018661139825362628 -0.0023615173359323011 0 0.00018661139825362628 -0.0023615173359323011 0 0.00048182427532948144 -0.0020817058841595517 0 0.00040334474457643396 -0.0019404735266652089 0 -0.00018393154401770285 -0.0066373891887084235 0 0.00062756099531896873 -0.0094306594213389994 0 -0.00048728160340745589 -0.011686020859379873 0 -0.00018833306325993516 -0.012415276146082076 0 -0.00077225163430260008 -0.01285787805022336 0 -0.00048728160340745589 -0.011686020859379873 0 -0.00018833306325993516 -0.012415276146082076 0 0.00030845830629422881 -0.01229859205249929 0 0.0005068901208334489 -0.0022041955613279146 0 0.00048182427532948144 -0.0020817058841595517 0 0.00063155437728633151 -0.0021189344572306395 0 0.00018661139825362628 -0.0023615173359323011 0 0.0005068901208334489 -0.0022041955613279146 0 0.00048182427532948144 -0.0020817058841595517 0 0.00048182427532948144 -0.0020817058841595517 0 0.00060800739165383863 -0.0020189924376112786 0 0.00040334474457643396 -0.0019404735266652089 0 0.00048182427532948144 -0.0020817058841595517 0 0.00060800739165383863 -0.0020189924376112786 0 0.00063155437728633151 -0.0021189344572306395 0 0.00060800739165383863 -0.0020189924376112786 0 0.00075461266213620024 -0.0020465153190780076 0 0.0007848730903016989 -0.0019371012548684667 0 0.00060800739165383863 -0.0020189924376112786 0 0.00063155437728633151 -0.0021189344572306395 0 0.00075461266213620024 -0.0020465153190780076 0 0.00063155437728633151 -0.0021189344572306395 0 0.00075461266213620024 -0.0020465153190780076 0 0.00073267331086945039 -0.0021255353864990598 0 0.00075461266213620024 -0.0020465153190780076 0 0.00084479361935530049 -0.0020848742565326554 0 0.00073267331086945039 -0.0021255353864990598 0 0.00075461266213620024 -0.0020465153190780076 0 0.00091953489439904198 -0.002007553636920326 0 0.00084479361935530049 -0.0020848742565326554 0 0.00091953489439904198 -0.002007553636920326 0 0.0007848730903016989 -0.0019371012548684667 0 0.001028390367151466 -0.0019274974615668384 0 0.00075461266213620024 -0.0020465153190780076 0 0.00091953489439904198 -0.002007553636920326 0 0.0007848730903016989 -0.0019371012548684667 0 0.00077979879101217216 -0.0021837793379491282 0 0.00084479361935530049 -0.0020848742565326554 0 0.00098991868841568275 -0.0020712157242056472 0 0.00091953489439904198 -0.002007553636920326 0 0.00084479361935530049 -0.0020848742565326554 0 0.00098991868841568275 -0.0020712157242056472 0 0.00077979879101217216 -0.0021837793379491282 0 0.00065893741879000046 -0.002179688250837876 0 0.00073267331086945039 -0.0021255353864990598 0 0.00064696153936290865 -0.002247772512242719 0 0.00077979879101217216 -0.0021837793379491282 0 0.00065893741879000046 -0.002179688250837876 0 0.00063155437728633151 -0.0021189344572306395 0 0.00065893741879000046 -0.002179688250837876 0 0.00073267331086945039 -0.0021255353864990598 0 0.00077979879101217216 -0.0021837793379491282 0 0.00084479361935530049 -0.0020848742565326554 0 0.00073267331086945039 -0.0021255353864990598 0 0.00019714876629225433 -0.013949797673471652 0 0.00024928610327764651 -0.014041404555246311 0 0.00016467648497775397 -0.014045230133462913 0 0.00019714876629225433 -0.013949797673471652 0 0.00034232423227423871 -0.013970633911088255 0 0.00024928610327764651 -0.014041404555246311 0 0.00034232423227423871 -0.013970633911088255 0 0.000323841475079632 -0.014097578652231595 0 0.00041999474072125043 -0.014050450854824174 0 0.00034232423227423871 -0.013970633911088255 0 0.000323841475079632 -0.014097578652231595 0 0.00024928610327764651 -0.014041404555246311 0 0.00024928610327764651 -0.014041404555246311 0 0.00016467648497775397 -0.014045230133462913 0 0.00020855608088203372 -0.014119249502132791 0 0.000323841475079632 -0.014097578652231595 0 0.00024928610327764651 -0.014041404555246311 0 0.00020855608088203372 -0.014119249502132791 0 0.00016467648497775397 -0.014045230133462913 0 8.6964440332665407e-05 -0.014111436287263033 0 8.566522367905839e-05 -0.014009905109952002 0 0.00016467648497775397 -0.014045230133462913 0 8.6964440332665407e-05 -0.014111436287263033 0 0.00020855608088203372 -0.014119249502132791 0 8.6964440332665407e-05 -0.014111436287263033 0 8.566522367905839e-05 -0.014009905109952002 0 6.6156442544040835e-06 -0.014080870957377013 0 0.00019714876629225433 -0.013949797673471652 0 0.00016467648497775397 -0.014045230133462913 0 8.566522367905839e-05 -0.014009905109952002 0 0.00019714876629225433 -0.013949797673471652 0 8.566522367905839e-05 -0.014009905109952002 0 0.00010739583119724829 -0.013863461118337172 0 8.566522367905839e-05 -0.014009905109952002 0 0.00010739583119724829 -0.013863461118337172 0 -2.7205274112144307e-05 -0.014021731846520315 0 0.00010739583119724829 -0.013863461118337172 0 0.00028308590766808189 -0.013768480070860019 0 0.00026376428817973706 -0.013659773183053789 0 0.00019714876629225433 -0.013949797673471652 0 0.00010739583119724829 -0.013863461118337172 0 0.00028308590766808189 -0.013768480070860019 0 0.00019714876629225433 -0.013949797673471652 0 0.00034232423227423871 -0.013970633911088255 0 0.00028308590766808189 -0.013768480070860019 0 0.00028308590766808189 -0.013768480070860019 0 0.00042177379673236516 -0.013525648303064458 0 0.00026376428817973706 -0.013659773183053789 0 0.00070726434153690649 -0.012931048800852017 0 0.00061263631392408926 -0.013186197646240728 0 0.00034232423227423871 -0.013970633911088255 0 0.00028308590766808189 -0.013768480070860019 0 0.00058663164768709634 -0.013862854823517103 0 0.00058663164768709634 -0.013862854823517103 0 0.00057064489265961846 -0.013205489324720505 0 0.00042177379673236516 -0.013525648303064458 0 0.00028308590766808189 -0.013768480070860019 0 0.00058663164768709634 -0.013862854823517103 0 0.00042177379673236516 -0.013525648303064458 0 0.00087990000231637298 -0.012087618972758665 0 0.00030845830629422881 -0.01229859205249929 0 0.00057064489265961846 -0.013205489324720505 0 -0.00018833306325993516 -0.012415276146082076 0 0.00030845830629422881 -0.01229859205249929 0 0.0002918908425158719 -0.012864727161116116 0 -0.00048728160340745589 -0.011686020859379873 0 0.00038079013787205393 -0.011444595143994233 0 0.00010148991941803489 -0.010962675505684987 0 -0.00048728160340745589 -0.011686020859379873 0 0.00030845830629422881 -0.01229859205249929 0 0.00038079013787205393 -0.011444595143994233 0 0.00087990000231637298 -0.012087618972758665 0 0.00030845830629422881 -0.01229859205249929 0 0.00038079013787205393 -0.011444595143994233 0 0.00070726434153690649 -0.012931048800852017 0 0.00071237960101349751 -0.012662373534372785 0 0.00087990000231637298 -0.012087618972758665 0 0.00038079013787205393 -0.011444595143994233 0 0.0009302065254102156 -0.01093469358941741 0 0.00058663164768709634 -0.013862854823517103 0 0.00041999474072125043 -0.014050450854824174 0 0.00048090320769998728 -0.014133512451642983 0 0.00034232423227423871 -0.013970633911088255 0 0.00058663164768709634 -0.013862854823517103 0 0.00041999474072125043 -0.014050450854824174 0 0.00041999474072125043 -0.014050450854824174 0 0.00038609117787480476 -0.014149177403000724 0 0.00048090320769998728 -0.014133512451642983 0 0.00071237960101349751 -0.012662373534372785 0 0.00058105348206727617 -0.011517886586294986 0 0.0009302065254102156 -0.01093469358941741 0 0.00055340291337958023 -0.010843297401053083 0 0.00092872484975654748 -0.010011414353017722 0 0.0007950413063370688 -0.010158472798610728 0 0.00058105348206727617 -0.011517886586294986 0 0.000323841475079632 -0.014097578652231595 0 0.00041999474072125043 -0.014050450854824174 0 0.00038609117787480476 -0.014149177403000724 0 0.00048090320769998728 -0.014133512451642983 0 0.00037636101481216411 -0.014221779292938714 0 0.00042611785311854337 -0.014294413810512554 0 0.00038609117787480476 -0.014149177403000724 0 0.00048090320769998728 -0.014133512451642983 0 0.00037636101481216411 -0.014221779292938714 0 0.00055340291337958023 -0.010843297401053083 0 0.00030494470053808612 -0.010374214243275386 0 0.00098333594959188852 -0.0097109257788433028 0 0.00010148991941803489 -0.010962675505684987 0 0.00055340291337958023 -0.010843297401053083 0 0.00030494470053808612 -0.010374214243275386 0 0.00038079013787205393 -0.011444595143994233 0 0.0009302065254102156 -0.01093469358941741 0 0.00055340291337958023 -0.010843297401053083 0 0.00038079013787205393 -0.011444595143994233 0 0.00010148991941803489 -0.010962675505684987 0 0.00055340291337958023 -0.010843297401053083 0 -0.00021014512285980478 -0.010420822724689765 0 0.00010148991941803489 -0.010962675505684987 0 0.00030494470053808612 -0.010374214243275386 0 -0.00021014512285980478 -0.010420822724689765 0 0.00044612833055554638 -0.0098620865294974554 0 0.00013334085198900029 -0.0090280616423957533 0 -0.00010618710110333541 -0.0067057268938997515 0 -2.5992124001829547e-05 -0.0064999676263311663 0 -0.00021014512285980478 -0.010420822724689765 0 0.00030494470053808612 -0.010374214243275386 0 0.00044612833055554638 -0.0098620865294974554 0 0.00030494470053808612 -0.010374214243275386 0 0.00044612833055554638 -0.0098620865294974554 0 0.00098333594959188852 -0.0097109257788433028 0 0.00044612833055554638 -0.0098620865294974554 0 0.00098333594959188852 -0.0097109257788433028 0 0.00058253743587437646 -0.0094055188591604735 0 0.00044612833055554638 -0.0098620865294974554 0 0.00023932141844637179 -0.0091898241449472218 0 0.00058253743587437646 -0.0094055188591604735 0 0.00073610348249051054 -0.010401797990557236 0 -2.5992124001829547e-05 -0.0064999676263311663 0 0.00037636101481216411 -0.014221779292938714 0 0.00042611785311854337 -0.014294413810512554 0 0.00031140092116369717 -0.01431390463171041 0 0.00031140092116369717 -0.01431390463171041 0 0.00019238968388419852 -0.014289036359425822 0 0.00018949437774654581 -0.014421830555648591 0 0.00031140092116369717 -0.01431390463171041 0 0.00027548357344896299 -0.014204323755952266 0 0.00019238968388419852 -0.014289036359425822 0 0.00037636101481216411 -0.014221779292938714 0 0.00031140092116369717 -0.01431390463171041 0 0.00027548357344896299 -0.014204323755952266 0 0.00038609117787480476 -0.014149177403000724 0 0.00037636101481216411 -0.014221779292938714 0 0.00027548357344896299 -0.014204323755952266 0 0.00027548357344896299 -0.014204323755952266 0 0.00020855608088203372 -0.014119249502132791 0 0.00014029070036760939 -0.014204573328208476 0 0.000323841475079632 -0.014097578652231595 0 0.00027548357344896299 -0.014204323755952266 0 0.00020855608088203372 -0.014119249502132791 0 0.000323841475079632 -0.014097578652231595 0 0.00038609117787480476 -0.014149177403000724 0 0.00027548357344896299 -0.014204323755952266 0 0.00014029070036760939 -0.014204573328208476 0 1.811416511903223e-05 -0.014172069930031384 0 4.6788081204909638e-05 -0.014288280363690285 0 8.6964440332665407e-05 -0.014111436287263033 0 0.00014029070036760939 -0.014204573328208476 0 1.811416511903223e-05 -0.014172069930031384 0 8.6964440332665407e-05 -0.014111436287263033 0 0.00020855608088203372 -0.014119249502132791 0 0.00014029070036760939 -0.014204573328208476 0 0.00027548357344896299 -0.014204323755952266 0 0.00014029070036760939 -0.014204573328208476 0 0.00019238968388419852 -0.014289036359425822 0 0.00014029070036760939 -0.014204573328208476 0 0.00019238968388419852 -0.014289036359425822 0 4.6788081204909638e-05 -0.014288280363690285 0 0.00019238968388419852 -0.014289036359425822 0 0.00018949437774654581 -0.014421830555648591 0 4.6788081204909638e-05 -0.014288280363690285 0 -3.5008486786336603e-05 -0.014748398497808604 0 -0.00017271516189744525 -0.014359495745933848 0 -0.00035911559368624867 -0.014575078447100999 0 -0.00033412897312992923 -0.014573724589025264 0 -0.00032659643945684208 -0.014591819252281488 0 0.00031140092116369717 -0.01431390463171041 0 0.00018949437774654581 -0.014421830555648591 0 0.00034790040164707893 -0.014421706171615884 0 0.00018949437774654581 -0.014421830555648591 0 0.0002911913403419927 -0.014526651708904669 0 0.00034790040164707893 -0.014421706171615884 0 -3.5008486786336603e-05 -0.014748398497808604 0 0.00013221702562074401 -0.013088160246377687 0 0.00013221702562074401 -0.013088160246377687 0 0.00031901151205436333 -0.013121445105386898 0 -0.00035911559368624867 -0.014575078447100999 0 -0.00035358566047907758 -0.014530954778893272 0 -0.00033412897312992923 -0.014573724589025264 0 -0.00035911559368624867 -0.014575078447100999 0 -0.0004050494074911761 -0.014514979367793609 0 -0.00035358566047907758 -0.014530954778893272 0 0.00023932141844637179 -0.0091898241449472218 0 0.00058253743587437646 -0.0094055188591604735 0 0.00064902273564731831 -0.0089705310730922756 0 0.00019899418774626829 -0.01193509358818101 0 0.00040311125023124132 -0.01142945380447008 0 0.00019762685574751897 -0.011141339647794582 0 0.00042611785311854337 -0.014294413810512554 0 0.00031140092116369717 -0.01431390463171041 0 0.00034790040164707893 -0.014421706171615884 0 0.00098333594959188852 -0.0097109257788433028 0 0.00058253743587437646 -0.0094055188591604735 0 0.00064902273564731831 -0.0089705310730922756 0 0.00098333594959188852 -0.0097109257788433028 0 0.00064902273564731831 -0.0089705310730922756 0 0.00093626193311152281 -0.0084586720763791794 0 0.00058105348206727617 -0.011517886586294986 0 0.00031901151205436333 -0.013121445105386898 0 0.00058105348206727617 -0.011517886586294986 0 0.00062940071530929564 -0.0095376909662313603 0 0.00064902273564731831 -0.0089705310730922756 0 0.00093626193311152281 -0.0084586720763791794 0 0.00054961257617918877 -0.0081411499050764533 0 0.00062844371007423684 -0.010911319532370426 0 0.00040311125023124132 -0.01142945380447008 0 0.00019762685574751897 -0.011141339647794582 0 -2.3532621192014617e-05 -0.0049808051225532692 0 -2.9897201663721883e-05 -0.0050046919542854808 0 -4.8959086535971968e-05 -0.0049864222975584318 0 0.00023932141844637179 -0.0091898241449472218 0 0.00064902273564731831 -0.0089705310730922756 0 0.00054961257617918877 -0.0081411499050764533 0 -0.00010480247448724761 -0.0040537763419331036 0 -2.5992124001829547e-05 -0.0064999676263311663 0 -2.5992124001829547e-05 -0.0064999676263311663 0 0.00031747610854415139 -0.0065332521334086086 0 -4.8959086535971968e-05 -0.0049864222975584318 0 -5.8015171515527271e-05 -0.0050438399493060422 0 -0.00013915739881990554 -0.0051066368816923315 0 0.00031747610854415139 -0.0065332521334086086 0 -0.00011170067421094917 -0.0068529898917589439 0 -5.3339892894339795e-06 -0.005051656613533146 0 -5.8015171515527271e-05 -0.0050438399493060422 0 -3.0530167338412686e-05 -0.0050008828140309138 0 -4.8959086535971968e-05 -0.0049864222975584318 0 -5.8015171515527271e-05 -0.0050438399493060422 0 -3.0530167338412686e-05 -0.0050008828140309138 0 -2.3532621192014617e-05 -0.0049808051225532692 0 -4.8959086535971968e-05 -0.0049864222975584318 0 -3.0530167338412686e-05 -0.0050008828140309138 0 0.00062940071530929564 -0.0095376909662313603 0 0.00013279442453451167 -0.0093663522972067814 0 0.00054961257617918877 -0.0081411499050764533 0 0.00079746599866792258 -0.0071938990332248154 0 0.00092246493131544925 -0.007366687376103148 0 0.00093626193311152281 -0.0084586720763791794 0 0.00054961257617918877 -0.0081411499050764533 0 0.00092246493131544925 -0.007366687376103148 0 0.00062844371007423684 -0.010911319532370426 0 0.00019762685574751897 -0.011141339647794582 0 0.00020640855573959282 -0.010303841217629979 0 0.00013221702562074401 -0.013088160246377687 0 0.00013279442453451167 -0.0093663522972067814 0 -0.00064368695335612828 -0.0089831303493305321 0 0.00013279442453451167 -0.0093663522972067814 0 -0.00034496081106414386 -0.0087333786812913046 0 -0.00021761813058649817 -0.0083160486517835745 0 -0.00031684241000535086 -0.0081725604318500858 0 -0.00024462453052950871 -0.010993955024953135 0 -0.00072599338341921161 -0.010712879888712929 0 -0.00074314478448238698 -0.011504476610732579 0 -0.00064368695335612828 -0.0089831303493305321 0 -0.00011170067421094917 -0.0068529898917589439 0 -0.00011170067421094917 -0.0068529898917589439 0 0.00013279442453451167 -0.0093663522972067814 0 -5.8015171515527271e-05 -0.0050438399493060422 0 -0.00013915739881990554 -0.0051066368816923315 0 -5.6327990695254766e-05 -0.0051205875538939656 0 -9.1250217790511234e-05 -0.0052335508532398555 0 -0.00013915739881990554 -0.0051066368816923315 0 -5.6327990695254766e-05 -0.0051205875538939656 0 -5.3339892894339795e-06 -0.005051656613533146 0 -5.8015171515527271e-05 -0.0050438399493060422 0 -5.6327990695254766e-05 -0.0051205875538939656 0 -0.0003515789716622027 -0.014490198475426985 0 -0.00036858653470245062 -0.014442097937260616 0 -0.00031692258981355756 -0.014497987772045589 0 -0.00037260663610674534 -0.014476558681291128 0 -0.0003515789716622027 -0.014490198475426985 0 -0.00037733008339276881 -0.014500072349881833 0 -0.00037260663610674534 -0.014476558681291128 0 -0.0003515789716622027 -0.014490198475426985 0 -0.00036858653470245062 -0.014442097937260616 0 -0.00035358566047907758 -0.014530954778893272 0 -0.0003515789716622027 -0.014490198475426985 0 -0.00033613431839400591 -0.014518247769697748 0 -0.00035358566047907758 -0.014530954778893272 0 -0.0003515789716622027 -0.014490198475426985 0 -0.00037733008339276881 -0.014500072349881833 0 -0.0004050494074911761 -0.014514979367793609 0 -0.00037733008339276881 -0.014500072349881833 0 -0.00039408529074729063 -0.014471657096147918 0 -9.8288340894660324e-05 -0.012427441201160128 0 -0.00074314478448238698 -0.011504476610732579 0 0.00017291878238654337 -0.011785302033749388 0 0.00013221702562074401 -0.013088160246377687 0 -9.5313582341808754e-05 -0.013124155398142661 0 -0.0004050494074911761 -0.014514979367793609 0 -0.00035358566047907758 -0.014530954778893272 0 -0.00037733008339276881 -0.014500072349881833 0 -0.00037260663610674534 -0.014476558681291128 0 -0.00037733008339276881 -0.014500072349881833 0 -0.00039408529074729063 -0.014471657096147918 0 -0.00074314478448238698 -0.011504476610732579 0 0.00017291878238654337 -0.011785302033749388 0 3.2407042681176061e-05 -0.011312412118207382 0 0.00017291878238654337 -0.011785302033749388 0 3.2407042681176061e-05 -0.011312412118207382 0 0.00044232111880614973 -0.011150454160129114 0 -9.5313582341808754e-05 -0.013124155398142661 0 -8.4115039499028021e-05 -0.013344991308867507 0 -0.00024462453052950871 -0.010993955024953135 0 -0.00074314478448238698 -0.011504476610732579 0 3.2407042681176061e-05 -0.011312412118207382 0 0.00040792429413841441 -0.011008829615290391 0 3.2407042681176061e-05 -0.011312412118207382 0 0.00044232111880614973 -0.011150454160129114 0 0.00040792429413841441 -0.011008829615290391 0 -0.00024462453052950871 -0.010993955024953135 0 3.2407042681176061e-05 -0.011312412118207382 0 -0.0002268275737572813 -0.013009401896421999 0 -8.4115039499028021e-05 -0.013344991308867507 0 -0.00036816518991338775 -0.014406281831409497 0 -0.00037194808578111716 -0.014413459811742361 0 -0.00036858653470245062 -0.014442097937260616 0 -0.00013333223788541748 -0.014887935910604571 0 -0.00019040049416282919 -0.014865055130764332 0 -0.00020283696197823494 -0.014827680981053483 0 -0.00036816518991338775 -0.014406281831409497 0 -0.00036858653470245062 -0.014442097937260616 0 -0.00031692258981355756 -0.014497987772045589 0 -3.3600008989039836e-05 -0.013461194992131966 0 -1.3289207460966598e-06 -0.013490412792772631 0 -1.6206658997008195e-05 -0.013526491344923111 0 -0.00013333223788541748 -0.014887935910604571 0 -0.00016864462923803461 -0.014892694045360012 0 -0.00019040049416282919 -0.014865055130764332 0 -0.00011009117189540248 -0.013730876970742947 0 -0.00024025586713960256 -0.01480702557607436 0 -0.0002268275737572813 -0.013009401896421999 0 -0.00011009117189540248 -0.013730876970742947 0 -0.00011009117189540248 -0.013730876970742947 0 -8.4115039499028021e-05 -0.013344991308867507 0 -8.4115039499028021e-05 -0.013344991308867507 0 -7.1917106773090501e-05 -0.014179626286696556 0 -0.00037260663610674534 -0.014476558681291128 0 -0.00039408529074729063 -0.014471657096147918 0 -0.00036858653470245062 -0.014442097937260616 0 -0.00039408529074729063 -0.014471657096147918 0 -0.00037618937557049498 -0.014411289632110745 0 -0.00036858653470245062 -0.014442097937260616 0 -0.00018808372693357992 -0.014907334630619275 0 -0.00016864462923803461 -0.014892694045360012 0 -0.00019040049416282919 -0.014865055130764332 0 -0.00022270243782188673 -0.014903099493329269 0 -0.00018808372693357992 -0.014907334630619275 0 -0.00019040049416282919 -0.014865055130764332 0 -0.00022270243782188673 -0.014903099493329269 0 -0.00023119400207466089 -0.01487346836604799 0 -0.00026823468897217885 -0.014892938422473296 0 -0.00022270243782188673 -0.014903099493329269 0 -0.00023119400207466089 -0.01487346836604799 0 -0.00019040049416282919 -0.014865055130764332 0 -0.00023119400207466089 -0.01487346836604799 0 -0.00020283696197823494 -0.014827680981053483 0 -0.00025180782872776246 -0.014853158715346822 0 -0.00023119400207466089 -0.01487346836604799 0 -0.00019040049416282919 -0.014865055130764332 0 -0.00020283696197823494 -0.014827680981053483 0 -0.00031692258981355756 -0.014497987772045589 0 -0.00032453679964377361 -0.014549817634421263 0 -0.00031072295478863318 -0.01456988369506582 0 -0.00031692258981355756 -0.014497987772045589 0 -0.00033613431839400591 -0.014518247769697748 0 -0.00032453679964377361 -0.014549817634421263 0 -0.0003515789716622027 -0.014490198475426985 0 -0.00031692258981355756 -0.014497987772045589 0 -0.00033613431839400591 -0.014518247769697748 0 -0.00020283696197823494 -0.014827680981053483 0 -0.00024415541620999141 -0.01480532093299417 0 -0.00025180782872776246 -0.014853158715346822 0 -0.00024591978973559391 -0.014805584815344056 0 -0.00032481759880858836 -0.014801965880367782 0 -0.00020283696197823494 -0.014827680981053483 0 -0.00024415541620999141 -0.01480532093299417 0 -0.00026726228575999037 -0.01472955551018465 0 -0.00024025586713960256 -0.01480702557607436 0 -0.0003053857928337485 -0.014619959869301521 0 -0.00024415541620999141 -0.01480532093299417 0 -0.00032672051086361179 -0.014767286619366948 0 -0.00026726228575999037 -0.01472955551018465 0 -0.00024415541620999141 -0.01480532093299417 0 -0.00029875480704002826 -0.014865955425863171 0 -0.00032872593038998818 -0.014831828210187154 0 -0.00024415541620999141 -0.01480532093299417 0 -0.00025180782872776246 -0.014853158715346822 0 -0.00029875480704002826 -0.014865955425863171 0 -0.00025180782872776246 -0.014853158715346822 0 -0.00026823468897217885 -0.014892938422473296 0 -0.00029875480704002826 -0.014865955425863171 0 -0.00023119400207466089 -0.01487346836604799 0 -0.00025180782872776246 -0.014853158715346822 0 -0.00026823468897217885 -0.014892938422473296 0 -0.00033414972792659135 -0.014914971629153163 0 -0.00033112015792515729 -0.01486733592457638 0 -0.00029875480704002826 -0.014865955425863171 0 -0.00033414972792659135 -0.014914971629153163 0 -0.00026823468897217885 -0.014892938422473296 0 -0.00029875480704002826 -0.014865955425863171 0 -0.00033414972792659135 -0.014914971629153163 0 -0.00033112015792515729 -0.01486733592457638 0 -0.00036221693527185693 -0.014878655679074879 0 -0.00033414972792659135 -0.014914971629153163 0 -0.00036221693527185693 -0.014878655679074879 0 -0.00040210581832326824 -0.014913398219398813 0 -0.00036221693527185693 -0.014878655679074879 0 -0.00032872593038998818 -0.014831828210187154 0 -0.00038443855500684091 -0.01484663133701614 0 -0.00032481759880858836 -0.014801965880367782 0 -0.00039401658569694392 -0.014778178994964778 0 -0.00033112015792515729 -0.01486733592457638 0 -0.00029875480704002826 -0.014865955425863171 0 -0.00032872593038998818 -0.014831828210187154 0 -0.00033112015792515729 -0.01486733592457638 0 -0.00036221693527185693 -0.014878655679074879 0 -0.00032872593038998818 -0.014831828210187154 0 -0.00033148756823070987 -0.014629617087624988 0 -0.0003053857928337485 -0.014619959869301521 0 -0.00036632382731037916 -0.014706465712689656 0 -0.00033909956066576668 -0.014622301250623861 0 -0.00026726228575999037 -0.01472955551018465 0 -0.00032672051086361179 -0.014767286619366948 0 -0.00036632382731037916 -0.014706465712689656 0 -0.00026726228575999037 -0.01472955551018465 0 -0.00036632382731037916 -0.014706465712689656 0 -0.00040067145362049779 -0.014650341048264348 0 -0.00043059646285313337 -0.014702295251337486 0 -0.00032672051086361179 -0.014767286619366948 0 -0.00036632382731037916 -0.014706465712689656 0 -0.00041777393925921112 -0.01474800857581021 0 -0.00036632382731037916 -0.014706465712689656 0 -0.00041777393925921112 -0.01474800857581021 0 -0.00043059646285313337 -0.014702295251337486 0 -0.00040067145362049779 -0.014650341048264348 0 -0.00033909956066576668 -0.014622301250623861 0 -0.00041145601612508335 -0.014590949493038618 0 -0.00036632382731037916 -0.014706465712689656 0 -0.00040067145362049779 -0.014650341048264348 0 -0.00033909956066576668 -0.014622301250623861 0 -0.00033909956066576668 -0.014622301250623861 0 -0.00031952133459325167 -0.014586342284038878 0 -0.00032154605021638631 -0.014588107516422238 0 -0.00033909956066576668 -0.014622301250623861 0 -0.00031952133459325167 -0.014586342284038878 0 -0.00031072295478863318 -0.01456988369506582 0 -0.00031952133459325167 -0.014586342284038878 0 -0.00033412897312992923 -0.014573724589025264 0 -0.00032453679964377361 -0.014549817634421263 0 -0.00031952133459325167 -0.014586342284038878 0 -0.00033412897312992923 -0.014573724589025264 0 -0.00032659643945684208 -0.014591819252281488 0 -0.00035358566047907758 -0.014530954778893272 0 -0.00033412897312992923 -0.014573724589025264 0 -0.00032453679964377361 -0.014549817634421263 0 -0.00035358566047907758 -0.014530954778893272 0 -0.00033613431839400591 -0.014518247769697748 0 -0.00032453679964377361 -0.014549817634421263 0 -0.00031952133459325167 -0.014586342284038878 0 -0.00032453679964377361 -0.014549817634421263 0 -0.00031072295478863318 -0.01456988369506582 0 -0.00049863604747065881 -0.015155531724796716 0 -0.00049261562924124663 -0.015202508083484039 0 -0.00045433747242354963 -0.015141219256832959 0 -0.00051191571158824682 -0.015180231942901589 0 -0.00049863604747065881 -0.015155531724796716 0 -0.00049261562924124663 -0.015202508083484039 0 -0.00051191571158824682 -0.015180231942901589 0 -0.00049863604747065881 -0.015155531724796716 0 -0.00052483728729186239 -0.01516715506660494 0 -0.00049863604747065881 -0.015155531724796716 0 -0.00051942037760939507 -0.015148851080495383 0 -0.00052483728729186239 -0.01516715506660494 0 -0.00049863604747065881 -0.015155531724796716 0 -0.00048988329493484595 -0.015133445996360826 0 -0.00045433747242354963 -0.015141219256832959 0 -0.00048988329493484595 -0.015133445996360826 0 -0.00049320819045107719 -0.015107707900442555 0 -0.00045433747242354963 -0.015141219256832959 0 -0.00048988329493484595 -0.015133445996360826 0 -0.00049320819045107719 -0.015107707900442555 0 -0.00051192567117439556 -0.015129364917527477 0 -0.00051149350980389736 -0.015098182542863355 0 -0.00049320819045107719 -0.015107707900442555 0 -0.00051192567117439556 -0.015129364917527477 0 -0.00049863604747065881 -0.015155531724796716 0 -0.00051192567117439556 -0.015129364917527477 0 -0.00051942037760939507 -0.015148851080495383 0 -0.00049863604747065881 -0.015155531724796716 0 -0.00048988329493484595 -0.015133445996360826 0 -0.00051192567117439556 -0.015129364917527477 0 -0.00051149350980389736 -0.015098182542863355 0 -0.00051192567117439556 -0.015129364917527477 0 -0.00054238091039711595 -0.015143208350056428 0 -0.00047001895954143611 -0.014935637286875018 0 -0.00046903726282753778 -0.014911578524486737 0 -0.00042547303166615385 -0.014891029432116227 0 -0.00051192567117439556 -0.015129364917527477 0 -0.00051942037760939507 -0.015148851080495383 0 -0.00054238091039711595 -0.015143208350056428 0 -0.00048797807866955559 -0.014983635142046444 0 -0.00047001895954143611 -0.014935637286875018 0 -0.00046903726282753778 -0.014911578524486737 0 -0.00049732694983592462 -0.015040542762653668 0 -0.00050424758022919779 -0.015029439137792049 0 -0.00050424758022919779 -0.015029439137792049 0 -0.00052233798086632316 -0.014999804950585572 0 -0.00054238091039711595 -0.015143208350056428 0 -0.00052483728729186239 -0.01516715506660494 0 -0.00056981098130472652 -0.015189666837981888 0 -0.00052483728729186239 -0.01516715506660494 0 -0.00056981098130472652 -0.015189666837981888 0 -0.00053138033577912361 -0.015195664863184742 0 -0.00051942037760939507 -0.015148851080495383 0 -0.00054238091039711595 -0.015143208350056428 0 -0.00052483728729186239 -0.01516715506660494 0 -0.00051191571158824682 -0.015180231942901589 0 -0.00052483728729186239 -0.01516715506660494 0 -0.00053138033577912361 -0.015195664863184742 0 -0.00042547303166615385 -0.014891029432116227 0 -0.00038443855500684091 -0.01484663133701614 0 -0.00044274636024828107 -0.014849216724538598 0 -0.00046903726282753778 -0.014911578524486737 0 -0.00042547303166615385 -0.014891029432116227 0 -0.00044274636024828107 -0.014849216724538598 0 -0.00047013731755816854 -0.014934951917482927 0 -0.00041820215092186073 -0.01493829851332814 0 -0.00045626866913901499 -0.014979698939374795 0 -0.00047001895954143611 -0.014935637286875018 0 -0.00043020613622235917 -0.014965679892595226 0 -0.00047001895954143611 -0.014935637286875018 0 -0.00042547303166615385 -0.014891029432116227 0 -0.00040210581832326824 -0.014913398219398813 0 -0.00042547303166615385 -0.014891029432116227 0 -0.00040210581832326824 -0.014913398219398813 0 -0.00039321750414725678 -0.014881627218460147 0 -0.00036221693527185693 -0.014878655679074879 0 -0.00040210581832326824 -0.014913398219398813 0 -0.00039321750414725678 -0.014881627218460147 0 -0.00039401658569694392 -0.014778178994964778 0 -0.00052233798086632316 -0.014999804950585572 0 -0.00036221693527185693 -0.014878655679074879 0 -0.00039321750414725678 -0.014881627218460147 0 -0.00038443855500684091 -0.01484663133701614 0 -0.00042547303166615385 -0.014891029432116227 0 -0.00039321750414725678 -0.014881627218460147 0 -0.00038443855500684091 -0.01484663133701614 0 -0.00041777393925921112 -0.01474800857581021 0 -0.00046296908432537793 -0.014715328914924284 0 -0.00051208753932940041 -0.014738962879817024 0 -0.00041777393925921112 -0.01474800857581021 0 -0.00046296908432537793 -0.014715328914924284 0 -0.00043059646285313337 -0.014702295251337486 0 -0.00046296908432537793 -0.014715328914924284 0 -0.00043059646285313337 -0.014702295251337486 0 -0.00047306901030403433 -0.014671747519144648 0 -0.00047575070969145197 -0.014703711086201304 0 -0.00047622832350035273 -0.01486051662867709 0 -0.00043059646285313337 -0.014702295251337486 0 -0.00043413057078271343 -0.014665281879477972 0 -0.00046582040946963553 -0.014668466557076395 0 -0.00044458045872280494 -0.014638404303625244 0 -0.00051857806092421468 -0.014636361773516019 0 -0.00041145601612508335 -0.014590949493038618 0 -0.00040067145362049779 -0.014650341048264348 0 -0.00044458045872280494 -0.014638404303625244 0 -0.00041145601612508335 -0.014590949493038618 0 -0.00040067145362049779 -0.014650341048264348 0 -0.00043413057078271343 -0.014665281879477972 0 -0.00044458045872280494 -0.014638404303625244 0 -0.00040067145362049779 -0.014650341048264348 0 -0.00043059646285313337 -0.014702295251337486 0 -0.00043413057078271343 -0.014665281879477972 0 -0.00041347057638189787 -0.014651855033262174 0 -0.00047622832350035273 -0.01486051662867709 0 -0.00043413057078271343 -0.014665281879477972 0 -0.00044458045872280494 -0.014638404303625244 0 -0.00046582040946963553 -0.014668466557076395 0 -0.00047622832350035273 -0.01486051662867709 0 -0.00061205493057292764 -0.015093994541328247 0 -0.00044458045872280494 -0.014638404303625244 0 -0.00046628157027212139 -0.014677241186352854 0 -0.00051857806092421468 -0.014636361773516019 0 -0.00053688988362701176 -0.015228570620930085 0 -0.00055543260874433024 -0.015215901747680286 0 -0.00056015911759600614 -0.015236818150341077 0 -0.00046296908432537793 -0.014715328914924284 0 -0.00047306901030403433 -0.014671747519144648 0 -0.00051208753932940041 -0.014738962879817024 0 -0.00047622832350035273 -0.01486051662867709 0 -0.00052233798086632316 -0.014999804950585572 0 -0.00053688988362701176 -0.015228570620930085 0 -0.00055116883773227894 -0.015253817236850419 0 -0.00056015911759600614 -0.015236818150341077 0 -0.00057351677407233936 -0.015253429950285119 0 -0.00056015911759600614 -0.015236818150341077 0 -0.00058343767997241845 -0.015232176113780761 0 -0.00052233798086632316 -0.014999804950585572 0 -0.00056576875650004015 -0.015225010145667234 0 -0.00055116883773227894 -0.015253817236850419 0 -0.00057351677407233936 -0.015253429950285119 0 -0.00056015911759600614 -0.015236818150341077 0 -0.00061205493057292764 -0.015093994541328247 0 -0.0005141488436126799 -0.01579499566436211 0 -0.00055543260874433024 -0.015215901747680286 0 -0.00056015911759600614 -0.015236818150341077 0 -0.00058343767997241845 -0.015232176113780761 0 -0.0005141488436126799 -0.01579499566436211 0 -0.00062195500384216638 -0.015633331781250075 0 -0.00053903662341450113 -0.015500926373714455 0 -0.00063429317770513464 -0.015547919370162628 0 -0.0005853220951943242 -0.01546554179719185 0 -0.00061205493057292764 -0.015093994541328247 0 -0.00062195500384216638 -0.015633331781250075 0 -0.00033684781958480615 -0.016398905170728156 0 -0.00035974386127801314 -0.016356628878132759 0 -0.00038644440809124358 -0.016391627898199083 0 -0.00033684781958480615 -0.016398905170728156 0 -0.00035974386127801314 -0.016356628878132759 0 -0.00030988952683880212 -0.016348398251910298 0 -0.0005141488436126799 -0.01579499566436211 0 -0.00043153296202033854 -0.016114193072623965 0 -0.00057351677407233936 -0.015253429950285119 0 -0.00058343767997241845 -0.015232176113780761 0 -0.00059526955768437367 -0.015253204940723781 0 -0.00046484760227201417 -0.015837598136962672 0 -0.00046528151261523678 -0.015839125825690494 0 -0.00046635170792746171 -0.01584087523301226 0 -0.0005141488436126799 -0.01579499566436211 0 -0.00049807092822631296 -0.015505031643192583 0 -0.00051191571158824682 -0.015180231942901589 0 -0.00053138033577912361 -0.015195664863184742 0 -0.00049261562924124663 -0.015202508083484039 0 -0.00056576875650004015 -0.015225010145667234 0 -0.00049807092822631296 -0.015505031643192583 0 -0.00065875629093065048 -0.014860553129827529 0 -0.00066900390113196261 -0.014901493924262548 0 -0.00062019502841698603 -0.014888511329574016 0 -0.00065875629093065048 -0.014860553129827529 0 -0.00071095340302682866 -0.014885498106550845 0 -0.00066900390113196261 -0.014901493924262548 0 -0.00055974639540182724 -0.015634524133345633 0 -0.00077329249048643128 -0.01485273287659299 0 -0.00055974639540182724 -0.015634524133345633 0 -0.00062195500384216638 -0.015633331781250075 0 -0.00036476548380318574 -0.016306827520782923 0 -0.00035974386127801314 -0.016356628878132759 0 -0.00030988952683880212 -0.016348398251910298 0 -0.00096958239296254909 -0.015027746417721533 0 -0.00082801769239371388 -0.015139086014458918 0 -0.00086456541274158004 -0.015037825402957115 0 -0.00076095758734188025 -0.015198513898275407 0 -0.00083177217040240794 -0.01514322756046913 0 -0.00076791940309659825 -0.015127953059592025 0 -0.00083177217040240794 -0.01514322756046913 0 -0.00078774270686034014 -0.015068197824588002 0 -0.00076791940309659825 -0.015127953059592025 0 -0.00062195500384216638 -0.015633331781250075 0 -0.00065006391607057854 -0.015124952982860299 0 -0.00082801769239371388 -0.015139086014458918 0 -0.00078774270686034014 -0.015068197824588002 0 -0.00086456541274158004 -0.015037825402957115 0 -0.00078774270686034014 -0.015068197824588002 0 -0.00083251834047084095 -0.014939586029182239 0 -0.00086456541274158004 -0.015037825402957115 0 -0.00096958239296254909 -0.015027746417721533 0 -0.00083251834047084095 -0.014939586029182239 0 -0.00086456541274158004 -0.015037825402957115 0 -0.00078774270686034014 -0.015068197824588002 0 -0.00083251834047084095 -0.014939586029182239 0 -0.00072959746372658579 -0.014980940178247156 0 -0.00083251834047084095 -0.014939586029182239 0 -0.00072959746372658579 -0.014980940178247156 0 -0.00069439199922112092 -0.014850373392870424 0 -0.00072959746372658579 -0.014980940178247156 0 -0.00062238880298839494 -0.014973315848771885 0 -0.00069439199922112092 -0.014850373392870424 0 -0.00072959746372658579 -0.014980940178247156 0 -0.00069160583795868224 -0.015101137055501189 0 -0.00062238880298839494 -0.014973315848771885 0 -0.00061205493057292764 -0.015093994541328247 0 -0.00048519495014582469 -0.014826972721691983 0 -0.00076095758734188025 -0.015198513898275407 0 -0.00069160583795868224 -0.015101137055501189 0 -0.00056352955228244927 -0.01511606863539898 0 -0.00078774270686034014 -0.015068197824588002 0 -0.00076791940309659825 -0.015127953059592025 0 -0.00069160583795868224 -0.015101137055501189 0 -0.00078774270686034014 -0.015068197824588002 0 -0.00072959746372658579 -0.014980940178247156 0 -0.00069160583795868224 -0.015101137055501189 0 -0.00076095758734188025 -0.015198513898275407 0 -0.00076791940309659825 -0.015127953059592025 0 -0.00069160583795868224 -0.015101137055501189 0 -0.00069160583795868224 -0.015101137055501189 0 -0.00056352955228244927 -0.01511606863539898 0 -0.00062238880298839494 -0.014973315848771885 0 -0.00056352955228244927 -0.01511606863539898 0 -0.00062238880298839494 -0.014973315848771885 0 -0.00047818681137972542 -0.014983245700108087 0 -0.00062238880298839494 -0.014973315848771885 0 -0.00069439199922112092 -0.014850373392870424 0 -0.00046929150103321323 -0.014814916733243803 0 -0.00069439199922112092 -0.014850373392870424 0 -0.00046929150103321323 -0.014814916733243803 0 -0.00054507149729039783 -0.014594771221979138 0 -0.00069906508602823165 -0.014825080928832432 0 -0.00069439199922112092 -0.014850373392870424 0 -0.00054507149729039783 -0.014594771221979138 0 -0.00069906508602823165 -0.014825080928832432 0 -0.00054507149729039783 -0.014594771221979138 0 -0.00063260004159061613 -0.014623765530514631 0 -0.00069906508602823165 -0.014825080928832432 0 -0.00069439199922112092 -0.014850373392870424 0 -0.00071703768417541664 -0.014907647376699631 0 -0.00077329249048643128 -0.01485273287659299 0 -0.00070547886694539768 -0.014869588838758921 0 -0.00071095340302682866 -0.014885498106550845 0 -0.00071703768417541664 -0.014907647376699631 0 -0.00066900390113196261 -0.014901493924262548 0 -0.00071095340302682866 -0.014885498106550845 0 -0.00069439199922112092 -0.014850373392870424 0 -0.00071703768417541664 -0.014907647376699631 0 -0.00069906508602823165 -0.014825080928832432 0 -0.00071703768417541664 -0.014907647376699631 0 -0.00072667781731997787 -0.015031976915089893 0 -0.00076284709062969004 -0.015109852177923258 0 -0.00086035024923671228 -0.015270806730330305 0 -0.00071703768417541664 -0.014907647376699631 0 -0.00072667781731997787 -0.015031976915089893 0 -0.00062918504211759336 -0.014953417894361757 0 -0.00072667781731997787 -0.015031976915089893 0 -0.0011109431281512514 -0.015725285542597108 0 -0.0011509883545055676 -0.015503621653943145 0 -0.00066900390113196261 -0.014901493924262548 0 -0.00062918504211759336 -0.014953417894361757 0 -0.00062894740867167466 -0.014920020266842922 0 -0.00071703768417541664 -0.014907647376699631 0 -0.00066900390113196261 -0.014901493924262548 0 -0.00062918504211759336 -0.014953417894361757 0 -0.00031954490171868871 -0.014580741120735818 0 -0.00032154605021638631 -0.014588107516422238 0 -0.00033868512680000596 -0.0145765242786834 0 -0.00018211314718260489 -0.014540960588980394 0 -0.00031362475147669443 -0.014828408859766077 0 -8.8048436401378502e-05 -0.014146770938455105 0 1.811416511903223e-05 -0.014172069930031384 0 -2.5959703665421857e-07 -0.014130326477652791 0 -0.00031954490171868871 -0.014580741120735818 0 -0.00032659643945684208 -0.014591819252281488 0 -0.00032154605021638631 -0.014588107516422238 0 -0.00018211314718260489 -0.014540960588980394 0 -0.00017271516189744525 -0.014359495745933848 0 -8.8048436401378502e-05 -0.014146770938455105 0 1.811416511903223e-05 -0.014172069930031384 0 4.6788081204909638e-05 -0.014288280363690285 0 8.6964440332665407e-05 -0.014111436287263033 0 1.811416511903223e-05 -0.014172069930031384 0 -2.5959703665421857e-07 -0.014130326477652791 0 -0.00031952133459325167 -0.014586342284038878 0 -0.00032659643945684208 -0.014591819252281488 0 -0.00032154605021638631 -0.014588107516422238 0 -0.00033909956066576668 -0.014622301250623861 0 -0.00032154605021638631 -0.014588107516422238 0 -0.00033868512680000596 -0.0145765242786834 0 -0.00033909956066576668 -0.014622301250623861 0 -0.00041145601612508335 -0.014590949493038618 0 -0.00033868512680000596 -0.0145765242786834 0 -0.00048519495014582469 -0.014826972721691983 0 -0.00031362475147669443 -0.014828408859766077 0 -0.00047818681137972542 -0.014983245700108087 0 -0.00029409882895270223 -0.015024862079296495 0 -0.00046929150103321323 -0.014814916733243803 0 -0.00062238880298839494 -0.014973315848771885 0 -0.00047818681137972542 -0.014983245700108087 0 -0.00046929150103321323 -0.014814916733243803 0 -0.00056352955228244927 -0.01511606863539898 0 -0.00047818681137972542 -0.014983245700108087 0 -0.00029409882895270223 -0.015024862079296495 0 5.6016566645005346e-05 -0.014883285795689719 0 -0.00029409882895270223 -0.015024862079296495 0 -0.00022579476901497339 -0.014808649958341188 0 -0.00029409882895270223 -0.015024862079296495 0 -0.00022579476901497339 -0.014808649958341188 0 -0.00046929150103321323 -0.014814916733243803 0 -0.00022579476901497339 -0.014808649958341188 0 -0.00034277144845245336 -0.014638828302840344 0 -8.3331647165025107e-05 -0.01465785903783026 0 -0.00022579476901497339 -0.014808649958341188 0 -0.00046929150103321323 -0.014814916733243803 0 -0.00034277144845245336 -0.014638828302840344 0 -0.00046929150103321323 -0.014814916733243803 0 -0.00054507149729039783 -0.014594771221979138 0 -0.00034277144845245336 -0.014638828302840344 0 -0.00054507149729039783 -0.014594771221979138 0 -0.00034277144845245336 -0.014638828302840344 0 -0.00027877299083679509 -0.014321403268323355 0 -0.00026337001069815056 -0.014299585496331023 0 -0.00012494045155440631 -0.014397590736394511 0 -0.00034277144845245336 -0.014638828302840344 0 -0.00027877299083679509 -0.014321403268323355 0 -8.3331647165025107e-05 -0.01465785903783026 0 -0.00014065989727254168 -0.014091078325616506 0 -0.000159846441875453 -0.014127063043646106 0 -8.0550813270556957e-05 -0.014100277782352958 0 -0.00027877299083679509 -0.014321403268323355 0 -0.00014065989727254168 -0.014091078325616506 0 -0.000159846441875453 -0.014127063043646106 0 -8.8048436401378502e-05 -0.014146770938455105 0 -0.000159846441875453 -0.014127063043646106 0 -8.0550813270556957e-05 -0.014100277782352958 0 -0.00018211314718260489 -0.014540960588980394 0 -0.00012494045155440631 -0.014397590736394511 0 5.6016566645005346e-05 -0.014883285795689719 0 -0.00022579476901497339 -0.014808649958341188 0 -8.3331647165025107e-05 -0.01465785903783026 0 8.6964440332665407e-05 -0.014111436287263033 0 6.6156442544040835e-06 -0.014080870957377013 0 -2.5959703665421857e-07 -0.014130326477652791 0 6.6156442544040835e-06 -0.014080870957377013 0 -2.5959703665421857e-07 -0.014130326477652791 0 -3.8422170167601939e-05 -0.014116272855182056 0 -8.8048436401378502e-05 -0.014146770938455105 0 -3.8422170167601939e-05 -0.014116272855182056 0 -8.0550813270556957e-05 -0.014100277782352958 0 6.6156442544040835e-06 -0.014080870957377013 0 -3.8422170167601939e-05 -0.014116272855182056 0 -8.0550813270556957e-05 -0.014100277782352958 0 -8.8048436401378502e-05 -0.014146770938455105 0 -2.5959703665421857e-07 -0.014130326477652791 0 -3.8422170167601939e-05 -0.014116272855182056 0 6.6156442544040835e-06 -0.014080870957377013 0 -8.0550813270556957e-05 -0.014100277782352958 0 -2.7205274112144307e-05 -0.014021731846520315 0 8.566522367905839e-05 -0.014009905109952002 0 6.6156442544040835e-06 -0.014080870957377013 0 -2.7205274112144307e-05 -0.014021731846520315 0 -0.00014065989727254168 -0.014091078325616506 0 -8.0550813270556957e-05 -0.014100277782352958 0 -2.7205274112144307e-05 -0.014021731846520315 0 -0.00014065989727254168 -0.014091078325616506 0 -2.7205274112144307e-05 -0.014021731846520315 0 -1.8508507542969369e-05 -0.013920214730506463 0 0.00010739583119724829 -0.013863461118337172 0 -2.7205274112144307e-05 -0.014021731846520315 0 -1.8508507542969369e-05 -0.013920214730506463 0 -0.00014065989727254168 -0.014091078325616506 0 -1.8508507542969369e-05 -0.013920214730506463 0 -0.00011456878015742234 -0.013970275634586674 0 -1.2153405163871653e-05 -0.013816557960441581 0 -8.7842362887372743e-05 -0.013838448377039797 0 -0.00011456878015742234 -0.013970275634586674 0 -1.8508507542969369e-05 -0.013920214730506463 0 -1.2153405163871653e-05 -0.013816557960441581 0 -0.00011456878015742234 -0.013970275634586674 0 -1.8508507542969369e-05 -0.013920214730506463 0 -1.2153405163871653e-05 -0.013816557960441581 0 9.2912004000858815e-05 -0.013745514505519444 0 -1.2153405163871653e-05 -0.013816557960441581 0 -2.9915333648345745e-05 -0.013705359753482787 0 7.3110694002798707e-05 -0.013634901822101485 0 -1.2153405163871653e-05 -0.013816557960441581 0 -8.7842362887372743e-05 -0.013838448377039797 0 -2.9915333648345745e-05 -0.013705359753482787 0 -8.7842362887372743e-05 -0.013838448377039797 0 -2.9915333648345745e-05 -0.013705359753482787 0 -0.00010991807129041248 -0.013736855400729601 0 -0.00017675471818567098 -0.013924122005085067 0 -0.0002939843935154069 -0.0140075024771048 0 -0.00022185236287593208 -0.013751141515627677 0 -0.00010991807129041248 -0.013736855400729601 0 -0.00017675471818567098 -0.013924122005085067 0 -0.00022185236287593208 -0.013751141515627677 0 -8.7842362887372743e-05 -0.013838448377039797 0 -0.00010991807129041248 -0.013736855400729601 0 -0.00017675471818567098 -0.013924122005085067 0 -8.7842362887372743e-05 -0.013838448377039797 0 -0.00017675471818567098 -0.013924122005085067 0 -0.00011456878015742234 -0.013970275634586674 0 -0.00017675471818567098 -0.013924122005085067 0 -0.0002812858691969156 -0.014111146075540395 0 -0.0002939843935154069 -0.0140075024771048 0 -0.00027877299083679509 -0.014321403268323355 0 -0.00014065989727254168 -0.014091078325616506 0 -0.00020257085334487608 -0.014119868762375367 0 -0.00017675471818567098 -0.013924122005085067 0 -0.00020257085334487608 -0.014119868762375367 0 -0.0002812858691969156 -0.014111146075540395 0 -0.00017675471818567098 -0.013924122005085067 0 -0.00011456878015742234 -0.013970275634586674 0 -0.00020257085334487608 -0.014119868762375367 0 -0.00014065989727254168 -0.014091078325616506 0 -0.00011456878015742234 -0.013970275634586674 0 -0.00020257085334487608 -0.014119868762375367 0 -0.00027877299083679509 -0.014321403268323355 0 -0.0002812858691969156 -0.014111146075540395 0 -0.00050326785722177832 -0.014243978686081061 0 -0.00027877299083679509 -0.014321403268323355 0 -0.00020257085334487608 -0.014119868762375367 0 -0.0002812858691969156 -0.014111146075540395 0 -0.00054507149729039783 -0.014594771221979138 0 -0.00027877299083679509 -0.014321403268323355 0 -0.00050326785722177832 -0.014243978686081061 0 -0.00051232894204810743 -0.014193645755161775 0 -0.00033056479790809852 -0.013988789225462844 0 -0.00050326785722177832 -0.014243978686081061 0 -0.0002939843935154069 -0.0140075024771048 0 -0.00022185236287593208 -0.013751141515627677 0 -0.00050326785722177832 -0.014243978686081061 0 -0.00055141187737252004 -0.014152244271368327 0 -0.00054555130630991821 -0.014154022056598088 0 -0.0002812858691969156 -0.014111146075540395 0 -0.00050326785722177832 -0.014243978686081061 0 -0.0002939843935154069 -0.0140075024771048 0 -0.00050326785722177832 -0.014243978686081061 0 -0.00055141187737252004 -0.014152244271368327 0 -0.00055001260545774731 -0.014212032521502523 0 -0.00055141187737252004 -0.014152244271368327 0 -0.00056901991567079183 -0.014146045942817539 0 -0.00055001260545774731 -0.014212032521502523 0 -0.00056901991567079183 -0.014146045942817539 0 -0.00055001260545774731 -0.014212032521502523 0 -0.000604326035017632 -0.014119368940706081 0 -0.00055141187737252004 -0.014152244271368327 0 -0.00056901991567079183 -0.014146045942817539 0 -0.00055924220449364407 -0.014090004937065203 0 -0.00050326785722177832 -0.014243978686081061 0 -0.00055001260545774731 -0.014212032521502523 0 -0.00056077854670717503 -0.014318720685907369 0 -0.00055001260545774731 -0.014212032521502523 0 -0.00056903211215725941 -0.014231028831570675 0 -0.00056077854670717503 -0.014318720685907369 0 -0.00055001260545774731 -0.014212032521502523 0 -0.00056903211215725941 -0.014231028831570675 0 -0.000604326035017632 -0.014119368940706081 0 -0.00056903211215725941 -0.014231028831570675 0 -0.000604326035017632 -0.014119368940706081 0 -0.00055763921336038022 -0.014295798869572569 0 -0.00060232332096780148 -0.014138803800657601 0 -0.00066001232806171632 -0.01419359480995537 0 -0.000604326035017632 -0.014119368940706081 0 -0.00065379431696333912 -0.014043350388390366 0 -0.00077179453236474475 -0.01410375391005609 0 -0.00056901991567079183 -0.014146045942817539 0 -0.00055924220449364407 -0.014090004937065203 0 -0.000604326035017632 -0.014119368940706081 0 -0.00055924220449364407 -0.014090004937065203 0 -0.00056372503711476357 -0.013985866050932895 0 -0.00053538200877547486 -0.013997597412028065 0 -0.00055924220449364407 -0.014090004937065203 0 -0.000604326035017632 -0.014119368940706081 0 -0.00056372503711476357 -0.013985866050932895 0 -0.000604326035017632 -0.014119368940706081 0 -0.00065379431696333912 -0.014043350388390366 0 -0.00056372503711476357 -0.013985866050932895 0 -0.00056372503711476357 -0.013985866050932895 0 -0.00053538200877547486 -0.013997597412028065 0 -0.00053051173893105697 -0.013875160085672763 0 -0.00055924220449364407 -0.014090004937065203 0 -0.00053538200877547486 -0.013997597412028065 0 -0.00052789318340338057 -0.014051876039373003 0 -0.00053538200877547486 -0.013997597412028065 0 -0.00049852779270155015 -0.013948583809722559 0 -0.00052789318340338057 -0.014051876039373003 0 -0.00053538200877547486 -0.013997597412028065 0 -0.00049852779270155015 -0.013948583809722559 0 -0.00053051173893105697 -0.013875160085672763 0 -0.00049852779270155015 -0.013948583809722559 0 -0.00050521557506997357 -0.013848130033858676 0 -0.00053051173893105697 -0.013875160085672763 0 -0.00047717847735197493 -0.013883830356154855 0 -0.00049852779270155015 -0.013948583809722559 0 -0.00050521557506997357 -0.013848130033858676 0 -0.00047717847735197493 -0.013883830356154855 0 -0.0004795250888732381 -0.013813069733990071 0 -0.00050521557506997357 -0.013848130033858676 0 -0.00047717847735197493 -0.013883830356154855 0 -0.00049852779270155015 -0.013948583809722559 0 -0.00046572941300763949 -0.013939956812251648 0 -0.0004711087883229445 -0.014106601804101794 0 -0.00054555130630991821 -0.014154022056598088 0 -0.00051638483701306373 -0.014124802686132275 0 -2.9915333648345745e-05 -0.013705359753482787 0 -0.00010991807129041248 -0.013736855400729601 0 7.5158781429350998e-06 -0.013441421616665184 0 -0.00044820108380856248 -0.013544199725235122 0 -0.00033056479790809852 -0.013988789225462844 0 -0.00044820108380856248 -0.013544199725235122 0 -0.00053705555854493073 -0.014070167438726676 0 -0.00049852779270155015 -0.013948583809722559 0 -0.00046572941300763949 -0.013939956812251648 0 -0.000499640410293509 -0.014030350194054582 0 -2.9915333648345745e-05 -0.013705359753482787 0 7.5158781429350998e-06 -0.013441421616665184 0 7.3110694002798707e-05 -0.013634901822101485 0 -0.00010991807129041248 -0.013736855400729601 0 7.5158781429350998e-06 -0.013441421616665184 0 -0.00022185236287593208 -0.013751141515627677 0 -0.00055004895844176229 -0.014126105155482804 0 -0.00053705555854493073 -0.014070167438726676 0 -0.00055141187737252004 -0.014152244271368327 0 -0.00054555130630991821 -0.014154022056598088 0 -0.00051638483701306373 -0.014124802686132275 0 -0.00055141187737252004 -0.014152244271368327 0 -0.00055924220449364407 -0.014090004937065203 0 -0.00052789318340338057 -0.014051876039373003 0 -0.00055141187737252004 -0.014152244271368327 0 -0.00052789318340338057 -0.014051876039373003 0 -0.000499640410293509 -0.014030350194054582 0 -0.00049852779270155015 -0.013948583809722559 0 -0.00052789318340338057 -0.014051876039373003 0 -0.000499640410293509 -0.014030350194054582 0 -0.00084057776870448452 -0.014834514806478781 0 -0.00093673854497834631 -0.014609570828076296 0 -0.0010618553417085783 -0.014809417105302248 0 -0.00084057776870448452 -0.014834514806478781 0 -0.0010618553417085783 -0.014809417105302248 0 -0.0010431864540039718 -0.015131808100490248 0 -0.00072667781731997787 -0.015031976915089893 0 -0.00084057776870448452 -0.014834514806478781 0 -0.0010431864540039718 -0.015131808100490248 0 -0.00072667781731997787 -0.015031976915089893 0 -0.0010431864540039718 -0.015131808100490248 0 -0.0011509883545055676 -0.015503621653943145 0 -0.00072667781731997787 -0.015031976915089893 0 -0.00084057776870448452 -0.014834514806478781 0 -0.00070088212294062361 -0.0147335649350581 0 -0.00069906508602823165 -0.014825080928832432 0 -0.00072667781731997787 -0.015031976915089893 0 -0.00070088212294062361 -0.0147335649350581 0 -0.00084057776870448452 -0.014834514806478781 0 -0.00070088212294062361 -0.0147335649350581 0 -0.00075805661222321484 -0.014582989371113679 0 -0.00070088212294062361 -0.0147335649350581 0 -0.00060115258840595317 -0.014473617597612346 0 -0.00063649092460897605 -0.014472869704447545 0 -0.00070088212294062361 -0.0147335649350581 0 -0.00063649092460897605 -0.014472869704447545 0 -0.00075805661222321484 -0.014582989371113679 0 -0.00070088212294062361 -0.0147335649350581 0 -0.00063260004159061613 -0.014623765530514631 0 -0.00060115258840595317 -0.014473617597612346 0 -0.00069906508602823165 -0.014825080928832432 0 -0.00070088212294062361 -0.0147335649350581 0 -0.00063260004159061613 -0.014623765530514631 0 -0.00054507149729039783 -0.014594771221979138 0 -0.00050326785722177832 -0.014243978686081061 0 -0.00063260004159061613 -0.014623765530514631 0 -0.00050326785722177832 -0.014243978686081061 0 -0.00063260004159061613 -0.014623765530514631 0 -0.00060115258840595317 -0.014473617597612346 0 -0.00050326785722177832 -0.014243978686081061 0 -0.00060115258840595317 -0.014473617597612346 0 -0.00056077854670717503 -0.014318720685907369 0 -0.00056077854670717503 -0.014318720685907369 0 -0.00061212926010482482 -0.014365027331284273 0 -0.00063649092460897605 -0.014472869704447545 0 -0.00060115258840595317 -0.014473617597612346 0 -0.00056077854670717503 -0.014318720685907369 0 -0.00063649092460897605 -0.014472869704447545 0 -0.00056903211215725941 -0.014231028831570675 0 -0.00056077854670717503 -0.014318720685907369 0 -0.00055763921336038022 -0.014295798869572569 0 -0.00056077854670717503 -0.014318720685907369 0 -0.00055763921336038022 -0.014295798869572569 0 -0.00061212926010482482 -0.014365027331284273 0 -0.00066001232806171632 -0.01419359480995537 0 -0.00077267822265022893 -0.014218069084490878 0 -0.00055763921336038022 -0.014295798869572569 0 -0.00061212926010482482 -0.014365027331284273 0 -0.00067409662006442711 -0.014290870738679341 0 -0.00061212926010482482 -0.014365027331284273 0 -0.00067409662006442711 -0.014290870738679341 0 -0.00069629338992150617 -0.014417991214402404 0 -0.00069629338992150617 -0.014417991214402404 0 -0.00063649092460897605 -0.014472869704447545 0 -0.00075805661222321484 -0.014582989371113679 0 -0.00061212926010482482 -0.014365027331284273 0 -0.00069629338992150617 -0.014417991214402404 0 -0.00063649092460897605 -0.014472869704447545 0 -0.00075805661222321484 -0.014582989371113679 0 -0.00083490372134585632 -0.014410793286565792 0 -0.00093673854497834631 -0.014609570828076296 0 -0.00069629338992150617 -0.014417991214402404 0 -0.00075805661222321484 -0.014582989371113679 0 -0.00083490372134585632 -0.014410793286565792 0 -0.00067409662006442711 -0.014290870738679341 0 -0.00083490372134585632 -0.014410793286565792 0 -0.0009852192002526457 -0.014209599098320288 0 -0.00067409662006442711 -0.014290870738679341 0 -0.00069629338992150617 -0.014417991214402404 0 -0.00083490372134585632 -0.014410793286565792 0 -0.00083490372134585632 -0.014410793286565792 0 -0.0010244000592946035 -0.014390975204882368 0 -0.00093673854497834631 -0.014609570828076296 0 -0.00083490372134585632 -0.014410793286565792 0 -0.0010244000592946035 -0.014390975204882368 0 -0.0009852192002526457 -0.014209599098320288 0 -0.0010244000592946035 -0.014390975204882368 0 -0.00093673854497834631 -0.014609570828076296 0 -0.0011571305201025373 -0.014585728650709553 0 -0.00084057776870448452 -0.014834514806478781 0 -0.00075805661222321484 -0.014582989371113679 0 -0.00093673854497834631 -0.014609570828076296 0 -0.00093673854497834631 -0.014609570828076296 0 -0.0010618553417085783 -0.014809417105302248 0 -0.0011571305201025373 -0.014585728650709553 0 -0.0012504163126069376 -0.016299488007923548 0 -0.0014939099894413299 -0.016581461981194437 0 -0.0010706390910892127 -0.016586850568740638 0 -0.0012504163126069376 -0.016299488007923548 0 -0.0010706390910892127 -0.016586850568740638 0 -0.00075925964645013201 -0.016374537644134497 0 -0.00094054681642926556 -0.014107948337186199 0 -0.0009852192002526457 -0.014209599098320288 0 -0.0011495789288377193 -0.014215731991752552 0 -0.0010244000592946035 -0.014390975204882368 0 -0.0009852192002526457 -0.014209599098320288 0 -0.0011495789288377193 -0.014215731991752552 0 -0.001037429657151232 -0.014915409981258785 0 -0.0013499972469327042 -0.015248322627440159 0 -0.00077267822265022893 -0.014218069084490878 0 -0.0009744012302201245 -0.014204173943900169 0 -0.00084903005155198791 -0.014146913976115902 0 -0.00094054681642926556 -0.014107948337186199 0 -0.0009852192002526457 -0.014209599098320288 0 -0.00084903005155198791 -0.014146913976115902 0 -0.00094054681642926556 -0.014107948337186199 0 -0.00082292460897385273 -0.014084681537021164 0 -0.0012504163126069376 -0.016299488007923548 0 -0.0017368448448048578 -0.016226192479899593 0 -0.0014939099894413299 -0.016581461981194437 0 -0.0017368448448048578 -0.016226192479899593 0 -0.0019676901588929689 -0.016524287094400347 0 -0.0014939099894413299 -0.016581461981194437 0 -0.00077179453236474475 -0.01410375391005609 0 -0.00084903005155198791 -0.014146913976115902 0 -0.00082292460897385273 -0.014084681537021164 0 -0.0013499972469327042 -0.015248322627440159 0 -0.0011608570807324233 -0.014637089237079777 0 -0.00077179453236474475 -0.01410375391005609 0 -0.00082292460897385273 -0.014084681537021164 0 -0.00072367644162201112 -0.014034526149937472 0 -0.0012849203430930756 -0.015190576001309981 0 -0.0011608570807324233 -0.014637089237079777 0 -0.0017368448448048578 -0.016226192479899593 0 -0.0019676901588929689 -0.016524287094400347 0 -0.0022141190953031539 -0.016152727147338206 0 -0.0005793593339449342 -0.013747981924526913 0 -0.00056510726107903656 -0.013731027771546792 0 -0.00051449118400398236 -0.01371760056172683 0 -0.00056510726107903656 -0.013731027771546792 0 -0.00051449118400398236 -0.01371760056172683 0 -0.00056010309390646632 -0.013736640424587476 0 -0.001119512112837974 -0.015293297508206231 0 -0.00089897255464403496 -0.015570479955694395 0 -0.0019676901588929689 -0.016524287094400347 0 -0.0017161797597798681 -0.016900379666193163 0 -0.0014939099894413299 -0.016581461981194437 0 -0.0012849203430930756 -0.015190576001309981 0 -0.001119512112837974 -0.015293297508206231 0 -0.0017161797597798681 -0.016900379666193163 0 -0.0014939099894413299 -0.016581461981194437 0 -0.0012138151963847063 -0.016957353806289786 0 -0.0017161797597798681 -0.016900379666193163 0 -0.0012138151963847063 -0.016957353806289786 0 -0.0014580145112290759 -0.017280000841763253 0 -0.0012138151963847063 -0.016957353806289786 0 -0.0010706390910892127 -0.016586850568740638 0 -0.00079883500108436048 -0.016789390947105649 0 -0.0014939099894413299 -0.016581461981194437 0 -0.0012138151963847063 -0.016957353806289786 0 -0.0010706390910892127 -0.016586850568740638 0 -0.00053526400617848766 -0.013773225562782208 0 -0.00055002880075329184 -0.013733788127561344 0 -0.00052533313773232284 -0.013716868974511224 0 -0.00053526400617848766 -0.013773225562782208 0 -0.00050729400041448511 -0.013749580359782009 0 -0.00052533313773232284 -0.013716868974511224 0 -0.00050729400041448511 -0.013749580359782009 0 -0.00052533313773232284 -0.013716868974511224 0 -0.00051308268763951498 -0.013661613916103793 0 -0.00053526400617848766 -0.013773225562782208 0 -0.00050729400041448511 -0.013749580359782009 0 -0.00050521557506997357 -0.013848130033858676 0 -0.00050729400041448511 -0.013749580359782009 0 -0.0004795250888732381 -0.013813069733990071 0 -0.00050521557506997357 -0.013848130033858676 0 -0.00053526400617848766 -0.013773225562782208 0 -0.00050521557506997357 -0.013848130033858676 0 -0.00053051173893105697 -0.013875160085672763 0 -0.00053526400617848766 -0.013773225562782208 0 -0.00053051173893105697 -0.013875160085672763 0 -0.00057389655025003831 -0.013845459545403598 0 -0.00056372503711476357 -0.013985866050932895 0 -0.00053051173893105697 -0.013875160085672763 0 -0.00057389655025003831 -0.013845459545403598 0 -0.00045041035946659076 -0.013817331449856887 0 -0.0011608570807324233 -0.014637089237079777 0 -0.00065379431696333912 -0.014043350388390366 0 -0.00057389655025003831 -0.013845459545403598 0 -0.00081809109197311083 -0.013837948924012234 0 -0.00065379431696333912 -0.014043350388390366 0 -0.00056372503711476357 -0.013985866050932895 0 -0.00057389655025003831 -0.013845459545403598 0 -0.00065379431696333912 -0.014043350388390366 0 -0.00077179453236474475 -0.01410375391005609 0 -0.00072367644162201112 -0.014034526149937472 0 -0.00073217790911852718 -0.013945389825348174 0 -0.0011608570807324233 -0.014637089237079777 0 -0.0005793593339449342 -0.013747981924526913 0 -0.00059744933247691243 -0.013809199372609233 0 -0.00057659174155880991 -0.013756612238485949 0 -0.00057389655025003831 -0.013845459545403598 0 -0.00059744933247691243 -0.013809199372609233 0 -0.00057659174155880991 -0.013756612238485949 0 -0.00053526400617848766 -0.013773225562782208 0 -0.00057389655025003831 -0.013845459545403598 0 -0.00057659174155880991 -0.013756612238485949 0 -0.00053526400617848766 -0.013773225562782208 0 -0.00057659174155880991 -0.013756612238485949 0 -0.00055002880075329184 -0.013733788127561344 0 -0.00057659174155880991 -0.013756612238485949 0 -0.00057127247009405315 -0.013732052042628892 0 -0.00055002880075329184 -0.013733788127561344 0 -0.0005793593339449342 -0.013747981924526913 0 -0.00056510726107903656 -0.013731027771546792 0 -0.00057659174155880991 -0.013756612238485949 0 -0.00056510726107903656 -0.013731027771546792 0 -0.00057659174155880991 -0.013756612238485949 0 -0.00057127247009405315 -0.013732052042628892 0 -0.00056510726107903656 -0.013731027771546792 0 -0.00057127247009405315 -0.013732052042628892 0 -0.00056010309390646632 -0.013736640424587476 0 -0.00057127247009405315 -0.013732052042628892 0 -0.00056173408209009637 -0.013736043318156518 0 -0.00058915356296277593 -0.013742245472543733 0 -0.00057127247009405315 -0.013732052042628892 0 -0.00056173408209009637 -0.013736043318156518 0 -0.00055002880075329184 -0.013733788127561344 0 -0.00056173408209009637 -0.013736043318156518 0 -0.00055002880075329184 -0.013733788127561344 0 -0.00053366722885046965 -0.013728103684174377 0 -0.00052533313773232284 -0.013716868974511224 0 -0.00053366722885046965 -0.013728103684174377 0 -0.00051308268763951498 -0.013661613916103793 0 -0.00055002880075329184 -0.013733788127561344 0 -0.00052533313773232284 -0.013716868974511224 0 -0.00053366722885046965 -0.013728103684174377 0 -0.00056173408209009637 -0.013736043318156518 0 -0.00053366722885046965 -0.013728103684174377 0 -0.00054860570067134253 -0.013745200386212427 0 -0.00053366722885046965 -0.013728103684174377 0 -0.0005493493383800915 -0.013729116320806299 0 -0.00054860570067134253 -0.013745200386212427 0 -0.0005493493383800915 -0.013729116320806299 0 -0.00053535548646703273 -0.013743546206040952 0 -0.00054860570067134253 -0.013745200386212427 0 -0.0005493493383800915 -0.013729116320806299 0 -0.00053427303880847947 -0.013740413154917358 0 -0.00053535548646703273 -0.013743546206040952 0 -0.00049684414881308488 -0.013615624829736547 0 -0.00044219257946422671 -0.013414788385700699 0 -0.00039090577429728112 -0.013436475639367637 0 -0.00042743003103485786 -0.013436612180629623 0 -0.00038639547684174512 -0.013407591198697364 0 -0.00042743003103485786 -0.013436612180629623 0 -0.00037177413811034272 -0.013466259665555161 0 -0.00042373394752365543 -0.013580588484616171 0 -0.00039090577429728112 -0.013436475639367637 0 -0.00042743003103485786 -0.013436612180629623 0 -0.00037177413811034272 -0.013466259665555161 0 -0.00053366722885046965 -0.013728103684174377 0 -0.0005493493383800915 -0.013729116320806299 0 -0.00051308268763951498 -0.013661613916103793 0 -0.00042743003103485786 -0.013436612180629623 0 -0.00051308268763951498 -0.013661613916103793 0 -0.00042373394752365543 -0.013580588484616171 0 -0.00049684414881308488 -0.013615624829736547 0 -0.00050518620476496738 -0.013637670764306409 0 -0.00051308268763951498 -0.013661613916103793 0 -0.00042373394752365543 -0.013580588484616171 0 -0.00045768497486417352 -0.013731009180858912 0 -0.00050729400041448511 -0.013749580359782009 0 -0.00051308268763951498 -0.013661613916103793 0 -0.00045768497486417352 -0.013731009180858912 0 -0.00037177413811034272 -0.013466259665555161 0 -0.00042373394752365543 -0.013580588484616171 0 -0.00037586592665327497 -0.013524895801056832 0 -0.00042373394752365543 -0.013580588484616171 0 -0.00040986386439440447 -0.013640625305127229 0 -0.00037586592665327497 -0.013524895801056832 0 -0.00040986386439440447 -0.013640625305127229 0 -0.00040966484601697621 -0.01372917873540096 0 -0.00045768497486417352 -0.013731009180858912 0 -0.00042373394752365543 -0.013580588484616171 0 -0.00040986386439440447 -0.013640625305127229 0 -0.00045768497486417352 -0.013731009180858912 0 -0.00040986386439440447 -0.013640625305127229 0 -0.00035218872071630757 -0.013653243105164687 0 -0.00037586592665327497 -0.013524895801056832 0 -0.00040986386439440447 -0.013640625305127229 0 -0.00040966484601697621 -0.01372917873540096 0 -0.00035218872071630757 -0.013653243105164687 0 -0.00040966484601697621 -0.01372917873540096 0 -0.00035218872071630757 -0.013653243105164687 0 -0.00035097045182227923 -0.013740443707090178 0 -0.00040966484601697621 -0.01372917873540096 0 -0.00039913680664942837 -0.013770007583157213 0 -0.00035097045182227923 -0.013740443707090178 0 -0.00040966484601697621 -0.01372917873540096 0 -0.00045768497486417352 -0.013731009180858912 0 -0.0004251882358313853 -0.013786994006160276 0 -0.0004795250888732381 -0.013813069733990071 0 -0.00045768497486417352 -0.013731009180858912 0 -0.00044816485877696114 -0.01384709305194359 0 -0.00050729400041448511 -0.013749580359782009 0 -0.0004795250888732381 -0.013813069733990071 0 -0.00045768497486417352 -0.013731009180858912 0 0.00027193377013084524 -0.012893167965417691 0 0.00098957023194161798 -0.012543193979230276 0 -1.473265195861668e-05 -0.013497828570442023 0 -2.9633442210004623e-05 -0.013301863177717737 0 0.00044189008424156968 -0.013424719650446519 0 -1.473265195861668e-05 -0.013497828570442023 0 -0.00016199349752535734 -0.013723200904444557 0 0.00044189008424156968 -0.013424719650446519 0 -1.473265195861668e-05 -0.013497828570442023 0 -0.00016199349752535734 -0.013723200904444557 0 -0.00026533071501624623 -0.013553329806552364 0 -1.473265195861668e-05 -0.013497828570442023 0 -0.00026533071501624623 -0.013553329806552364 0 -2.9633442210004623e-05 -0.013301863177717737 0 -0.00016199349752535734 -0.013723200904444557 0 -0.00028648545096641331 -0.013668284196119681 0 -0.00035097045182227923 -0.013740443707090178 0 -0.00016199349752535734 -0.013723200904444557 0 -0.00028648545096641331 -0.013668284196119681 0 -0.00026533071501624623 -0.013553329806552364 0 -0.00028648545096641331 -0.013668284196119681 0 -0.00035218872071630757 -0.013653243105164687 0 -0.00035097045182227923 -0.013740443707090178 0 -0.00028648545096641331 -0.013668284196119681 0 -0.00035218872071630757 -0.013653243105164687 0 -0.00026533071501624623 -0.013553329806552364 0 -0.00035218872071630757 -0.013653243105164687 0 -0.00026533071501624623 -0.013553329806552364 0 -0.00037586592665327497 -0.013524895801056832 0 -0.00026533071501624623 -0.013553329806552364 0 -0.00034901371600187754 -0.013384374524376276 0 -2.9633442210004623e-05 -0.013301863177717737 0 -0.00026533071501624623 -0.013553329806552364 0 -0.00037586592665327497 -0.013524895801056832 0 -0.00034901371600187754 -0.013384374524376276 0 -0.00037177413811034272 -0.013466259665555161 0 -0.00037586592665327497 -0.013524895801056832 0 -0.00034901371600187754 -0.013384374524376276 0 -0.00034901371600187754 -0.013384374524376276 0 -0.00015011132439518449 -0.013081472112693239 0 -2.9633442210004623e-05 -0.013301863177717737 0 -0.00015011132439518449 -0.013081472112693239 0 -2.9633442210004623e-05 -0.013301863177717737 0 6.2546746886878998e-05 -0.012953380554518964 0 -2.9633442210004623e-05 -0.013301863177717737 0 6.2546746886878998e-05 -0.012953380554518964 0 0.00030770431136818238 -0.013092146141677963 0 6.2546746886878998e-05 -0.012953380554518964 0 -9.0422629555725255e-05 -0.012825238261778345 0 1.5848724603293926e-05 -0.012624381769025403 0 -0.00015011132439518449 -0.013081472112693239 0 6.2546746886878998e-05 -0.012953380554518964 0 -9.0422629555725255e-05 -0.012825238261778345 0 -0.00015011132439518449 -0.013081472112693239 0 -9.0422629555725255e-05 -0.012825238261778345 0 -0.00029577958395467604 -0.012570788598980248 0 -9.0422629555725255e-05 -0.012825238261778345 0 -0.00029577958395467604 -0.012570788598980248 0 1.5848724603293926e-05 -0.012624381769025403 0 -0.00034901371600187754 -0.013384374524376276 0 -0.00040736442559328464 -0.013431067759857003 0 -0.00038523700049301505 -0.013434591387067608 0 -0.00034901371600187754 -0.013384374524376276 0 -0.00015011132439518449 -0.013081472112693239 0 -0.00029577958395467604 -0.012570788598980248 0 -0.00036827423922472594 -0.013360322820991767 0 -0.00033049395629659861 -0.012964713283391917 0 -0.00037177413811034272 -0.013466259665555161 0 -0.00034901371600187754 -0.013384374524376276 0 -0.00038523700049301505 -0.013434591387067608 0 -0.00039090577429728112 -0.013436475639367637 0 -0.00037177413811034272 -0.013466259665555161 0 -0.00038523700049301505 -0.013434591387067608 0 -0.00039090577429728112 -0.013436475639367637 0 -0.00038523700049301505 -0.013434591387067608 0 -0.00038639547684174512 -0.013407591198697364 0 -0.00038523700049301505 -0.013434591387067608 0 -0.00044664130839855453 -0.013369074050139269 0 -0.00053344148801867566 -0.013326036028328067 0 -0.00040736442559328464 -0.013431067759857003 0 -0.00038523700049301505 -0.013434591387067608 0 -0.00044664130839855453 -0.013369074050139269 0 -0.00040401237369607488 -0.013405742836401511 0 -0.00044219257946422671 -0.013414788385700699 0 -0.00040736442559328464 -0.013431067759857003 0 -0.00044664130839855453 -0.013369074050139269 0 -0.00040102128077622274 -0.013305031956336342 0 -0.00033049395629659861 -0.012964713283391917 0 -0.00029640578347246666 -0.012843764374910579 0 -0.00029577958395467604 -0.012570788598980248 0 -7.3131901567849634e-05 -0.01236330768504532 0 -0.0001242620671022653 -0.011971144082531925 0 1.5848724603293926e-05 -0.012624381769025403 0 -7.3131901567849634e-05 -0.01236330768504532 0 0.00024054422310202067 -0.012375080369304783 0 -0.00029577958395467604 -0.012570788598980248 0 1.5848724603293926e-05 -0.012624381769025403 0 -7.3131901567849634e-05 -0.01236330768504532 0 -7.3131901567849634e-05 -0.01236330768504532 0 0.00012052201313155605 -0.012181146373249685 0 0.00024054422310202067 -0.012375080369304783 0 -7.3131901567849634e-05 -0.01236330768504532 0 0.00012052201313155605 -0.012181146373249685 0 -0.0001242620671022653 -0.011971144082531925 0 0.00024054422310202067 -0.012375080369304783 0 0.00066101616596153916 -0.012346749119760685 0 0.00043108008550591786 -0.012018116463042466 0 0.00024054422310202067 -0.012375080369304783 0 0.00066101616596153916 -0.012346749119760685 0 0.00038683521937390612 -0.012711587654966381 0 0.00012052201313155605 -0.012181146373249685 0 0.00024054422310202067 -0.012375080369304783 0 0.00043108008550591786 -0.012018116463042466 0 0.00066101616596153916 -0.012346749119760685 0 0.0010327336359038778 -0.012329450465760594 0 0.00091625268392881332 -0.012044435382272841 0 0.00066101616596153916 -0.012346749119760685 0 0.00091625268392881332 -0.012044435382272841 0 0.00043108008550591786 -0.012018116463042466 0 0.00066101616596153916 -0.012346749119760685 0 0.00077498109653976121 -0.012644530020481309 0 0.0010327336359038778 -0.012329450465760594 0 0.00066101616596153916 -0.012346749119760685 0 0.00077498109653976121 -0.012644530020481309 0 0.00038683521937390612 -0.012711587654966381 0 0.00077498109653976121 -0.012644530020481309 0 0.00038683521937390612 -0.012711587654966381 0 0.00060060545894699048 -0.012972527988785549 0 6.2546746886878998e-05 -0.012953380554518964 0 1.5848724603293926e-05 -0.012624381769025403 0 0.00038683521937390612 -0.012711587654966381 0 6.2546746886878998e-05 -0.012953380554518964 0 0.00038683521937390612 -0.012711587654966381 0 0.00030770431136818238 -0.013092146141677963 0 1.5848724603293926e-05 -0.012624381769025403 0 0.00024054422310202067 -0.012375080369304783 0 0.00038683521937390612 -0.012711587654966381 0 0.0014095788293416157 -0.012293001684304651 0 0.001413804872020336 -0.011695045829002295 0 0.0018547057024707416 -0.01198729699713881 0 0.0010327336359038778 -0.012329450465760594 0 0.0014095788293416157 -0.012293001684304651 0 0.001413804872020336 -0.011695045829002295 0 0.0010327336359038778 -0.012329450465760594 0 0.00091625268392881332 -0.012044435382272841 0 0.0012858655349749107 -0.012069887850357361 0 0.001060885820287722 -0.012253996585245884 0 0.0013762464185019193 -0.011977587620394199 0 0.00077498109653976121 -0.012644530020481309 0 0.0010327336359038778 -0.012329450465760594 0 0.0010638798842240978 -0.013006209388164046 0 0.0010327336359038778 -0.012329450465760594 0 0.0014095788293416157 -0.012293001684304651 0 0.0010638798842240978 -0.013006209388164046 0 0.0014095788293416157 -0.012293001684304651 0 0.0010638798842240978 -0.013006209388164046 0 0.0017253744411658666 -0.012564732375248418 0 0.0014095788293416157 -0.012293001684304651 0 0.0018547057024707416 -0.01198729699713881 0 0.0017253744411658666 -0.012564732375248418 0 0.0027950284742705128 -0.011461840825934308 0 0.0023243345007175238 -0.011321217853585613 0 0.002960982888655568 -0.011087547539331027 0 0.00168758590924917 -0.012168893825813066 0 0.0023346558911987139 -0.011829444276631212 0 0.0027950284742705128 -0.011461840825934308 0 0.0023243345007175238 -0.011321217853585613 0 0.0024690755727093438 -0.011621386838739875 0 0.0023243345007175238 -0.011321217853585613 0 0.0022101884658504798 -0.011652802620345012 0 0.0024690755727093438 -0.011621386838739875 0 0.002255469719003061 -0.011970018554237698 0 0.0030526115018577739 -0.011796283069163608 0 0.0026596636834491216 -0.012040591531936012 0 0.0021879028380582593 -0.011952838241685084 0 0.0029490610017031777 -0.011784462760700531 0 0.002149936293078455 -0.011934033788034877 0 0.0024690755727093438 -0.011621386838739875 0 0.0028421956737034303 -0.011784411888035638 0 0.0023243345007175238 -0.011321217853585613 0 0.0022101884658504798 -0.011652802620345012 0 0.0019200934200109582 -0.01171923594822199 0 0.0022101884658504798 -0.011652802620345012 0 0.002149936293078455 -0.011934033788034877 0 0.0024690755727093438 -0.011621386838739875 0 0.0027950284742705128 -0.011461840825934308 0 0.0024690755727093438 -0.011621386838739875 0 0.0028421956737034303 -0.011784411888035638 0 0.0030526115018577739 -0.011796283069163608 0 0.0029164599128233101 -0.011941879934928349 0 0.0026596636834491216 -0.012040591531936012 0 0.0030526115018577739 -0.011796283069163608 0 0.0030255847264856503 -0.011895337118700253 0 0.0029164599128233101 -0.011941879934928349 0 0.0030526115018577739 -0.011796283069163608 0 0.0030851145730786912 -0.011902159869604577 0 0.0030255847264856503 -0.011895337118700253 0 0.0027950284742705128 -0.011461840825934308 0 0.0028421956737034303 -0.011784411888035638 0 0.0029891708418901767 -0.011566148704848208 0 -2.9633442210004623e-05 -0.013301863177717737 0 0.00030770431136818238 -0.013092146141677963 0 0.00044189008424156968 -0.013424719650446519 0 0.00030770431136818238 -0.013092146141677963 0 0.00060060545894699048 -0.012972527988785549 0 0.00044189008424156968 -0.013424719650446519 0 0.00038683521937390612 -0.012711587654966381 0 0.00030770431136818238 -0.013092146141677963 0 0.00060060545894699048 -0.012972527988785549 0 0.00077498109653976121 -0.012644530020481309 0 0.0010638798842240978 -0.013006209388164046 0 0.00060060545894699048 -0.012972527988785549 0 0.00168758590924917 -0.012168893825813066 0 0.00098957023194161798 -0.012543193979230276 0 0.0010638798842240978 -0.013006209388164046 0 0.00060060545894699048 -0.012972527988785549 0 0.00044189008424156968 -0.013424719650446519 0 0.0021879028380582593 -0.011952838241685084 0 0.0013722286762323395 -0.01207227450246136 0 0.0023243345007175238 -0.011321217853585613 0 0.0019200934200109582 -0.01171923594822199 0 0.0015527211239772685 -0.011663773059469142 0 0.002149936293078455 -0.011934033788034877 0 0.0019200934200109582 -0.01171923594822199 0 0.0013246165033927292 -0.01209135140002577 0 0.0022101884658504798 -0.011652802620345012 0 0.002149936293078455 -0.011934033788034877 0 0.0019200934200109582 -0.01171923594822199 0 0.0019200934200109582 -0.01171923594822199 0 0.0013246165033927292 -0.01209135140002577 0 0.0015527211239772685 -0.011663773059469142 0 0.00067442879378708622 -0.012072433079319987 0 0.0013246165033927292 -0.01209135140002577 0 0.0015527211239772685 -0.011663773059469142 0 0.0015676045833399627 -0.012298360364878979 0 0.00080667653317343963 -0.012593522664642256 0 0.0015937575690877835 -0.012262769355275661 0 0.0013274413607951498 -0.012655297351290201 0 0.0019056355062575115 -0.012219522803406673 0 0.0015937575690877835 -0.012262769355275661 0 0.0013274413607951498 -0.012655297351290201 0 0.00087989424040243395 -0.012742683414056882 0 0.0013246165033927292 -0.01209135140002577 0 0.0015937575690877835 -0.012262769355275661 0 0.0019056355062575115 -0.012219522803406673 0 0.0013246165033927292 -0.01209135140002577 0 0.0015937575690877835 -0.012262769355275661 0 0.00068575005660762478 -0.012450195423738028 0 0.002255469719003061 -0.011970018554237698 0 0.0013246165033927292 -0.01209135140002577 0 0.0019056355062575115 -0.012219522803406673 0 0.0012627625322894861 -0.012831133793994247 0 0.0019776306899120105 -0.012529625613382545 0 0.0011951054961786946 -0.012973927469277205 0 0.0015123025779127043 -0.013062302883732901 0 0.0018184518120312792 -0.01282976936934388 0 0.0013274413607951498 -0.012655297351290201 0 0.0019056355062575115 -0.012219522803406673 0 0.002268842860115338 -0.012318525845693129 0 0.002255469719003061 -0.011970018554237698 0 0.0019056355062575115 -0.012219522803406673 0 0.002268842860115338 -0.012318525845693129 0 0.0015123025779127043 -0.013062302883732901 0 0.0017160556904796021 -0.013069012179030544 0 0.0018184518120312792 -0.01282976936934388 0 0.0015123025779127043 -0.013062302883732901 0 0.0015217502612212678 -0.01324578167737943 0 0.0013130210818946943 -0.013190115523792661 0 0.0015123025779127043 -0.013062302883732901 0 0.0017160556904796021 -0.013069012179030544 0 0.0015217502612212678 -0.01324578167737943 0 0.0017160556904796021 -0.013069012179030544 0 0.001705109319264803 -0.013308858726827357 0 0.0015217502612212678 -0.01324578167737943 0 0.0017160556904796021 -0.013069012179030544 0 0.001705109319264803 -0.013308858726827357 0 0.0018695741619775645 -0.013164839782368072 0 0.001705109319264803 -0.013308858726827357 0 0.0015217502612212678 -0.01324578167737943 0 0.0015537481709848957 -0.013428664112111785 0 0.0015217502612212678 -0.01324578167737943 0 0.0013130210818946943 -0.013190115523792661 0 0.0013793709577603983 -0.013432409906660324 0 0.0013130210818946943 -0.013190115523792661 0 0.0012096783176116996 -0.013383379270745815 0 0.0013793709577603983 -0.013432409906660324 0 0.0011307756122855286 -0.013235860081141911 0 0.0012096783176116996 -0.013383379270745815 0 0.00098478997427055271 -0.013449864421135221 0 0.0011307756122855286 -0.013235860081141911 0 0.0013130210818946943 -0.013190115523792661 0 0.0012096783176116996 -0.013383379270745815 0 0.0011951054961786946 -0.012973927469277205 0 0.0011307756122855286 -0.013235860081141911 0 0.0013130210818946943 -0.013190115523792661 0 0.0011951054961786946 -0.012973927469277205 0 0.0015123025779127043 -0.013062302883732901 0 0.0013130210818946943 -0.013190115523792661 0 0.0024593692530477528 -0.012709271907238879 0 0.0020153998949853842 -0.012995465260455559 0 0.0022337381878005558 -0.013016417678438381 0 0.0024593692530477528 -0.012709271907238879 0 0.0022337381878005558 -0.013016417678438381 0 0.00240741831667625 -0.013009294141607012 0 0.0030590227759910945 -0.01269753383255141 0 0.0030397620118082988 -0.012573549082777333 0 0.0031090862408521347 -0.011980620315264402 0 0.0030851145730786912 -0.011902159869604577 0 0.0030255847264856503 -0.011895337118700253 0 0.0031090862408521347 -0.011980620315264402 0 0.0030255847264856503 -0.011895337118700253 0 0.0029164599128233101 -0.011941879934928349 0 0.0031090862408521347 -0.011980620315264402 0 0.0029164599128233101 -0.011941879934928349 0 0.0026596636834491216 -0.012040591531936012 0 0.0031090862408521347 -0.011980620315264402 0 0.0026596636834491216 -0.012040591531936012 0 0.002268842860115338 -0.012318525845693129 0 0.0024593692530477528 -0.012709271907238879 0 0.0018184518120312792 -0.01282976936934388 0 0.0020153998949853842 -0.012995465260455559 0 0.0030590227759910945 -0.01269753383255141 0 0.0019776306899120105 -0.012529625613382545 0 0.002255469719003061 -0.011970018554237698 0 0.0026596636834491216 -0.012040591531936012 0 0.002268842860115338 -0.012318525845693129 0 0.0017160556904796021 -0.013069012179030544 0 0.0018184518120312792 -0.01282976936934388 0 0.0020153998949853842 -0.012995465260455559 0 0.0017160556904796021 -0.013069012179030544 0 0.0018695741619775645 -0.013164839782368072 0 0.0020153998949853842 -0.012995465260455559 0 0.0018695741619775645 -0.013164839782368072 0 0.0020852981256835853 -0.013266525997445757 0 0.0018735551082743993 -0.013360515048291484 0 0.001705109319264803 -0.013308858726827357 0 0.0018695741619775645 -0.013164839782368072 0 0.0018735551082743993 -0.013360515048291484 0 0.0018695741619775645 -0.013164839782368072 0 0.0020852981256835853 -0.013266525997445757 0 0.0020153998949853842 -0.012995465260455559 0 0.0020852981256835853 -0.013266525997445757 0 0.0020153998949853842 -0.012995465260455559 0 0.0022337381878005558 -0.013016417678438381 0 0.0024593692530477528 -0.012709271907238879 0 0.00240741831667625 -0.013009294141607012 0 0.0025803769587600341 -0.013228737411878848 0 0.0020852981256835853 -0.013266525997445757 0 0.0022337381878005558 -0.013016417678438381 0 0.0023472562236467051 -0.01318297763557438 0 0.0020852981256835853 -0.013266525997445757 0 0.0023472562236467051 -0.01318297763557438 0 0.0022807384485002084 -0.013418960290886189 0 0.0023472562236467051 -0.01318297763557438 0 0.00240741831667625 -0.013009294141607012 0 0.0025803769587600341 -0.013228737411878848 0 0.0023472562236467051 -0.01318297763557438 0 0.0022807384485002084 -0.013418960290886189 0 0.0025803769587600341 -0.013228737411878848 0 0.0022337381878005558 -0.013016417678438381 0 0.0023472562236467051 -0.01318297763557438 0 0.00240741831667625 -0.013009294141607012 0 0.0010391010889799926 -0.0093576273689433276 0 0.0002873708022096724 -0.0098146291294828516 0 0.0019593348361774347 -0.0096326621846161333 0 0.00061595362790381946 -0.012277093290507768 0 0.00083222126276468302 -0.0060202797681355828 0 6.5697702531112445e-05 -0.012419901573708741 0 -7.2561430840593804e-05 -0.012276009588782907 0 -0.00031379950163960574 -0.012244559048964872 0 0.0015499349121491069 -0.011378528275848437 0 0.0025296998491422702 -0.0089586427054621567 0 0.0015499349121491069 -0.011378528275848437 0 0.00061595362790381946 -0.012277093290507768 0 6.5697702531112445e-05 -0.012419901573708741 0 9.4519433451278268e-05 -0.01243499198978033 0 4.7624680958137754e-05 -0.012350221381427127 0 0.0020852981256835853 -0.013266525997445757 0 0.0022807384485002084 -0.013418960290886189 0 0.0019763758804810095 -0.013604545933292602 0 0.0020852981256835853 -0.013266525997445757 0 0.0019763758804810095 -0.013604545933292602 0 0.0018735551082743993 -0.013360515048291484 0 0.0019763758804810095 -0.013604545933292602 0 0.0018735551082743993 -0.013360515048291484 0 0.0017143268948690161 -0.013487394694217567 0 0.00061595362790381946 -0.012277093290507768 0 0.00042537136446282344 -0.012368306171979152 0 9.4519433451278268e-05 -0.01243499198978033 0 0.00011541644761453666 -0.012401560351309612 0 0.00020552007530822152 -0.012525396100291788 0 9.4519433451278268e-05 -0.01243499198978033 0 0.00011541644761453666 -0.012401560351309612 0 4.7624680958137754e-05 -0.012350221381427127 0 1.4306464681262756e-05 -0.012208484779093406 0 4.7624680958137754e-05 -0.012350221381427127 0 -7.2561430840593804e-05 -0.012276009588782907 0 0.00011541644761453666 -0.012401560351309612 0 1.4306464681262756e-05 -0.012208484779093406 0 4.7624680958137754e-05 -0.012350221381427127 0 6.5697702531112445e-05 -0.012419901573708741 0 4.7624680958137754e-05 -0.012350221381427127 0 -7.2561430840593804e-05 -0.012276009588782907 0 1.4306464681262756e-05 -0.012208484779093406 0 -0.00018008143139571381 -0.012182418370746793 0 -0.00037482360622790174 -0.011985141689507187 0 0.0004200282874030673 -0.0069695918765377623 0 -0.00013451395311592571 -0.005536925086719784 0 -7.2561430840593804e-05 -0.012276009588782907 0 -0.00018008143139571381 -0.012182418370746793 0 -0.00031379950163960574 -0.012244559048964872 0 1.4306464681262756e-05 -0.012208484779093406 0 -7.2561430840593804e-05 -0.012276009588782907 0 -0.00018008143139571381 -0.012182418370746793 0 0.00095100437227322546 -0.013229323651799345 0 0.00068678075202849038 -0.013363023997229181 0 0.0011858366167887642 -0.013542699168420378 0 0.001449734625545139 -0.013667075703371881 0 0.00093559998058180007 -0.013730768793789819 0 0.0011858366167887642 -0.013542699168420378 0 0.0013793709577603983 -0.013432409906660324 0 0.001449734625545139 -0.013667075703371881 0 0.0012096783176116996 -0.013383379270745815 0 0.0011858366167887642 -0.013542699168420378 0 0.00098478997427055271 -0.013449864421135221 0 0.0012096783176116996 -0.013383379270745815 0 0.0011858366167887642 -0.013542699168420378 0 0.0013793709577603983 -0.013432409906660324 0 0.0015217502612212678 -0.01324578167737943 0 0.0013793709577603983 -0.013432409906660324 0 0.0015537481709848957 -0.013428664112111785 0 0.0015537481709848957 -0.013428664112111785 0 0.0017143268948690161 -0.013487394694217567 0 0.001449734625545139 -0.013667075703371881 0 0.0013793709577603983 -0.013432409906660324 0 0.0015537481709848957 -0.013428664112111785 0 0.001449734625545139 -0.013667075703371881 0 0.00061595362790381946 -0.012277093290507768 0 0.00095100437227322546 -0.013229323651799345 0 7.0263379759410579e-05 -0.012416638430231287 0 9.4519433451278268e-05 -0.01243499198978033 0 0.00025639290858823978 -0.012646152899551844 0 0.0019763758804810095 -0.013604545933292602 0 0.0017143268948690161 -0.013487394694217567 0 0.001449734625545139 -0.013667075703371881 0 0.001705109319264803 -0.013308858726827357 0 0.0018735551082743993 -0.013360515048291484 0 0.0017143268948690161 -0.013487394694217567 0 0.001705109319264803 -0.013308858726827357 0 0.0015537481709848957 -0.013428664112111785 0 0.0017143268948690161 -0.013487394694217567 0 0.00025639290858823978 -0.012646152899551844 0 0.00028041166147682622 -0.012588325180938983 0 0.00020552007530822152 -0.012525396100291788 0 0.00011541644761453666 -0.012401560351309612 0 1.4306464681262756e-05 -0.012208484779093406 0 0.00028895172872009161 -0.012530270515942759 0 0.00060800739165383863 -0.0020189924376112786 0 0.0007848730903016989 -0.0019371012548684667 0 0.00040334474457643396 -0.0019404735266652089 0 0.00011541644761453666 -0.012401560351309612 0 0.00020552007530822152 -0.012525396100291788 0 0.00028895172872009161 -0.012530270515942759 0 0.0004200282874030673 -0.0069695918765377623 0 0.00062756099531896873 -0.0094306594213389994 0 9.4519433451278268e-05 -0.01243499198978033 0 0.00025639290858823978 -0.012646152899551844 0 0.00020552007530822152 -0.012525396100291788 0 0.00028041166147682622 -0.012588325180938983 0 0.00020552007530822152 -0.012525396100291788 0 0.00028895172872009161 -0.012530270515942759 0 0.00027364908186234394 -0.011043300475398128 0 0.00062756099531896873 -0.0094306594213389994 0 0.00025639290858823978 -0.012646152899551844 0 0.00029614420238544979 -0.012722329946141369 0 0.00043493811787475309 -0.013019688334071456 0 0.00062756099531896873 -0.0094306594213389994 0 -0.00010768825043463233 -0.01325702308314558 0 0.00028041166147682622 -0.012588325180938983 0 0.00029378082873056919 -0.012641088068950153 0 0.00029772066836850699 -0.012717355330171865 0 -0.00018833306325993516 -0.012415276146082076 0 -0.00077225163430260008 -0.01285787805022336 0 0.0002918908425158719 -0.012864727161116116 0 0.00029378082873056919 -0.012641088068950153 0 0.00029772066836850699 -0.012717355330171865 0 0.0002918908425158719 -0.012864727161116116 0 0.00029614420238544979 -0.012722329946141369 0 0.00032096276709876276 -0.012803289073077238 0 0.00043493811787475309 -0.013019688334071456 0 0.00025639290858823978 -0.012646152899551844 0 0.00028041166147682622 -0.012588325180938983 0 0.00029614420238544979 -0.012722329946141369 0 0.00028041166147682622 -0.012588325180938983 0 0.00029772066836850699 -0.012717355330171865 0 0.00029614420238544979 -0.012722329946141369 0 0.00029772066836850699 -0.012717355330171865 0 0.00029614420238544979 -0.012722329946141369 0 0.00032096276709876276 -0.012803289073077238 0 0.00029772066836850699 -0.012717355330171865 0 0.00032096276709876276 -0.012803289073077238 0 0.0002918908425158719 -0.012864727161116116 0 0.00030845830629422881 -0.01229859205249929 0 0.0002918908425158719 -0.012864727161116116 0 0.00057064489265961846 -0.013205489324720505 0 0.0002918908425158719 -0.012864727161116116 0 0.00043493811787475309 -0.013019688334071456 0 0.00057064489265961846 -0.013205489324720505 0 0.00032096276709876276 -0.012803289073077238 0 0.0002918908425158719 -0.012864727161116116 0 0.00043493811787475309 -0.013019688334071456 0 0.0011858366167887642 -0.013542699168420378 0 0.00093559998058180007 -0.013730768793789819 0 0.00098478997427055271 -0.013449864421135221 0 0.00093559998058180007 -0.013730768793789819 0 0.00098478997427055271 -0.013449864421135221 0 0.00072670423279390731 -0.013591657430505664 0 0.00098478997427055271 -0.013449864421135221 0 0.00074351940086941101 -0.013441298931872544 0 0.00072670423279390731 -0.013591657430505664 0 0.00093559998058180007 -0.013730768793789819 0 0.00072670423279390731 -0.013591657430505664 0 0.00044106191053188814 -0.013767980291725452 0 0.00054458310745745793 -0.013551494488046224 0 0.00040397373979118894 -0.013458639399298604 0 0.0005774959012724419 -0.013352268636993273 0 0.00054458310745745793 -0.013551494488046224 0 0.00074351940086941101 -0.013441298931872544 0 0.0005774959012724419 -0.013352268636993273 0 0.00054458310745745793 -0.013551494488046224 0 0.00074351940086941101 -0.013441298931872544 0 0.00072670423279390731 -0.013591657430505664 0 0.00054458310745745793 -0.013551494488046224 0 0.00072670423279390731 -0.013591657430505664 0 0.00044106191053188814 -0.013767980291725452 0 0.00057064489265961846 -0.013205489324720505 0 0.00042177379673236516 -0.013525648303064458 0 0.00046858331765108394 -0.013349205250673186 0 0.00043493811787475309 -0.013019688334071456 0 0.00057064489265961846 -0.013205489324720505 0 0.00046858331765108394 -0.013349205250673186 0 0.00068678075202849038 -0.013363023997229181 0 0.0004682293890855148 -0.013561069126228295 0 0.00026376428817973706 -0.013659773183053789 0 0.00046858331765108394 -0.013349205250673186 0 9.2912004000858815e-05 -0.013745514505519444 0 0.0004682293890855148 -0.013561069126228295 0 0.00013849831701355351 -0.013708304306651452 0 0.00042177379673236516 -0.013525648303064458 0 0.00026376428817973706 -0.013659773183053789 0 0.00046858331765108394 -0.013349205250673186 0 0.00010739583119724829 -0.013863461118337172 0 0.00026376428817973706 -0.013659773183053789 0 9.2912004000858815e-05 -0.013745514505519444 0 0.00010739583119724829 -0.013863461118337172 0 -1.8508507542969369e-05 -0.013920214730506463 0 9.2912004000858815e-05 -0.013745514505519444 0 -1.2153405163871653e-05 -0.013816557960441581 0 9.2912004000858815e-05 -0.013745514505519444 0 7.3110694002798707e-05 -0.013634901822101485 0 9.2912004000858815e-05 -0.013745514505519444 0 7.3110694002798707e-05 -0.013634901822101485 0 0.00021849190980699365 -0.013628444612246235 0 7.3110694002798707e-05 -0.013634901822101485 0 0.00021849190980699365 -0.013628444612246235 0 0.00017574816051461873 -0.013442166984202794 0 0.00044106191053188814 -0.013767980291725452 0 9.2912004000858815e-05 -0.013745514505519444 0 0.00021849190980699365 -0.013628444612246235 0 0.00054458310745745793 -0.013551494488046224 0 0.00044106191053188814 -0.013767980291725452 0 0.0003687963280699402 -0.013581008028844802 0 0.00044106191053188814 -0.013767980291725452 0 0.00021849190980699365 -0.013628444612246235 0 0.0003687963280699402 -0.013581008028844802 0 0.00021849190980699365 -0.013628444612246235 0 0.00028891452136538287 -0.013494027580708758 0 0.00017574816051461873 -0.013442166984202794 0 0.00021849190980699365 -0.013628444612246235 0 0.00028891452136538287 -0.013494027580708758 0 0.0003687963280699402 -0.013581008028844802 0 0.00054458310745745793 -0.013551494488046224 0 0.0003687963280699402 -0.013581008028844802 0 0.00040397373979118894 -0.013458639399298604 0 0.00028891452136538287 -0.013494027580708758 0 0.0003687963280699402 -0.013581008028844802 0 0.00040397373979118894 -0.013458639399298604 0 0.00040397373979118894 -0.013458639399298604 0 0.00030834599883189026 -0.013362844137859238 0 0.00043227612259456275 -0.013276295766408538 0 0.00028891452136538287 -0.013494027580708758 0 0.00040397373979118894 -0.013458639399298604 0 0.00030834599883189026 -0.013362844137859238 0 0.00028891452136538287 -0.013494027580708758 0 0.00030834599883189026 -0.013362844137859238 0 0.00017574816051461873 -0.013442166984202794 0 0.00030834599883189026 -0.013362844137859238 0 0.00017574816051461873 -0.013442166984202794 0 0.00029762130380769686 -0.0131680568878807 0 0.00043227612259456275 -0.013276295766408538 0 0.00029762130380769686 -0.0131680568878807 0 0.0006089786363779481 -0.013099887434937403 0 0.00030834599883189026 -0.013362844137859238 0 0.00043227612259456275 -0.013276295766408538 0 0.00029762130380769686 -0.0131680568878807 0 7.5158781429350998e-06 -0.013441421616665184 0 7.3110694002798707e-05 -0.013634901822101485 0 0.00017574816051461873 -0.013442166984202794 0 -0.00044820108380856248 -0.013544199725235122 0 8.7214187554338944e-05 -0.012849552455495392 0 7.5158781429350998e-06 -0.013441421616665184 0 0.00017574816051461873 -0.013442166984202794 0 0.00029762130380769686 -0.0131680568878807 0 -0.00045768497486417352 -0.013731009180858912 0 -0.00044816485877696114 -0.01384709305194359 0 -0.0004251882358313853 -0.013786994006160276 0 -0.00044820108380856248 -0.013544199725235122 0 -0.00033113437419689425 -0.013129763970536616 0 -0.00046572941300763949 -0.013939956812251648 0 -0.00044816485877696114 -0.01384709305194359 0 -0.00040455427645726615 -0.013815551120134224 0 -0.00047717847735197493 -0.013883830356154855 0 -0.00046572941300763949 -0.013939956812251648 0 -0.00044816485877696114 -0.01384709305194359 0 -0.00047717847735197493 -0.013883830356154855 0 -0.0004795250888732381 -0.013813069733990071 0 -0.00044816485877696114 -0.01384709305194359 0 -0.00093696544960197837 -0.012832800721015065 0 -0.00015999007798835258 -0.01264079099654312 0 -0.00016685984698178367 -0.012464227555443484 0 -0.00040455427645726615 -0.013815551120134224 0 -0.0004251882358313853 -0.013786994006160276 0 -0.00039913680664942837 -0.013770007583157213 0 -0.00044816485877696114 -0.01384709305194359 0 -0.00040455427645726615 -0.013815551120134224 0 -0.0004251882358313853 -0.013786994006160276 0 -0.00040966484601697621 -0.01372917873540096 0 -0.0004251882358313853 -0.013786994006160276 0 -0.00039913680664942837 -0.013770007583157213 0 -0.00040455427645726615 -0.013815551120134224 0 -0.00039913680664942837 -0.013770007583157213 0 -0.00035097045182227923 -0.013740443707090178 0 0.00067442879378708622 -0.012072433079319987 0 -0.00016685984698178367 -0.012464227555443484 0 0.00068575005660762478 -0.012450195423738028 0 0.00027193377013084524 -0.012893167965417691 0 -0.00033113437419689425 -0.013129763970536616 0 0.00029762130380769686 -0.0131680568878807 0 0.00087989424040243395 -0.012742683414056882 0 0.0006089786363779481 -0.013099887434937403 0 -0.00015999007798835258 -0.01264079099654312 0 -0.00016685984698178367 -0.012464227555443484 0 0.00068575005660762478 -0.012450195423738028 0 8.7214187554338944e-05 -0.012849552455495392 0 0.00080667653317343963 -0.012593522664642256 0 -0.00016199349752535734 -0.013723200904444557 0 -0.00040455427645726615 -0.013815551120134224 0 -0.00035097045182227923 -0.013740443707090178 0 0.0013274413607951498 -0.012655297351290201 0 0.00087989424040243395 -0.012742683414056882 0 0.0006089786363779481 -0.013099887434937403 0 0.00067442879378708622 -0.012072433079319987 0 0.0013246165033927292 -0.01209135140002577 0 0.00068575005660762478 -0.012450195423738028 0 0.0012627625322894861 -0.012831133793994247 0 0.00061600928858551252 -0.013065241912587658 0 0.0011951054961786946 -0.012973927469277205 0 0.00095169776287794738 -0.013183577381639673 0 0.0006089786363779481 -0.013099887434937403 0 0.0011951054961786946 -0.012973927469277205 0 0.0011307756122855286 -0.013235860081141911 0 0.00095169776287794738 -0.013183577381639673 0 0.0011307756122855286 -0.013235860081141911 0 0.00098478997427055271 -0.013449864421135221 0 0.00095169776287794738 -0.013183577381639673 0 0.00098478997427055271 -0.013449864421135221 0 0.00074351940086941101 -0.013441298931872544 0 0.00095169776287794738 -0.013183577381639673 0 0.00074351940086941101 -0.013441298931872544 0 0.00095169776287794738 -0.013183577381639673 0 0.0007221116129458976 -0.013270882727187574 0 0.00095169776287794738 -0.013183577381639673 0 0.0007221116129458976 -0.013270882727187574 0 0.0006089786363779481 -0.013099887434937403 0 0.00074351940086941101 -0.013441298931872544 0 0.0007221116129458976 -0.013270882727187574 0 0.0005774959012724419 -0.013352268636993273 0 0.00040397373979118894 -0.013458639399298604 0 0.00043227612259456275 -0.013276295766408538 0 0.0005774959012724419 -0.013352268636993273 0 0.00043227612259456275 -0.013276295766408538 0 0.0005774959012724419 -0.013352268636993273 0 0.0006089786363779481 -0.013099887434937403 0 0.0007221116129458976 -0.013270882727187574 0 0.0005774959012724419 -0.013352268636993273 0 0.0006089786363779481 -0.013099887434937403 0 -2.2773476073991854e-05 -0.024886414014521841 0 -7.7570871709569509e-05 -0.024689361034140905 0 -6.6723640294709565e-05 -0.024830113977337448 0 -1.2224207690619397e-08 -0.024999803524190806 0 -2.2773476073991854e-05 -0.024886414014521841 0 -6.6723640294709565e-05 -0.024830113977337448 0 5.0183351999182108e-09 -0.02499989231412398 0 -2.2773476073991854e-05 -0.024886414014521841 0 -1.4334856499200618e-05 -0.024962402450297017 0 -1.2224207690619397e-08 -0.024999803524190806 0 5.0183351999182108e-09 -0.02499989231412398 0 -2.2773476073991854e-05 -0.024886414014521841 0 -2.2773476073991854e-05 -0.024886414014521841 0 -5.9233522950896468e-05 -0.024893580746717027 0 -1.4334856499200618e-05 -0.024962402450297017 0 -2.2773476073991854e-05 -0.024886414014521841 0 -7.7570871709569509e-05 -0.024689361034140905 0 -5.9233522950896468e-05 -0.024893580746717027 0 -0.00015093014570235588 -0.024810373568673473 0 -7.7570871709569509e-05 -0.024689361034140905 0 -5.9233522950896468e-05 -0.024893580746717027 0 -0.00015093014570235588 -0.024810373568673473 0 -0.00027136740050218302 -0.024729552266653562 0 -0.00026389114411391675 -0.024900923937719567 0 -0.00015093014570235588 -0.024810373568673473 0 -7.7570871709569509e-05 -0.024689361034140905 0 -0.00027136740050218302 -0.024729552266653562 0 -0.00022248353295753343 -0.024250963192421329 0 -0.00023208161710137814 -0.023697214737724352 0 -0.00018439511147559824 -0.024320749734776579 0 -7.7570871709569509e-05 -0.024689361034140905 0 -0.00027136740050218302 -0.024729552266653562 0 -7.7570871709569509e-05 -0.024689361034140905 0 -0.0001248911361009809 -0.024663684038740728 0 -6.6723640294709565e-05 -0.024830113977337448 0 -0.00018439511147559824 -0.024320749734776579 0 -7.7570871709569509e-05 -0.024689361034140905 0 -0.0001248911361009809 -0.024663684038740728 0 -0.00018439511147559824 -0.024320749734776579 0 -0.0001248911361009809 -0.024663684038740728 0 0.00010044442822800148 -0.024597133023302888 0 -0.0001248911361009809 -0.024663684038740728 0 -5.6249067686795902e-05 -0.024909597602622447 0 0.00010044442822800148 -0.024597133023302888 0 -0.0001248911361009809 -0.024663684038740728 0 -6.6723640294709565e-05 -0.024830113977337448 0 -8.1649121868339547e-05 -0.024888813961104206 0 -0.0001248911361009809 -0.024663684038740728 0 -8.1649121868339547e-05 -0.024888813961104206 0 -5.6249067686795902e-05 -0.024909597602622447 0 -6.6723640294709565e-05 -0.024830113977337448 0 -8.1660446149359538e-08 -0.024999886129217001 0 -8.1649121868339547e-05 -0.024888813961104206 0 -1.2224207690619397e-08 -0.024999803524190806 0 -6.6723640294709565e-05 -0.024830113977337448 0 -8.1660446149359538e-08 -0.024999886129217001 0 -8.1660446149359538e-08 -0.024999886129217001 0 -3.3596490500476934e-05 -0.024952012557849377 0 -8.1649121868339547e-05 -0.024888813961104206 0 -8.1660446149359538e-08 -0.024999886129217001 0 -3.3596490500476934e-05 -0.024952012557849377 0 6.6577185403541067e-09 -0.024999895772977485 0 -3.3596490500476934e-05 -0.024952012557849377 0 -6.1315459500669277e-05 -0.024907311091491805 0 -8.1649121868339547e-05 -0.024888813961104206 0 -4.1995155990675787e-05 -0.024921373495906417 0 -5.804911888040144e-05 -0.024876848984170814 0 -6.1315459500669277e-05 -0.024907311091491805 0 -3.3596490500476934e-05 -0.024952012557849377 0 -4.1995155990675787e-05 -0.024921373495906417 0 -6.1315459500669277e-05 -0.024907311091491805 0 -3.3596490500476934e-05 -0.024952012557849377 0 -4.1995155990675787e-05 -0.024921373495906417 0 -2.5428396031659064e-05 -0.024951001531763297 0 -3.3596490500476934e-05 -0.024952012557849377 0 -2.5428396031659064e-05 -0.024951001531763297 0 6.6577185403541067e-09 -0.024999895772977485 0 -2.5428396031659064e-05 -0.024951001531763297 0 6.6577185403541067e-09 -0.024999895772977485 0 6.6413214038448252e-09 -0.024944852726751787 0 -2.5428396031659064e-05 -0.024951001531763297 0 6.6413214038448252e-09 -0.024944852726751787 0 -3.3779879943051126e-05 -0.024911511495267772 0 -3.054275879515508e-05 -0.024899059212672495 0 -5.3968156306665096e-05 -0.024852516192438404 0 6.6413214038448252e-09 -0.024944852726751787 0 -3.3779879943051126e-05 -0.024911511495267772 0 -3.5611685356405954e-05 -0.024864744424606337 0 -4.1995155990675787e-05 -0.024921373495906417 0 -3.3779879943051126e-05 -0.024911511495267772 0 -5.804911888040144e-05 -0.024876848984170814 0 -4.1995155990675787e-05 -0.024921373495906417 0 -2.5428396031659064e-05 -0.024951001531763297 0 -3.3779879943051126e-05 -0.024911511495267772 0 -3.3779879943051126e-05 -0.024911511495267772 0 -3.5611685356405954e-05 -0.024864744424606337 0 -5.804911888040144e-05 -0.024876848984170814 0 -6.5333609232964322e-05 -0.024832468584931645 0 -5.3968156306665096e-05 -0.024852516192438404 0 -6.6496210565241765e-05 -0.024839159589715297 0 -6.6945765511219806e-05 -0.024840319244465864 0 -6.737477698994841e-05 -0.024841528472188915 0 -6.6945765511219806e-05 -0.024840319244465864 0 -6.737477698994841e-05 -0.024841528472188915 0 -6.6674278844617649e-05 -0.024841176946642399 0 -2.1339769790854777e-09 -0.024999995075364524 0 3.9396894899065438e-06 -0.025000205649526475 0 1.2470149163303009e-09 -0.024944846807733938 0 -6.4387898070749648e-05 -0.024844872807690824 0 -6.737477698994841e-05 -0.024841528472188915 0 -6.6674278844617649e-05 -0.024841176946642399 0 -3.1870014991635589e-05 -0.024918611379092251 0 -3.054275879515508e-05 -0.024899059212672495 0 -6.6511620206343626e-05 -0.024840170327657628 0 -6.4387898070749648e-05 -0.024844872807690824 0 -6.6674278844617649e-05 -0.024841176946642399 0 -6.6511620206343626e-05 -0.024840170327657628 0 -6.6992064944368797e-05 -0.024840466222153287 0 -6.6674278844617649e-05 -0.024841176946642399 0 -7.1871351942248419e-05 -0.02484453251094287 0 -8.1855052612655045e-05 -0.024837649753560089 0 -7.9183948916487396e-05 -0.024815235862932754 0 -6.4920354092122914e-05 -0.024824271233720028 0 -7.1871351942248419e-05 -0.02484453251094287 0 -7.9183948916487396e-05 -0.024815235862932754 0 -6.4920354092122914e-05 -0.024824271233720028 0 -7.1871351942248419e-05 -0.02484453251094287 0 -5.804911888040144e-05 -0.024876848984170814 0 -6.4920354092122914e-05 -0.024824271233720028 0 -3.5611685356405954e-05 -0.024864744424606337 0 -5.804911888040144e-05 -0.024876848984170814 0 -7.1871351942248419e-05 -0.02484453251094287 0 -5.804911888040144e-05 -0.024876848984170814 0 -6.8469571798068432e-05 -0.024871332781222114 0 -7.1871351942248419e-05 -0.02484453251094287 0 -6.8469571798068432e-05 -0.024871332781222114 0 -8.1855052612655045e-05 -0.024837649753560089 0 -6.8469571798068432e-05 -0.024871332781222114 0 -8.1177344549417032e-05 -0.024869028476140115 0 -8.1855052612655045e-05 -0.024837649753560089 0 -6.8469571798068432e-05 -0.024871332781222114 0 -6.025706410999983e-05 -0.024896182033141437 0 -8.1177344549417032e-05 -0.024869028476140115 0 -5.804911888040144e-05 -0.024876848984170814 0 -6.8469571798068432e-05 -0.024871332781222114 0 -6.1315459500669277e-05 -0.024907311091491805 0 -6.8469571798068432e-05 -0.024871332781222114 0 -6.1315459500669277e-05 -0.024907311091491805 0 -6.025706410999983e-05 -0.024896182033141437 0 -8.1649121868339547e-05 -0.024888813961104206 0 -6.025706410999983e-05 -0.024896182033141437 0 -5.6249067686795902e-05 -0.024909597602622447 0 -6.1315459500669277e-05 -0.024907311091491805 0 -8.1649121868339547e-05 -0.024888813961104206 0 -6.025706410999983e-05 -0.024896182033141437 0 -6.025706410999983e-05 -0.024896182033141437 0 -5.6249067686795902e-05 -0.024909597602622447 0 -8.1177344549417032e-05 -0.024869028476140115 0 -0.00011654236825712556 -0.024855580360090189 0 -8.1177344549417032e-05 -0.024869028476140115 0 -9.4092984730680671e-05 -0.024890573366080374 0 -5.6249067686795902e-05 -0.024909597602622447 0 -8.1177344549417032e-05 -0.024869028476140115 0 -9.4092984730680671e-05 -0.024890573366080374 0 -0.00011654236825712556 -0.024855580360090189 0 -0.00012726110702201743 -0.024876910239897451 0 -9.4092984730680671e-05 -0.024890573366080374 0 -0.00011654236825712556 -0.024855580360090189 0 -0.0001022777693625393 -0.024825286431947494 0 -0.00013076169414499923 -0.024812307335045136 0 -0.00011654236825712556 -0.024855580360090189 0 -8.1177344549417032e-05 -0.024869028476140115 0 -0.0001022777693625393 -0.024825286431947494 0 -8.1177344549417032e-05 -0.024869028476140115 0 -8.1855052612655045e-05 -0.024837649753560089 0 -0.0001022777693625393 -0.024825286431947494 0 -8.1855052612655045e-05 -0.024837649753560089 0 -0.0001022777693625393 -0.024825286431947494 0 -9.4666555263157995e-05 -0.024807921484141151 0 -0.0001022777693625393 -0.024825286431947494 0 -0.00012384531244850471 -0.024784085911772474 0 -9.4666555263157995e-05 -0.024807921484141151 0 -0.0001022777693625393 -0.024825286431947494 0 -0.00012384531244850471 -0.024784085911772474 0 -0.00013076169414499923 -0.024812307335045136 0 -0.00012384531244850471 -0.024784085911772474 0 -0.00011378864623986459 -0.024784751013618763 0 -9.4666555263157995e-05 -0.024807921484141151 0 -0.00011378864623986459 -0.024784751013618763 0 -8.6648438436571473e-05 -0.024798138611873018 0 -9.4666555263157995e-05 -0.024807921484141151 0 -9.105433529344157e-05 -0.024777900031775522 0 -0.00011378864623986459 -0.024784751013618763 0 -0.00012988768184369099 -0.024785620190190018 0 -9.105433529344157e-05 -0.024777900031775522 0 -0.00011378864623986459 -0.024784751013618763 0 -8.6648438436571473e-05 -0.024798138611873018 0 -8.1855052612655045e-05 -0.024837649753560089 0 -7.9183948916487396e-05 -0.024815235862932754 0 -9.4666555263157995e-05 -0.024807921484141151 0 -8.6648438436571473e-05 -0.024798138611873018 0 -7.9183948916487396e-05 -0.024815235862932754 0 -9.4666555263157995e-05 -0.024807921484141151 0 -0.00036023192061480745 -0.024196334192285982 0 -0.00037438392901262399 -0.024531467868305058 0 -0.00023192801582019726 -0.024329475949905002 0 -0.00019289170477056311 -0.024441875985268327 0 -0.00037438392901262399 -0.024531467868305058 0 -0.00023192801582019726 -0.024329475949905002 0 -8.4979718242855505e-05 -0.024297583772264507 0 -0.00023192801582019726 -0.024329475949905002 0 -0.00013860881489430492 -0.024344641466903367 0 -0.00019289170477056311 -0.024441875985268327 0 -0.00023192801582019726 -0.024329475949905002 0 -0.00013860881489430492 -0.024344641466903367 0 -0.00012988768184369099 -0.024785620190190018 0 -0.00014499880506559074 -0.024763204413247652 0 -0.00021093369185141449 -0.02469842333447933 0 -0.00019289170477056311 -0.024441875985268327 0 -7.0435244519355758e-05 -0.02431192060423315 0 -0.00021093369185141449 -0.02469842333447933 0 -0.00010981253385486102 -0.024558053160629558 0 -0.00020241364739060177 -0.024697614038471809 0 -0.00019289170477056311 -0.024441875985268327 0 -0.00013860881489430492 -0.024344641466903367 0 -7.0435244519355758e-05 -0.02431192060423315 0 -8.4979718242855505e-05 -0.024297583772264507 0 -0.00013860881489430492 -0.024344641466903367 0 -7.0435244519355758e-05 -0.02431192060423315 0 -0.00012384531244850471 -0.024784085911772474 0 -0.00011378864623986459 -0.024784751013618763 0 -0.00014499880506559074 -0.024763204413247652 0 -0.00011378864623986459 -0.024784751013618763 0 -0.00012988768184369099 -0.024785620190190018 0 -0.00014499880506559074 -0.024763204413247652 0 -0.00012384531244850471 -0.024784085911772474 0 -0.00014499880506559074 -0.024763204413247652 0 -0.00021093369185141449 -0.02469842333447933 0 -0.00012384531244850471 -0.024784085911772474 0 -0.00021093369185141449 -0.02469842333447933 0 -0.00013076169414499923 -0.024812307335045136 0 -0.00018087371307989029 -0.017513728459311168 0 0.0003872866054259627 -0.018570809700895596 0 -0.00053753330345660943 -0.017927576578421655 0 -0.00019289170477056311 -0.024441875985268327 0 -0.00037438392901262399 -0.024531467868305058 0 -0.00021093369185141449 -0.02469842333447933 0 -0.00037438392901262399 -0.024531467868305058 0 -0.00021093369185141449 -0.02469842333447933 0 -0.00017322025651853289 -0.02484749510911138 0 -0.00027011696038334353 -0.021051216782471009 0 5.183731841585839e-05 -0.021612573941567504 0 0.0003872866054259627 -0.018570809700895596 0 -6.7285077937635841e-05 -0.01913967761098135 0 -0.00048391250626569486 -0.018557671848797648 0 -0.00011654236825712556 -0.024855580360090189 0 -0.00017322025651853289 -0.02484749510911138 0 -0.00013076169414499923 -0.024812307335045136 0 -0.00021093369185141449 -0.02469842333447933 0 -0.00017322025651853289 -0.02484749510911138 0 -0.00013076169414499923 -0.024812307335045136 0 5.183731841585839e-05 -0.021612573941567504 0 0.00061887914524502697 -0.022659787936316646 0 -0.00011654236825712556 -0.024855580360090189 0 -0.00017322025651853289 -0.02484749510911138 0 -0.00012726110702201743 -0.024876910239897451 0 0.0003872866054259627 -0.018570809700895596 0 -6.7285077937635841e-05 -0.01913967761098135 0 0.00089225467503648459 -0.019652160083506242 0 0.00061887914524502697 -0.022659787936316646 0 0.00022443332684573877 -0.021177045630912605 0 -6.7285077937635841e-05 -0.01913967761098135 0 0.00089225467503648459 -0.019652160083506242 0 -0.00018297752201516698 -0.019809529972410686 0 0.00036709575787210839 -0.022230035145562922 0 0.00042004767585830704 -0.022150483514295705 0 0.00051143265415757352 -0.02233244314119966 0 0.00036709575787210839 -0.022230035145562922 0 0.00035161471246186987 -0.022282534964342661 0 0.00042441083150136582 -0.022211541604142161 0 0.00036709575787210839 -0.022230035145562922 0 0.00042441083150136582 -0.022211541604142161 0 0.00032318372374824905 -0.022261548197038867 0 0.00036709575787210839 -0.022230035145562922 0 0.00042004767585830704 -0.022150483514295705 0 0.00032318372374824905 -0.022261548197038867 0 0.00036709575787210839 -0.022230035145562922 0 0.00035161471246186987 -0.022282534964342661 0 0.00051143265415757352 -0.02233244314119966 0 0.0011925794816305226 -0.024905659175418159 0 0.00042014959401015078 -0.025023671836880507 0 0.00096239086812935988 -0.024282828535599672 0 0.00061887914524502697 -0.022659787936316646 0 9.8680048938134521e-05 -0.025119398126019456 0 -5.6249067686795902e-05 -0.024909597602622447 0 0.00042014959401015078 -0.025023671836880507 0 0.00010044442822800148 -0.024597133023302888 0 1.1374802230688177e-05 -0.024896161224119834 0 9.8680048938134521e-05 -0.025119398126019456 0 0.00042014959401015078 -0.025023671836880507 0 0.00010044442822800148 -0.024597133023302888 0 0.00096239086812935988 -0.024282828535599672 0 0.00010044442822800148 -0.024597133023302888 0 0.00096239086812935988 -0.024282828535599672 0 0.00031214719441639789 -0.02392199387343091 0 -0.00018439511147559824 -0.024320749734776579 0 0.00010044442822800148 -0.024597133023302888 0 0.00031214719441639789 -0.02392199387343091 0 0.00061887914524502697 -0.022659787936316646 0 0.0007535648945211262 -0.023416182731938948 0 0.0007535648945211262 -0.023416182731938948 0 0.00054455339939638795 -0.022759077923951491 0 0.00042441083150136582 -0.022211541604142161 0 0.0005915098606430212 -0.022816603649734982 0 0.00032318372374824905 -0.022261548197038867 0 0.00039073135472316968 -0.022459403363389946 0 0.0005915098606430212 -0.022816603649734982 0 0.00032318372374824905 -0.022261548197038867 0 0.00096239086812935988 -0.024282828535599672 0 0.00031214719441639789 -0.02392199387343091 0 0.0005915098606430212 -0.022816603649734982 0 -0.00018439511147559824 -0.024320749734776579 0 0.00013935304238116308 -0.023259026809353357 0 -0.00024831104778681924 -0.022728260400298253 0 -0.00018439511147559824 -0.024320749734776579 0 0.00031214719441639789 -0.02392199387343091 0 0.00013935304238116308 -0.023259026809353357 0 0.00031214719441639789 -0.02392199387343091 0 0.00013935304238116308 -0.023259026809353357 0 0.0005915098606430212 -0.022816603649734982 0 0.00048906029885807537 -0.02224551974085669 0 0.00014127485864540683 -0.023661732837839882 0 -0.00024831104778681924 -0.022728260400298253 0 0.00022858172815214058 -0.022595345087277525 0 -1.0634560008337471e-05 -0.021822088726225129 0 0.00022858172815214058 -0.022595345087277525 0 0.00059252992925284606 -0.022639920183449846 0 -1.0634560008337471e-05 -0.021822088726225129 0 -0.00023208161710137814 -0.023697214737724352 0 0.00014127485864540683 -0.023661732837839882 0 0.00013935304238116308 -0.023259026809353357 0 -0.00024831104778681924 -0.022728260400298253 0 0.00022858172815214058 -0.022595345087277525 0 0.00013935304238116308 -0.023259026809353357 0 0.00022858172815214058 -0.022595345087277525 0 0.0005915098606430212 -0.022816603649734982 0 0.00022858172815214058 -0.022595345087277525 0 0.0005915098606430212 -0.022816603649734982 0 0.00059252992925284606 -0.022639920183449846 0 0.00039073135472316968 -0.022459403363389946 0 0.00059252992925284606 -0.022639920183449846 0 0.00039624230103346036 -0.022701940096016286 0 0.00039073135472316968 -0.022459403363389946 0 0.0005915098606430212 -0.022816603649734982 0 0.00059252992925284606 -0.022639920183449846 0 0.00059252992925284606 -0.022639920183449846 0 0.00039624230103346036 -0.022701940096016286 0 0.00055931546152705139 -0.022819181774969777 0 0.00039073135472316968 -0.022459403363389946 0 0.0003046252868105446 -0.021634172605030911 0 0.00033595323594025941 -0.022053769206120503 0 0.00039157485677546546 -0.022379996671360657 0 0.00020846815629080195 -0.022183563038128268 0 0.00039073135472316968 -0.022459403363389946 0 0.00039624230103346036 -0.022701940096016286 0 4.5080151709169169e-05 -0.022734382309315172 0 0.0003046252868105446 -0.021634172605030911 0 0.00033595323594025941 -0.022053769206120503 0 0.00063638868687587453 -0.021715773718914484 0 0.00042004767585830704 -0.022150483514295705 0 0.00033595323594025941 -0.022053769206120503 0 0.00063638868687587453 -0.021715773718914484 0 0.00042004767585830704 -0.022150483514295705 0 0.00033595323594025941 -0.022053769206120503 0 0.00032318372374824905 -0.022261548197038867 0 0.00039073135472316968 -0.022459403363389946 0 0.00033595323594025941 -0.022053769206120503 0 0.00032318372374824905 -0.022261548197038867 0 0.00070298016142582081 -0.019288089132577256 0 0.00085661378409159893 -0.019626999440779683 0 0.0010321283677216027 -0.021949465375218406 0 0.00063638868687587453 -0.021715773718914484 0 0.0006957332216914892 -0.022109542272531833 0 0.00042004767585830704 -0.022150483514295705 0 0.00063638868687587453 -0.021715773718914484 0 0.0006957332216914892 -0.022109542272531833 0 0.00063638868687587453 -0.021715773718914484 0 0.0011117390283885379 -0.021415874423990698 0 0.00084291281496391647 -0.021135120447074031 0 0.0010321283677216027 -0.021949465375218406 0 0.00063638868687587453 -0.021715773718914484 0 0.0011117390283885379 -0.021415874423990698 0 0.00071187017652106987 -0.017705307296828982 0 -0.00089022376370905161 -0.016980385599839529 0 -6.3549320043669244e-05 -0.018978101345282366 0 0.00022637739382735204 -0.01641696815795456 0 0.00071187017652106987 -0.017705307296828982 0 -0.00089022376370905161 -0.016980385599839529 0 -0.00089022376370905161 -0.016980385599839529 0 -0.0010115019385069199 -0.016437023948649911 0 -0.00094288314980820582 -0.016563749656022919 0 -0.00089022376370905161 -0.016980385599839529 0 -0.00094288314980820582 -0.016563749656022919 0 -0.0009129171053783475 -0.016529019728852196 0 -0.00089022376370905161 -0.016980385599839529 0 -0.00078543488680779658 -0.016377098960773516 0 -0.0010115019385069199 -0.016437023948649911 0 -0.00078543488680779658 -0.016377098960773516 0 -0.00088392945282183275 -0.016180413405504954 0 -0.0010115019385069199 -0.016437023948649911 0 0.00022637739382735204 -0.01641696815795456 0 -0.00089022376370905161 -0.016980385599839529 0 -0.00078543488680779658 -0.016377098960773516 0 0.00022637739382735204 -0.01641696815795456 0 -0.00078543488680779658 -0.016377098960773516 0 -0.00062835103004567057 -0.016007046556307514 0 0.00022637739382735204 -0.01641696815795456 0 -0.00062835103004567057 -0.016007046556307514 0 0.00011932614575170567 -0.015818039099957198 0 -0.00043110320005016655 -0.015901627444550443 0 -0.00044171999291775093 -0.018574672925441085 0 -0.00062835103004567057 -0.016007046556307514 0 -0.00070473625008127835 -0.016086330461633051 0 -0.00088392945282183275 -0.016180413405504954 0 -0.00078543488680779658 -0.016377098960773516 0 -0.00062835103004567057 -0.016007046556307514 0 -0.00088392945282183275 -0.016180413405504954 0 -0.00070473625008127835 -0.016086330461633051 0 -0.00075863510452406574 -0.016183963746520195 0 -0.00070867460493620016 -0.016106276192348737 0 -0.00070473625008127835 -0.016086330461633051 0 -0.00070867460493620016 -0.016106276192348737 0 -0.00088392945282183275 -0.016180413405504954 0 -0.00075863510452406574 -0.016183963746520195 0 -0.00089068004430900485 -0.01604319381825332 0 -0.00094483949228201902 -0.016329916924979843 0 -0.00062835103004567057 -0.016007046556307514 0 -0.00075863510452406574 -0.016183963746520195 0 -0.00089068004430900485 -0.01604319381825332 0 -0.00062835103004567057 -0.016007046556307514 0 -0.00070473625008127835 -0.016086330461633051 0 -0.00075863510452406574 -0.016183963746520195 0 -0.00044171999291775093 -0.018574672925441085 0 -0.0011289824097203954 -0.017542178939501968 0 -0.0012363858291609834 -0.019973349883861184 0 -0.0007245258123682205 -0.019452478406109194 0 -0.0011856660745107313 -0.018991936899355064 0 0.00070298016142582081 -0.019288089132577256 0 -0.00044171999291775093 -0.018574672925441085 0 0.0010321283677216027 -0.021949465375218406 0 0.00095294324480733308 -0.022285109319689057 0 0.0006957332216914892 -0.022109542272531833 0 0.00042004767585830704 -0.022150483514295705 0 0.0006957332216914892 -0.022109542272531833 0 0.00051143265415757352 -0.02233244314119966 0 0.00095294324480733308 -0.022285109319689057 0 0.0006957332216914892 -0.022109542272531833 0 0.00051143265415757352 -0.02233244314119966 0 -0.00044171999291775093 -0.018574672925441085 0 0.00022443332684573877 -0.021177045630912605 0 -0.0012363858291609834 -0.019973349883861184 0 -0.00018297752201516698 -0.019809529972410686 0 -0.0007245258123682205 -0.019452478406109194 0 -6.7285077937635841e-05 -0.01913967761098135 0 -0.00018297752201516698 -0.019809529972410686 0 -0.0007245258123682205 -0.019452478406109194 0 -0.00061584800919942844 -0.019035704696731454 0 -0.0011856660745107313 -0.018991936899355064 0 -0.00048391250626569486 -0.018557671848797648 0 -6.7285077937635841e-05 -0.01913967761098135 0 -0.0007245258123682205 -0.019452478406109194 0 -0.00061584800919942844 -0.019035704696731454 0 -6.7285077937635841e-05 -0.01913967761098135 0 -0.00061584800919942844 -0.019035704696731454 0 -0.00048391250626569486 -0.018557671848797648 0 -0.0007245258123682205 -0.019452478406109194 0 -0.00061584800919942844 -0.019035704696731454 0 -0.0011856660745107313 -0.018991936899355064 0 -0.00094483949228201902 -0.016329916924979843 0 -0.00095733469549797053 -0.016661447968191093 0 -0.00078481293013292497 -0.016465472098053369 0 -0.0011289824097203954 -0.017542178939501968 0 -0.0010143923404784484 -0.017349813642169445 0 -0.0011856660745107313 -0.018991936899355064 0 -0.00048391250626569486 -0.018557671848797648 0 -0.0011087458689032111 -0.017981533790164605 0 -0.00048391250626569486 -0.018557671848797648 0 -0.00053753330345660943 -0.017927576578421655 0 -0.0011087458689032111 -0.017981533790164605 0 0.0003872866054259627 -0.018570809700895596 0 -0.00048391250626569486 -0.018557671848797648 0 -0.00053753330345660943 -0.017927576578421655 0 -0.00053753330345660943 -0.017927576578421655 0 -0.0011087458689032111 -0.017981533790164605 0 -0.00065789077415920371 -0.017398933908306422 0 -0.00018087371307989029 -0.017513728459311168 0 -0.00053753330345660943 -0.017927576578421655 0 -0.00065789077415920371 -0.017398933908306422 0 -0.00095733469549797053 -0.016661447968191093 0 -0.0009018728754046514 -0.017065421092500199 0 -0.00079297562116473739 -0.016764746798708648 0 -0.0010143923404784484 -0.017349813642169445 0 -0.0009283415359426729 -0.01707170975256549 0 -0.0011087458689032111 -0.017981533790164605 0 -0.0009018728754046514 -0.017065421092500199 0 -0.00065789077415920371 -0.017398933908306422 0 -0.00076576549502749671 -0.016950293373027885 0 -0.00018087371307989029 -0.017513728459311168 0 -0.00065789077415920371 -0.017398933908306422 0 -0.00076576549502749671 -0.016950293373027885 0 -0.0009018728754046514 -0.017065421092500199 0 -0.00065789077415920371 -0.017398933908306422 0 -0.0006762503475953159 -0.020491413944754691 0 -0.00027011696038334353 -0.021051216782471009 0 -0.00062719976918107793 -0.016826044942370309 0 -0.00063943384096551024 -0.016719629273518867 0 -0.00053331404156394847 -0.016757019239354101 0 -0.00062719976918107793 -0.016826044942370309 0 -0.00073796241436139848 -0.016874088421213095 0 -0.00063943384096551024 -0.016719629273518867 0 -0.00066682131415160952 -0.016915220759830995 0 -0.00062719976918107793 -0.016826044942370309 0 -0.00073796241436139848 -0.016874088421213095 0 -0.0009018728754046514 -0.017065421092500199 0 -0.00073796241436139848 -0.016874088421213095 0 -0.00079297562116473739 -0.016764746798708648 0 -0.00077612479849803429 -0.01697894814672745 0 -0.0009018728754046514 -0.017065421092500199 0 -0.00073796241436139848 -0.016874088421213095 0 -0.00073796241436139848 -0.016874088421213095 0 -0.00079297562116473739 -0.016764746798708648 0 -0.00063943384096551024 -0.016719629273518867 0 -0.00095733469549797053 -0.016661447968191093 0 -0.00079297562116473739 -0.016764746798708648 0 -0.00071857082225698816 -0.016626054959785298 0 -0.00079297562116473739 -0.016764746798708648 0 -0.00071857082225698816 -0.016626054959785298 0 -0.00063943384096551024 -0.016719629273518867 0 -0.00071857082225698816 -0.016626054959785298 0 -0.00063943384096551024 -0.016719629273518867 0 -0.00063445565588995338 -0.016581579642702796 0 -0.00063943384096551024 -0.016719629273518867 0 -0.00063445565588995338 -0.016581579642702796 0 -0.00055834018357053101 -0.01667489611367157 0 -0.00071857082225698816 -0.016626054959785298 0 -0.00063445565588995338 -0.016581579642702796 0 -0.00078481293013292497 -0.016465472098053369 0 -0.00063445565588995338 -0.016581579642702796 0 -0.00078481293013292497 -0.016465472098053369 0 -0.00062363871164295651 -0.016467767753943589 0 -0.00063445565588995338 -0.016581579642702796 0 -0.00062363871164295651 -0.016467767753943589 0 -0.00058651238746467013 -0.016524318650272658 0 -0.00095733469549797053 -0.016661447968191093 0 -0.00071857082225698816 -0.016626054959785298 0 -0.00078481293013292497 -0.016465472098053369 0 -0.00075863510452406574 -0.016183963746520195 0 -0.00094483949228201902 -0.016329916924979843 0 -0.00078481293013292497 -0.016465472098053369 0 -0.00078481293013292497 -0.016465472098053369 0 -0.00062363871164295651 -0.016467767753943589 0 -0.00062081527296378887 -0.016380468826605196 0 -0.00075863510452406574 -0.016183963746520195 0 -0.00078481293013292497 -0.016465472098053369 0 -0.00070867460493620016 -0.016106276192348737 0 -0.00079730789433163319 -0.016460072362912522 0 -0.00066740186467877897 -0.016241892546477982 0 -0.00062081527296378887 -0.016380468826605196 0 -0.00056987587944508464 -0.016415639910284763 0 -0.0005362855248732441 -0.016371573091255223 0 -0.00062363871164295651 -0.016467767753943589 0 -0.00062081527296378887 -0.016380468826605196 0 -0.00056987587944508464 -0.016415639910284763 0 -0.00056987587944508464 -0.016415639910284763 0 -0.00052161552083011093 -0.016425046385204565 0 -0.0005362855248732441 -0.016371573091255223 0 -0.00056153918178456126 -0.016465096373822152 0 -0.00052161552083011093 -0.016425046385204565 0 -0.0005305678696942563 -0.016470079139274972 0 -0.00056987587944508464 -0.016415639910284763 0 -0.00056153918178456126 -0.016465096373822152 0 -0.00052161552083011093 -0.016425046385204565 0 -0.00062363871164295651 -0.016467767753943589 0 -0.00056987587944508464 -0.016415639910284763 0 -0.00056153918178456126 -0.016465096373822152 0 -0.00052161552083011093 -0.016425046385204565 0 -0.0004622739893684927 -0.016377283401839918 0 -0.0005362855248732441 -0.016371573091255223 0 -0.00052161552083011093 -0.016425046385204565 0 -0.00047731033715380628 -0.016430550352256362 0 -0.0005305678696942563 -0.016470079139274972 0 -0.00052161552083011093 -0.016425046385204565 0 -0.00047731033715380628 -0.016430550352256362 0 -0.0004622739893684927 -0.016377283401839918 0 -0.00045878672164423702 -0.016398260420572568 0 -0.00043354892473534468 -0.016417006333266319 0 -0.00042209343115819683 -0.016401249393349998 0 -0.00050593363230413979 -0.016561129403286058 0 -0.00053109745384691774 -0.016627380568741454 0 -0.00050807910032443489 -0.016733995215849225 0 -0.00050593363230413979 -0.016561129403286058 0 -0.00050807910032443489 -0.016733995215849225 0 -0.00040458918310820277 -0.016686101299936008 0 -0.00049199267501711308 -0.016487838091903125 0 -0.0004207494782137184 -0.016368174352240875 0 -0.00047731033715380628 -0.016430550352256362 0 -0.0005305678696942563 -0.016470079139274972 0 -0.00043841722990507504 -0.016464828743167129 0 -0.00049199267501711308 -0.016487838091903125 0 -0.00045605672197748408 -0.016481025806543849 0 -0.00062363871164295651 -0.016467767753943589 0 -0.00056153918178456126 -0.016465096373822152 0 -0.00058651238746467013 -0.016524318650272658 0 -0.00058651238746467013 -0.016524318650272658 0 -0.00053059566607423139 -0.016545351995781499 0 -0.00056830640393382441 -0.016592869158435816 0 -0.00056153918178456126 -0.016465096373822152 0 -0.00058651238746467013 -0.016524318650272658 0 -0.00053059566607423139 -0.016545351995781499 0 -0.00056153918178456126 -0.016465096373822152 0 -0.00047242243131828757 -0.016554949199009072 0 -0.00053059566607423139 -0.016545351995781499 0 -0.00054268849526842072 -0.016467942760761828 0 -0.00049199267501711308 -0.016487838091903125 0 -0.00050593363230413979 -0.016561129403286058 0 -0.00053059566607423139 -0.016545351995781499 0 -0.00053109745384691774 -0.016627380568741454 0 -0.00049199267501711308 -0.016487838091903125 0 -0.00050534767253501754 -0.016499941059700114 0 -0.00053059566607423139 -0.016545351995781499 0 -0.00053109745384691774 -0.016627380568741454 0 -0.00056830640393382441 -0.016592869158435816 0 -0.00053109745384691774 -0.016627380568741454 0 -0.00056830640393382441 -0.016592869158435816 0 -0.00055834018357053101 -0.01667489611367157 0 -0.00063445565588995338 -0.016581579642702796 0 -0.00058651238746467013 -0.016524318650272658 0 -0.00056830640393382441 -0.016592869158435816 0 -0.00063445565588995338 -0.016581579642702796 0 -0.00056830640393382441 -0.016592869158435816 0 -0.00055834018357053101 -0.01667489611367157 0 -0.00063943384096551024 -0.016719629273518867 0 -0.00055834018357053101 -0.01667489611367157 0 -0.00053331404156394847 -0.016757019239354101 0 -0.00055834018357053101 -0.01667489611367157 0 -0.00050807910032443489 -0.016733995215849225 0 -0.00053331404156394847 -0.016757019239354101 0 -0.00053109745384691774 -0.016627380568741454 0 -0.00055834018357053101 -0.01667489611367157 0 -0.00050807910032443489 -0.016733995215849225 0 -0.00054980790584303093 -0.01669831960130928 0 -0.00045605672197748408 -0.016481025806543849 0 -0.00050807910032443489 -0.016733995215849225 0 -0.00056398944336861709 -0.016758617590484307 0 -0.00055856248291810825 -0.016778660551596599 0 -0.00050807910032443489 -0.016733995215849225 0 -0.00056398944336861709 -0.016758617590484307 0 -0.00053117072046831475 -0.016756986299918165 0 -0.00050807910032443489 -0.016733995215849225 0 -0.00053117072046831475 -0.016756986299918165 0 -0.00053331404156394847 -0.016757019239354101 0 -0.0007189491430693427 -0.016684983997510949 0 -0.00056398944336861709 -0.016758617590484307 0 -0.00053117072046831475 -0.016756986299918165 0 -0.0007189491430693427 -0.016684983997510949 0 -0.00045703670698948266 -0.016729228767798188 0 -0.00053117072046831475 -0.016756986299918165 0 -0.00045703670698948266 -0.016729228767798188 0 -0.00053117072046831475 -0.016756986299918165 0 -0.00053331404156394847 -0.016757019239354101 0 -0.00056484769333367947 -0.01684889019628931 0 -0.00045703670698948266 -0.016729228767798188 0 -0.00053331404156394847 -0.016757019239354101 0 -0.00056484769333367947 -0.01684889019628931 0 -0.00062719976918107793 -0.016826044942370309 0 -0.00053331404156394847 -0.016757019239354101 0 -0.00047834351619786933 -0.015095082380422372 0 -0.00047974075948633313 -0.015102236399150861 0 -0.00047750036743996323 -0.015113480252164285 0 -0.00050036935094370115 -0.015411181988313019 0 -0.00050379970161364628 -0.01548424716199724 0 -0.00047974075948633313 -0.015102236399150861 0 -0.00049320819045107719 -0.015107707900442555 0 -0.00047750036743996323 -0.015113480252164285 0 -0.00053651876544567141 -0.015058476614091997 0 -0.00050379970161364628 -0.01548424716199724 0 -0.00047330256979931048 -0.015816906550557796 0 -0.00063277761805201381 -0.015923556774568848 0 -0.00050612389142754542 -0.016027805991395083 0 -0.00061611388674487713 -0.016304180950422058 0 -0.00048087343830893411 -0.01626636660744047 0 -0.0007189491430693427 -0.016684983997510949 0 -0.00056398944336861709 -0.016758617590484307 0 -0.00056341896826787885 -0.016780466871316454 0 -0.00050379970161364628 -0.01548424716199724 0 -0.00048087343830893411 -0.01626636660744047 0 -0.00046558773321524709 -0.015751916974435579 0 -0.0004045201295665643 -0.015803623811526862 0 -0.00044577874185946993 -0.015808121507928968 0 -0.00056398944336861709 -0.016758617590484307 0 -0.00056341896826787885 -0.016780466871316454 0 -0.00055856248291810825 -0.016778660551596599 0 -0.00048087343830893411 -0.01626636660744047 0 -0.00045605672197748408 -0.016481025806543849 0 -0.00045134321046898479 -0.016354515528353927 0 -0.00046145852257533862 -0.016346705988583423 0 -0.00044884838222324547 -0.016340573058555959 0 -0.00048087343830893411 -0.01626636660744047 0 -0.00040175686951096911 -0.016221130337440832 0 -0.00045605672197748408 -0.016481025806543849 0 -0.00040175686951096911 -0.016221130337440832 0 -0.0004045201295665643 -0.015803623811526862 0 -0.00044577874185946993 -0.015808121507928968 0 -0.00040873695646810777 -0.015828925113085066 0 -0.00049807092822631296 -0.015505031643192583 0 -0.00050379970161364628 -0.01548424716199724 0 -0.00051867037019432164 -0.015838644654901556 0 -0.00046558773321524709 -0.015751916974435579 0 -0.00044577874185946993 -0.015808121507928968 0 -0.00049807092822631296 -0.015505031643192583 0 -0.00043153296202033854 -0.016114193072623965 0 -0.00051867037019432164 -0.015838644654901556 0 -0.00044577874185946993 -0.015808121507928968 0 -0.00045540043375861373 -0.015848593286139901 0 -0.00040894760052497447 -0.016440402129211811 0 -0.00038644440809124358 -0.016391627898199083 0 -0.00041775815413344359 -0.016416314082079251 0 -0.00043354892473534468 -0.016417006333266319 0 -0.00042391939979551996 -0.016412331445069026 0 -0.00042209343115819683 -0.016401249393349998 0 -0.00040175686951096911 -0.016221130337440832 0 -0.0004207494782137184 -0.016368174352240875 0 -0.00044577874185946993 -0.015808121507928968 0 -0.00045540043375861373 -0.015848593286139901 0 -0.00040873695646810777 -0.015828925113085066 0 -0.00043153296202033854 -0.016114193072623965 0 -0.0004207494782137184 -0.016368174352240875 0 -0.0004196245674211229 -0.016216770521682279 0 -0.00043691980401872207 -0.016225180442721514 0 -0.00043532547388650135 -0.016215453547147679 0 -0.00043153296202033854 -0.016114193072623965 0 -0.00040175686951096911 -0.016221130337440832 0 -0.0004207494782137184 -0.016368174352240875 0 -0.00043467058810896117 -0.016436729223553454 0 -0.00043693663012525733 -0.016437255656767215 0 -0.00043327300629206688 -0.016416973957008713 0 -0.00041775815413344359 -0.016416314082079251 0 -0.00040894760052497447 -0.016440402129211811 0 -0.00043693663012525733 -0.016437255656767215 0 -0.00041775815413344359 -0.016416314082079251 0 -0.00047731033715380628 -0.016430550352256362 0 -0.00043841722990507504 -0.016464828743167129 0 -0.00043327300629206688 -0.016416973957008713 0 -0.00047731033715380628 -0.016430550352256362 0 -0.00043327300629206688 -0.016416973957008713 0 -0.0004622739893684927 -0.016377283401839918 0 -0.00043327300629206688 -0.016416973957008713 0 -0.00041775815413344359 -0.016416314082079251 0 -0.00041848301629121814 -0.016386373180384696 0 -0.00043327300629206688 -0.016416973957008713 0 -0.0004622739893684927 -0.016377283401839918 0 -0.00041848301629121814 -0.016386373180384696 0 -0.00038644440809124358 -0.016391627898199083 0 -0.00041848301629121814 -0.016386373180384696 0 -0.00041164984379962494 -0.01634158652585287 0 -0.00033684781958480615 -0.016398905170728156 0 -0.00040894760052497447 -0.016440402129211811 0 -0.00038644440809124358 -0.016391627898199083 0 -0.00038644440809124358 -0.016391627898199083 0 -0.00041775815413344359 -0.016416314082079251 0 -0.00041848301629121814 -0.016386373180384696 0 -0.00036476548380318574 -0.016306827520782923 0 -0.00035974386127801314 -0.016356628878132759 0 -0.00041164984379962494 -0.01634158652585287 0 -0.00055974639540182724 -0.015634524133345633 0 -0.00040705482240142431 -0.016372170447228111 0 -0.00035974386127801314 -0.016356628878132759 0 -0.00038644440809124358 -0.016391627898199083 0 -0.00041164984379962494 -0.01634158652585287 0 -0.0003847392388440822 -0.016324743981402032 0 -0.00036479122026639204 -0.016230660709037219 0 -0.00041051478654533928 -0.016231831262881819 0 -0.00030890460803899137 -0.016273659771846617 0 -0.0003847392388440822 -0.016324743981402032 0 -0.00036479122026639204 -0.016230660709037219 0 -0.00055974639540182724 -0.015634524133345633 0 -0.00049427143262954201 -0.015571508518083211 0 -0.0003847392388440822 -0.016324743981402032 0 -0.00044127923579647912 -0.01626799272920789 0 -0.00041051478654533928 -0.016231831262881819 0 -0.00044127923579647912 -0.01626799272920789 0 -0.0005195646103577803 -0.016282328850593539 0 -0.00042304095823635942 -0.016184949939668021 0 -0.00044127923579647912 -0.01626799272920789 0 -0.00041051478654533928 -0.016231831262881819 0 -0.00042304095823635942 -0.016184949939668021 0 -0.00074608462141091691 -0.016304664708408217 0 -0.00068335722273078704 -0.015745494418258229 0 -0.0004622739893684927 -0.016377283401839918 0 -0.00041848301629121814 -0.016386373180384696 0 -0.00041164984379962494 -0.01634158652585287 0 -0.0003847392388440822 -0.016324743981402032 0 -0.00044127923579647912 -0.01626799272920789 0 -0.00047434252207994356 -0.016318464747977487 0 -0.0004622739893684927 -0.016377283401839918 0 -0.0003847392388440822 -0.016324743981402032 0 -0.00047434252207994356 -0.016318464747977487 0 -0.00045006932219161181 -0.016365254008192109 0 -0.00040705482240142431 -0.016372170447228111 0 -0.0004622739893684927 -0.016377283401839918 0 -0.00047434252207994356 -0.016318464747977487 0 -0.0005362855248732441 -0.016371573091255223 0 -0.00047434252207994356 -0.016318464747977487 0 -0.0005362855248732441 -0.016371573091255223 0 -0.0005195646103577803 -0.016282328850593539 0 -0.00070867460493620016 -0.016106276192348737 0 -0.00088392945282183275 -0.016180413405504954 0 -0.00093771290255327414 -0.016164551940039022 0 -0.00062081527296378887 -0.016380468826605196 0 -0.0005362855248732441 -0.016371573091255223 0 -0.0005195646103577803 -0.016282328850593539 0 -0.00066740186467877897 -0.016241892546477982 0 -0.00074608462141091691 -0.016304664708408217 0 -0.00088038246541185226 -0.016180107885337219 0 -0.0010358536329948692 -0.016285324767645402 0 -0.00088392945282183275 -0.016180413405504954 0 -0.00093771290255327414 -0.016164551940039022 0 -0.00093735277571670194 -0.016189268278441367 0 -0.00093771290255327414 -0.016164551940039022 0 -0.00093735277571670194 -0.016189268278441367 0 -0.00096694407137224814 -0.016194917121841599 0 -0.00044127923579647912 -0.01626799272920789 0 -0.00047434252207994356 -0.016318464747977487 0 -0.0005195646103577803 -0.016282328850593539 0 -0.001093452877259291 -0.016322429247432255 0 -0.0011082629889305343 -0.016186568103257006 0 -0.00099196215545369754 -0.016268175765014714 0 -0.0010358536329948692 -0.016285324767645402 0 -0.00095876821728547708 -0.015765364728042477 0 -0.001093452877259291 -0.016322429247432255 0 -0.0010115019385069199 -0.016437023948649911 0 -0.0011082629889305343 -0.016186568103257006 0 -0.00088392945282183275 -0.016180413405504954 0 -0.001093452877259291 -0.016322429247432255 0 -0.0010115019385069199 -0.016437023948649911 0 -0.0010115019385069199 -0.016437023948649911 0 -0.00094288314980820582 -0.016563749656022919 0 -0.0011082629889305343 -0.016186568103257006 0 -0.00094288314980820582 -0.016563749656022919 0 -0.0011082629889305343 -0.016186568103257006 0 -0.00096316836275358436 -0.016412205415609556 0 -0.0011354628445899013 -0.016220387390039989 0 -0.00095876821728547708 -0.015765364728042477 0 -0.0011082629889305343 -0.016186568103257006 0 -0.0012903713658212691 -0.015797138338442904 0 -0.001280711002624998 -0.015849640760729023 0 -0.0011082629889305343 -0.016186568103257006 0 -0.0012903713658212691 -0.015797138338442904 0 -0.0013913088060579842 -0.015791227738999214 0 -0.0012903713658212691 -0.015797138338442904 0 -0.0011109431281512514 -0.015725285542597108 0 -0.001280711002624998 -0.015849640760729023 0 -0.0012903713658212691 -0.015797138338442904 0 -0.0011109431281512514 -0.015725285542597108 0 -0.0011509883545055676 -0.015503621653943145 0 -0.00062918504211759336 -0.014953417894361757 0 -0.00059971538572189281 -0.014934529813594359 0 -0.00058417640725024389 -0.014932263312997362 0 -0.00086035024923671228 -0.015270806730330305 0 -0.00095876821728547708 -0.015765364728042477 0 -0.00062918504211759336 -0.014953417894361757 0 -0.00059971538572189281 -0.014934529813594359 0 -0.00062894740867167466 -0.014920020266842922 0 -0.00066900390113196261 -0.014901493924262548 0 -0.00062019502841698603 -0.014888511329574016 0 -0.00062894740867167466 -0.014920020266842922 0 -0.00049427143262954201 -0.015571508518083211 0 -0.00068335722273078704 -0.015745494418258229 0 -0.00062019502841698603 -0.014888511329574016 0 -0.00059971538572189281 -0.014934529813594359 0 -0.00062894740867167466 -0.014920020266842922 0 -0.00062019502841698603 -0.014888511329574016 0 -0.00059971538572189281 -0.014934529813594359 0 -0.00058489063672325248 -0.014923668193029557 0 -0.00036479122026639204 -0.016230660709037219 0 -0.00041051478654533928 -0.016231831262881819 0 -0.00042304095823635942 -0.016184949939668021 0 -0.00093735277571670194 -0.016189268278441367 0 -0.00096694407137224814 -0.016194917121841599 0 -0.00096269917509290146 -0.016198186290091669 0 -0.00044995737295401681 -0.015312667675398779 0 -0.00068335722273078704 -0.015745494418258229 0 -0.00059971538572189281 -0.014934529813594359 0 -0.00059042308947506177 -0.01492823499593778 0 -0.00058417640725024389 -0.014932263312997362 0 -0.00068335722273078704 -0.015745494418258229 0 -0.00095876821728547708 -0.015765364728042477 0 -0.0013684264447759355 -0.016413012021667034 0 -0.0013913088060579842 -0.015791227738999214 0 -0.0017047470382184006 -0.016604497123365685 0 -0.0014310615787359324 -0.015768797870955566 0 -0.0015519772533477329 -0.015757259280910717 0 -0.0013684264447759355 -0.016413012021667034 0 -0.0013913088060579842 -0.015791227738999214 0 -0.0011994026553764478 -0.016323689086790431 0 -0.0013684264447759355 -0.016413012021667034 0 -0.0017047470382184006 -0.016604497123365685 0 -0.0013284875212825869 -0.016750086104623078 0 -0.0013684264447759355 -0.016413012021667034 0 -0.0012088915806329518 -0.016535001589115892 0 -0.0013284875212825869 -0.016750086104623078 0 -0.0010618553417085783 -0.014809417105302248 0 -0.0010431864540039718 -0.015131808100490248 0 -0.0014435498915130076 -0.014810379310008221 0 -0.0010431864540039718 -0.015131808100490248 0 -0.0013913088060579842 -0.015791227738999214 0 -0.0014435498915130076 -0.014810379310008221 0 -0.0010431864540039718 -0.015131808100490248 0 -0.0011509883545055676 -0.015503621653943145 0 -0.0013913088060579842 -0.015791227738999214 0 -0.0012903713658212691 -0.015797138338442904 0 -0.0011509883545055676 -0.015503621653943145 0 -0.0013913088060579842 -0.015791227738999214 0 -0.0013913088060579842 -0.015791227738999214 0 -0.0011011879293912241 -0.016220279536199256 0 -0.0011994026553764478 -0.016323689086790431 0 -0.0011082629889305343 -0.016186568103257006 0 -0.0013913088060579842 -0.015791227738999214 0 -0.0011011879293912241 -0.016220279536199256 0 -0.0011082629889305343 -0.016186568103257006 0 -0.0011011879293912241 -0.016220279536199256 0 -0.00096316836275358436 -0.016412205415609556 0 -0.0011011879293912241 -0.016220279536199256 0 -0.00099993637344058086 -0.016382303382962971 0 -0.0010818707057751924 -0.016372039768360609 0 -0.00094288314980820582 -0.016563749656022919 0 -0.00096316836275358436 -0.016412205415609556 0 -0.0009129171053783475 -0.016529019728852196 0 -0.0011011879293912241 -0.016220279536199256 0 -0.00096316836275358436 -0.016412205415609556 0 -0.00099993637344058086 -0.016382303382962971 0 -0.00096316836275358436 -0.016412205415609556 0 -0.00093477338987466767 -0.016430363137246464 0 -0.00099993637344058086 -0.016382303382962971 0 -0.00096316836275358436 -0.016412205415609556 0 -0.00093477338987466767 -0.016430363137246464 0 -0.0009129171053783475 -0.016529019728852196 0 -0.00093477338987466767 -0.016430363137246464 0 -0.00092329507823114192 -0.016488117018214662 0 -0.00092648181990326263 -0.016450986217611391 0 -0.00093477338987466767 -0.016430363137246464 0 -0.00092329507823114192 -0.016488117018214662 0 -0.00096374558598752923 -0.016472113953039384 0 -0.00093477338987466767 -0.016430363137246464 0 -0.00096374558598752923 -0.016472113953039384 0 -0.00099993637344058086 -0.016382303382962971 0 -0.00096374558598752923 -0.016472113953039384 0 -0.00099993637344058086 -0.016382303382962971 0 -0.001026031135177582 -0.016455631052406699 0 -0.00096374558598752923 -0.016472113953039384 0 -0.0010097406757127818 -0.016572559597182214 0 -0.00093160575264609536 -0.016563544786244135 0 -0.00096374558598752923 -0.016472113953039384 0 -0.001026031135177582 -0.016455631052406699 0 -0.0010097406757127818 -0.016572559597182214 0 -0.00092329507823114192 -0.016488117018214662 0 -0.00096374558598752923 -0.016472113953039384 0 -0.00093160575264609536 -0.016563544786244135 0 -0.00093160575264609536 -0.016563544786244135 0 -0.00089177075087472054 -0.016569469288934244 0 -0.00089171930669266065 -0.016637743144689823 0 -0.00092329507823114192 -0.016488117018214662 0 -0.00093160575264609536 -0.016563544786244135 0 -0.00089177075087472054 -0.016569469288934244 0 -0.0011994026553764478 -0.016323689086790431 0 -0.0010818707057751924 -0.016372039768360609 0 -0.00110208579084191 -0.016503095802544217 0 -0.0011011879293912241 -0.016220279536199256 0 -0.0011994026553764478 -0.016323689086790431 0 -0.0010818707057751924 -0.016372039768360609 0 -0.00099993637344058086 -0.016382303382962971 0 -0.001026031135177582 -0.016455631052406699 0 -0.0010818707057751924 -0.016372039768360609 0 -0.001026031135177582 -0.016455631052406699 0 -0.0010818707057751924 -0.016372039768360609 0 -0.00110208579084191 -0.016503095802544217 0 -0.0010097406757127818 -0.016572559597182214 0 -0.00110208579084191 -0.016503095802544217 0 -0.0011164770729732525 -0.016665773872014126 0 -0.001026031135177582 -0.016455631052406699 0 -0.0010097406757127818 -0.016572559597182214 0 -0.00110208579084191 -0.016503095802544217 0 -0.00110208579084191 -0.016503095802544217 0 -0.0012088915806329518 -0.016535001589115892 0 -0.0011164770729732525 -0.016665773872014126 0 -0.0011994026553764478 -0.016323689086790431 0 -0.00110208579084191 -0.016503095802544217 0 -0.0012088915806329518 -0.016535001589115892 0 -0.0013684264447759355 -0.016413012021667034 0 -0.0011994026553764478 -0.016323689086790431 0 -0.0012088915806329518 -0.016535001589115892 0 -0.0011164770729732525 -0.016665773872014126 0 -0.0010902413287588117 -0.016845201387847307 0 -0.0013284875212825869 -0.016750086104623078 0 -0.0012088915806329518 -0.016535001589115892 0 -0.0011164770729732525 -0.016665773872014126 0 -0.0013284875212825869 -0.016750086104623078 0 -0.00076480720297771054 -0.017027600874512234 0 -0.0012435628433475753 -0.016825328371119028 0 -0.00033094572017228311 -0.017575440819774781 0 -0.0012055184964612192 -0.017603581851925922 0 -0.0013284875212825869 -0.016750086104623078 0 -0.0010097406757127818 -0.016572559597182214 0 -0.0011164770729732525 -0.016665773872014126 0 -0.0010374469664798738 -0.016694866579373035 0 -0.0011164770729732525 -0.016665773872014126 0 -0.0010374469664798738 -0.016694866579373035 0 -0.0010902413287588117 -0.016845201387847307 0 -0.00093160575264609536 -0.016563544786244135 0 -0.00089171930669266065 -0.016637743144689823 0 -0.00094436766220279747 -0.016699702167476963 0 -0.00089171930669266065 -0.016637743144689823 0 -0.00094436766220279747 -0.016699702167476963 0 -0.0008843372011849267 -0.016702456955859726 0 -0.00089171930669266065 -0.016637743144689823 0 -0.0008843372011849267 -0.016702456955859726 0 -0.00080859007890825469 -0.016680289348707189 0 -0.0010097406757127818 -0.016572559597182214 0 -0.00094436766220279747 -0.016699702167476963 0 -0.0010374469664798738 -0.016694866579373035 0 -0.0010097406757127818 -0.016572559597182214 0 -0.00093160575264609536 -0.016563544786244135 0 -0.00094436766220279747 -0.016699702167476963 0 -0.00094436766220279747 -0.016699702167476963 0 -0.0010374469664798738 -0.016694866579373035 0 -0.0010902413287588117 -0.016845201387847307 0 -0.00094436766220279747 -0.016699702167476963 0 -0.00094265127753987246 -0.016842075731888957 0 -0.0010902413287588117 -0.016845201387847307 0 -0.00094436766220279747 -0.016699702167476963 0 -0.00088775020991715893 -0.016794105233269033 0 -0.00094265127753987246 -0.016842075731888957 0 -0.00094436766220279747 -0.016699702167476963 0 -0.00088775020991715893 -0.016794105233269033 0 -0.0008843372011849267 -0.016702456955859726 0 -0.00088775020991715893 -0.016794105233269033 0 -0.0008843372011849267 -0.016702456955859726 0 -0.00080859007890825469 -0.016680289348707189 0 -0.00088775020991715893 -0.016794105233269033 0 -0.00094265127753987246 -0.016842075731888957 0 -0.000862670953769758 -0.017070675157994292 0 -0.00094265127753987246 -0.016842075731888957 0 -0.000862670953769758 -0.017070675157994292 0 -0.0010902413287588117 -0.016845201387847307 0 -0.00088775020991715893 -0.016794105233269033 0 -0.000862670953769758 -0.017070675157994292 0 -0.00080859007890825469 -0.016680289348707189 0 0.00066075837287280577 -0.018436808449775299 0 -0.00033094572017228311 -0.017575440819774781 0 -7.9865022745998846e-05 -0.018475969875417504 0 -0.00067857917662496846 -0.01954051970791118 0 -0.00076480720297771054 -0.017027600874512234 0 -0.0012055184964612192 -0.017603581851925922 0 -0.0013102331862482996 -0.018795129057311694 0 -0.00068003377197824167 -0.018452048888020774 0 -0.00033094572017228311 -0.017575440819774781 0 -0.0012055184964612192 -0.017603581851925922 0 -0.00068003377197824167 -0.018452048888020774 0 -0.00033094572017228311 -0.017575440819774781 0 -0.00068003377197824167 -0.018452048888020774 0 -7.9865022745998846e-05 -0.018475969875417504 0 -0.0019310702914434922 -0.018050241394455931 0 -0.0012055184964612192 -0.017603581851925922 0 -0.0013102331862482996 -0.018795129057311694 0 -0.0012055184964612192 -0.017603581851925922 0 -0.0017047470382184006 -0.016604497123365685 0 -0.0013284875212825869 -0.016750086104623078 0 -0.0019310702914434922 -0.018050241394455931 0 -0.0012055184964612192 -0.017603581851925922 0 -0.0017047470382184006 -0.016604497123365685 0 -0.0016648199374560441 -0.016105010868595324 0 -0.0015519772533477329 -0.015757259280910717 0 -0.0010618553417085783 -0.014809417105302248 0 -0.0014435498915130076 -0.014810379310008221 0 -0.0011571305201025373 -0.014585728650709553 0 -0.0013274662705420638 -0.014363049192458491 0 -0.0014435498915130076 -0.014810379310008221 0 -0.0011571305201025373 -0.014585728650709553 0 -0.0010244000592946035 -0.014390975204882368 0 -0.0013274662705420638 -0.014363049192458491 0 -0.0011495789288377193 -0.014215731991752552 0 -0.0010244000592946035 -0.014390975204882368 0 -0.0013274662705420638 -0.014363049192458491 0 -0.0011571305201025373 -0.014585728650709553 0 -0.0013274662705420638 -0.014363049192458491 0 -0.0011495789288377193 -0.014215731991752552 0 -0.0012546969354411935 -0.014076354707104635 0 -0.00094054681642926556 -0.014107948337186199 0 -0.0011495789288377193 -0.014215731991752552 0 -0.0012546969354411935 -0.014076354707104635 0 -0.0019310702914434922 -0.018050241394455931 0 -0.0013102331862482996 -0.018795129057311694 0 -0.0020995890766798493 -0.019620137601527431 0 -0.0016648199374560441 -0.016105010868595324 0 -0.0013127963018808376 -0.01735844011308383 0 -0.0013102331862482996 -0.018795129057311694 0 -0.0011770262208059947 -0.019741874397415777 0 -0.0020995890766798493 -0.019620137601527431 0 -0.0013102331862482996 -0.018795129057311694 0 -0.0011770262208059947 -0.019741874397415777 0 -0.00077383286435462879 -0.019212665148387424 0 -0.0011770262208059947 -0.019741874397415777 0 -0.0019184535777207784 -0.019676474112770945 0 -0.0012828483261508291 -0.020583110102714571 0 -0.0013908013744375481 -0.019444056119438974 0 -0.0013127963018808376 -0.01735844011308383 0 -0.0013127963018808376 -0.01735844011308383 0 -0.0013879758657140133 -0.019010907320616294 0 -0.001037429657151232 -0.014915409981258785 0 -0.0013127963018808376 -0.01735844011308383 0 -0.0010706390910892127 -0.016586850568740638 0 -0.00075925964645013201 -0.016374537644134497 0 -0.00079883500108436048 -0.016789390947105649 0 -0.0019656475108680671 -0.020923117128476183 0 -0.0012828483261508291 -0.020583110102714571 0 -0.0013272953720488924 -0.021531224958508743 0 -0.0012828483261508291 -0.020583110102714571 0 -0.0013272953720488924 -0.021531224958508743 0 -0.00085206304917325446 -0.021152457759988603 0 -0.0019184535777207784 -0.019676474112770945 0 -0.0019656475108680671 -0.020923117128476183 0 -0.0012828483261508291 -0.020583110102714571 0 -0.0019656475108680671 -0.020923117128476183 0 -0.0013272953720488924 -0.021531224958508743 0 -0.0018655425141737205 -0.022015137898792409 0 -0.0013879758657140133 -0.019010907320616294 0 -0.0013303359017071256 -0.019440002026408689 0 -0.0012138151963847063 -0.016957353806289786 0 -0.00079883500108436048 -0.016789390947105649 0 -0.00084037613915064271 -0.017208445524618646 0 -0.00060461290462091131 -0.022274920879363818 0 -0.00038525739551320624 -0.022206578083928789 0 -0.00044342805307470484 -0.022557268923230813 0 -0.00037739927035452967 -0.022128751070452344 0 -0.00044252519365144301 -0.022595929113891484 0 -0.00038555923780637854 -0.021780782495119413 0 -0.00061670822900152704 -0.022466468052875284 0 -0.00013034471618860241 -0.021318237486406464 0 -0.00084323161825735802 -0.021813029258666454 0 -0.00065601415273410033 -0.022513317736617005 0 -0.0013272953720488924 -0.021531224958508743 0 -0.00084323161825735802 -0.021813029258666454 0 -0.00085206304917325446 -0.021152457759988603 0 -0.00013034471618860241 -0.021318237486406464 0 -0.00084323161825735802 -0.021813029258666454 0 -0.00085206304917325446 -0.021152457759988603 0 -0.00013034471618860241 -0.021318237486406464 0 -0.00063917520612390393 -0.020457059440351959 0 -0.00021998893929548046 -0.020377617835202765 0 -0.00013034471618860241 -0.021318237486406464 0 -0.00085206304917325446 -0.021152457759988603 0 -0.00063917520612390393 -0.020457059440351959 0 -0.0012828483261508291 -0.020583110102714571 0 -0.00085206304917325446 -0.021152457759988603 0 -0.00063917520612390393 -0.020457059440351959 0 -0.00043226945623670498 -0.02191053595374301 0 -0.00034609536935370586 -0.021784078407071212 0 -0.00038525739551320624 -0.022206578083928789 0 -0.00060461290462091131 -0.022274920879363818 0 -0.00043226945623670498 -0.02191053595374301 0 -0.00053062287756375421 -0.021813844438982471 0 -0.00060461290462091131 -0.022274920879363818 0 -0.00043226945623670498 -0.02191053595374301 0 -0.00038525739551320624 -0.022206578083928789 0 -0.00013034471618860241 -0.021318237486406464 0 -0.00021998893929548046 -0.020377617835202765 0 0.00028947307087203903 -0.019944568373031022 0 -0.00038555923780637854 -0.021780782495119413 0 -3.5035125090487474e-05 -0.020918137536763234 0 -0.00043226945623670498 -0.02191053595374301 0 -0.00042836603633306206 -0.021815524974948292 0 -0.00034609536935370586 -0.021784078407071212 0 -0.00042836603633306206 -0.021815524974948292 0 -0.00053062287756375421 -0.021813844438982471 0 -0.00040857051646189807 -0.021752554949028304 0 -0.00043226945623670498 -0.02191053595374301 0 -0.00042836603633306206 -0.021815524974948292 0 -0.00053062287756375421 -0.021813844438982471 0 -0.00021998893929548046 -0.020377617835202765 0 0.00028947307087203903 -0.019944568373031022 0 -0.00041682587047451984 -0.019762176513130086 0 0.00028947307087203903 -0.019944568373031022 0 -4.1905031718086971e-05 -0.019404836660166656 0 -0.00041682587047451984 -0.019762176513130086 0 0.00028947307087203903 -0.019944568373031022 0 -4.1905031718086971e-05 -0.019404836660166656 0 0.00014823082264448986 -0.019008259034425625 0 -0.00042836603633306206 -0.021815524974948292 0 -0.00040857051646189807 -0.021752554949028304 0 -0.00034609536935370586 -0.021784078407071212 0 -0.0011770262208059947 -0.019741874397415777 0 -0.00063917520612390393 -0.020457059440351959 0 -0.00041682587047451984 -0.019762176513130086 0 -0.0011770262208059947 -0.019741874397415777 0 -0.0012828483261508291 -0.020583110102714571 0 -0.00063917520612390393 -0.020457059440351959 0 -0.00063917520612390393 -0.020457059440351959 0 -0.00021998893929548046 -0.020377617835202765 0 -0.00041682587047451984 -0.019762176513130086 0 -4.1905031718086971e-05 -0.019404836660166656 0 -0.00041682587047451984 -0.019762176513130086 0 -0.00028293283682935761 -0.019033622451487001 0 -0.0011770262208059947 -0.019741874397415777 0 -0.00041682587047451984 -0.019762176513130086 0 -0.00077383286435462879 -0.019212665148387424 0 -0.00041682587047451984 -0.019762176513130086 0 -0.00077383286435462879 -0.019212665148387424 0 -0.00028293283682935761 -0.019033622451487001 0 -0.00028293283682935761 -0.019033622451487001 0 -0.00068003377197824167 -0.018452048888020774 0 -7.9865022745998846e-05 -0.018475969875417504 0 -0.00077383286435462879 -0.019212665148387424 0 -0.00028293283682935761 -0.019033622451487001 0 -0.00068003377197824167 -0.018452048888020774 0 -0.0013102331862482996 -0.018795129057311694 0 -0.00077383286435462879 -0.019212665148387424 0 -0.00068003377197824167 -0.018452048888020774 0 0.00066075837287280577 -0.018436808449775299 0 0.00028947307087203903 -0.019944568373031022 0 0.00014823082264448986 -0.019008259034425625 0 -0.00042734733140960138 -0.021259325526397355 0 -0.00040857051646189807 -0.021752554949028304 0 -0.00031420287815178851 -0.021355508674073338 0 -0.00042734733140960138 -0.021259325526397355 0 -0.00053062287756375421 -0.021813844438982471 0 -0.00040857051646189807 -0.021752554949028304 0 -0.00067857917662496846 -0.01954051970791118 0 -3.5035125090487474e-05 -0.020918137536763234 0 -4.1905031718086971e-05 -0.019404836660166656 0 -0.00028293283682935761 -0.019033622451487001 0 0.00014823082264448986 -0.019008259034425625 0 0.00066075837287280577 -0.018436808449775299 0 0.00014823082264448986 -0.019008259034425625 0 -7.9865022745998846e-05 -0.018475969875417504 0 -0.00028293283682935761 -0.019033622451487001 0 0.00014823082264448986 -0.019008259034425625 0 -7.9865022745998846e-05 -0.018475969875417504 0 -0.00067857917662496846 -0.01954051970791118 0 -0.0011096443920566197 -0.022437387232098049 0 -0.0011096443920566197 -0.022437387232098049 0 -0.00062457297352971084 -0.022593906064593144 0 -0.0016913231100517663 -0.02382920061966597 0 -0.0013544925123688044 -0.024132651436130914 0 -0.0017219530206466032 -0.024341398184935262 0 -0.0019322069740521591 -0.02384323092031989 0 -0.0015895444798237879 -0.023821427031286733 0 -0.0017610067350947844 -0.023594406207738606 0 -0.0019322069740521591 -0.02384323092031989 0 -0.0015895444798237879 -0.023821427031286733 0 -0.0014697225897249368 -0.024182060184252441 0 -0.0011096443920566197 -0.022437387232098049 0 -0.0013534851973461511 -0.024184623125398933 0 -0.0012776533319252474 -0.02387965766725085 0 -0.00088103051651017273 -0.023910608604232716 0 -0.0011742231107821502 -0.023576748813003447 0 -0.0015895444798237879 -0.023821427031286733 0 -0.0012776533319252474 -0.02387965766725085 0 -0.0014697225897249368 -0.024182060184252441 0 -0.0015895444798237879 -0.023821427031286733 0 -0.0012776533319252474 -0.02387965766725085 0 -0.0015025544149089654 -0.023597306724068363 0 -0.0012776533319252474 -0.02387965766725085 0 -0.0014697225897249368 -0.024182060184252441 0 -0.0010625312325690216 -0.024137108712288833 0 -0.0012776533319252474 -0.02387965766725085 0 -0.0010625312325690216 -0.024137108712288833 0 -0.00088103051651017273 -0.023910608604232716 0 -0.0010247218298261172 -0.024449340627741154 0 -0.0017219530206466032 -0.024341398184935262 0 -0.0010045669489663559 -0.024645820849426285 0 -0.00062457297352971084 -0.022593906064593144 0 -0.00058577689799315074 -0.023472827883154537 0 -0.0014697225897249368 -0.024182060184252441 0 -0.0010625312325690216 -0.024137108712288833 0 -0.0010247218298261172 -0.024449340627741154 0 -0.0013534851973461511 -0.024184623125398933 0 -0.0010972622382459691 -0.024399192191349738 0 -0.00040775302516561808 -0.022063726382051643 0 -0.00026197464212479729 -0.022211828401091666 0 -4.587651739279015e-05 -0.02217707696855014 0 -0.0013544925123688044 -0.024132651436130914 0 -0.0010247218298261172 -0.024449340627741154 0 -0.0017219530206466032 -0.024341398184935262 0 -0.00040857051646189807 -0.021752554949028304 0 -0.00031420287815178851 -0.021355508674073338 0 -0.0003330089942032747 -0.021781522940476191 0 -0.00061096064138466534 -0.022486560008635029 0 -0.00062457297352971084 -0.022593906064593144 0 -0.00040775302516561808 -0.022063726382051643 0 -0.00041606661293216383 -0.022345244210275818 0 -0.00026197464212479729 -0.022211828401091666 0 -0.00062457297352971084 -0.022593906064593144 0 -0.00037739927035452967 -0.022128751070452344 0 -0.00041606661293216383 -0.022345244210275818 0 -0.00026419978554327529 -0.022353424151641405 0 -0.00026197464212479729 -0.022211828401091666 0 -0.00026197464212479729 -0.022211828401091666 0 -4.587651739279015e-05 -0.02217707696855014 0 -0.00014700042080999977 -0.022274314037416733 0 -4.587651739279015e-05 -0.02217707696855014 0 -5.5842597499391664e-05 -0.02228078667534953 0 -0.00014700042080999977 -0.022274314037416733 0 -5.5842597499391664e-05 -0.02228078667534953 0 -9.9097139535768184e-05 -0.022351582201312416 0 -0.00014700042080999977 -0.022274314037416733 0 -0.00026419978554327529 -0.022353424151641405 0 -9.9097139535768184e-05 -0.022351582201312416 0 -0.00014700042080999977 -0.022274314037416733 0 -0.00026419978554327529 -0.022353424151641405 0 -0.00026197464212479729 -0.022211828401091666 0 -0.00014700042080999977 -0.022274314037416733 0 -0.00026419978554327529 -0.022353424151641405 0 -9.9097139535768184e-05 -0.022351582201312416 0 -0.00010074848190830209 -0.022540277272802226 0 -9.9097139535768184e-05 -0.022351582201312416 0 -0.00010074848190830209 -0.022540277272802226 0 0.00011707554385853762 -0.022366507940636646 0 -0.00026419978554327529 -0.022353424151641405 0 -0.00010074848190830209 -0.022540277272802226 0 -0.00030481903634080153 -0.022507591951463894 0 -0.00041606661293216383 -0.022345244210275818 0 -0.00030481903634080153 -0.022507591951463894 0 -0.00044342805307470484 -0.022557268923230813 0 -0.00041606661293216383 -0.022345244210275818 0 -0.00026419978554327529 -0.022353424151641405 0 -0.00030481903634080153 -0.022507591951463894 0 0.00011707554385853762 -0.022366507940636646 0 0.00036963038051259655 -0.022317889839216905 0 0.00032029035372226582 -0.022705392095384212 0 0.00020207347795104399 -0.02395722266205768 0 0.00010453315283569868 -0.023789074425171461 0 0.00022962087245777572 -0.023660336614704954 0 -1.3248547708882157e-05 -0.023745418900679303 0 0.000316394699126389 -0.023042308016131559 0 -0.00010074848190830209 -0.022540277272802226 0 0.00011707554385853762 -0.022366507940636646 0 0.00032029035372226582 -0.022705392095384212 0 -4.587651739279015e-05 -0.02217707696855014 0 0.00011707554385853762 -0.022366507940636646 0 0.00036963038051259655 -0.022317889839216905 0 -0.00058577689799315074 -0.023472827883154537 0 -1.3248547708882157e-05 -0.023745418900679303 0 -0.0010045669489663559 -0.024645820849426285 0 -0.00023825243802546813 -0.02491228034273409 0 -0.00068939806450842305 -0.024530289642952771 0 -4.587651739279015e-05 -0.02217707696855014 0 -5.5842597499391664e-05 -0.02228078667534953 0 0.00011707554385853762 -0.022366507940636646 0 -5.5842597499391664e-05 -0.02228078667534953 0 -9.9097139535768184e-05 -0.022351582201312416 0 0.00011707554385853762 -0.022366507940636646 0 -0.00023825243802546813 -0.02491228034273409 0 -0.00045688377346811746 -0.024417625558893388 0 -0.00068939806450842305 -0.024530289642952771 0 -0.00023825243802546813 -0.02491228034273409 0 -0.00045688377346811746 -0.024417625558893388 0 -0.00010864092135840579 -0.024210431193898093 0 -1.3248547708882157e-05 -0.023745418900679303 0 -0.00013786550760185007 -0.024539493175841105 0 -0.00045688377346811746 -0.024417625558893388 0 -0.00041947764525821158 -0.024194039020395675 0 -0.00010864092135840579 -0.024210431193898093 0 -0.0010247218298261172 -0.024449340627741154 0 -0.0010045669489663559 -0.024645820849426285 0 -0.00068939806450842305 -0.024530289642952771 0 -0.0010247218298261172 -0.024449340627741154 0 -0.00068939806450842305 -0.024530289642952771 0 -0.00072069368721325148 -0.024232888135879264 0 -0.00045688377346811746 -0.024417625558893388 0 -0.00068939806450842305 -0.024530289642952771 0 -0.00072069368721325148 -0.024232888135879264 0 -0.00045688377346811746 -0.024417625558893388 0 -0.00041947764525821158 -0.024194039020395675 0 -0.00072069368721325148 -0.024232888135879264 0 -0.0010625312325690216 -0.024137108712288833 0 -0.0010247218298261172 -0.024449340627741154 0 -0.00072069368721325148 -0.024232888135879264 0 -0.00072069368721325148 -0.024232888135879264 0 -0.00088103051651017273 -0.023910608604232716 0 -0.00039937769054707809 -0.023918014126300475 0 -0.00088103051651017273 -0.023910608604232716 0 -0.00039937769054707809 -0.023918014126300475 0 -0.00064605056900540183 -0.023707927952749893 0 -0.0010625312325690216 -0.024137108712288833 0 -0.00072069368721325148 -0.024232888135879264 0 -0.00088103051651017273 -0.023910608604232716 0 -0.00010864092135840579 -0.024210431193898093 0 -0.00039937769054707809 -0.023918014126300475 0 -0.00014461696026704161 -0.02392756663204678 0 -0.00041947764525821158 -0.024194039020395675 0 -0.00072069368721325148 -0.024232888135879264 0 -0.00039937769054707809 -0.023918014126300475 0 -0.00041947764525821158 -0.024194039020395675 0 -0.00010864092135840579 -0.024210431193898093 0 -0.00039937769054707809 -0.023918014126300475 0 -0.00039937769054707809 -0.023918014126300475 0 -0.00014461696026704161 -0.02392756663204678 0 -0.00014430319835181157 -0.023620724752641487 0 0.00011885686078941757 -0.023526735017024927 0 -0.00051425616161406831 -0.022948244775967994 0 -0.00050041055445222498 -0.02342567646216286 0 -0.00039937769054707809 -0.023918014126300475 0 -0.00014430319835181157 -0.023620724752641487 0 -0.00050041055445222498 -0.02342567646216286 0 -0.00015779586176890425 -0.02366942508223957 0 -0.00045318890629608309 -0.023187434318534022 0 -0.00015779586176890425 -0.02366942508223957 0 -0.00041542567687370832 -0.023473672446249778 0 -0.00011279001581208849 -0.023563727130365881 0 -0.00013143515919448857 -0.023350739193824251 0 -0.00035750514631683667 -0.023340793799211938 0 -0.00013143515919448857 -0.023350739193824251 0 -0.0002061021545196619 -0.023219962059243707 0 -0.00035750514631683667 -0.023340793799211938 0 -0.0002061021545196619 -0.023219962059243707 0 -0.00035750514631683667 -0.023340793799211938 0 -0.000318707462148635 -0.023133408005325939 0 -0.00013143515919448857 -0.023350739193824251 0 -0.0002061021545196619 -0.023219962059243707 0 -2.7480461613746845e-05 -0.02322179357215445 0 -0.00045318890629608309 -0.023187434318534022 0 -0.00028707768499256349 -0.02209481834340337 0 -0.00051425616161406831 -0.022948244775967994 0 -0.00096355321707282111 -0.022907031937829555 0 -0.0010443699490706151 -0.022421318783036385 0 -0.00051425616161406831 -0.022948244775967994 0 -0.00080188145581943087 -0.023193625262289953 0 -0.00050041055445222498 -0.02342567646216286 0 -0.00051425616161406831 -0.022948244775967994 0 -0.00096355321707282111 -0.022907031937829555 0 -0.00080188145581943087 -0.023193625262289953 0 -0.00080188145581943087 -0.023193625262289953 0 -0.00085422824057216718 -0.023508664226632222 0 -0.0011648179385629082 -0.023168471497561696 0 -0.00039937769054707809 -0.023918014126300475 0 -0.00050041055445222498 -0.02342567646216286 0 -0.00064605056900540183 -0.023707927952749893 0 -0.00080188145581943087 -0.023193625262289953 0 -0.00050041055445222498 -0.02342567646216286 0 -0.00085422824057216718 -0.023508664226632222 0 -0.00050041055445222498 -0.02342567646216286 0 -0.00064605056900540183 -0.023707927952749893 0 -0.00085422824057216718 -0.023508664226632222 0 -0.00088103051651017273 -0.023910608604232716 0 -0.00085422824057216718 -0.023508664226632222 0 -0.0011742231107821502 -0.023576748813003447 0 -0.00088103051651017273 -0.023910608604232716 0 -0.00064605056900540183 -0.023707927952749893 0 -0.00085422824057216718 -0.023508664226632222 0 -0.0011742231107821502 -0.023576748813003447 0 -0.0015025544149089654 -0.023597306724068363 0 -0.0014162332278401157 -0.023364353951463607 0 -0.0012776533319252474 -0.02387965766725085 0 -0.0011742231107821502 -0.023576748813003447 0 -0.0015025544149089654 -0.023597306724068363 0 -0.0011742231107821502 -0.023576748813003447 0 -0.0014162332278401157 -0.023364353951463607 0 -0.0011648179385629082 -0.023168471497561696 0 -0.0014162332278401157 -0.023364353951463607 0 -0.0011648179385629082 -0.023168471497561696 0 -0.0015649218093928049 -0.023085662963502077 0 -0.00085422824057216718 -0.023508664226632222 0 -0.0011742231107821502 -0.023576748813003447 0 -0.0011648179385629082 -0.023168471497561696 0 -0.0011096443920566197 -0.022437387232098049 0 -0.0015297214122277315 -0.021980026070064322 0 -0.0014222511596010902 -0.021009987895048699 0 -0.0010766565084927091 -0.020281044615368882 0 -0.0011289065957583253 -0.019590109047076486 0 -0.00067857917662496846 -0.01954051970791118 0 -0.0010508471794955221 -0.018220578793377917 0 -0.0014222511596010902 -0.021009987895048699 0 -0.0011252473747070842 -0.021260487210482435 0 -0.0010766565084927091 -0.020281044615368882 0 -0.0019322069740521591 -0.02384323092031989 0 -0.0017610067350947844 -0.023594406207738606 0 -0.0019875542905948488 -0.023328723657906426 0 -0.0015895444798237879 -0.023821427031286733 0 -0.0015025544149089654 -0.023597306724068363 0 -0.0017610067350947844 -0.023594406207738606 0 -0.0015025544149089654 -0.023597306724068363 0 -0.0017610067350947844 -0.023594406207738606 0 -0.0017057541851674299 -0.023375899467610421 0 -0.0017610067350947844 -0.023594406207738606 0 -0.0017057541851674299 -0.023375899467610421 0 -0.0019875542905948488 -0.023328723657906426 0 -0.0017057541851674299 -0.023375899467610421 0 -0.0019875542905948488 -0.023328723657906426 0 -0.0015649218093928049 -0.023085662963502077 0 -0.0015025544149089654 -0.023597306724068363 0 -0.0014162332278401157 -0.023364353951463607 0 -0.0017057541851674299 -0.023375899467610421 0 -0.0014162332278401157 -0.023364353951463607 0 -0.0017057541851674299 -0.023375899467610421 0 -0.0015649218093928049 -0.023085662963502077 0 -0.0019456438411113353 -0.022724469972465623 0 -0.0015649218093928049 -0.023085662963502077 0 -0.0013163184486796877 -0.022845084426108078 0 -0.0010766565084927091 -0.020281044615368882 0 -0.0010679713355112666 -0.019292249979526575 0 -0.0011289065957583253 -0.019590109047076486 0 -0.0019456438411113353 -0.022724469972465623 0 0.000188817949413201 -0.021599268284979965 0 -0.0012200612565150982 -0.021756490674102066 0 -0.0015297214122277315 -0.021980026070064322 0 -0.0013235929895885679 -0.019634716655381572 0 -0.0019875542905948488 -0.023328723657906426 0 -0.0019456438411113353 -0.022724469972465623 0 -0.0019820738859017422 -0.022241763922638529 0 -0.0019875542905948488 -0.023328723657906426 0 -0.0019456438411113353 -0.022724469972465623 0 -0.0015649218093928049 -0.023085662963502077 0 -0.00082586763643088801 -0.016616473127325601 0 -0.00080859007890825469 -0.016680289348707189 0 -0.00089880988795912797 -0.016506684286732545 0 -0.0019456438411113353 -0.022724469972465623 0 -0.0019820738859017422 -0.022241763922638529 0 -0.0012200612565150982 -0.021756490674102066 0 -0.00089177075087472054 -0.016569469288934244 0 -0.00089171930669266065 -0.016637743144689823 0 -0.00080859007890825469 -0.016680289348707189 0 -0.0013235929895885679 -0.019634716655381572 0 -0.0010508471794955221 -0.018220578793377917 0 -0.0019150187145531438 -0.022695617030763858 0 -0.00028707768499256349 -0.02209481834340337 0 -0.0019456438411113353 -0.022724469972465623 0 -0.0013163184486796877 -0.022845084426108078 0 -0.0010443699490706151 -0.022421318783036385 0 -0.00096355321707282111 -0.022907031937829555 0 -0.0011648179385629082 -0.023168471497561696 0 -0.0013163184486796877 -0.022845084426108078 0 -0.00096355321707282111 -0.022907031937829555 0 -0.00080188145581943087 -0.023193625262289953 0 -0.0011648179385629082 -0.023168471497561696 0 -0.0011648179385629082 -0.023168471497561696 0 -0.0015649218093928049 -0.023085662963502077 0 -0.0013163184486796877 -0.022845084426108078 0 -0.00096355321707282111 -0.022907031937829555 0 -0.0013163184486796877 -0.022845084426108078 0 -0.0010443699490706151 -0.022421318783036385 0 0.000188817949413201 -0.021599268284979965 0 -0.0012200612565150982 -0.021756490674102066 0 -0.0012079999351339069 -0.02112771971352545 0 0.00071488652429042463 -0.021089597342914164 0 -0.0011801618221208366 -0.020196905376544505 0 -6.361460330908607e-05 -0.020207433814560329 0 0.000188817949413201 -0.021599268284979965 0 -0.0012079999351339069 -0.02112771971352545 0 -0.0011801618221208366 -0.020196905376544505 0 -0.00028707768499256349 -0.02209481834340337 0 -0.00097832499127854062 -0.020160494873481892 0 0.00071488652429042463 -0.021089597342914164 0 -6.361460330908607e-05 -0.020207433814560329 0 0.00080623877400786456 -0.020605246249120572 0 -0.0013235929895885679 -0.019634716655381572 0 -0.0013044306583482228 -0.018320294885972307 0 -0.00082586763643088801 -0.016616473127325601 0 -0.00089880988795912797 -0.016506684286732545 0 -0.00096810695375295578 -0.016409401119921268 0 -0.0019820738859017422 -0.022241763922638529 0 -0.0012079999351339069 -0.02112771971352545 0 -0.0017453959656859347 -0.02033425010642553 0 -0.00089177075087472054 -0.016569469288934244 0 -0.00080859007890825469 -0.016680289348707189 0 -0.00089880988795912797 -0.016506684286732545 0 -0.00092329507823114192 -0.016488117018214662 0 -0.00089177075087472054 -0.016569469288934244 0 -0.00089880988795912797 -0.016506684286732545 0 -0.0019820738859017422 -0.022241763922638529 0 -0.0012200612565150982 -0.021756490674102066 0 -0.0012079999351339069 -0.02112771971352545 0 -0.0012079999351339069 -0.02112771971352545 0 -0.0017453959656859347 -0.02033425010642553 0 -0.0011801618221208366 -0.020196905376544505 0 -0.00089880988795912797 -0.016506684286732545 0 -0.00092648181990326263 -0.016450986217611391 0 -0.00096810695375295578 -0.016409401119921268 0 -0.00092329507823114192 -0.016488117018214662 0 -0.00089880988795912797 -0.016506684286732545 0 -0.00092648181990326263 -0.016450986217611391 0 -0.00089022376370905161 -0.016980385599839529 0 -0.00096810695375295578 -0.016409401119921268 0 -0.0009129171053783475 -0.016529019728852196 0 -0.00095010295426432086 -0.017072688584516781 0 -0.0013044306583482228 -0.018320294885972307 0 -0.00089022376370905161 -0.016980385599839529 0 -0.0017453959656859347 -0.02033425010642553 0 -0.00078192989574068562 -0.019332187698046378 0 -0.00093477338987466767 -0.016430363137246464 0 -0.00093242112994447121 -0.01644719681750503 0 -0.0009129171053783475 -0.016529019728852196 0 -0.00093242112994447121 -0.01644719681750503 0 -0.00096810695375295578 -0.016409401119921268 0 -0.0009129171053783475 -0.016529019728852196 0 -0.00093477338987466767 -0.016430363137246464 0 -0.00092648181990326263 -0.016450986217611391 0 -0.00093242112994447121 -0.01644719681750503 0 -0.00092648181990326263 -0.016450986217611391 0 -0.00093242112994447121 -0.01644719681750503 0 -0.00096810695375295578 -0.016409401119921268 0 -0.0017453959656859347 -0.02033425010642553 0 -0.0011801618221208366 -0.020196905376544505 0 -0.00078192989574068562 -0.019332187698046378 0 -0.00089022376370905161 -0.016980385599839529 0 -0.00078192989574068562 -0.019332187698046378 0 -6.3549320043669244e-05 -0.018978101345282366 0 0.00071187017652106987 -0.017705307296828982 0 -6.3549320043669244e-05 -0.018978101345282366 0 0.00080623877400786456 -0.020605246249120572 0 -6.361460330908607e-05 -0.020207433814560329 0 -6.3549320043669244e-05 -0.018978101345282366 0 0.00080623877400786456 -0.020605246249120572 0 -6.361460330908607e-05 -0.020207433814560329 0 -0.00078192989574068562 -0.019332187698046378 0 -6.3549320043669244e-05 -0.018978101345282366 0 -0.0011801618221208366 -0.020196905376544505 0 -6.361460330908607e-05 -0.020207433814560329 0 -0.00078192989574068562 -0.019332187698046378 0 0.00084291281496391647 -0.021135120447074031 0 0.00080623877400786456 -0.020605246249120572 0 0.00076948005235242015 -0.02089092175677144 0 0.0011117390283885379 -0.021415874423990698 0 0.00084291281496391647 -0.021135120447074031 0 0.00080623877400786456 -0.020605246249120572 0 0.00085661378409159893 -0.019626999440779683 0 0.00082609915058854094 -0.020545738315404249 0 0.00063638868687587453 -0.021715773718914484 0 0.00084291281496391647 -0.021135120447074031 0 0.00076948005235242015 -0.02089092175677144 0 0.00020846815629080195 -0.022183563038128268 0 0.00031627746650583489 -0.021921560833780281 0 0.0003046252868105446 -0.021634172605030911 0 0.00063638868687587453 -0.021715773718914484 0 0.00076948005235242015 -0.02089092175677144 0 -0.00027005327035786123 -0.022930522620002902 0 -0.00015377135436591094 -0.023100778015012396 0 -0.000318707462148635 -0.023133408005325939 0 -0.00027005327035786123 -0.022930522620002902 0 -0.00015377135436591094 -0.023100778015012396 0 5.3391757743318684e-05 -0.023000160603436383 0 -0.0002061021545196619 -0.023219962059243707 0 -0.00015377135436591094 -0.023100778015012396 0 -2.7480461613746845e-05 -0.02322179357215445 0 -0.0002061021545196619 -0.023219962059243707 0 -0.00015377135436591094 -0.023100778015012396 0 -0.000318707462148635 -0.023133408005325939 0 -0.00059677797293984506 -0.023119720154694611 0 -0.00027005327035786123 -0.022930522620002902 0 -0.000318707462148635 -0.023133408005325939 0 -0.00035750514631683667 -0.023340793799211938 0 -0.00059677797293984506 -0.023119720154694611 0 -0.000318707462148635 -0.023133408005325939 0 0.00071488652429042463 -0.021089597342914164 0 0.00080623877400786456 -0.020605246249120572 0 0.00076948005235242015 -0.02089092175677144 0 -0.00028707768499256349 -0.02209481834340337 0 0.00031627746650583489 -0.021921560833780281 0 0.00034554525532652099 -0.023076710592895414 0 5.3391757743318684e-05 -0.023000160603436383 0 0.00022274884563064622 -0.023235078815367256 0 0.00034554525532652099 -0.023076710592895414 0 0.00050013281844595123 -0.023247160919405128 0 0.00022274884563064622 -0.023235078815367256 0 0.00034554525532652099 -0.023076710592895414 0 5.3391757743318684e-05 -0.023000160603436383 0 0.00037636659587862384 -0.0228773528380204 0 5.3391757743318684e-05 -0.023000160603436383 0 0.00022274884563064622 -0.023235078815367256 0 -2.7480461613746845e-05 -0.02322179357215445 0 -0.00015377135436591094 -0.023100778015012396 0 5.3391757743318684e-05 -0.023000160603436383 0 -2.7480461613746845e-05 -0.02322179357215445 0 4.5080151709169169e-05 -0.022734382309315172 0 -0.00027005327035786123 -0.022930522620002902 0 5.3391757743318684e-05 -0.023000160603436383 0 0.00039624230103346036 -0.022701940096016286 0 4.5080151709169169e-05 -0.022734382309315172 0 0.00037636659587862384 -0.0228773528380204 0 4.5080151709169169e-05 -0.022734382309315172 0 5.3391757743318684e-05 -0.023000160603436383 0 0.00037636659587862384 -0.0228773528380204 0 0.00039624230103346036 -0.022701940096016286 0 0.00037636659587862384 -0.0228773528380204 0 0.00055931546152705139 -0.022819181774969777 0 0.00037636659587862384 -0.0228773528380204 0 0.00055931546152705139 -0.022819181774969777 0 0.0005696571745023956 -0.023021865119387804 0 0.00059252992925284606 -0.022639920183449846 0 0.00055931546152705139 -0.022819181774969777 0 0.00077938790234923438 -0.022871032147575847 0 0.00055931546152705139 -0.022819181774969777 0 0.00077938790234923438 -0.022871032147575847 0 0.0005696571745023956 -0.023021865119387804 0 -3.7604198419063692e-05 -0.024637704921471486 0 -5.0411351359635257e-05 -0.024816518681469814 0 -3.2228875131746942e-06 -0.024765067628954446 0 0.00077938790234923438 -0.022871032147575847 0 0.0005696571745023956 -0.023021865119387804 0 0.0007236061567361667 -0.023283354996851646 0 0.00014127485864540683 -0.023661732837839882 0 0.00036659247566660263 -0.024052378735510017 0 0.0005696571745023956 -0.023021865119387804 0 0.00050013281844595123 -0.023247160919405128 0 0.0007236061567361667 -0.023283354996851646 0 0.00034554525532652099 -0.023076710592895414 0 0.00037636659587862384 -0.0228773528380204 0 0.0005696571745023956 -0.023021865119387804 0 0.00034554525532652099 -0.023076710592895414 0 0.0005696571745023956 -0.023021865119387804 0 0.00050013281844595123 -0.023247160919405128 0 0.00050013281844595123 -0.023247160919405128 0 0.00049688315174666617 -0.023460198229326233 0 0.0007236061567361667 -0.023283354996851646 0 0.00050013281844595123 -0.023247160919405128 0 0.00049688315174666617 -0.023460198229326233 0 0.00030237244470960597 -0.023436086093501032 0 -5.0411351359635257e-05 -0.024816518681469814 0 -7.2459347348637554e-06 -0.024883324840388649 0 2.8362421238050948e-05 -0.024830937406575392 0 -5.0411351359635257e-05 -0.024816518681469814 0 -4.8828770863167313e-05 -0.024925854294155794 0 -7.2459347348637554e-06 -0.024883324840388649 0 0.00049688315174666617 -0.023460198229326233 0 0.0007236061567361667 -0.023283354996851646 0 0.00065869612473942751 -0.023702393232703674 0 0.00036659247566660263 -0.024052378735510017 0 0.0002999711714410352 -0.024373482633269682 0 0.0002999711714410352 -0.024373482633269682 0 0.00015554820648064412 -0.023777822871755588 0 0.00049688315174666617 -0.023460198229326233 0 0.00065869612473942751 -0.023702393232703674 0 0.00027274869562320651 -0.023632989202524581 0 0.00027274869562320651 -0.023632989202524581 0 0.00030237244470960597 -0.023436086093501032 0 8.0715549378341351e-05 -0.02341162744839876 0 0.00049688315174666617 -0.023460198229326233 0 0.00027274869562320651 -0.023632989202524581 0 0.00030237244470960597 -0.023436086093501032 0 0.00050013281844595123 -0.023247160919405128 0 0.00030237244470960597 -0.023436086093501032 0 0.00022274884563064622 -0.023235078815367256 0 0.00030237244470960597 -0.023436086093501032 0 0.00022274884563064622 -0.023235078815367256 0 8.0715549378341351e-05 -0.02341162744839876 0 0.00022274884563064622 -0.023235078815367256 0 -2.7480461613746845e-05 -0.02322179357215445 0 8.0715549378341351e-05 -0.02341162744839876 0 -0.00013143515919448857 -0.023350739193824251 0 -2.7480461613746845e-05 -0.02322179357215445 0 8.0715549378341351e-05 -0.02341162744839876 0 -0.00011279001581208849 -0.023563727130365881 0 -0.00013143515919448857 -0.023350739193824251 0 8.0715549378341351e-05 -0.02341162744839876 0 -0.00015779586176890425 -0.02366942508223957 0 0.00015554820648064412 -0.023777822871755588 0 -0.00011279001581208849 -0.023563727130365881 0 0.00027274869562320651 -0.023632989202524581 0 8.0715549378341351e-05 -0.02341162744839876 0 -0.00031769820218589205 -0.023960699549946569 0 -1.0673873418577208e-05 -0.024010567206898346 0 -0.00016816354907038343 -0.024093407936466624 0 -0.00014461696026704161 -0.02392756663204678 0 -0.00014430319835181157 -0.023620724752641487 0 7.1254261426197932e-06 -0.023978390573718388 0 -0.00015779586176890425 -0.02366942508223957 0 -9.1542748415975825e-05 -0.024026086060259345 0 -0.00014461696026704161 -0.02392756663204678 0 7.1254261426197932e-06 -0.023978390573718388 0 -3.5210958542171916e-05 -0.024198239116033471 0 -0.00010864092135840579 -0.024210431193898093 0 -0.00014461696026704161 -0.02392756663204678 0 -3.5210958542171916e-05 -0.024198239116033471 0 -1.0673873418577208e-05 -0.024010567206898346 0 1.1384646067073016e-05 -0.024122944998230634 0 0.0001385889630667812 -0.024150221410128264 0 -1.0673873418577208e-05 -0.024010567206898346 0 -0.00016816354907038343 -0.024093407936466624 0 1.1384646067073016e-05 -0.024122944998230634 0 -0.00016816354907038343 -0.024093407936466624 0 1.1384646067073016e-05 -0.024122944998230634 0 -1.3265851338813564e-05 -0.024228596106889086 0 -9.1542748415975825e-05 -0.024026086060259345 0 -1.7472527556602961e-05 -0.024177144240993265 0 7.1254261426197932e-06 -0.023978390573718388 0 -3.5210958542171916e-05 -0.024198239116033471 0 -1.3265851338813564e-05 -0.024228596106889086 0 1.1384646067073016e-05 -0.024122944998230634 0 -1.3265851338813564e-05 -0.024228596106889086 0 0.0001385889630667812 -0.024150221410128264 0 -1.3265851338813564e-05 -0.024228596106889086 0 -6.8241546608153515e-05 -0.024320240749244871 0 0.00010604945938710281 -0.024363793155215197 0 -6.8241546608153515e-05 -0.024320240749244871 0 4.9050381707956814e-05 -0.024457129570901268 0 0.00010604945938710281 -0.024363793155215197 0 -3.5210958542171916e-05 -0.024198239116033471 0 -1.3265851338813564e-05 -0.024228596106889086 0 -6.8241546608153515e-05 -0.024320240749244871 0 -6.8241546608153515e-05 -0.024320240749244871 0 4.9050381707956814e-05 -0.024457129570901268 0 6.2352159354614033e-05 -0.024600909337044317 0 7.4711403068621662e-05 -0.0241185958596127 0 -0.00010864092135840579 -0.024210431193898093 0 -3.9028535720156732e-05 -0.024209402425213373 0 -0.00010864092135840579 -0.024210431193898093 0 -3.5210958542171916e-05 -0.024198239116033471 0 -3.9028535720156732e-05 -0.024209402425213373 0 -3.5210958542171916e-05 -0.024198239116033471 0 -6.8241546608153515e-05 -0.024320240749244871 0 -3.9028535720156732e-05 -0.024209402425213373 0 -6.8241546608153515e-05 -0.024320240749244871 0 -3.9028535720156732e-05 -0.024209402425213373 0 -4.1255377900946481e-05 -0.024139368554822946 0 7.4711403068621662e-05 -0.0241185958596127 0 -7.3004260888242508e-05 -0.024048489668733332 0 -8.1971650578213661e-05 -0.023902035545822219 0 7.4711403068621662e-05 -0.0241185958596127 0 -3.9028535720156732e-05 -0.024209402425213373 0 -4.1255377900946481e-05 -0.024139368554822946 0 7.4711403068621662e-05 -0.0241185958596127 0 -4.1255377900946481e-05 -0.024139368554822946 0 -7.3004260888242508e-05 -0.024048489668733332 0 -6.8241546608153515e-05 -0.024320240749244871 0 6.2352159354614033e-05 -0.024600909337044317 0 2.3039916804628851e-05 -0.024820615724134007 0 -6.8241546608153515e-05 -0.024320240749244871 0 -7.3004260888242508e-05 -0.024048489668733332 0 -0.00017267552477767263 -0.023968046643929087 0 -6.8241546608153515e-05 -0.024320240749244871 0 -4.1255377900946481e-05 -0.024139368554822946 0 -7.3004260888242508e-05 -0.024048489668733332 0 -7.4174654256738425e-05 -0.024323946865478015 0 -6.1294526501092574e-05 -0.024381288864237471 0 -8.1971650578213661e-05 -0.023902035545822219 0 -0.00017267552477767263 -0.023968046643929087 0 -8.5164102205302422e-05 -0.023590183224500016 0 -7.3004260888242508e-05 -0.024048489668733332 0 -8.1971650578213661e-05 -0.023902035545822219 0 -0.00017267552477767263 -0.023968046643929087 0 -6.1294526501092574e-05 -0.024381288864237471 0 5.3023055752434621e-05 -0.024223993911728161 0 2.3039916804628851e-05 -0.024820615724134007 0 0.000128206959818828 -0.024849764073328496 0 0.00018165854114397681 -0.024849696081120979 0 0.00020207347795104399 -0.02395722266205768 0 -8.1971650578213661e-05 -0.023902035545822219 0 0.00010453315283569868 -0.023789074425171461 0 -1.3248547708882157e-05 -0.023745418900679303 0 -6.8807089124156816e-06 -0.023996227530902324 0 -8.1971650578213661e-05 -0.023902035545822219 0 0.00010453315283569868 -0.023789074425171461 0 4.0971956452530022e-05 -0.023645234233866334 0 0.00011633648650750551 -0.024844556428180193 0 0.00015224567469977247 -0.024783763922688138 0 9.8445192314030461e-05 -0.024839881646372203 0 0.00011633648650750551 -0.024844556428180193 0 0.00013775707224849366 -0.024784271780585711 0 0.00015224567469977247 -0.024783763922688138 0 2.3039916804628851e-05 -0.024820615724134007 0 0.000128206959818828 -0.024849764073328496 0 0.00013775707224849366 -0.024784271780585711 0 0.00011633648650750551 -0.024844556428180193 0 0.000128206959818828 -0.024849764073328496 0 0.00013775707224849366 -0.024784271780585711 0 0.00013775707224849366 -0.024784271780585711 0 0.00020843771329689544 -0.024699141805418937 0 0.00015224567469977247 -0.024783763922688138 0 6.2352159354614033e-05 -0.024600909337044317 0 2.3039916804628851e-05 -0.024820615724134007 0 0.00013775707224849366 -0.024784271780585711 0 6.2352159354614033e-05 -0.024600909337044317 0 0.00013775707224849366 -0.024784271780585711 0 0.00020843771329689544 -0.024699141805418937 0 4.9050381707956814e-05 -0.024457129570901268 0 6.2352159354614033e-05 -0.024600909337044317 0 0.00020843771329689544 -0.024699141805418937 0 0.00020843771329689544 -0.024699141805418937 0 0.00015224567469977247 -0.024783763922688138 0 0.00012726420552100715 -0.024805456894762795 0 0.00015224567469977247 -0.024783763922688138 0 0.00012726420552100715 -0.024805456894762795 0 9.8445192314030461e-05 -0.024839881646372203 0 0.00012726420552100715 -0.024805456894762795 0 0.00018581603260684021 -0.024883579676236504 0 9.8716361745802199e-05 -0.02489351155090104 0 0.00020843771329689544 -0.024699141805418937 0 0.00012726420552100715 -0.024805456894762795 0 0.00018581603260684021 -0.024883579676236504 0 0.00020843771329689544 -0.024699141805418937 0 0.00031389288870288241 -0.024305286240009008 0 0.00010604945938710281 -0.024363793155215197 0 0.00022093464445075084 -0.024674966859472465 0 0.00023995618072741699 -0.02462024487558432 0 4.9050381707956814e-05 -0.024457129570901268 0 0.00020843771329689544 -0.024699141805418937 0 0.00010604945938710281 -0.024363793155215197 0 0.00033705573812779115 -0.024061509050177048 0 0.00031389288870288241 -0.024305286240009008 0 0.0001385889630667812 -0.024150221410128264 0 0.00033705573812779115 -0.024061509050177048 0 -1.0673873418577208e-05 -0.024010567206898346 0 0.0001385889630667812 -0.024150221410128264 0 -1.3265851338813564e-05 -0.024228596106889086 0 0.00010604945938710281 -0.024363793155215197 0 0.0001385889630667812 -0.024150221410128264 0 0.00031389288870288241 -0.024305286240009008 0 0.00010604945938710281 -0.024363793155215197 0 0.0001385889630667812 -0.024150221410128264 0 0.0002999711714410352 -0.024373482633269682 0 0.00023995618072741699 -0.02462024487558432 0 0.00016496912251173039 -0.024961059685850762 0 0.00018581603260684021 -0.024883579676236504 0 9.8716361745802199e-05 -0.02489351155090104 0 4.519277310723317e-05 -0.02493404662757167 0 4.9171228654650309e-05 -0.024911203809843682 0 9.8716361745802199e-05 -0.02489351155090104 0 0.0002999711714410352 -0.024373482633269682 0 -4.0617368182415119e-05 -0.025070935091208245 0 0.00016496912251173039 -0.024961059685850762 0 4.519277310723317e-05 -0.02493404662757167 0 9.8716361745802199e-05 -0.02489351155090104 0 4.519277310723317e-05 -0.02493404662757167 0 4.0874562834093651e-05 -0.024937712394068251 0 4.9171228654650309e-05 -0.024911203809843682 0 4.9171228654650309e-05 -0.024911203809843682 0 5.6509918929068849e-05 -0.024890535819591851 0 3.7049864312821391e-05 -0.024929217450908848 0 4.0874562834093651e-05 -0.024937712394068251 0 4.9171228654650309e-05 -0.024911203809843682 0 3.7049864312821391e-05 -0.024929217450908848 0 4.9171228654650309e-05 -0.024911203809843682 0 8.4995966413610401e-05 -0.024859440382001673 0 5.6509918929068849e-05 -0.024890535819591851 0 4.9171228654650309e-05 -0.024911203809843682 0 9.8716361745802199e-05 -0.02489351155090104 0 8.4995966413610401e-05 -0.024859440382001673 0 0.00012726420552100715 -0.024805456894762795 0 9.8716361745802199e-05 -0.02489351155090104 0 8.4995966413610401e-05 -0.024859440382001673 0 0.00012726420552100715 -0.024805456894762795 0 8.4995966413610401e-05 -0.024859440382001673 0 9.8445192314030461e-05 -0.024839881646372203 0 8.4995966413610401e-05 -0.024859440382001673 0 9.8445192314030461e-05 -0.024839881646372203 0 5.6509918929068849e-05 -0.024890535819591851 0 9.8445192314030461e-05 -0.024839881646372203 0 5.6509918929068849e-05 -0.024890535819591851 0 5.1638605387581349e-05 -0.024888371602374799 0 5.6509918929068849e-05 -0.024890535819591851 0 5.1638605387581349e-05 -0.024888371602374799 0 2.8643400636035743e-05 -0.02493785236608791 0 5.6509918929068849e-05 -0.024890535819591851 0 2.8643400636035743e-05 -0.02493785236608791 0 3.7049864312821391e-05 -0.024929217450908848 0 9.8445192314030461e-05 -0.024839881646372203 0 5.1638605387581349e-05 -0.024888371602374799 0 7.4245711353424372e-05 -0.02486061230435543 0 0.00011633648650750551 -0.024844556428180193 0 9.8445192314030461e-05 -0.024839881646372203 0 7.4245711353424372e-05 -0.02486061230435543 0 5.1638605387581349e-05 -0.024888371602374799 0 2.8643400636035743e-05 -0.02493785236608791 0 2.3418153823300612e-05 -0.024937292840002602 0 1.2698554000064479e-08 -0.024999928910315449 0 2.8643400636035743e-05 -0.02493785236608791 0 2.3418153823300612e-05 -0.024937292840002602 0 2.8643400636035743e-05 -0.02493785236608791 0 3.7049864312821391e-05 -0.024929217450908848 0 2.6742478902922417e-05 -0.024952127776098804 0 2.8643400636035743e-05 -0.02493785236608791 0 1.3649124568612889e-05 -0.024974792202554524 0 2.6742478902922417e-05 -0.024952127776098804 0 1.2698554000064479e-08 -0.024999928910315449 0 2.8643400636035743e-05 -0.02493785236608791 0 1.3649124568612889e-05 -0.024974792202554524 0 1.2698554000064479e-08 -0.024999928910315449 0 1.3649124568612889e-05 -0.024974792202554524 0 2.4516951895474488e-08 -0.024999942150642704 0 1.3649124568612889e-05 -0.024974792202554524 0 2.4516951895474488e-08 -0.024999942150642704 0 3.3222069717200696e-06 -0.024996009599748192 0 1.3649124568612889e-05 -0.024974792202554524 0 1.9503048022998795e-05 -0.024970283276756024 0 3.3222069717200696e-06 -0.024996009599748192 0 1.3649124568612889e-05 -0.024974792202554524 0 1.9503048022998795e-05 -0.024970283276756024 0 2.6742478902922417e-05 -0.024952127776098804 0 1.9503048022998795e-05 -0.024970283276756024 0 2.5151523084622384e-05 -0.024964854957762468 0 3.3222069717200696e-06 -0.024996009599748192 0 2.4516951895474488e-08 -0.024999942150642704 0 3.3222069717200696e-06 -0.024996009599748192 0 1.0556631020199702e-06 -0.024999357020833366 0 4.0874562834093651e-05 -0.024937712394068251 0 3.7049864312821391e-05 -0.024929217450908848 0 2.9261639916823395e-05 -0.024954821285165497 0 3.7049864312821391e-05 -0.024929217450908848 0 2.6742478902922417e-05 -0.024952127776098804 0 2.9261639916823395e-05 -0.024954821285165497 0 1.9503048022998795e-05 -0.024970283276756024 0 2.6742478902922417e-05 -0.024952127776098804 0 2.9261639916823395e-05 -0.024954821285165497 0 1.9503048022998795e-05 -0.024970283276756024 0 2.5151523084622384e-05 -0.024964854957762468 0 2.9261639916823395e-05 -0.024954821285165497 0 4.0874562834093651e-05 -0.024937712394068251 0 2.9261639916823395e-05 -0.024954821285165497 0 4.6848489615443135e-05 -0.024935573387932057 0 2.5151523084622384e-05 -0.024964854957762468 0 2.9261639916823395e-05 -0.024954821285165497 0 4.6848489615443135e-05 -0.024935573387932057 0 4.6363945181428919e-06 -0.024987451410856468 0 2.2060952302713712e-05 -0.024970265250090187 0 2.4516951895474488e-08 -0.024999942150642704 0 1.0556631020199702e-06 -0.024999357020833366 0 -8.4437053876657707e-09 -0.025000027917420016 0 2.5151523084622384e-05 -0.024964854957762468 0 3.3222069717200696e-06 -0.024996009599748192 0 4.6848489615443135e-05 -0.024935573387932057 0 1.0992534427765995e-06 -0.025000395243851586 0 1.0556631020199702e-06 -0.024999357020833366 0 -8.4437053876657707e-09 -0.025000027917420016 0 3.3222069717200696e-06 -0.024996009599748192 0 1.0992534427765995e-06 -0.025000395243851586 0 1.0556631020199702e-06 -0.024999357020833366 0 -2.184881515180843e-09 -0.025000004265002148 0 -1.5862923626658942e-05 -0.02500990412870837 0 1.0992534427765995e-06 -0.025000395243851586 0 -8.4437053876657707e-09 -0.025000027917420016 0 9.8020472396863197e-07 -0.024999765041284386 0 -1.7094941496505726e-08 -0.025000042955388435 0 -1.8045123567425597e-05 -0.025016163808689658 0 1.3080455539488329e-09 -0.02500000005597627 0 -2.9471248646269318e-05 -0.025006690127309068 0 -1.8045123567425597e-05 -0.025016163808689658 0 1.3080455539488329e-09 -0.02500000005597627 0 -2.9471248646269318e-05 -0.025006690127309068 0 -1.8045123567425597e-05 -0.025016163808689658 0 -5.9565679631620706e-05 -0.025029896195579913 0 4.0874562834093651e-05 -0.024937712394068251 0 4.6848489615443135e-05 -0.024935573387932057 0 5.8338804183309628e-05 -0.024886816292220112 0 1.0992534427765995e-06 -0.025000395243851586 0 9.8020472396863197e-07 -0.024999765041284386 0 1.9865908194718743e-07 -0.024998505205584859 0 -1.5862923626658942e-05 -0.02500990412870837 0 2.5368180313366948e-05 -0.02492542720973507 0 2.2060952302713712e-05 -0.024970265250090187 0 2.5368180313366948e-05 -0.02492542720973507 0 4.519277310723317e-05 -0.02493404662757167 0 3.435806353017259e-05 -0.024886328154027044 0 5.8338804183309628e-05 -0.024886816292220112 0 4.519277310723317e-05 -0.02493404662757167 0 4.0874562834093651e-05 -0.024937712394068251 0 5.8338804183309628e-05 -0.024886816292220112 0 -4.8828770863167313e-05 -0.024925854294155794 0 -7.2459347348637554e-06 -0.024883324840388649 0 4.519277310723317e-05 -0.02493404662757167 0 -7.2459347348637554e-06 -0.024883324840388649 0 4.519277310723317e-05 -0.02493404662757167 0 3.435806353017259e-05 -0.024886328154027044 0 -5.0411351359635257e-05 -0.024816518681469814 0 2.8362421238050948e-05 -0.024830937406575392 0 -3.2228875131746942e-06 -0.024765067628954446 0 3.435806353017259e-05 -0.024886328154027044 0 2.8362421238050948e-05 -0.024830937406575392 0 5.8338804183309628e-05 -0.024886816292220112 0 2.8362421238050948e-05 -0.024830937406575392 0 0.00015139298426422362 -0.024882397418598001 0 5.4637247967352224e-05 -0.02475957659802339 0 -7.2459347348637554e-06 -0.024883324840388649 0 3.435806353017259e-05 -0.024886328154027044 0 2.8362421238050948e-05 -0.024830937406575392 0 2.5368180313366948e-05 -0.02492542720973507 0 -1.6429948927586134e-05 -0.02503775863576246 0 -5.9565679631620706e-05 -0.025029896195579913 0 -6.5563445660320085e-05 -0.024998143680942587 0 -0.00013528032250820731 -0.025000532737043821 0 5.2582902110887902e-05 -0.024840883488587307 0 2.5368180313366948e-05 -0.02492542720973507 0 -2.9471248646269318e-05 -0.025006690127309068 0 -5.9565679631620706e-05 -0.025029896195579913 0 -6.5563445660320085e-05 -0.024998143680942587 0 -6.5563445660320085e-05 -0.024998143680942587 0 -9.0094057612414549e-05 -0.024963146770218232 0 -0.00013528032250820731 -0.025000532737043821 0 -6.5563445660320085e-05 -0.024998143680942587 0 -9.0094057612414549e-05 -0.024963146770218232 0 -3.5377985874620829e-05 -0.024979613206868267 0 0.00014127485864540683 -0.023661732837839882 0 -1.6429948927586134e-05 -0.02503775863576246 0 -3.7604198419063692e-05 -0.024637704921471486 0 -3.2228875131746942e-06 -0.024765067628954446 0 5.4637247967352224e-05 -0.02475957659802339 0 -9.0094057612414549e-05 -0.024963146770218232 0 -0.00013528032250820731 -0.025000532737043821 0 -0.0001322242014232046 -0.024910653100425697 0 2.8362421238050948e-05 -0.024830937406575392 0 -3.2228875131746942e-06 -0.024765067628954446 0 5.4637247967352224e-05 -0.02475957659802339 0 -0.00026389114411391675 -0.024900923937719567 0 -0.00013528032250820731 -0.025000532737043821 0 -0.0001322242014232046 -0.024910653100425697 0 -0.00015093014570235588 -0.024810373568673473 0 -0.00026389114411391675 -0.024900923937719567 0 -0.0001322242014232046 -0.024910653100425697 0 -9.0094057612414549e-05 -0.024963146770218232 0 -0.0001322242014232046 -0.024910653100425697 0 -5.9233522950896468e-05 -0.024893580746717027 0 -9.0094057612414549e-05 -0.024963146770218232 0 -5.9233522950896468e-05 -0.024893580746717027 0 -3.5377985874620829e-05 -0.024979613206868267 0 -0.00015093014570235588 -0.024810373568673473 0 -0.0001322242014232046 -0.024910653100425697 0 -5.9233522950896468e-05 -0.024893580746717027 0 -5.9233522950896468e-05 -0.024893580746717027 0 -1.4334856499200618e-05 -0.024962402450297017 0 -3.5377985874620829e-05 -0.024979613206868267 0 5.0183351999182108e-09 -0.02499989231412398 0 -1.4334856499200618e-05 -0.024962402450297017 0 1.3080455539488329e-09 -0.02500000005597627 0 -1.4334856499200618e-05 -0.024962402450297017 0 1.3080455539488329e-09 -0.02500000005597627 0 -3.5377985874620829e-05 -0.024979613206868267 0 -2.9471248646269318e-05 -0.025006690127309068 0 1.3080455539488329e-09 -0.02500000005597627 0 -3.5377985874620829e-05 -0.024979613206868267 0 -2.9471248646269318e-05 -0.025006690127309068 0 -6.5563445660320085e-05 -0.024998143680942587 0 -3.5377985874620829e-05 -0.024979613206868267 0 1.6685218050156699e-08 -0.02499995448120684 0 5.2883389156357402e-06 -0.024948377872013875 0 -6.5385064235011138e-08 -0.024999819655690737 0 5.2883389156357402e-06 -0.024948377872013875 0 2.7181215265763913e-05 -0.024913847871266562 0 1.4223207928498539e-05 -0.024957267349922041 0 1.6685218050156699e-08 -0.02499995448120684 0 5.2883389156357402e-06 -0.024948377872013875 0 1.4223207928498539e-05 -0.024957267349922041 0 5.2883389156357402e-06 -0.024948377872013875 0 4.3248254059883493e-05 -0.024875132635808116 0 5.9869083941069328e-06 -0.024921300575090552 0 5.2883389156357402e-06 -0.024948377872013875 0 4.3248254059883493e-05 -0.024875132635808116 0 2.7181215265763913e-05 -0.024913847871266562 0 4.3248254059883493e-05 -0.024875132635808116 0 5.1030422027084067e-05 -0.024865330496933489 0 0.00011021232454459163 -0.02474637454132473 0 4.3248254059883493e-05 -0.024875132635808116 0 5.1030422027084067e-05 -0.024865330496933489 0 2.7181215265763913e-05 -0.024913847871266562 0 5.1030422027084067e-05 -0.024865330496933489 0 3.9289735781913881e-05 -0.024914168600345489 0 7.758719820299708e-05 -0.024869577001593011 0 5.1030422027084067e-05 -0.024865330496933489 0 2.7181215265763913e-05 -0.024913847871266562 0 3.9289735781913881e-05 -0.024914168600345489 0 2.7181215265763913e-05 -0.024913847871266562 0 3.9289735781913881e-05 -0.024914168600345489 0 1.4223207928498539e-05 -0.024957267349922041 0 3.9289735781913881e-05 -0.024914168600345489 0 3.2700336391589181e-05 -0.024940648292060556 0 1.4223207928498539e-05 -0.024957267349922041 0 3.9289735781913881e-05 -0.024914168600345489 0 3.2700336391589181e-05 -0.024940648292060556 0 4.2284461787290763e-05 -0.024926613609833614 0 3.2700336391589181e-05 -0.024940648292060556 0 3.3214012029817745e-05 -0.02492644525784498 0 4.2284461787290763e-05 -0.024926613609833614 0 3.2700336391589181e-05 -0.024940648292060556 0 1.4223207928498539e-05 -0.024957267349922041 0 1.7626052199378294e-05 -0.024967826617908095 0 1.4223207928498539e-05 -0.024957267349922041 0 8.8425124577668532e-09 -0.024999947413914418 0 1.7626052199378294e-05 -0.024967826617908095 0 1.6685218050156699e-08 -0.02499995448120684 0 1.4223207928498539e-05 -0.024957267349922041 0 8.8425124577668532e-09 -0.024999947413914418 0 7.7092547453054993e-09 -0.024999983517722056 0 1.9197371130797209e-05 -0.024963006276984355 0 2.2799335821661443e-09 -0.02499996396445997 0 1.8495504756494009e-05 -0.02495770109234061 0 2.0678458411281478e-08 -0.024999929392803405 0 1.8495504756494009e-05 -0.02495770109234061 0 2.3675873777377594e-05 -0.024937134433166162 0 3.1203307940803729e-05 -0.024911012346157783 0 1.8495504756494009e-05 -0.02495770109234061 0 2.3675873777377594e-05 -0.024937134433166162 0 2.0678458411281478e-08 -0.024999929392803405 0 2.3675873777377594e-05 -0.024937134433166162 0 2.0678458411281478e-08 -0.024999929392803405 0 1.6065528349221215e-05 -0.024956649819849158 0 2.0678458411281478e-08 -0.024999929392803405 0 1.6065528349221215e-05 -0.024956649819849158 0 1.2053041285626463e-08 -0.024999926831697074 0 1.6065528349221215e-05 -0.024956649819849158 0 2.3418153823300612e-05 -0.024937292840002602 0 3.0586741203428144e-05 -0.024902758192703146 0 2.3675873777377594e-05 -0.024937134433166162 0 1.6065528349221215e-05 -0.024956649819849158 0 3.0586741203428144e-05 -0.024902758192703146 0 1.2698554000064479e-08 -0.024999928910315449 0 2.3418153823300612e-05 -0.024937292840002602 0 1.2053041285626463e-08 -0.024999926831697074 0 1.6065528349221215e-05 -0.024956649819849158 0 2.3418153823300612e-05 -0.024937292840002602 0 1.2053041285626463e-08 -0.024999926831697074 0 5.1638605387581349e-05 -0.024888371602374799 0 7.4245711353424372e-05 -0.02486061230435543 0 4.1324621099394998e-05 -0.024880448137796479 0 7.4245711353424372e-05 -0.02486061230435543 0 6.0978064574281094e-05 -0.024847318622800013 0 4.1324621099394998e-05 -0.024880448137796479 0 6.0978064574281094e-05 -0.024847318622800013 0 4.1324621099394998e-05 -0.024880448137796479 0 3.09847086770352e-05 -0.02484597646539171 0 5.1638605387581349e-05 -0.024888371602374799 0 2.3418153823300612e-05 -0.024937292840002602 0 4.1324621099394998e-05 -0.024880448137796479 0 2.3418153823300612e-05 -0.024937292840002602 0 4.1324621099394998e-05 -0.024880448137796479 0 3.0586741203428144e-05 -0.024902758192703146 0 3.0586741203428144e-05 -0.024902758192703146 0 3.09847086770352e-05 -0.02484597646539171 0 3.4604583910544851e-05 -0.02487419861459721 0 4.1324621099394998e-05 -0.024880448137796479 0 3.0586741203428144e-05 -0.024902758192703146 0 3.09847086770352e-05 -0.02484597646539171 0 3.09847086770352e-05 -0.02484597646539171 0 3.4604583910544851e-05 -0.02487419861459721 0 -6.9003432734300331e-06 -0.024772653492115822 0 6.0978064574281094e-05 -0.024847318622800013 0 3.09847086770352e-05 -0.02484597646539171 0 4.3434672426219338e-05 -0.024824169735301316 0 3.09847086770352e-05 -0.02484597646539171 0 -6.9003432734300331e-06 -0.024772653492115822 0 4.3434672426219338e-05 -0.024824169735301316 0 3.4604583910544851e-05 -0.02487419861459721 0 1.979610850737031e-05 -0.024868253936666345 0 -6.9003432734300331e-06 -0.024772653492115822 0 3.4604583910544851e-05 -0.02487419861459721 0 3.1203307940803729e-05 -0.024911012346157783 0 1.979610850737031e-05 -0.024868253936666345 0 2.3675873777377594e-05 -0.024937134433166162 0 3.0586741203428144e-05 -0.024902758192703146 0 3.4604583910544851e-05 -0.02487419861459721 0 2.3675873777377594e-05 -0.024937134433166162 0 3.4604583910544851e-05 -0.02487419861459721 0 3.1203307940803729e-05 -0.024911012346157783 0 1.9197371130797209e-05 -0.024963006276984355 0 3.3737451094823705e-05 -0.024921198196356898 0 3.2700336391589181e-05 -0.024940648292060556 0 1.7626052199378294e-05 -0.024967826617908095 0 3.9449632379711728e-05 -0.024935257193624123 0 3.3737451094823705e-05 -0.024921198196356898 0 1.7749565870224097e-05 -0.024879026050641396 0 3.9449632379711728e-05 -0.024935257193624123 0 3.3214012029817745e-05 -0.02492644525784498 0 1.979610850737031e-05 -0.024868253936666345 0 3.2700336391589181e-05 -0.024940648292060556 0 3.9449632379711728e-05 -0.024935257193624123 0 3.3214012029817745e-05 -0.02492644525784498 0 3.3214012029817745e-05 -0.02492644525784498 0 1.1045068866891314e-05 -0.024921520199443034 0 4.4966195911654327e-05 -0.024926811474157071 0 3.3214012029817745e-05 -0.02492644525784498 0 1.1045068866891314e-05 -0.024921520199443034 0 1.979610850737031e-05 -0.024868253936666345 0 0.00024345309495937497 -0.024009098773756579 0 0.00020824567894188855 -0.024086218299618031 0 3.6966697234288749e-05 -0.024215465082928468 0 0.00024556060588308641 -0.02400339592138875 0 0.0003107981808090981 -0.024618988817569253 0 0.0003107981808090981 -0.024618988817569253 0 0.00011164530404401329 -0.024574532207497699 0 0.00010305185162400355 -0.024829769626827022 0 3.6966697234288749e-05 -0.024215465082928468 0 0.0003107981808090981 -0.024618988817569253 0 0.00011164530404401329 -0.024574532207497699 0 1.1045068866891314e-05 -0.024921520199443034 0 1.979610850737031e-05 -0.024868253936666345 0 -6.9003432734300331e-06 -0.024772653492115822 0 4.0478963531001609e-05 -0.024569654149572739 0 -7.3308155821402908e-06 -0.024737259508645238 0 3.6966697234288749e-05 -0.024215465082928468 0 0.00011164530404401329 -0.024574532207497699 0 -6.9003432734300331e-06 -0.024772653492115822 0 -6.9003432734300331e-06 -0.024772653492115822 0 4.3434672426219338e-05 -0.024824169735301316 0 0.00010305185162400355 -0.024829769626827022 0 6.0978064574281094e-05 -0.024847318622800013 0 4.3434672426219338e-05 -0.024824169735301316 0 0.00010305185162400355 -0.024829769626827022 0 0.00011164530404401329 -0.024574532207497699 0 -6.9003432734300331e-06 -0.024772653492115822 0 0.00010305185162400355 -0.024829769626827022 0 0.0003107981808090981 -0.024618988817569253 0 0.00010305185162400355 -0.024829769626827022 0 0.00018165854114397681 -0.024849696081120979 0 0.00011633648650750551 -0.024844556428180193 0 0.000128206959818828 -0.024849764073328496 0 0.00010305185162400355 -0.024829769626827022 0 0.000128206959818828 -0.024849764073328496 0 0.00010305185162400355 -0.024829769626827022 0 0.00018165854114397681 -0.024849696081120979 0 0.00011633648650750551 -0.024844556428180193 0 6.0978064574281094e-05 -0.024847318622800013 0 0.00010305185162400355 -0.024829769626827022 0 0.00011633648650750551 -0.024844556428180193 0 7.4245711353424372e-05 -0.02486061230435543 0 6.0978064574281094e-05 -0.024847318622800013 0 0.00010453315283569868 -0.023789074425171461 0 4.0971956452530022e-05 -0.023645234233866334 0 0.00022962087245777572 -0.023660336614704954 0 4.0971956452530022e-05 -0.023645234233866334 0 7.4180545951233438e-05 -0.023494800170715303 0 0.00022962087245777572 -0.023660336614704954 0 -8.1971650578213661e-05 -0.023902035545822219 0 4.0971956452530022e-05 -0.023645234233866334 0 -8.5164102205302422e-05 -0.023590183224500016 0 4.0971956452530022e-05 -0.023645234233866334 0 -8.5164102205302422e-05 -0.023590183224500016 0 1.7762217393876477e-05 -0.023514802835354547 0 0.00020824567894188855 -0.024086218299618031 0 5.3023055752434621e-05 -0.024223993911728161 0 0.00013425078603944028 -0.023544880628514928 0 -8.5164102205302422e-05 -0.023590183224500016 0 1.7762217393876477e-05 -0.023514802835354547 0 1.7762217393876477e-05 -0.023514802835354547 0 7.4180545951233438e-05 -0.023494800170715303 0 1.2242046714073276e-05 -0.023472111831362268 0 4.0971956452530022e-05 -0.023645234233866334 0 1.7762217393876477e-05 -0.023514802835354547 0 7.4180545951233438e-05 -0.023494800170715303 0 0.00013425078603944028 -0.023544880628514928 0 1.7762217393876477e-05 -0.023514802835354547 0 1.2242046714073276e-05 -0.023472111831362268 0 0.00013425078603944028 -0.023544880628514928 0 1.2242046714073276e-05 -0.023472111831362268 0 5.9547164577465159e-05 -0.023764228482419349 0 0.00024556060588308641 -0.02400339592138875 0 5.9547164577465159e-05 -0.023764228482419349 0 0.00013586810570773744 -0.023962010309626729 0 0.00024556060588308641 -0.02400339592138875 0 0.00013425078603944028 -0.023544880628514928 0 5.9547164577465159e-05 -0.023764228482419349 0 5.9547164577465159e-05 -0.023764228482419349 0 -8.9849743915968594e-05 -0.023723723386327347 0 -0.0001191337323281426 -0.023915913760570267 0 1.2242046714073276e-05 -0.023472111831362268 0 5.9547164577465159e-05 -0.023764228482419349 0 -8.9849743915968594e-05 -0.023723723386327347 0 -0.00025197548799577225 -0.023933109040523835 0 -9.8655866387063217e-05 -0.024109298100181729 0 -0.00026354466957337618 -0.024109918975289225 0 -0.0001191337323281426 -0.023915913760570267 0 4.7937645316980528e-05 -0.024054712128802173 0 0.00013586810570773744 -0.023962010309626729 0 5.9547164577465159e-05 -0.023764228482419349 0 -0.0001191337323281426 -0.023915913760570267 0 0.00013586810570773744 -0.023962010309626729 0 -0.00020101301354674209 -0.023934432456456791 0 -4.4512075139592644e-05 -0.024053398725582247 0 -8.3277353891559512e-05 -0.024280685382647792 0 -0.00025455637154863297 -0.02435085142473908 0 -0.00026354466957337618 -0.024109918975289225 0 -9.8655866387063217e-05 -0.024109298100181729 0 -8.3277353891559512e-05 -0.024280685382647792 0 -0.00026354466957337618 -0.024109918975289225 0 4.7937645316980528e-05 -0.024054712128802173 0 0.00014753646111613513 -0.024029961406866567 0 0.00016721753909557455 -0.024173573485833322 0 0.00014753646111613513 -0.024029961406866567 0 0.00023865414098173687 -0.023953111738376276 0 0.00016721753909557455 -0.024173573485833322 0 -4.4512075139592644e-05 -0.024053398725582247 0 0.00011372373669683584 -0.024484450624839782 0 -9.8655866387063217e-05 -0.024109298100181729 0 -8.3277353891559512e-05 -0.024280685382647792 0 6.3634806102145003e-05 -0.024340605467149914 0 0.00014753646111613513 -0.024029961406866567 0 0.00013586810570773744 -0.023962010309626729 0 0.00023865414098173687 -0.023953111738376276 0 4.7937645316980528e-05 -0.024054712128802173 0 0.00014753646111613513 -0.024029961406866567 0 0.00013586810570773744 -0.023962010309626729 0 4.0478963531001609e-05 -0.024569654149572739 0 0.00016180210632945379 -0.024447846097229671 0 3.6966697234288749e-05 -0.024215465082928468 0 0.00024556060588308641 -0.02400339592138875 0 0.00023865414098173687 -0.023953111738376276 0 0.00024556060588308641 -0.02400339592138875 0 0.00013586810570773744 -0.023962010309626729 0 0.00023865414098173687 -0.023953111738376276 0 1.1045068866891314e-05 -0.024921520199443034 0 9.1574102376082913e-05 -0.024924036612340775 0 4.4966195911654327e-05 -0.024926811474157071 0 3.3214012029817745e-05 -0.02492644525784498 0 4.4966195911654327e-05 -0.024926811474157071 0 4.2284461787290763e-05 -0.024926613609833614 0 9.1574102376082913e-05 -0.024924036612340775 0 4.4966195911654327e-05 -0.024926811474157071 0 6.4269631341486595e-05 -0.024909887580014584 0 4.4966195911654327e-05 -0.024926811474157071 0 4.2284461787290763e-05 -0.024926613609833614 0 6.4269631341486595e-05 -0.024909887580014584 0 3.9289735781913881e-05 -0.024914168600345489 0 6.4269631341486595e-05 -0.024909887580014584 0 7.758719820299708e-05 -0.024869577001593011 0 3.9289735781913881e-05 -0.024914168600345489 0 4.2284461787290763e-05 -0.024926613609833614 0 6.4269631341486595e-05 -0.024909887580014584 0 6.4269631341486595e-05 -0.024909887580014584 0 0.00010274409510915137 -0.02488387647449106 0 7.758719820299708e-05 -0.024869577001593011 0 9.1574102376082913e-05 -0.024924036612340775 0 0.00010274409510915137 -0.02488387647449106 0 0.00016664505206168834 -0.024862668326671226 0 0.00016180210632945379 -0.024447846097229671 0 0.00011372373669683584 -0.024484450624839782 0 9.1574102376082913e-05 -0.024924036612340775 0 6.4269631341486595e-05 -0.024909887580014584 0 0.00010274409510915137 -0.02488387647449106 0 0.00011373018914957222 -0.024843960427500512 0 7.758719820299708e-05 -0.024869577001593011 0 0.00011021232454459163 -0.02474637454132473 0 0.00010274409510915137 -0.02488387647449106 0 0.00011373018914957222 -0.024843960427500512 0 0.00016664505206168834 -0.024862668326671226 0 0.00011373018914957222 -0.024843960427500512 0 0.00011021232454459163 -0.02474637454132473 0 0.00016664505206168834 -0.024862668326671226 0 0.00011021232454459163 -0.02474637454132473 0 4.7174344478926733e-05 -0.024370862400713018 0 1.7559156810771103e-05 -0.024426813711503095 0 0.00011668437001825995 -0.024765800024068519 0 0.00011372373669683584 -0.024484450624839782 0 0.00010274409510915137 -0.02488387647449106 0 0.00011373018914957222 -0.024843960427500512 0 7.758719820299708e-05 -0.024869577001593011 0 5.1030422027084067e-05 -0.024865330496933489 0 7.758719820299708e-05 -0.024869577001593011 0 0.00011021232454459163 -0.02474637454132473 0 0.00011021232454459163 -0.02474637454132473 0 2.6085233313609811e-05 -0.024640592158257719 0 1.7559156810771103e-05 -0.024426813711503095 0 0.00011021232454459163 -0.02474637454132473 0 2.6085233313609811e-05 -0.024640592158257719 0 7.6998190385211662e-05 -0.024771480744016302 0 2.6085233313609811e-05 -0.024640592158257719 0 -0.00012269323049083521 -0.02458421470539934 0 -0.00010673903977419367 -0.024440876298904311 0 -0.00012269323049083521 -0.02458421470539934 0 -0.00025455637154863297 -0.02435085142473908 0 -0.00030722908746910537 -0.02463210492063396 0 -0.00012269323049083521 -0.02458421470539934 0 -0.00025455637154863297 -0.02435085142473908 0 -0.00010673903977419367 -0.024440876298904311 0 -8.3277353891559512e-05 -0.024280685382647792 0 -0.00025455637154863297 -0.02435085142473908 0 -0.00010673903977419367 -0.024440876298904311 0 2.6085233313609811e-05 -0.024640592158257719 0 -0.00010673903977419367 -0.024440876298904311 0 1.7559156810771103e-05 -0.024426813711503095 0 -8.3277353891559512e-05 -0.024280685382647792 0 -0.00010673903977419367 -0.024440876298904311 0 1.7559156810771103e-05 -0.024426813711503095 0 -8.3277353891559512e-05 -0.024280685382647792 0 6.3634806102145003e-05 -0.024340605467149914 0 1.7559156810771103e-05 -0.024426813711503095 0 0.00011372373669683584 -0.024484450624839782 0 9.9369623905899468e-05 -0.024450740036688602 0 -0.00025455637154863297 -0.02435085142473908 0 -0.00054221294288065932 -0.024359343453356743 0 -0.00043558768083756799 -0.02409466806078427 0 -0.00025455637154863297 -0.02435085142473908 0 -0.00054221294288065932 -0.024359343453356743 0 -0.00030722908746910537 -0.02463210492063396 0 -0.00063808566445861426 -0.023874966060913713 0 -0.00057211699897517624 -0.023896030899105372 0 -0.00049293956063272597 -0.023865603367103499 0 -0.0005762429204313013 -0.024123868848794684 0 -0.00039610326137627205 -0.024250342362786698 0 -0.00063808566445861426 -0.023874966060913713 0 -0.00065560451927585328 -0.023902581286887933 0 -0.00062869466968276948 -0.023877376058145335 0 -0.00065560451927585328 -0.023902581286887933 0 -0.00064680071789927659 -0.023935638185300565 0 -0.00064643800808780424 -0.02380627529198109 0 -0.00066507545474167053 -0.024038084983700754 0 -0.00065827133056460996 -0.023942732916075359 0 -0.00064403506969133663 -0.023983062068503393 0 -0.00065560451927585328 -0.023902581286887933 0 -0.00064680071789927659 -0.023935638185300565 0 -0.00066507545474167053 -0.024038084983700754 0 -0.00064680071789927659 -0.023935638185300565 0 -0.00066507545474167053 -0.024038084983700754 0 -0.00064403506969133663 -0.023983062068503393 0 -0.00063808566445861426 -0.023874966060913713 0 -0.00065560451927585328 -0.023902581286887933 0 -0.00066507545474167053 -0.024038084983700754 0 -0.00054221294288065932 -0.024359343453356743 0 -0.00066507545474167053 -0.024038084983700754 0 -0.00059375252565128142 -0.024048752582294691 0 -0.0005762429204313013 -0.024123868848794684 0 -0.00064946232226986125 -0.024054300599125996 0 -0.00066507545474167053 -0.024038084983700754 0 -0.00059375252565128142 -0.024048752582294691 0 -0.00066856846620279493 -0.024002573085114751 0 -0.00066507545474167053 -0.024038084983700754 0 -0.00066856846620279493 -0.024002573085114751 0 -0.00065827133056460996 -0.023942732916075359 0 -0.00032534121508171312 -0.023733678863005609 0 -0.00044477159269918986 -0.023470563164930364 0 -0.00055420525008450649 -0.023709604323955715 0 -0.00032534121508171312 -0.023733678863005609 0 -2.457544360035043e-05 -0.023519265118959676 0 -0.00044477159269918986 -0.023470563164930364 0 -0.00059375252565128142 -0.024048752582294691 0 -0.00066856846620279493 -0.024002573085114751 0 -0.00057209363521742854 -0.023915063716992271 0 -0.00049954552307573941 -0.023863430370421601 0 -0.00030050671963268311 -0.023721482448154037 0 -0.00057209363521742854 -0.023915063716992271 0 -0.00041953669266015989 -0.023944358248088524 0 -0.00043558768083756799 -0.02409466806078427 0 -0.00059375252565128142 -0.024048752582294691 0 -0.00057209363521742854 -0.023915063716992271 0 -0.00043558768083756799 -0.02409466806078427 0 -0.00054221294288065932 -0.024359343453356743 0 -0.00059375252565128142 -0.024048752582294691 0 -0.00043558768083756799 -0.02409466806078427 0 -0.00041953669266015989 -0.023944358248088524 0 -0.00043558768083756799 -0.02409466806078427 0 -0.00026354466957337618 -0.024109918975289225 0 -0.00025455637154863297 -0.02435085142473908 0 -0.00043558768083756799 -0.02409466806078427 0 -0.00026354466957337618 -0.024109918975289225 0 -0.00025197548799577225 -0.023933109040523835 0 -0.00041953669266015989 -0.023944358248088524 0 -0.00026354466957337618 -0.024109918975289225 0 1.2242046714073276e-05 -0.023472111831362268 0 -8.9849743915968594e-05 -0.023723723386327347 0 -0.00034403878990379495 -0.023708697000833685 0 -0.00025197548799577225 -0.023933109040523835 0 -0.00041953669266015989 -0.023944358248088524 0 -0.00038978450172505322 -0.023786174461211708 0 -8.9849743915968594e-05 -0.023723723386327347 0 -0.0001191337323281426 -0.023915913760570267 0 -0.00034403878990379495 -0.023708697000833685 0 -0.00020101301354674209 -0.023934432456456791 0 -8.8145839817544883e-05 -0.023534404002159726 0 -2.457544360035043e-05 -0.023519265118959676 0 0.00020373974228037858 -0.023337733980620581 0 1.1593029550858744e-05 -0.023304500914969946 0 -0.00057209363521742854 -0.023915063716992271 0 -0.00041953669266015989 -0.023944358248088524 0 -0.00038978450172505322 -0.023786174461211708 0 -0.00030050671963268311 -0.023721482448154037 0 -8.8145839817544883e-05 -0.023534404002159726 0 0.00017715410614299932 -0.023334789143241635 0 5.2768303933953828e-06 -0.023135302380553002 0 0.00018764512828054578 -0.023271711835850039 0 0.00020373974228037858 -0.023337733980620581 0 1.1593029550858744e-05 -0.023304500914969946 0 5.2768303933953828e-06 -0.023135302380553002 0 -8.8145839817544883e-05 -0.023534404002159726 0 8.4903752150395064e-05 -0.023107403165533402 0 1.2242046714073276e-05 -0.023472111831362268 0 0.00017715410614299932 -0.023334789143241635 0 0.00018764512828054578 -0.023271711835850039 0 1.0272367981187884e-05 -0.023468770521642052 0 -8.8145839817544883e-05 -0.023534404002159726 0 0.00018453099767277835 -0.023334794827234825 0 0.000316394699126389 -0.023042308016131559 0 7.4180545951233438e-05 -0.023494800170715303 0 0.00018764512828054578 -0.023271711835850039 0 0.00022962087245777572 -0.023660336614704954 0 7.4180545951233438e-05 -0.023494800170715303 0 1.2242046714073276e-05 -0.023472111831362268 0 0.00018764512828054578 -0.023271711835850039 0 0.00018764512828054578 -0.023271711835850039 0 6.1952485399906175e-05 -0.022894592740441356 0 0.00032029035372226582 -0.022705392095384212 0 5.2768303933953828e-06 -0.023135302380553002 0 0.00018764512828054578 -0.023271711835850039 0 6.1952485399906175e-05 -0.022894592740441356 0 -0.00010074848190830209 -0.022540277272802226 0 6.1952485399906175e-05 -0.022894592740441356 0 0.00032029035372226582 -0.022705392095384212 0 -0.00030481903634080153 -0.022507591951463894 0 -0.00031336383483774482 -0.022733371498331906 0 -0.00044342805307470484 -0.022557268923230813 0 -0.00030481903634080153 -0.022507591951463894 0 -0.00031336383483774482 -0.022733371498331906 0 -0.00013645970544844826 -0.02280681877327569 0 -0.00031336383483774482 -0.022733371498331906 0 -0.00047787424009320225 -0.022739815199742188 0 -0.00044342805307470484 -0.022557268923230813 0 -0.00010074848190830209 -0.022540277272802226 0 6.1952485399906175e-05 -0.022894592740441356 0 -0.00013645970544844826 -0.02280681877327569 0 -0.00010074848190830209 -0.022540277272802226 0 -0.00030481903634080153 -0.022507591951463894 0 -0.00013645970544844826 -0.02280681877327569 0 -0.00031336383483774482 -0.022733371498331906 0 -0.00013645970544844826 -0.02280681877327569 0 -0.00017157674428474538 -0.023001025443465356 0 5.2768303933953828e-06 -0.023135302380553002 0 6.1952485399906175e-05 -0.022894592740441356 0 -0.00013645970544844826 -0.02280681877327569 0 5.2768303933953828e-06 -0.023135302380553002 0 -0.00013645970544844826 -0.02280681877327569 0 -0.00017157674428474538 -0.023001025443465356 0 -0.00031336383483774482 -0.022733371498331906 0 -0.00017157674428474538 -0.023001025443465356 0 -0.00034681849486873267 -0.022929128489605356 0 -0.00031336383483774482 -0.022733371498331906 0 -0.00034681849486873267 -0.022929128489605356 0 -0.00047787424009320225 -0.022739815199742188 0 -0.00017157674428474538 -0.023001025443465356 0 -0.0003714716261937993 -0.023145572156512664 0 -0.00015132327477983802 -0.023254762332216853 0 -0.00017157674428474538 -0.023001025443465356 0 -0.00034681849486873267 -0.022929128489605356 0 -0.0003714716261937993 -0.023145572156512664 0 1.1593029550858744e-05 -0.023304500914969946 0 5.2768303933953828e-06 -0.023135302380553002 0 -0.00015132327477983802 -0.023254762332216853 0 5.2768303933953828e-06 -0.023135302380553002 0 -0.00017157674428474538 -0.023001025443465356 0 -0.00015132327477983802 -0.023254762332216853 0 -2.457544360035043e-05 -0.023519265118959676 0 1.1593029550858744e-05 -0.023304500914969946 0 -0.00015132327477983802 -0.023254762332216853 0 -2.457544360035043e-05 -0.023519265118959676 0 -0.00015132327477983802 -0.023254762332216853 0 -0.00044477159269918986 -0.023470563164930364 0 -0.0003714716261937993 -0.023145572156512664 0 -0.00015132327477983802 -0.023254762332216853 0 -0.00044477159269918986 -0.023470563164930364 0 -0.00044477159269918986 -0.023470563164930364 0 -0.00074972281849025873 -0.023336972089599239 0 -0.00057585980151419395 -0.023209763035769639 0 -0.0003714716261937993 -0.023145572156512664 0 -0.00044477159269918986 -0.023470563164930364 0 -0.00057585980151419395 -0.023209763035769639 0 -0.00044477159269918986 -0.023470563164930364 0 -0.00074972281849025873 -0.023336972089599239 0 -0.00073833068222961963 -0.023613753777253169 0 -0.00094021974246934149 -0.02345641439874047 0 -0.00074972281849025873 -0.023336972089599239 0 -0.00073833068222961963 -0.023613753777253169 0 -0.00074972281849025873 -0.023336972089599239 0 -0.00096159662932946354 -0.023215798419623526 0 -0.00082779362089893042 -0.023083692134481904 0 -0.00094021974246934149 -0.02345641439874047 0 -0.00074972281849025873 -0.023336972089599239 0 -0.00096159662932946354 -0.023215798419623526 0 -0.00094021974246934149 -0.02345641439874047 0 -0.00096159662932946354 -0.023215798419623526 0 -0.0011242394854568891 -0.023253252040798408 0 -0.00082779362089893042 -0.023083692134481904 0 -0.00062402635885979503 -0.022897902219221722 0 -0.00098202743088609537 -0.022795432455455733 0 -0.00096159662932946354 -0.023215798419623526 0 -0.00082779362089893042 -0.023083692134481904 0 -0.0011263799258848656 -0.023025641699365756 0 -0.00082779362089893042 -0.023083692134481904 0 -0.00098202743088609537 -0.022795432455455733 0 -0.0011263799258848656 -0.023025641699365756 0 -0.0003714716261937993 -0.023145572156512664 0 -0.00057585980151419395 -0.023209763035769639 0 -0.00062402635885979503 -0.022897902219221722 0 -0.00034681849486873267 -0.022929128489605356 0 -0.0003714716261937993 -0.023145572156512664 0 -0.00062402635885979503 -0.022897902219221722 0 -0.00082779362089893042 -0.023083692134481904 0 -0.00057585980151419395 -0.023209763035769639 0 -0.00062402635885979503 -0.022897902219221722 0 -0.00074972281849025873 -0.023336972089599239 0 -0.00082779362089893042 -0.023083692134481904 0 -0.00057585980151419395 -0.023209763035769639 0 -0.00034681849486873267 -0.022929128489605356 0 -0.00062402635885979503 -0.022897902219221722 0 -0.00047787424009320225 -0.022739815199742188 0 -0.00062402635885979503 -0.022897902219221722 0 -0.00047787424009320225 -0.022739815199742188 0 -0.00065601415273410033 -0.022513317736617005 0 -0.00062402635885979503 -0.022897902219221722 0 -0.00098202743088609537 -0.022795432455455733 0 -0.00065601415273410033 -0.022513317736617005 0 -0.00098202743088609537 -0.022795432455455733 0 -0.00065601415273410033 -0.022513317736617005 0 -0.0012699815244073159 -0.022417880731542522 0 -0.00084323161825735802 -0.021813029258666454 0 -0.00065601415273410033 -0.022513317736617005 0 -0.0012699815244073159 -0.022417880731542522 0 -0.00060461290462091131 -0.022274920879363818 0 -0.00065601415273410033 -0.022513317736617005 0 -0.00044342805307470484 -0.022557268923230813 0 -0.00047787424009320225 -0.022739815199742188 0 -0.00065601415273410033 -0.022513317736617005 0 -0.00044342805307470484 -0.022557268923230813 0 -0.0018655425141737205 -0.022015137898792409 0 -0.0012699815244073159 -0.022417880731542522 0 -0.001687173263464607 -0.02277068494377631 0 -0.00084037613915064271 -0.017208445524618646 0 -0.00088185487355765184 -0.017624584054583992 0 -0.0011169121417704273 -0.01734613444835607 0 -0.0013303359017071256 -0.019440002026408689 0 -0.001383309341829952 -0.020783761988144189 0 -0.0013272953720488924 -0.021531224958508743 0 -0.0018655425141737205 -0.022015137898792409 0 -0.0012699815244073159 -0.022417880731542522 0 -0.0013272953720488924 -0.021531224958508743 0 -0.00084323161825735802 -0.021813029258666454 0 -0.0012699815244073159 -0.022417880731542522 0 -0.0012699815244073159 -0.022417880731542522 0 -0.0013097554694744562 -0.022828028319432699 0 -0.001687173263464607 -0.02277068494377631 0 -0.00098202743088609537 -0.022795432455455733 0 -0.0012699815244073159 -0.022417880731542522 0 -0.0013097554694744562 -0.022828028319432699 0 -0.001383309341829952 -0.020783761988144189 0 -0.00045485847777848007 -0.017653203652465466 0 -0.0013097554694744562 -0.022828028319432699 0 -0.001687173263464607 -0.02277068494377631 0 -0.0014392248782546472 -0.023035865408461583 0 -0.001687173263464607 -0.02277068494377631 0 -0.0014392248782546472 -0.023035865408461583 0 -0.0014632946009286568 -0.023008044321856682 0 -0.00088185487355765184 -0.017624584054583992 0 -0.00091823125067960602 -0.018027919342959803 0 -0.0011910646268518165 -0.017660063673990971 0 -0.00098202743088609537 -0.022795432455455733 0 -0.0013097554694744562 -0.022828028319432699 0 -0.0011263799258848656 -0.023025641699365756 0 -0.0013097554694744562 -0.022828028319432699 0 -0.0011263799258848656 -0.023025641699365756 0 -0.0014392248782546472 -0.023035865408461583 0 -0.0011263799258848656 -0.023025641699365756 0 -0.0014392248782546472 -0.023035865408461583 0 -0.0011242394854568891 -0.023253252040798408 0 -0.00096159662932946354 -0.023215798419623526 0 -0.0011263799258848656 -0.023025641699365756 0 -0.0011242394854568891 -0.023253252040798408 0 -0.0014392248782546472 -0.023035865408461583 0 -0.0011242394854568891 -0.023253252040798408 0 -0.0011745579767615953 -0.023520649516940162 0 -0.0014392248782546472 -0.023035865408461583 0 -0.0014912129083706051 -0.022902408623054201 0 -0.0016248593947637963 -0.022787232536789485 0 -0.0014844637885422518 -0.022872320922376076 0 -0.0013271961516900853 -0.02356663596750928 0 -0.0014912129083706051 -0.022902408623054201 0 -0.0014787528989441421 -0.022706526740459108 0 -0.0016248593947637963 -0.022787232536789485 0 -0.00094021974246934149 -0.02345641439874047 0 -0.0011242394854568891 -0.023253252040798408 0 -0.0011745579767615953 -0.023520649516940162 0 -0.00045485847777848007 -0.017653203652465466 0 -0.00070992692214559257 -0.018980374000678205 0 -0.00045485847777848007 -0.017653203652465466 0 0.0002025789964792777 -0.014077292031300075 0 -0.0014632946009286568 -0.023008044321856682 0 -0.0014912129083706051 -0.022902408623054201 0 -0.0014787528989441421 -0.022706526740459108 0 -0.0014392248782546472 -0.023035865408461583 0 -0.0014632946009286568 -0.023008044321856682 0 -0.0014912129083706051 -0.022902408623054201 0 0.0002656692082312099 -0.015669082016586733 0 0.00029159236788123694 -0.015284644735365106 0 9.6381802688824328e-05 -0.015385843186980098 0 0.00029159236788123694 -0.015284644735365106 0 0.00014531540636613169 -0.015181762340295522 0 9.6381802688824328e-05 -0.015385843186980098 0 0.0002025789964792777 -0.014077292031300075 0 9.6978157067466583e-05 -0.014837872783384118 0 0.00029159236788123694 -0.015284644735365106 0 0.00014531540636613169 -0.015181762340295522 0 0.00022926665915505383 -0.015016068812373011 0 0.00014531540636613169 -0.015181762340295522 0 0.00014066128978147265 -0.015047923533316987 0 0.00022926665915505383 -0.015016068812373011 0 0.00014531540636613169 -0.015181762340295522 0 3.4854860937860691e-05 -0.015157438312060102 0 0.00014066128978147265 -0.015047923533316987 0 -0.0011604794704744082 -0.020786704527294073 0 -0.00070992692214559257 -0.018980374000678205 0 0.00014531540636613169 -0.015181762340295522 0 3.4854860937860691e-05 -0.015157438312060102 0 9.6381802688824328e-05 -0.015385843186980098 0 -0.00094021974246934149 -0.02345641439874047 0 -0.00096766859240938205 -0.023855156782970215 0 -0.0011745579767615953 -0.023520649516940162 0 -0.0011604794704744082 -0.020786704527294073 0 -0.0013271961516900853 -0.02356663596750928 0 -0.001808302600888048 -0.022159806028927219 0 -0.0014787528989441421 -0.022706526740459108 0 -0.0016248593947637963 -0.022787232536789485 0 -0.00094021974246934149 -0.02345641439874047 0 -0.00096766859240938205 -0.023855156782970215 0 -0.00073833068222961963 -0.023613753777253169 0 -0.00044477159269918986 -0.023470563164930364 0 -0.00073833068222961963 -0.023613753777253169 0 -0.00055420525008450649 -0.023709604323955715 0 -0.00049954552307573941 -0.023863430370421601 0 -0.00064784733661223538 -0.023943740771634574 0 -0.00032534121508171312 -0.023733678863005609 0 -0.00055420525008450649 -0.023709604323955715 0 -0.00065827133056460996 -0.023942732916075359 0 -0.00073833068222961963 -0.023613753777253169 0 -0.00055420525008450649 -0.023709604323955715 0 -0.00065827133056460996 -0.023942732916075359 0 -0.00096766859240938205 -0.023855156782970215 0 -0.00073833068222961963 -0.023613753777253169 0 -0.00065827133056460996 -0.023942732916075359 0 -0.00096766859240938205 -0.023855156782970215 0 -0.00065827133056460996 -0.023942732916075359 0 -0.0006482427026072888 -0.024011553719099653 0 -0.0011604794704744082 -0.020786704527294073 0 -0.00072040240375378266 -0.023952148019702225 0 -0.0016031869329195488 -0.022022263242803122 0 -0.00091452834713262403 -0.023053245741625445 0 -0.0012160554283043741 -0.023191863087328287 0 -0.0011604794704744082 -0.020786704527294073 0 -0.00053091384987642254 -0.018625239779962811 0 3.4854860937860691e-05 -0.015157438312060102 0 0.00015543242075122395 -0.014984755147004229 0 0.00012203842082562719 -0.015007787706387513 0 -0.00064680071789927659 -0.023935638185300565 0 -0.00064403506969133663 -0.023983062068503393 0 -0.0006482427026072888 -0.024011553719099653 0 -0.00065827133056460996 -0.023942732916075359 0 -0.00064403506969133663 -0.023983062068503393 0 -0.0006482427026072888 -0.024011553719099653 0 -0.00091452834713262403 -0.023053245741625445 0 -0.00090045395794355353 -0.023499930238064449 0 -0.00064643800808780424 -0.02380627529198109 0 -0.00064680071789927659 -0.023935638185300565 0 -0.0006482427026072888 -0.024011553719099653 0 -0.00064643800808780424 -0.02380627529198109 0 -0.00072040240375378266 -0.023952148019702225 0 -0.00071415404907965011 -0.023610496216123524 0 -0.00053091384987642254 -0.018625239779962811 0 -0.00023249503100745161 -0.0195719715169138 0 0.00015543242075122395 -0.014984755147004229 0 0.00015542780603914103 -0.014981602565968562 0 0.00021491936632384593 -0.015028117112157048 0 -0.00090045395794355353 -0.023499930238064449 0 -0.0012160554283043741 -0.023191863087328287 0 -0.00085192188707279245 -0.023850353061469518 0 0.00015543242075122395 -0.014984755147004229 0 0.00015542780603914103 -0.014981602565968562 0 0.00012203842082562719 -0.015007787706387513 0 -0.00091452834713262403 -0.023053245741625445 0 -0.00090045395794355353 -0.023499930238064449 0 -0.0012160554283043741 -0.023191863087328287 0 0.00015542780603914103 -0.014981602565968562 0 0.00012512004175134727 -0.014945195372520842 0 0.00014464550637161645 -0.014995459365010717 0 0.00015542780603914103 -0.014981602565968562 0 0.00012512004175134727 -0.014945195372520842 0 0.00012203842082562719 -0.015007787706387513 0 0.00012512004175134727 -0.014945195372520842 0 4.9217333251683186e-05 -0.014829143893539398 0 0.00022926665915505383 -0.015016068812373011 0 0.00012512004175134727 -0.014945195372520842 0 0.00014464550637161645 -0.014995459365010717 0 4.9217333251683186e-05 -0.014829143893539398 0 0.00012512004175134727 -0.014945195372520842 0 0.00014066128978147265 -0.015047923533316987 0 0.00022926665915505383 -0.015016068812373011 0 3.4854860937860691e-05 -0.015157438312060102 0 0.00014066128978147265 -0.015047923533316987 0 0.00012203842082562719 -0.015007787706387513 0 0.00012512004175134727 -0.014945195372520842 0 0.00014066128978147265 -0.015047923533316987 0 0.00012203842082562719 -0.015007787706387513 0 0.00024646009821203447 -0.015119941638164672 0 0.00030447002109408892 -0.015270540106348103 0 0.00012755467749716841 -0.015233260332903734 0 0.00014464550637161645 -0.014995459365010717 0 0.00024646009821203447 -0.015119941638164672 0 0.00012755467749716841 -0.015233260332903734 0 3.8165907747849617e-05 -0.015038480353160667 0 0.00012755467749716841 -0.015233260332903734 0 -0.00015642428371934249 -0.015103219750454358 0 3.8165907747849617e-05 -0.015038480353160667 0 0.00014464550637161645 -0.014995459365010717 0 0.00012755467749716841 -0.015233260332903734 0 3.8165907747849617e-05 -0.015038480353160667 0 0.00014464550637161645 -0.014995459365010717 0 4.9217333251683186e-05 -0.014829143893539398 0 0.00014464550637161645 -0.014995459365010717 0 0.00021491936632384593 -0.015028117112157048 0 0.00024646009821203447 -0.015119941638164672 0 0.00015542780603914103 -0.014981602565968562 0 0.00014464550637161645 -0.014995459365010717 0 0.00021491936632384593 -0.015028117112157048 0 0.00015543242075122395 -0.014984755147004229 0 0.00021491936632384593 -0.015028117112157048 0 0.00037595626781239736 -0.015105302023539137 0 0.00021491936632384593 -0.015028117112157048 0 0.00037595626781239736 -0.015105302023539137 0 0.00024646009821203447 -0.015119941638164672 0 -0.00085192188707279245 -0.023850353061469518 0 -0.00064733041774968163 -0.023911115964059884 0 -0.00064643800808780424 -0.02380627529198109 0 -0.00090045395794355353 -0.023499930238064449 0 -0.00085192188707279245 -0.023850353061469518 0 -0.00064643800808780424 -0.02380627529198109 0 -0.00085192188707279245 -0.023850353061469518 0 -0.00072759292732432063 -0.023965666759557358 0 -0.00064733041774968163 -0.023911115964059884 0 -0.00023249503100745161 -0.0195719715169138 0 -8.9835284981575227e-05 -0.019677553232221763 0 0.00037595626781239736 -0.015105302023539137 0 0.00030447002109408892 -0.015270540106348103 0 0.0005523215272243803 -0.015389463523277478 0 0.00037595626781239736 -0.015105302023539137 0 0.00024646009821203447 -0.015119941638164672 0 0.00030447002109408892 -0.015270540106348103 0 0.00030447002109408892 -0.015270540106348103 0 0.0005523215272243803 -0.015389463523277478 0 0.00028775422887100579 -0.015527287702820492 0 0.0005523215272243803 -0.015389463523277478 0 0.00045020959277485722 -0.015726475909887225 0 0.00070149908117742921 -0.015731906472282058 0 0.0005523215272243803 -0.015389463523277478 0 0.00028775422887100579 -0.015527287702820492 0 0.00045020959277485722 -0.015726475909887225 0 0.00028775422887100579 -0.015527287702820492 0 0.00012755467749716841 -0.015233260332903734 0 0.00010513120634027358 -0.015526416137227741 0 0.00030447002109408892 -0.015270540106348103 0 0.00028775422887100579 -0.015527287702820492 0 0.00012755467749716841 -0.015233260332903734 0 0.00012755467749716841 -0.015233260332903734 0 -0.00015642428371934249 -0.015103219750454358 0 -5.743883664729045e-05 -0.015392280848116344 0 0.00012755467749716841 -0.015233260332903734 0 0.00010513120634027358 -0.015526416137227741 0 -5.743883664729045e-05 -0.015392280848116344 0 0.00010513120634027358 -0.015526416137227741 0 -1.3874400350931617e-05 -0.015676851153209246 0 -5.743883664729045e-05 -0.015392280848116344 0 0.00010513120634027358 -0.015526416137227741 0 -1.3874400350931617e-05 -0.015676851153209246 0 0.00020976985038402568 -0.015857332420395252 0 -7.5780837171718324e-05 -0.013988584265417197 0 -6.1767090871776744e-05 -0.013832610435795022 0 0.00049849148572869413 -0.014150940864334521 0 7.5130194066828841e-06 -0.01470025141093167 0 -0.00010096096844023398 -0.015370533152369709 0 0.00028775422887100579 -0.015527287702820492 0 0.00010513120634027358 -0.015526416137227741 0 0.00020976985038402568 -0.015857332420395252 0 -0.00027384450019561185 -0.014404394042938915 0 -0.00044599147677138183 -0.014455888895686263 0 -0.00031009379982605538 -0.0145953364756428 0 -0.00027384450019561185 -0.014404394042938915 0 -0.00031009379982605538 -0.0145953364756428 0 -0.00021249809801230231 -0.014578790335040099 0 -0.00053184423273122151 -0.014247594745576211 0 -0.00044599147677138183 -0.014455888895686263 0 -0.00074496198381289653 -0.014390834644618433 0 -0.00053184423273122151 -0.014247594745576211 0 -0.00027384450019561185 -0.014404394042938915 0 -0.00044599147677138183 -0.014455888895686263 0 -0.0003106143655027546 -0.013991052312662422 0 -0.00010096096844023398 -0.015370533152369709 0 -0.00023485733437241492 -0.014288568832014193 0 -0.00024303361526931269 -0.014374051437773903 0 -0.00044599147677138183 -0.014455888895686263 0 -0.00054820161820641987 -0.014601750273757817 0 -0.00031009379982605538 -0.0145953364756428 0 -0.00044599147677138183 -0.014455888895686263 0 -0.00054820161820641987 -0.014601750273757817 0 -0.00074496198381289653 -0.014390834644618433 0 7.6037068135990818e-05 -0.013725598514716173 0 -0.00014070762185955249 -0.01412537416087328 0 -8.4008115309096309e-05 -0.01359820492598951 0 -0.00014070762185955249 -0.01412537416087328 0 -8.4008115309096309e-05 -0.01359820492598951 0 -0.00012763472200721373 -0.014386971166537182 0 -7.2426596205583692e-07 -0.013837768433458813 0 -8.4008115309096309e-05 -0.01359820492598951 0 -0.00012763472200721373 -0.014386971166537182 0 7.6037068135990818e-05 -0.013725598514716173 0 -8.4008115309096309e-05 -0.01359820492598951 0 1.3001799073749888e-06 -0.012478104113189826 0 -7.2426596205583692e-07 -0.013837768433458813 0 -8.4008115309096309e-05 -0.01359820492598951 0 1.3001799073749888e-06 -0.012478104113189826 0 -3.1608877671699976e-07 -0.01519975422191326 0 -0.00012763472200721373 -0.014386971166537182 0 -0.00011008566958623546 -0.014870156396309838 0 -3.1608877671699976e-07 -0.01519975422191326 0 -0.00011008566958623546 -0.014870156396309838 0 -5.120299723760051e-05 -0.015339346058054844 0 -7.2426596205583692e-07 -0.013837768433458813 0 -3.1608877671699976e-07 -0.01519975422191326 0 -0.00012763472200721373 -0.014386971166537182 0 -0.00024303361526931269 -0.014374051437773903 0 -0.00019641381356860877 -0.014585500997370647 0 -0.00014070762185955249 -0.01412537416087328 0 -0.00012763472200721373 -0.014386971166537182 0 -0.00015452792775945228 -0.014656310948930282 0 -0.00012763472200721373 -0.014386971166537182 0 -0.00015452792775945228 -0.014656310948930282 0 -0.00011008566958623546 -0.014870156396309838 0 -0.00031009379982605538 -0.0145953364756428 0 -0.00021249809801230231 -0.014578790335040099 0 -0.00015452792775945228 -0.014656310948930282 0 -0.00021249809801230231 -0.014578790335040099 0 -0.00015452792775945228 -0.014656310948930282 0 -9.8784709887322924e-05 -0.014726754770209257 0 -0.00015452792775945228 -0.014656310948930282 0 -9.8784709887322924e-05 -0.014726754770209257 0 -0.00011008566958623546 -0.014870156396309838 0 -9.8784709887322924e-05 -0.014726754770209257 0 -0.00011008566958623546 -0.014870156396309838 0 -5.120299723760051e-05 -0.015339346058054844 0 5.7997356358908786e-05 -0.017244773533935807 0 -2.6018326118079885e-05 -0.01697746840223718 0 0.00079556079114064936 -0.017188410347707937 0 -0.00027384450019561185 -0.014404394042938915 0 -0.00021249809801230231 -0.014578790335040099 0 -9.8784709887322924e-05 -0.014726754770209257 0 -0.00081775995149695505 -0.016751856008616429 0 5.7997356358908786e-05 -0.017244773533935807 0 -2.6018326118079885e-05 -0.01697746840223718 0 -0.00010096096844023398 -0.015370533152369709 0 -0.00015239430864714769 -0.01571768236719763 0 -0.00010096096844023398 -0.015370533152369709 0 0.00026986126945216087 -0.016168764015973284 0 0.00020976985038402568 -0.015857332420395252 0 0.00049760201900933706 -0.015998022017004492 0 0.00045020959277485722 -0.015726475909887225 0 0.00028775422887100579 -0.015527287702820492 0 0.00020976985038402568 -0.015857332420395252 0 0.00045020959277485722 -0.015726475909887225 0 0.00049760201900933706 -0.015998022017004492 0 0.00045020959277485722 -0.015726475909887225 0 0.00070149908117742921 -0.015731906472282058 0 -0.00067153477371537605 -0.024066589782206032 0 -0.00055113788071048657 -0.024136986965329052 0 -0.00061968140272702639 -0.024182196275606055 0 -0.00067153477371537605 -0.024066589782206032 0 -0.00055113788071048657 -0.024136986965329052 0 -0.0006030943594530347 -0.02402422181716863 0 -0.00055113788071048657 -0.024136986965329052 0 -0.00061968140272702639 -0.024182196275606055 0 -0.00048479702361514529 -0.024233809642319314 0 0.00026986126945216087 -0.016168764015973284 0 0.00016053412041899383 -0.020564960579445211 0 -3.959998527546219e-06 -0.019814734535068095 0 0.00016053412041899383 -0.020564960579445211 0 0.00049760201900933706 -0.015998022017004492 0 0.00070149908117742921 -0.015731906472282058 0 0.0008353970589879947 -0.016134509879681343 0 -9.8784709887322924e-05 -0.014726754770209257 0 0.0001867744281977973 -0.015672330924539266 0 -5.120299723760051e-05 -0.015339346058054844 0 5.7997356358908786e-05 -0.017244773533935807 0 0.00079556079114064936 -0.017188410347707937 0 0.00096990696644676981 -0.017723043159343279 0 -0.00015239430864714769 -0.01571768236719763 0 0.00040144492056390293 -0.018596258013812324 0 -0.00063726079537003519 -0.02409652779542679 0 -0.00055968281818802345 -0.024210118193692235 0 -0.00048479702361514529 -0.024233809642319314 0 0.00016053412041899383 -0.020564960579445211 0 0.00040144492056390293 -0.018596258013812324 0 0.00016053412041899383 -0.020564960579445211 0 -0.00072571742380198089 -0.025246044817974666 0 -0.00063726079537003519 -0.02409652779542679 0 -0.00055968281818802345 -0.024210118193692235 0 -0.00061183463191925478 -0.024211715015448824 0 0.00040144492056390293 -0.018596258013812324 0 -0.0001024146962447602 -0.019593790140499775 0 0.0001867744281977973 -0.015672330924539266 0 6.3733973145161399e-05 -0.016654675383251272 0 7.6662941496298304e-06 -0.016009146300523667 0 0.00040144492056390293 -0.018596258013812324 0 -0.00014196745599143526 -0.016102980818301953 0 0.00012836606005599025 -0.016887430576329493 0 9.4732217688768684e-06 -0.017104005766126064 0 -7.2423434294498431e-06 -0.017135508630350304 0 -0.00055968281818802345 -0.024210118193692235 0 -0.00061183463191925478 -0.024211715015448824 0 -0.00051301277886844085 -0.024284877223040291 0 6.3733973145161399e-05 -0.016654675383251272 0 3.9720809881252094e-07 -0.016561300494853482 0 -9.4011095715907311e-09 -0.017923649722608664 0 0.00012836606005599025 -0.016887430576329493 0 6.3733973145161399e-05 -0.016654675383251272 0 9.4732217688768684e-06 -0.017104005766126064 0 6.3733973145161399e-05 -0.016654675383251272 0 3.9720809881252094e-07 -0.016561300494853482 0 7.6662941496298304e-06 -0.016009146300523667 0 -3.1608877671699976e-07 -0.01519975422191326 0 3.9720809881252094e-07 -0.016561300494853482 0 7.6662941496298304e-06 -0.016009146300523667 0 0.0001867744281977973 -0.015672330924539266 0 -5.120299723760051e-05 -0.015339346058054844 0 7.6662941496298304e-06 -0.016009146300523667 0 -3.1608877671699976e-07 -0.01519975422191326 0 -5.120299723760051e-05 -0.015339346058054844 0 7.6662941496298304e-06 -0.016009146300523667 0 -1.4681150760596026e-05 -0.018461740807361734 0 -9.4011095715907311e-09 -0.017923649722608664 0 -2.6566482627734078e-08 -0.019285546078262814 0 -1.4681150760596026e-05 -0.018461740807361734 0 9.2885270713142752e-06 -0.017929464745260568 0 3.8631042684435274e-05 -0.017634870566953526 0 -0.00028528968887579374 -0.021504120366831744 0 -0.0001024146962447602 -0.019593790140499775 0 -1.4681150760596026e-05 -0.018461740807361734 0 -9.4011095715907311e-09 -0.017923649722608664 0 9.2885270713142752e-06 -0.017929464745260568 0 -9.4011095715907311e-09 -0.017923649722608664 0 9.2885270713142752e-06 -0.017929464745260568 0 2.029706834429798e-05 -0.017236273926521967 0 6.3733973145161399e-05 -0.016654675383251272 0 -9.4011095715907311e-09 -0.017923649722608664 0 9.4732217688768684e-06 -0.017104005766126064 0 -0.00040931716766183632 -0.024338177227038901 0 -0.00051301277886844085 -0.024284877223040291 0 -0.00048479702361514529 -0.024233809642319314 0 -0.00036300146572515067 -0.018252573874100883 0 -0.0001024146962447602 -0.019593790140499775 0 -9.4011095715907311e-09 -0.017923649722608664 0 9.4732217688768684e-06 -0.017104005766126064 0 2.029706834429798e-05 -0.017236273926521967 0 -0.00012978795200397101 -0.019429226154239625 0 -0.0001024146962447602 -0.019593790140499775 0 -0.00055968281818802345 -0.024210118193692235 0 -0.00051301277886844085 -0.024284877223040291 0 -0.00048479702361514529 -0.024233809642319314 0 -0.00040931716766183632 -0.024338177227038901 0 -0.00048479702361514529 -0.024233809642319314 0 -0.00039174325163269028 -0.024264839029049138 0 -0.00048479702361514529 -0.024233809642319314 0 -0.00044002145741129772 -0.024192159807794784 0 -0.00039174325163269028 -0.024264839029049138 0 -0.00055113788071048657 -0.024136986965329052 0 -0.00048479702361514529 -0.024233809642319314 0 -0.00044002145741129772 -0.024192159807794784 0 -0.00055113788071048657 -0.024136986965329052 0 -0.00044002145741129772 -0.024192159807794784 0 -0.00048462451194399025 -0.024108520180319663 0 -0.00044002145741129772 -0.024192159807794784 0 -0.00048462451194399025 -0.024108520180319663 0 -0.00040396073418392636 -0.024159848403439491 0 -0.00048462451194399025 -0.024108520180319663 0 -0.00037183127138427251 -0.024095243654776687 0 -0.00040396073418392636 -0.024159848403439491 0 -0.00048462451194399025 -0.024108520180319663 0 -0.00051045556312934431 -0.02402665520205961 0 -0.00037183127138427251 -0.024095243654776687 0 -0.00051045556312934431 -0.02402665520205961 0 -0.00048924006075938694 -0.023960539570318372 0 -0.00037183127138427251 -0.024095243654776687 0 -0.00051045556312934431 -0.02402665520205961 0 -0.0006030943594530347 -0.02402422181716863 0 -0.00058392838328954035 -0.023946918514941847 0 -0.00055113788071048657 -0.024136986965329052 0 -0.00048462451194399025 -0.024108520180319663 0 -0.0006030943594530347 -0.02402422181716863 0 -0.00048462451194399025 -0.024108520180319663 0 -0.00051045556312934431 -0.02402665520205961 0 -0.0006030943594530347 -0.02402422181716863 0 -8.9835284981575227e-05 -0.019677553232221763 0 -3.959998527546219e-06 -0.019814734535068095 0 -0.00072759292732432063 -0.023965666759557358 0 -0.00067153477371537605 -0.024066589782206032 0 -0.0006030943594530347 -0.02402422181716863 0 -0.00072759292732432063 -0.023965666759557358 0 -0.0006030943594530347 -0.02402422181716863 0 -0.00064733041774968163 -0.023911115964059884 0 -0.0006030943594530347 -0.02402422181716863 0 -0.00064733041774968163 -0.023911115964059884 0 -0.00058392838328954035 -0.023946918514941847 0 -0.00064733041774968163 -0.023911115964059884 0 -0.00062869466968276948 -0.023877376058145335 0 -0.00058392838328954035 -0.023946918514941847 0 -0.00064733041774968163 -0.023911115964059884 0 -0.00064643800808780424 -0.02380627529198109 0 -0.00062869466968276948 -0.023877376058145335 0 -0.00065560451927585328 -0.023902581286887933 0 -0.00064643800808780424 -0.02380627529198109 0 -0.00062869466968276948 -0.023877376058145335 0 -0.00062869466968276948 -0.023877376058145335 0 -0.00057211699897517624 -0.023896030899105372 0 -0.00058392838328954035 -0.023946918514941847 0 -0.00063808566445861426 -0.023874966060913713 0 -0.00062869466968276948 -0.023877376058145335 0 -0.00057211699897517624 -0.023896030899105372 0 -0.00057211699897517624 -0.023896030899105372 0 -0.00049293956063272597 -0.023865603367103499 0 -0.00048924006075938694 -0.023960539570318372 0 -0.00057211699897517624 -0.023896030899105372 0 -0.00048924006075938694 -0.023960539570318372 0 -0.00058392838328954035 -0.023946918514941847 0 -0.00051045556312934431 -0.02402665520205961 0 -0.00048924006075938694 -0.023960539570318372 0 -0.00058392838328954035 -0.023946918514941847 0 -0.00034892756230490984 -0.023936013385558737 0 -0.00021310864235984529 -0.024042971780312443 0 -0.00037183127138427251 -0.024095243654776687 0 -5.9376565803726397e-05 -0.024794603804111845 0 7.6998190385211662e-05 -0.024771480744016302 0 8.4663015553017084e-05 -0.024820224542292386 0 -0.00020671105812187989 -0.024362551910218622 0 -6.8202313359423894e-05 -0.024429841145778352 0 -0.00048924006075938694 -0.023960539570318372 0 -0.00034892756230490984 -0.023936013385558737 0 -0.00037183127138427251 -0.024095243654776687 0 -0.00012269323049083521 -0.02458421470539934 0 -0.00030722908746910537 -0.02463210492063396 0 -5.9376565803726397e-05 -0.024794603804111845 0 -0.00039610326137627205 -0.024250342362786698 0 -0.00020671105812187989 -0.024362551910218622 0 -0.00049293956063272597 -0.023865603367103499 0 -0.00048924006075938694 -0.023960539570318372 0 -0.00034892756230490984 -0.023936013385558737 0 2.6085233313609811e-05 -0.024640592158257719 0 -5.9376565803726397e-05 -0.024794603804111845 0 7.6998190385211662e-05 -0.024771480744016302 0 2.6085233313609811e-05 -0.024640592158257719 0 -0.00012269323049083521 -0.02458421470539934 0 -5.9376565803726397e-05 -0.024794603804111845 0 4.3248254059883493e-05 -0.024875132635808116 0 0.00011021232454459163 -0.02474637454132473 0 9.5435667259222305e-05 -0.024817329328845981 0 0.00011021232454459163 -0.02474637454132473 0 7.6998190385211662e-05 -0.024771480744016302 0 9.5435667259222305e-05 -0.024817329328845981 0 7.6998190385211662e-05 -0.024771480744016302 0 9.5435667259222305e-05 -0.024817329328845981 0 8.4663015553017084e-05 -0.024820224542292386 0 -0.00021310864235984529 -0.024042971780312443 0 -7.7002905734668709e-05 -0.024198538562913957 0 -0.00022832209012008421 -0.024198060601390792 0 -6.8202313359423894e-05 -0.024429841145778352 0 1.0235417950072415e-05 -0.024478420744853267 0 9.5435667259222305e-05 -0.024817329328845981 0 8.4663015553017084e-05 -0.024820224542292386 0 0.00012478327690325976 -0.024763684873958264 0 -7.7002905734668709e-05 -0.024198538562913957 0 -0.00013516462219720306 -0.024276306312484203 0 -6.1017189322846973e-05 -0.024377315588255649 0 -7.7002905734668709e-05 -0.024198538562913957 0 -0.00013516462219720306 -0.024276306312484203 0 -0.00022832209012008421 -0.024198060601390792 0 -0.00022832209012008421 -0.024198060601390792 0 -0.00037183127138427251 -0.024095243654776687 0 -0.00031450136074698005 -0.02424256967986313 0 -0.00021310864235984529 -0.024042971780312443 0 -0.00022832209012008421 -0.024198060601390792 0 -0.00037183127138427251 -0.024095243654776687 0 -0.00037183127138427251 -0.024095243654776687 0 -0.00040396073418392636 -0.024159848403439491 0 -0.00031450136074698005 -0.02424256967986313 0 -0.00044002145741129772 -0.024192159807794784 0 -0.00040396073418392636 -0.024159848403439491 0 -0.00031450136074698005 -0.02424256967986313 0 -0.00022832209012008421 -0.024198060601390792 0 -0.00031450136074698005 -0.02424256967986313 0 -0.00022013794270150125 -0.024298352681491154 0 -0.00031450136074698005 -0.02424256967986313 0 -0.00031063342666427899 -0.024319173802417562 0 -0.00023604109011414768 -0.024328460029096759 0 -0.00031450136074698005 -0.02424256967986313 0 -0.00023604109011414768 -0.024328460029096759 0 -0.00022013794270150125 -0.024298352681491154 0 -0.00031450136074698005 -0.02424256967986313 0 -0.00039174325163269028 -0.024264839029049138 0 -0.00031063342666427899 -0.024319173802417562 0 -0.00044002145741129772 -0.024192159807794784 0 -0.00031450136074698005 -0.02424256967986313 0 -0.00039174325163269028 -0.024264839029049138 0 -0.00040931716766183632 -0.024338177227038901 0 -0.00039174325163269028 -0.024264839029049138 0 -0.00031063342666427899 -0.024319173802417562 0 -0.00031063342666427899 -0.024319173802417562 0 -0.00024325927606926384 -0.024359554855380612 0 -0.00023604109011414768 -0.024328460029096759 0 -0.00019992454752205805 -0.02203103360483168 0 -0.00015859044821757678 -0.021690543105113775 0 -0.0002999346421093451 -0.024381744273559207 0 -0.00024325927606926384 -0.024359554855380612 0 -0.00020602322361082265 -0.024395080286565413 0 -0.00031063342666427899 -0.024319173802417562 0 -0.0002999346421093451 -0.024381744273559207 0 -0.00024325927606926384 -0.024359554855380612 0 3.0776449558479563e-06 -0.019594843126806934 0 -2.6566482627734078e-08 -0.019285546078262814 0 7.2416862688355626e-08 -0.020647172602508139 0 -1.4681150760596026e-05 -0.018461740807361734 0 3.0776449558479563e-06 -0.019594843126806934 0 -2.6566482627734078e-08 -0.019285546078262814 0 -0.00028528968887579374 -0.021504120366831744 0 -0.00019992454752205805 -0.02203103360483168 0 -0.00040931716766183632 -0.024338177227038901 0 -0.00031063342666427899 -0.024319173802417562 0 -0.0002999346421093451 -0.024381744273559207 0 -0.00015859044821757678 -0.021690543105113775 0 -6.1629005544742817e-06 -0.023864658179651312 0 2.0782661561730299e-06 -0.021474471387383058 0 0.0009472341922282467 -0.021576273968632157 0 5.6680255041038289e-05 -0.022894322684511536 0 3.5558621583693611e-07 -0.021468189479462239 0 -0.00015859044821757678 -0.021690543105113775 0 -0.00020602322361082265 -0.024395080286565413 0 -0.000195303432771331 -0.024359979886183943 0 -0.00013439143403008215 -0.024372129634876834 0 3.0776449558479563e-06 -0.019594843126806934 0 2.8408316790828384e-06 -0.020688181880384886 0 7.2416862688355626e-08 -0.020647172602508139 0 -0.00024325927606926384 -0.024359554855380612 0 -0.00020602322361082265 -0.024395080286565413 0 -0.000195303432771331 -0.024359979886183943 0 7.0131632091735349e-10 -0.021468063740629938 0 -1.2610562714980797e-07 -0.020718998867333832 0 -2.9767498952461612e-09 -0.020647814395313289 0 -0.00015859044821757678 -0.021690543105113775 0 6.8918149586730711e-07 -0.020650855749740498 0 -0.00024325927606926384 -0.024359554855380612 0 -0.000195303432771331 -0.024359979886183943 0 -0.00023604109011414768 -0.024328460029096759 0 -0.000195303432771331 -0.024359979886183943 0 -0.00023604109011414768 -0.024328460029096759 0 -0.00016573095672000782 -0.024345115595997637 0 -0.000195303432771331 -0.024359979886183943 0 -0.00013439143403008215 -0.024372129634876834 0 -0.00016573095672000782 -0.024345115595997637 0 -0.00016573095672000782 -0.024345115595997637 0 -0.00013401640747385198 -0.024327947289971358 0 -4.0550204418137287e-05 -0.024392733403476571 0 -0.00013439143403008215 -0.024372129634876834 0 -0.00016573095672000782 -0.024345115595997637 0 -4.0550204418137287e-05 -0.024392733403476571 0 -0.00022013794270150125 -0.024298352681491154 0 -0.00016573095672000782 -0.024345115595997637 0 -0.00013401640747385198 -0.024327947289971358 0 -0.00023604109011414768 -0.024328460029096759 0 -0.00022013794270150125 -0.024298352681491154 0 -0.00016573095672000782 -0.024345115595997637 0 -0.00013516462219720306 -0.024276306312484203 0 -0.00022832209012008421 -0.024198060601390792 0 -0.00013401640747385198 -0.024327947289971358 0 -0.00022832209012008421 -0.024198060601390792 0 -0.00022013794270150125 -0.024298352681491154 0 -0.00013401640747385198 -0.024327947289971358 0 -0.00013516462219720306 -0.024276306312484203 0 -0.00013401640747385198 -0.024327947289971358 0 -6.1017189322846973e-05 -0.024377315588255649 0 2.0782661561730299e-06 -0.021474471387383058 0 5.6680255041038289e-05 -0.022894322684511536 0 -1.2634057765268156e-06 -0.024996965503344976 0 -0.00013401640747385198 -0.024327947289971358 0 -6.1017189322846973e-05 -0.024377315588255649 0 -4.0550204418137287e-05 -0.024392733403476571 0 5.6680255041038289e-05 -0.022894322684511536 0 9.2373640729375142e-07 -0.024034172753758284 0 -1.2634057765268156e-06 -0.024996965503344976 0 -2.3126404060807791e-05 -0.024570570820068971 0 -1.2634057765268156e-06 -0.024996965503344976 0 1.954778983343922e-07 -0.024999832859928139 0 -6.1017189322846973e-05 -0.024377315588255649 0 -4.0550204418137287e-05 -0.024392733403476571 0 1.8897489576086165e-05 -0.024529702204957357 0 -5.0561605472233432e-05 -0.024551412637088325 0 -3.8040423821700379e-05 -0.024185878280153828 0 -2.3126404060807791e-05 -0.024570570820068971 0 -4.0550204418137287e-05 -0.024392733403476571 0 1.8897489576086165e-05 -0.024529702204957357 0 -6.1629005544742817e-06 -0.023864658179651312 0 -3.8040423821700379e-05 -0.024185878280153828 0 -2.3126404060807791e-05 -0.024570570820068971 0 9.2373640729375142e-07 -0.024034172753758284 0 -1.2634057765268156e-06 -0.024996965503344976 0 1.954778983343922e-07 -0.024999832859928139 0 -1.3210060630412785e-05 -0.024762794205845689 0 -1.721518565269822e-06 -0.024863359391163371 0 -2.3126404060807791e-05 -0.024570570820068971 0 1.954778983343922e-07 -0.024999832859928139 0 -1.3210060630412785e-05 -0.024762794205845689 0 1.8897489576086165e-05 -0.024529702204957357 0 -1.3210060630412785e-05 -0.024762794205845689 0 5.063120801852772e-05 -0.024783487034325504 0 -2.3126404060807791e-05 -0.024570570820068971 0 1.8897489576086165e-05 -0.024529702204957357 0 -1.3210060630412785e-05 -0.024762794205845689 0 0.00012478327690325976 -0.024763684873958264 0 1.8897489576086165e-05 -0.024529702204957357 0 5.063120801852772e-05 -0.024783487034325504 0 -7.7002905734668709e-05 -0.024198538562913957 0 -6.1017189322846973e-05 -0.024377315588255649 0 1.8897489576086165e-05 -0.024529702204957357 0 1.0235417950072415e-05 -0.024478420744853267 0 7.8959885939125915e-06 -0.024511491315824425 0 9.5435667259222305e-05 -0.024817329328845981 0 0.00012478327690325976 -0.024763684873958264 0 5.063120801852772e-05 -0.024783487034325504 0 -1.3210060630412785e-05 -0.024762794205845689 0 5.063120801852772e-05 -0.024783487034325504 0 -1.721518565269822e-06 -0.024863359391163371 0 9.5435667259222305e-05 -0.024817329328845981 0 5.063120801852772e-05 -0.024783487034325504 0 -1.721518565269822e-06 -0.024863359391163371 0 4.3248254059883493e-05 -0.024875132635808116 0 9.5435667259222305e-05 -0.024817329328845981 0 -1.721518565269822e-06 -0.024863359391163371 0 4.3248254059883493e-05 -0.024875132635808116 0 5.9869083941069328e-06 -0.024921300575090552 0 -1.721518565269822e-06 -0.024863359391163371 0 5.9869083941069328e-06 -0.024921300575090552 0 -6.5385064235011138e-08 -0.024999819655690737 0 -1.721518565269822e-06 -0.024863359391163371 0 1.954778983343922e-07 -0.024999832859928139 0 -6.5385064235011138e-08 -0.024999819655690737 0 -1.721518565269822e-06 -0.024863359391163371 0 5.2883389156357402e-06 -0.024948377872013875 0 5.9869083941069328e-06 -0.024921300575090552 0 -6.5385064235011138e-08 -0.024999819655690737 0 -0.0003839376275745314 -0.013298643043038403 0 -0.00041296673517657106 -0.013281976458361057 0 -0.00036965160855502677 -0.013239815139910925 0 -0.0003839376275745314 -0.013298643043038403 0 -0.00036863174312543224 -0.013276823696006045 0 -0.00036965160855502677 -0.013239815139910925 0 -0.0003475630144480292 -0.013230751777344812 0 -0.00036863174312543224 -0.013276823696006045 0 -0.00036965160855502677 -0.013239815139910925 0 -0.0003475630144480292 -0.013230751777344812 0 -0.00036863174312543224 -0.013276823696006045 0 -0.00034919018079469566 -0.013256401997119763 0 -0.00036863174312543224 -0.013276823696006045 0 -0.00037201514597907823 -0.013287443190745775 0 -0.00034919018079469566 -0.013256401997119763 0 -0.00036863174312543224 -0.013276823696006045 0 -0.00037201514597907823 -0.013287443190745775 0 -0.0003860945917589523 -0.013312662599835417 0 -0.00035001212791886129 -0.013284657273913682 0 -0.00039156197625567885 -0.01329297667397077 0 -0.00040712043054714483 -0.013278007382118722 0 -0.00037201514597907823 -0.013287443190745775 0 -0.00035001212791886129 -0.013284657273913682 0 -0.00039156197625567885 -0.01329297667397077 0 -0.00037201514597907823 -0.013287443190745775 0 -0.0003860945917589523 -0.013312662599835417 0 -0.00039156197625567885 -0.01329297667397077 0 -0.0003860945917589523 -0.013312662599835417 0 -0.00039048135882725868 -0.013299715602726017 0 -0.00039156197625567885 -0.01329297667397077 0 -0.0003839376275745314 -0.013298643043038403 0 -0.0003860945917589523 -0.013312662599835417 0 -0.00039916707993237948 -0.013353520247896225 0 -0.0003860945917589523 -0.013312662599835417 0 -0.00039916707993237948 -0.013353520247896225 0 -0.00038558480288423247 -0.013335069448299286 0 -0.0003839376275745314 -0.013298643043038403 0 -0.00036863174312543224 -0.013276823696006045 0 -0.0003860945917589523 -0.013312662599835417 0 -0.00039916707993237948 -0.013353520247896225 0 -0.00044060257139237505 -0.013461415256103009 0 -0.00038558480288423247 -0.013335069448299286 0 -0.00039916707993237948 -0.013353520247896225 0 -0.00044060257139237505 -0.013461415256103009 0 -0.00047400040939710387 -0.013322768936115404 0 -0.00044060257139237505 -0.013461415256103009 0 -0.00047400040939710387 -0.013322768936115404 0 -0.00066887783236856634 -0.013418088861351655 0 -0.00039916707993237948 -0.013353520247896225 0 -0.00047400040939710387 -0.013322768936115404 0 -0.00041296673517657106 -0.013281976458361057 0 -0.0003839376275745314 -0.013298643043038403 0 -0.00039916707993237948 -0.013353520247896225 0 -0.00041296673517657106 -0.013281976458361057 0 -0.0009293426361286195 -0.014215844094760656 0 -0.00088707576139695577 -0.014268351468674717 0 -0.00093439764538703993 -0.01421819836944053 0 -0.00041296673517657106 -0.013281976458361057 0 -0.00045358872941355077 -0.013192670756437552 0 -0.00038805240293386846 -0.013139097228333209 0 -0.00047400040939710387 -0.013322768936115404 0 -0.00041296673517657106 -0.013281976458361057 0 -0.00045358872941355077 -0.013192670756437552 0 -0.00047400040939710387 -0.013322768936115404 0 -0.00045358872941355077 -0.013192670756437552 0 -0.00056370755715801969 -0.013215690194435383 0 -0.00045358872941355077 -0.013192670756437552 0 -0.00056370755715801969 -0.013215690194435383 0 -0.00047655899671833132 -0.013070608296042107 0 -0.00094427675800423173 -0.014423512049588711 0 -0.00056260595855961101 -0.0099539542454151857 0 -0.0002900878681474797 -0.0096053902744235916 0 -0.00056260595855961101 -0.0099539542454151857 0 -0.00045358872941355077 -0.013192670756437552 0 -0.00038805240293386846 -0.013139097228333209 0 -0.00047655899671833132 -0.013070608296042107 0 -0.00015581520615405307 -0.0061627283118865584 0 0.00020634600354363481 -0.0060830784884286808 0 -6.085814230323209e-05 -0.0057921498515582032 0 -0.0002900878681474797 -0.0096053902744235916 0 -3.8712290277575327e-06 -0.009849671465352235 0 -0.00041296673517657106 -0.013281976458361057 0 -0.00038805240293386846 -0.013139097228333209 0 -0.00036965160855502677 -0.013239815139910925 0 -0.00038805240293386846 -0.013139097228333209 0 -0.00036965160855502677 -0.013239815139910925 0 -0.00034462039495004019 -0.013179229914456811 0 -0.0003475630144480292 -0.013230751777344812 0 -0.00036965160855502677 -0.013239815139910925 0 -0.00034462039495004019 -0.013179229914456811 0 0.00034708323587958083 -0.0064495814050425822 0 0.00020634600354363481 -0.0060830784884286808 0 0.00084766999068773238 -0.006480124396886615 0 0.00020634600354363481 -0.0060830784884286808 0 0.00050709501269290168 -0.0060101945777968433 0 0.0003991913816798343 -0.0058992956435476055 0 -0.00015581520615405307 -0.0061627283118865584 0 0.00034708323587958083 -0.0064495814050425822 0 0.00020634600354363481 -0.0060830784884286808 0 0.00020634600354363481 -0.0060830784884286808 0 0.00050709501269290168 -0.0060101945777968433 0 0.00068291632991278968 -0.0061511745578515051 0 0.00023123015731266313 -0.0060913182151239543 0 0.00074264042823972182 -0.0062967466915465342 0 0.00050709501269290168 -0.0060101945777968433 0 0.00067615262682343589 -0.0060095557023217916 0 0.00068291632991278968 -0.0061511745578515051 0 0.00067615262682343589 -0.0060095557023217916 0 0.00081862688953175948 -0.0060412010665927404 0 0.00068291632991278968 -0.0061511745578515051 0 0.00067615262682343589 -0.0060095557023217916 0 0.00074909904641886217 -0.0058953214004911474 0 0.00059939636234470348 -0.0058496883781741687 0 0.00050709501269290168 -0.0060101945777968433 0 0.00067615262682343589 -0.0060095557023217916 0 0.00059939636234470348 -0.0058496883781741687 0 0.00074909904641886217 -0.0058953214004911474 0 0.00081862688953175948 -0.0060412010665927404 0 0.00094402827579724536 -0.0058495935246363293 0 0.00067615262682343589 -0.0060095557023217916 0 0.00074909904641886217 -0.0058953214004911474 0 0.00081862688953175948 -0.0060412010665927404 0 0.00081862688953175948 -0.0060412010665927404 0 0.00098674324327011455 -0.0059906031573443066 0 0.00094402827579724536 -0.0058495935246363293 0 0.00095223105223757201 -0.006064294958905485 0 0.00081862688953175948 -0.0060412010665927404 0 0.00098674324327011455 -0.0059906031573443066 0 0.00095223105223757201 -0.006064294958905485 0 0.00081862688953175948 -0.0060412010665927404 0 0.0009244196910106917 -0.0061372554757215545 0 0.00081862688953175948 -0.0060412010665927404 0 0.0009244196910106917 -0.0061372554757215545 0 0.00068291632991278968 -0.0061511745578515051 0 0.0009244196910106917 -0.0061372554757215545 0 0.00068291632991278968 -0.0061511745578515051 0 0.0010802294240979788 -0.0062572904226552853 0 0.00087576777056171042 -0.006714487194787299 0 0.00089715564783305799 -0.0066200386931198306 0 0.001332650070244639 -0.0067588237174539666 0 0.00084766999068773238 -0.006480124396886615 0 0.00089715564783305799 -0.0066200386931198306 0 0.001332650070244639 -0.0067588237174539666 0 0.00074264042823972182 -0.0062967466915465342 0 0.0012139415202107439 -0.0065894179592695364 0 0.00087576777056171042 -0.006714487194787299 0 0.001332650070244639 -0.0067588237174539666 0 0.001302374585116469 -0.0069065640533255805 0 0.00034708323587958083 -0.0064495814050425822 0 0.00087337007607649368 -0.0067379411937548237 0 0.00084766999068773238 -0.006480124396886615 0 -0.0003475630144480292 -0.013230751777344812 0 -0.00034462039495004019 -0.013179229914456811 0 -0.00029450226938769909 -0.013192056711833943 0 -3.8712290277575327e-06 -0.009849671465352235 0 0.00045940357659007716 -0.0096027470007535483 0 0.00045940357659007716 -0.0096027470007535483 0 0.00080520050350239847 -0.0080473668513502475 0 0.00087337007607649368 -0.0067379411937548237 0 0.00084766999068773238 -0.006480124396886615 0 0.00089715564783305799 -0.0066200386931198306 0 0.0013156264323843695 -0.0058463808391059227 0 0.0012643757638964375 -0.0060563509374089095 0 0.0015129076992596595 -0.0060951519805821077 0 0.0013156264323843695 -0.0058463808391059227 0 0.0012643757638964375 -0.0060563509374089095 0 0.0011398000116017205 -0.0059137148071443883 0 0.0012643757638964375 -0.0060563509374089095 0 0.0011398000116017205 -0.0059137148071443883 0 0.0010761920418691055 -0.0060882945748356836 0 0.0011398000116017205 -0.0059137148071443883 0 0.00098674324327011455 -0.0059906031573443066 0 0.00094402827579724536 -0.0058495935246363293 0 0.0011398000116017205 -0.0059137148071443883 0 0.0010761920418691055 -0.0060882945748356836 0 0.00098674324327011455 -0.0059906031573443066 0 0.00095223105223757201 -0.006064294958905485 0 0.0009244196910106917 -0.0061372554757215545 0 0.0010761920418691055 -0.0060882945748356836 0 0.00095223105223757201 -0.006064294958905485 0 0.0010761920418691055 -0.0060882945748356836 0 0.00098674324327011455 -0.0059906031573443066 0 0.0009244196910106917 -0.0061372554757215545 0 0.0010761920418691055 -0.0060882945748356836 0 0.0010802294240979788 -0.0062572904226552853 0 0.0010802294240979788 -0.0062572904226552853 0 0.0011777864470334748 -0.0061575263474746116 0 0.00129118477005909 -0.0062254459975821389 0 0.0010761920418691055 -0.0060882945748356836 0 0.0010802294240979788 -0.0062572904226552853 0 0.0011777864470334748 -0.0061575263474746116 0 0.0012643757638964375 -0.0060563509374089095 0 0.0010761920418691055 -0.0060882945748356836 0 0.0011777864470334748 -0.0061575263474746116 0 0.00129118477005909 -0.0062254459975821389 0 0.0014239227000353361 -0.0063828849921427049 0 0.0015129076992596595 -0.0060951519805821077 0 0.0012643757638964375 -0.0060563509374089095 0 0.00129118477005909 -0.0062254459975821389 0 0.0015129076992596595 -0.0060951519805821077 0 0.0012643757638964375 -0.0060563509374089095 0 0.0011777864470334748 -0.0061575263474746116 0 0.00129118477005909 -0.0062254459975821389 0 0.0016595564942241887 -0.0069192851888562196 0 0.0014418919934310439 -0.0069191462466356825 0 0.0016012151549287582 -0.0070145889214145718 0 0.0015974090203691518 -0.0060826403334630352 0 0.0015126750543822422 -0.0068989835697515012 0 0.001332650070244639 -0.0067588237174539666 0 0.0016698973935643051 -0.0069356408353338115 0 0.0014418919934310439 -0.0069191462466356825 0 0.0010802294240979788 -0.0062572904226552853 0 0.00129118477005909 -0.0062254459975821389 0 0.0014239227000353361 -0.0063828849921427049 0 0.0012139415202107439 -0.0065894179592695364 0 0.0015974090203691518 -0.0060826403334630352 0 0.0014418919934310439 -0.0069191462466356825 0 0.001302374585116469 -0.0069065640533255805 0 0.0016012151549287582 -0.0070145889214145718 0 0.00094260627227634884 -0.0096054878989839595 0 0.00099191894323191017 -0.010126773417752819 0 0.0016234550078573688 -0.0099136908830117863 0 0.0011156137757437458 -0.0081428245347914541 0 0.0015155610322302032 -0.0078656498911878116 0 0.00094260627227634884 -0.0096054878989839595 0 0.00099191894323191017 -0.010126773417752819 0 0.0005139398726152943 -0.010017298125461382 0 0.001332650070244639 -0.0067588237174539666 0 0.0014418919934310439 -0.0069191462466356825 0 0.001302374585116469 -0.0069065640533255805 0 0.00099191894323191017 -0.010126773417752819 0 0.00071773929716916266 -0.010420516577011436 0 0.00096703101154260382 -0.010501410685196458 0 0.00099191894323191017 -0.010126773417752819 0 0.0012829313337595846 -0.010283648233311571 0 0.00096703101154260382 -0.010501410685196458 0 0.00099191894323191017 -0.010126773417752819 0 0.0012829313337595846 -0.010283648233311571 0 0.0014786628024353338 -0.0099767833680397457 0 0.00089538229948807183 -0.010401436552672632 0 0.0015155610322302032 -0.0078656498911878116 0 0.0012829313337595846 -0.010283648233311571 0 0.0015046387443405254 -0.010188995625737543 0 0.0014711550296421824 -0.010390104287756963 0 0.0015046387443405254 -0.010188995625737543 0 0.0014711550296421824 -0.010390104287756963 0 0.0016511364679814579 -0.010273572482499433 0 0.0012829313337595846 -0.010283648233311571 0 0.0015046387443405254 -0.010188995625737543 0 0.0014786628024353338 -0.0099767833680397457 0 0.0002570082088950507 -0.0092737833477877056 0 0.0005139398726152943 -0.010017298125461382 0 1.2592651677500317e-05 -0.010103596457384215 0 0.00045940357659007716 -0.0096027470007535483 0 -0.00027911624591732854 -0.012059751423199015 0 -0.00029450226938769909 -0.013192056711833943 0 -0.00034919018079469566 -0.013256401997119763 0 -0.00035001212791886129 -0.013284657273913682 0 -0.0003475630144480292 -0.013230751777344812 0 -0.00029450226938769909 -0.013192056711833943 0 -0.00034919018079469566 -0.013256401997119763 0 0.00045940357659007716 -0.0096027470007535483 0 0.0011156137757437458 -0.0081428245347914541 0 0.0002570082088950507 -0.0092737833477877056 0 0.00094260627227634884 -0.0096054878989839595 0 0.0005139398726152943 -0.010017298125461382 0 0.0005139398726152943 -0.010017298125461382 0 0.00071773929716916266 -0.010420516577011436 0 0.00022407024126212409 -0.010579676575416868 0 0.00099191894323191017 -0.010126773417752819 0 0.0005139398726152943 -0.010017298125461382 0 0.00071773929716916266 -0.010420516577011436 0 0.0005139398726152943 -0.010017298125461382 0 1.2592651677500317e-05 -0.010103596457384215 0 0.00022407024126212409 -0.010579676575416868 0 -0.00037201514597907823 -0.013287443190745775 0 -0.00034919018079469566 -0.013256401997119763 0 -0.00035001212791886129 -0.013284657273913682 0 -0.00027911624591732854 -0.012059751423199015 0 -0.00034109868578716265 -0.012175785186405635 0 -0.00035001212791886129 -0.013284657273913682 0 -0.0004395780159867314 -0.013260617051119713 0 -0.00040712043054714483 -0.013278007382118722 0 1.2592651677500317e-05 -0.010103596457384215 0 5.84628351616633e-05 -0.011016163762647161 0 0.00022407024126212409 -0.010579676575416868 0 1.2592651677500317e-05 -0.010103596457384215 0 5.84628351616633e-05 -0.011016163762647161 0 -0.00034660232634567206 -0.011239223035476639 0 5.84628351616633e-05 -0.011016163762647161 0 -0.00034660232634567206 -0.011239223035476639 0 -1.2145072329552287e-06 -0.011391734609986772 0 5.84628351616633e-05 -0.011016163762647161 0 0.00022407024126212409 -0.010579676575416868 0 0.000330696840492298 -0.011319020426160797 0 5.84628351616633e-05 -0.011016163762647161 0 -1.2145072329552287e-06 -0.011391734609986772 0 0.000330696840492298 -0.011319020426160797 0 0.00026913948408475145 -0.010600937522872283 0 0.00092623308364782905 -0.011017551344902357 0 0.00022407024126212409 -0.010579676575416868 0 0.00065795267548315721 -0.011344917135333562 0 0.0010764480090050797 -0.011290535933153999 0 0.00071773929716916266 -0.010420516577011436 0 0.00022407024126212409 -0.010579676575416868 0 0.00084755758553472485 -0.010792413758499776 0 0.00022407024126212409 -0.010579676575416868 0 0.00065795267548315721 -0.011344917135333562 0 0.000330696840492298 -0.011319020426160797 0 0.00077493759313032335 -0.011708047251723029 0 0.0010764480090050797 -0.011290535933153999 0 0.0011429207738477398 -0.01202409569635909 0 0.00065795267548315721 -0.011344917135333562 0 0.00045365164542475987 -0.01169395156191253 0 0.000330696840492298 -0.011319020426160797 0 0.00065795267548315721 -0.011344917135333562 0 0.00077493759313032335 -0.011708047251723029 0 0.00045365164542475987 -0.01169395156191253 0 0.00065795267548315721 -0.011344917135333562 0 0.00077493759313032335 -0.011708047251723029 0 0.0010764480090050797 -0.011290535933153999 0 0.00077493759313032335 -0.011708047251723029 0 0.00045365164542475987 -0.01169395156191253 0 0.00048045929632150518 -0.012095808610849121 0 0.00045365164542475987 -0.01169395156191253 0 8.8995558660105858e-05 -0.011767425402878012 0 0.00048045929632150518 -0.012095808610849121 0 8.8995558660105858e-05 -0.011767425402878012 0 -0.00014317444497685927 -0.011941014849735488 0 -0.00031110842135104514 -0.011765515833433052 0 8.8995558660105858e-05 -0.011767425402878012 0 -0.00014317444497685927 -0.011941014849735488 0 -5.9076306528424864e-05 -0.012096548281852268 0 -0.00014317444497685927 -0.011941014849735488 0 -0.00027163700383047796 -0.012129004442514605 0 -0.00031110842135104514 -0.011765515833433052 0 8.8995558660105858e-05 -0.011767425402878012 0 -1.2145072329552287e-06 -0.011391734609986772 0 -0.00031110842135104514 -0.011765515833433052 0 -0.00034660232634567206 -0.011239223035476639 0 -1.2145072329552287e-06 -0.011391734609986772 0 -0.00031110842135104514 -0.011765515833433052 0 8.8995558660105858e-05 -0.011767425402878012 0 -1.2145072329552287e-06 -0.011391734609986772 0 0.000330696840492298 -0.011319020426160797 0 0.00045365164542475987 -0.01169395156191253 0 8.8995558660105858e-05 -0.011767425402878012 0 0.000330696840492298 -0.011319020426160797 0 0.0015670726355636983 -0.010698266554161815 0 0.0014894987744362047 -0.010561082727879272 0 0.0014176024473914642 -0.010791478330055103 0 0.0015670726355636983 -0.010698266554161815 0 0.0014894987744362047 -0.010561082727879272 0 0.0016224657006645344 -0.010551842822811248 0 0.0014790638633490377 -0.010598875511613631 0 0.0014711550296421824 -0.010390104287756963 0 0.0018884537406938942 -0.010455883449845887 0 0.0014790638633490377 -0.010598875511613631 0 0.0014711550296421824 -0.010390104287756963 0 0.0013702719622317833 -0.010462917724921382 0 0.0012829313337595846 -0.010283648233311571 0 0.0013702719622317833 -0.010462917724921382 0 0.0012411824565918645 -0.010520430470536609 0 0.0014790638633490377 -0.010598875511613631 0 0.0013702719622317833 -0.010462917724921382 0 0.0012411824565918645 -0.010520430470536609 0 0.0012829313337595846 -0.010283648233311571 0 0.0014711550296421824 -0.010390104287756963 0 0.0013702719622317833 -0.010462917724921382 0 0.0014638461412041313 -0.010569418675661958 0 0.0011606643181905389 -0.01070542164232337 0 0.0014894987744362047 -0.010561082727879272 0 0.001105629743770645 -0.010736427432025852 0 0.0014176024473914642 -0.010791478330055103 0 0.0014790638633490377 -0.010598875511613631 0 0.0012411824565918645 -0.010520430470536609 0 0.001105629743770645 -0.010736427432025852 0 0.00071773929716916266 -0.010420516577011436 0 0.00096703101154260382 -0.010501410685196458 0 0.00084755758553472485 -0.010792413758499776 0 0.0012411824565918645 -0.010520430470536609 0 0.001105629743770645 -0.010736427432025852 0 0.00096703101154260382 -0.010501410685196458 0 0.0012829313337595846 -0.010283648233311571 0 0.0012411824565918645 -0.010520430470536609 0 0.00096703101154260382 -0.010501410685196458 0 0.001105629743770645 -0.010736427432025852 0 0.00096703101154260382 -0.010501410685196458 0 0.00084755758553472485 -0.010792413758499776 0 0.00092623308364782905 -0.011017551344902357 0 0.0016418027500536767 -0.011528853749026511 0 0.001105629743770645 -0.010736427432025852 0 0.00084755758553472485 -0.010792413758499776 0 0.0013648446188047432 -0.011066129719730398 0 0.0010764480090050797 -0.011290535933153999 0 0.0018261071519910265 -0.011859196776462397 0 0.0011429207738477398 -0.01202409569635909 0 0.001105629743770645 -0.010736427432025852 0 0.0014176024473914642 -0.010791478330055103 0 0.0013648446188047432 -0.011066129719730398 0 0.0013648446188047432 -0.011066129719730398 0 0.0015753140459353089 -0.010877638470806453 0 0.0017177486729678419 -0.011078078078882067 0 0.0014176024473914642 -0.010791478330055103 0 0.0013648446188047432 -0.011066129719730398 0 0.0015753140459353089 -0.010877638470806453 0 0.0015670726355636983 -0.010698266554161815 0 0.0014176024473914642 -0.010791478330055103 0 0.0015753140459353089 -0.010877638470806453 0 0.0018261071519910265 -0.011859196776462397 0 0.0015599414597572553 -0.012505291964296308 0 0.002589443664835028 -0.012387755847724335 0 0.0016418027500536767 -0.011528853749026511 0 0.002102864667743246 -0.011460932529211708 0 0.0018261071519910265 -0.011859196776462397 0 0.0015599414597572553 -0.012505291964296308 0 0.0011429207738477398 -0.01202409569635909 0 0.0015599414597572553 -0.012505291964296308 0 0.0011429207738477398 -0.01202409569635909 0 0.00093173781965360104 -0.01246812407391217 0 0.0015599414597572553 -0.012505291964296308 0 0.0010395226635204725 -0.013086708561921852 0 0.0018634214014123134 -0.0131340432107771 0 0.0010247123406046501 -0.012608548009528891 0 0.0013762464185019193 -0.011977587620394199 0 0.0015599414597572553 -0.012505291964296308 0 0.0010395226635204725 -0.013086708561921852 0 0.00093173781965360104 -0.01246812407391217 0 0.0015599414597572553 -0.012505291964296308 0 0.0018634214014123134 -0.0131340432107771 0 0.002589443664835028 -0.012387755847724335 0 0.00014340957699420257 -0.012335942119952151 0 0.00046189810122872866 -0.012595809528249622 0 -1.1296852447042575e-05 -0.012574990612592114 0 0.00014340957699420257 -0.012335942119952151 0 0.00048045929632150518 -0.012095808610849121 0 0.00046189810122872866 -0.012595809528249622 0 -1.1296852447042575e-05 -0.012574990612592114 0 -0.00036163515202290963 -0.012678720423228696 0 -0.00024838686581458416 -0.012430606318100704 0 -0.00014101485378515167 -0.012312984019048937 0 -1.1296852447042575e-05 -0.012574990612592114 0 -0.00024838686581458416 -0.012430606318100704 0 -0.00014101485378515167 -0.012312984019048937 0 -0.00027223768654029476 -0.012296496751817014 0 -0.00024838686581458416 -0.012430606318100704 0 0.00014340957699420257 -0.012335942119952151 0 -0.00014101485378515167 -0.012312984019048937 0 -1.1296852447042575e-05 -0.012574990612592114 0 0.00014340957699420257 -0.012335942119952151 0 -0.00014101485378515167 -0.012312984019048937 0 -5.9076306528424864e-05 -0.012096548281852268 0 -0.00014101485378515167 -0.012312984019048937 0 -5.9076306528424864e-05 -0.012096548281852268 0 -0.00027163700383047796 -0.012129004442514605 0 -0.00014101485378515167 -0.012312984019048937 0 -0.00027223768654029476 -0.012296496751817014 0 -0.00027163700383047796 -0.012129004442514605 0 -0.00014317444497685927 -0.011941014849735488 0 -5.9076306528424864e-05 -0.012096548281852268 0 -0.00027163700383047796 -0.012129004442514605 0 8.8995558660105858e-05 -0.011767425402878012 0 -5.9076306528424864e-05 -0.012096548281852268 0 0.00048045929632150518 -0.012095808610849121 0 0.00014340957699420257 -0.012335942119952151 0 -5.9076306528424864e-05 -0.012096548281852268 0 0.00048045929632150518 -0.012095808610849121 0 0.00077493759313032335 -0.011708047251723029 0 0.0011429207738477398 -0.01202409569635909 0 0.00048045929632150518 -0.012095808610849121 0 0.0011429207738477398 -0.01202409569635909 0 0.00048045929632150518 -0.012095808610849121 0 0.00093173781965360104 -0.01246812407391217 0 0.00048045929632150518 -0.012095808610849121 0 0.00093173781965360104 -0.01246812407391217 0 0.00046189810122872866 -0.012595809528249622 0 0.0010395226635204725 -0.013086708561921852 0 0.00093173781965360104 -0.01246812407391217 0 0.00046189810122872866 -0.012595809528249622 0 0.0010395226635204725 -0.013086708561921852 0 0.00046189810122872866 -0.012595809528249622 0 0.00020375507748493835 -0.013028734754598582 0 0.0010247123406046501 -0.012608548009528891 0 0.00029091035118998819 -0.012493947869806009 0 0.00012052201313155605 -0.012181146373249685 0 0.00043108008550591786 -0.012018116463042466 0 -0.0001242620671022653 -0.011971144082531925 0 0.00029091035118998819 -0.012493947869806009 0 -0.00029640578347246666 -0.012843764374910579 0 0.00046189810122872866 -0.012595809528249622 0 0.00020375507748493835 -0.013028734754598582 0 -1.1296852447042575e-05 -0.012574990612592114 0 0.00020375507748493835 -0.013028734754598582 0 -1.1296852447042575e-05 -0.012574990612592114 0 -0.00036163515202290963 -0.012678720423228696 0 0.00020375507748493835 -0.013028734754598582 0 -0.00060294135888840864 -0.01295886293130752 0 -0.00036163515202290963 -0.012678720423228696 0 -0.00029640578347246666 -0.012843764374910579 0 -0.00041751825594703703 -0.012687687187787794 0 -0.00060294135888840864 -0.01295886293130752 0 -0.00036163515202290963 -0.012678720423228696 0 -0.00042454831088530612 -0.012317180092813176 0 -0.00029640578347246666 -0.012843764374910579 0 -0.0003991879988880696 -0.013054725029669643 0 -0.00038382020049962455 -0.013366664621922078 0 -0.00043679535272226499 -0.01322684060943987 0 -0.00039317941100747844 -0.013077071760937867 0 -0.00038382020049962455 -0.013366664621922078 0 -0.00043679535272226499 -0.01322684060943987 0 -0.00045313790286999334 -0.013301257940907909 0 -0.00043679535272226499 -0.01322684060943987 0 -0.00053344148801867566 -0.013326036028328067 0 -0.00040048232048319247 -0.013119392069451405 0 -0.00044219257946422671 -0.013414788385700699 0 -0.00038585216444959143 -0.013052784708808274 0 -0.00035547747376618778 -0.01311402926336055 0 -0.00036814516795145174 -0.013132463298007983 0 -0.00033388149767711676 -0.013157889029038446 0 -0.00044664130839855453 -0.013369074050139269 0 -0.00053344148801867566 -0.013326036028328067 0 -0.00045313790286999334 -0.013301257940907909 0 -0.00044664130839855453 -0.013369074050139269 0 -0.00040102128077622274 -0.013305031956336342 0 -0.00045313790286999334 -0.013301257940907909 0 -0.00043679535272226499 -0.01322684060943987 0 -0.00053344148801867566 -0.013326036028328067 0 -0.00045313790286999334 -0.013301257940907909 0 -0.00037762244877954422 -0.013149548769641469 0 -0.00037727032959147458 -0.013197325057802934 0 -0.00033388149767711676 -0.013157889029038446 0 -0.00035547747376618778 -0.01311402926336055 0 -0.00036814516795145174 -0.013132463298007983 0 -0.00040048232048319247 -0.013119392069451405 0 -0.00036814516795145174 -0.013132463298007983 0 -0.00037762244877954422 -0.013149548769641469 0 -0.00033388149767711676 -0.013157889029038446 0 -0.00036814516795145174 -0.013132463298007983 0 -0.00037762244877954422 -0.013149548769641469 0 -0.00040048232048319247 -0.013119392069451405 0 -0.00037762244877954422 -0.013149548769641469 0 -0.00038814201146065627 -0.013168247009485764 0 -0.00037727032959147458 -0.013197325057802934 0 -0.00037762244877954422 -0.013149548769641469 0 -0.00040048232048319247 -0.013119392069451405 0 -0.00038814201146065627 -0.013168247009485764 0 -0.00038382020049962455 -0.013366664621922078 0 -0.00039317941100747844 -0.013077071760937867 0 -0.00034979770291206411 -0.012996721276659857 0 -0.00039317941100747844 -0.013077071760937867 0 -0.00040048232048319247 -0.013119392069451405 0 -0.00040315310010410925 -0.013209095933761366 0 -0.00041751825594703703 -0.012687687187787794 0 -0.00028935187775944865 -0.011881972959939757 0 -0.00039317941100747844 -0.013077071760937867 0 -0.00034979770291206411 -0.012996721276659857 0 -0.00031110842135104514 -0.011765515833433052 0 -0.00042454831088530612 -0.012317180092813176 0 -0.00027163700383047796 -0.012129004442514605 0 -0.00031110842135104514 -0.011765515833433052 0 -0.00036163515202290963 -0.012678720423228696 0 -0.00042454831088530612 -0.012317180092813176 0 -0.00024838686581458416 -0.012430606318100704 0 -0.00042454831088530612 -0.012317180092813176 0 -0.00027223768654029476 -0.012296496751817014 0 -0.00024838686581458416 -0.012430606318100704 0 -0.00043679535272226499 -0.01322684060943987 0 -0.00039317941100747844 -0.013077071760937867 0 -0.00040048232048319247 -0.013119392069451405 0 -0.00042454831088530612 -0.012317180092813176 0 -0.00027223768654029476 -0.012296496751817014 0 -0.00027163700383047796 -0.012129004442514605 0 -0.0004395780159867314 -0.013260617051119713 0 -0.00039317941100747844 -0.013077071760937867 0 -0.00040315310010410925 -0.013209095933761366 0 -0.00034660232634567206 -0.011239223035476639 0 -0.00039317941100747844 -0.013077071760937867 0 -0.00031110842135104514 -0.011765515833433052 0 -0.00034109868578716265 -0.012175785186405635 0 -0.00042745412385671375 -0.013035983580066043 0 -0.0004395780159867314 -0.013260617051119713 0 -0.00040315310010410925 -0.013209095933761366 0 -0.00041448014216158584 -0.013260791676488332 0 -0.00040315310010410925 -0.013209095933761366 0 -0.00038531180261452833 -0.013265346295930605 0 -0.00040091762467873792 -0.013272931059116299 0 -0.00040315310010410925 -0.013209095933761366 0 -0.00041448014216158584 -0.013260791676488332 0 -0.00040091762467873792 -0.013272931059116299 0 -0.00040048232048319247 -0.013119392069451405 0 -0.00040315310010410925 -0.013209095933761366 0 -0.00038814201146065627 -0.013168247009485764 0 -0.00040315310010410925 -0.013209095933761366 0 -0.00038814201146065627 -0.013168247009485764 0 -0.00037727032959147458 -0.013197325057802934 0 -0.00037727032959147458 -0.013197325057802934 0 -0.00038531180261452833 -0.013265346295930605 0 -0.00033871182469410966 -0.013289106510913577 0 -0.00040315310010410925 -0.013209095933761366 0 -0.00037727032959147458 -0.013197325057802934 0 -0.00038531180261452833 -0.013265346295930605 0 -0.00038531180261452833 -0.013265346295930605 0 -0.00039048135882725868 -0.013299715602726017 0 -0.00040091762467873792 -0.013272931059116299 0 -0.00038531180261452833 -0.013265346295930605 0 -0.00039048135882725868 -0.013299715602726017 0 -0.00038558480288423247 -0.013335069448299286 0 -0.0003860945917589523 -0.013312662599835417 0 -0.00039048135882725868 -0.013299715602726017 0 -0.00038558480288423247 -0.013335069448299286 0 -0.00039048135882725868 -0.013299715602726017 0 -0.00039156197625567885 -0.01329297667397077 0 -0.00040091762467873792 -0.013272931059116299 0 -0.00039156197625567885 -0.01329297667397077 0 -0.00040712043054714483 -0.013278007382118722 0 -0.00040091762467873792 -0.013272931059116299 0 -0.0004395780159867314 -0.013260617051119713 0 -0.00040712043054714483 -0.013278007382118722 0 -0.00041448014216158584 -0.013260791676488332 0 -0.00040712043054714483 -0.013278007382118722 0 -0.00041448014216158584 -0.013260791676488332 0 -0.00040091762467873792 -0.013272931059116299 0 -0.00044060257139237505 -0.013461415256103009 0 -0.00046323443125483938 -0.013682069452790527 0 -0.00055171401531049302 -0.01369098611398137 0 -0.00043725507408454395 -0.01344882532496311 0 -0.00040986710571589449 -0.013473654542345333 0 -0.00044060257139237505 -0.013461415256103009 0 -0.00038558480288423247 -0.013335069448299286 0 -0.00033871182469410966 -0.013289106510913577 0 -0.00038531180261452833 -0.013265346295930605 0 -0.00038558480288423247 -0.013335069448299286 0 -0.00033871182469410966 -0.013289106510913577 0 -0.00046323443125483938 -0.013682069452790527 0 -0.00054585446989801559 -0.013741732210135615 0 -0.00050863930381445511 -0.013734790051037917 0 -0.00037727032959147458 -0.013197325057802934 0 -0.00033871182469410966 -0.013289106510913577 0 -0.00033388149767711676 -0.013157889029038446 0 -0.00040986710571589449 -0.013473654542345333 0 -0.00042221838603786886 -0.013447432169711131 0 -0.00046323443125483938 -0.013682069452790527 0 -0.00055171401531049302 -0.01369098611398137 0 -0.00054585446989801559 -0.013741732210135615 0 -0.00054585446989801559 -0.013741732210135615 0 -0.00050863930381445511 -0.013734790051037917 0 -0.00053535548646703273 -0.013743546206040952 0 -0.00053427303880847947 -0.013740413154917358 0 -0.00050863930381445511 -0.013734790051037917 0 -0.00053535548646703273 -0.013743546206040952 0 -0.00044219257946422671 -0.013414788385700699 0 -0.00042221838603786886 -0.013447432169711131 0 -0.00054585446989801559 -0.013741732210135615 0 -0.00053535548646703273 -0.013743546206040952 0 -0.00054860570067134253 -0.013745200386212427 0 -0.00056173408209009637 -0.013736043318156518 0 -0.00054860570067134253 -0.013745200386212427 0 -0.00058809871998203981 -0.013747580779577655 0 -0.00054585446989801559 -0.013741732210135615 0 -0.00054860570067134253 -0.013745200386212427 0 -0.00058809871998203981 -0.013747580779577655 0 -0.00054585446989801559 -0.013741732210135615 0 -0.00058809871998203981 -0.013747580779577655 0 -0.00061734517229564232 -0.013738162452107693 0 -0.00058809871998203981 -0.013747580779577655 0 -0.00063544050817750965 -0.013764875540729329 0 -0.00061734517229564232 -0.013738162452107693 0 -0.00056173408209009637 -0.013736043318156518 0 -0.00058809871998203981 -0.013747580779577655 0 -0.00058915356296277593 -0.013742245472543733 0 -0.00057127247009405315 -0.013732052042628892 0 -0.00058915356296277593 -0.013742245472543733 0 -0.00056010309390646632 -0.013736640424587476 0 -0.00056010309390646632 -0.013736640424587476 0 -0.00063544050817750965 -0.013764875540729329 0 -0.00054710585244602348 -0.013802548121729758 0 -0.00058915356296277593 -0.013742245472543733 0 -0.00056010309390646632 -0.013736640424587476 0 -0.00063544050817750965 -0.013764875540729329 0 -0.00058809871998203981 -0.013747580779577655 0 -0.00058915356296277593 -0.013742245472543733 0 -0.00063544050817750965 -0.013764875540729329 0 -0.00063544050817750965 -0.013764875540729329 0 -0.0006114485445206818 -0.01386915414687586 0 -0.00054710585244602348 -0.013802548121729758 0 -0.00063544050817750965 -0.013764875540729329 0 -0.0006114485445206818 -0.01386915414687586 0 -0.00074704803736891042 -0.013793146840949004 0 -0.00074704803736891042 -0.013793146840949004 0 -0.00061372898691536932 -0.013647097321395355 0 -0.00061734517229564232 -0.013738162452107693 0 -0.00055171401531049302 -0.01369098611398137 0 -0.00061372898691536932 -0.013647097321395355 0 -0.00061734517229564232 -0.013738162452107693 0 -0.00044060257139237505 -0.013461415256103009 0 -0.00055171401531049302 -0.01369098611398137 0 -0.00061372898691536932 -0.013647097321395355 0 -0.00055171401531049302 -0.01369098611398137 0 -0.00054585446989801559 -0.013741732210135615 0 -0.00061734517229564232 -0.013738162452107693 0 -0.00063544050817750965 -0.013764875540729329 0 -0.00074704803736891042 -0.013793146840949004 0 -0.00061734517229564232 -0.013738162452107693 0 -0.00088185487355765184 -0.017624584054583992 0 -0.0011910646268518165 -0.017660063673990971 0 -0.0011169121417704273 -0.01734613444835607 0 -0.0011910646268518165 -0.017660063673990971 0 -0.0011169121417704273 -0.01734613444835607 0 -0.0014580145112290759 -0.017280000841763253 0 -0.0012138151963847063 -0.016957353806289786 0 -0.00084037613915064271 -0.017208445524618646 0 -0.0011169121417704273 -0.01734613444835607 0 -0.0012138151963847063 -0.016957353806289786 0 -0.0011169121417704273 -0.01734613444835607 0 -0.0014580145112290759 -0.017280000841763253 0 -0.00026279447422280751 -0.013802977056391365 0 -0.00040793818603591106 -0.013732300789277145 0 -0.00039611970248693836 -0.013826481758162732 0 -0.00082269706603555176 -0.015434169271936303 0 -0.00089897255464403496 -0.015570479955694395 0 -0.00048994876080229218 -0.013753397705428771 0 -0.00054710585244602348 -0.013802548121729758 0 -0.00039611970248693836 -0.013826481758162732 0 -0.00040793818603591106 -0.013732300789277145 0 -0.00048994876080229218 -0.013753397705428771 0 -0.00039611970248693836 -0.013826481758162732 0 -0.00051449118400398236 -0.01371760056172683 0 -0.00040793818603591106 -0.013732300789277145 0 -0.00048994876080229218 -0.013753397705428771 0 -0.00051449118400398236 -0.01371760056172683 0 -0.00056010309390646632 -0.013736640424587476 0 -0.00048994876080229218 -0.013753397705428771 0 -0.00056010309390646632 -0.013736640424587476 0 -0.00048994876080229218 -0.013753397705428771 0 -0.00054710585244602348 -0.013802548121729758 0 -0.0006114485445206818 -0.01386915414687586 0 -0.00054710585244602348 -0.013802548121729758 0 -0.00046180273585573744 -0.013916648915425643 0 -0.00046180273585573744 -0.013916648915425643 0 -0.00039611970248693836 -0.013826481758162732 0 -0.00030652660941511467 -0.01396026383943434 0 -0.00046180273585573744 -0.013916648915425643 0 -0.00030652660941511467 -0.01396026383943434 0 -0.00035575002074140393 -0.0140635166168328 0 -0.00054710585244602348 -0.013802548121729758 0 -0.00046180273585573744 -0.013916648915425643 0 -0.00039611970248693836 -0.013826481758162732 0 -0.00039611970248693836 -0.013826481758162732 0 -0.00030652660941511467 -0.01396026383943434 0 -0.00024318241405079074 -0.013896400379462891 0 -0.00026279447422280751 -0.013802977056391365 0 -0.00039611970248693836 -0.013826481758162732 0 -0.00024318241405079074 -0.013896400379462891 0 -0.00030652660941511467 -0.01396026383943434 0 -0.00017701669527711716 -0.013987839930544779 0 -0.00024318241405079074 -0.013896400379462891 0 -0.00010730525118527203 -0.01393105857056336 0 -0.00017701669527711716 -0.013987839930544779 0 -0.00024318241405079074 -0.013896400379462891 0 -0.00010730525118527203 -0.01393105857056336 0 -6.0309117851320142e-05 -0.014091465798994646 0 -0.00017701669527711716 -0.013987839930544779 0 -0.00045485847777848007 -0.017653203652465466 0 -0.00082269706603555176 -0.015434169271936303 0 -0.00010730525118527203 -0.01393105857056336 0 -0.00026279447422280751 -0.013802977056391365 0 -0.00024318241405079074 -0.013896400379462891 0 -0.00019447032022807892 -0.0140990796618516 0 -0.00024212857493749945 -0.014242591504225117 0 1.8470842610088932e-05 -0.014342889760259259 0 -6.0309117851320142e-05 -0.014091465798994646 0 -0.00019447032022807892 -0.0140990796618516 0 1.8470842610088932e-05 -0.014342889760259259 0 -6.0309117851320142e-05 -0.014091465798994646 0 -0.00017701669527711716 -0.013987839930544779 0 -0.00019447032022807892 -0.0140990796618516 0 -0.00030652660941511467 -0.01396026383943434 0 -0.00017701669527711716 -0.013987839930544779 0 -0.00019447032022807892 -0.0140990796618516 0 -0.00030652660941511467 -0.01396026383943434 0 -0.00019447032022807892 -0.0140990796618516 0 -0.00035575002074140393 -0.0140635166168328 0 -0.00035575002074140393 -0.0140635166168328 0 -0.00024212857493749945 -0.014242591504225117 0 -0.00041246099232039981 -0.014203863465809223 0 -0.00024212857493749945 -0.014242591504225117 0 -0.00041246099232039981 -0.014203863465809223 0 -0.00034926527674212956 -0.014384135797859517 0 -0.00019447032022807892 -0.0140990796618516 0 -0.00035575002074140393 -0.0140635166168328 0 -0.00024212857493749945 -0.014242591504225117 0 -0.00035575002074140393 -0.0140635166168328 0 -0.00041246099232039981 -0.014203863465809223 0 -0.00051803957208633282 -0.014071819941892997 0 -0.00041246099232039981 -0.014203863465809223 0 -0.00051803957208633282 -0.014071819941892997 0 -0.00058208688585545041 -0.014287339287767179 0 -0.00046180273585573744 -0.013916648915425643 0 -0.00035575002074140393 -0.0140635166168328 0 -0.00051803957208633282 -0.014071819941892997 0 -0.0006114485445206818 -0.01386915414687586 0 -0.00046180273585573744 -0.013916648915425643 0 -0.00051803957208633282 -0.014071819941892997 0 -0.00051803957208633282 -0.014071819941892997 0 -0.00058208688585545041 -0.014287339287767179 0 -0.00068720447609812627 -0.01406961685130831 0 -0.00058208688585545041 -0.014287339287767179 0 -0.00050798988335836522 -0.01451980104655457 0 -0.00077195507546498436 -0.014417377138544681 0 -0.00050798988335836522 -0.01451980104655457 0 -0.00077195507546498436 -0.014417377138544681 0 -0.00061600667755887868 -0.01470531007136322 0 -0.00050798988335836522 -0.01451980104655457 0 -0.00034926527674212956 -0.014384135797859517 0 -0.00027347633021099254 -0.0146471437357231 0 -0.00050798988335836522 -0.01451980104655457 0 -0.00027347633021099254 -0.0146471437357231 0 -0.00040990142413146146 -0.014781080434447784 0 -0.00041246099232039981 -0.014203863465809223 0 -0.00058208688585545041 -0.014287339287767179 0 -0.00034926527674212956 -0.014384135797859517 0 -0.00058208688585545041 -0.014287339287767179 0 -0.00050798988335836522 -0.01451980104655457 0 -0.00034926527674212956 -0.014384135797859517 0 -0.00034926527674212956 -0.014384135797859517 0 -0.00027347633021099254 -0.0146471437357231 0 -0.00016740556167353242 -0.014480440456644199 0 -0.00024212857493749945 -0.014242591504225117 0 -0.00034926527674212956 -0.014384135797859517 0 -0.00016740556167353242 -0.014480440456644199 0 -0.00027347633021099254 -0.0146471437357231 0 4.9217333251683186e-05 -0.014829143893539398 0 -0.00017973271690811758 -0.014895722767460779 0 -0.00027347633021099254 -0.0146471437357231 0 4.9217333251683186e-05 -0.014829143893539398 0 -0.00016740556167353242 -0.014480440456644199 0 6.8630007661324644e-05 -0.014775721819010008 0 9.6978157067466583e-05 -0.014837872783384118 0 4.9217333251683186e-05 -0.014829143893539398 0 1.8470842610088932e-05 -0.014342889760259259 0 -0.00016740556167353242 -0.014480440456644199 0 -0.00024212857493749945 -0.014242591504225117 0 1.8470842610088932e-05 -0.014342889760259259 0 -0.00016740556167353242 -0.014480440456644199 0 -0.00047400040939710387 -0.013322768936115404 0 -0.00066887783236856634 -0.013418088861351655 0 -0.00056370755715801969 -0.013215690194435383 0 -0.00044060257139237505 -0.013461415256103009 0 -0.00061372898691536932 -0.013647097321395355 0 -0.00066887783236856634 -0.013418088861351655 0 -0.00074704803736891042 -0.013793146840949004 0 -0.00061372898691536932 -0.013647097321395355 0 -0.00066887783236856634 -0.013418088861351655 0 -0.00078450647948660399 -0.013839786838984349 0 -0.00071320432589245771 -0.013610212708877646 0 -0.00091851982814366738 -0.014110396231745963 0 -0.00068720447609812627 -0.01406961685130831 0 -0.00078911767091737221 -0.014278149178467847 0 -0.00074704803736891042 -0.013793146840949004 0 -0.00091851982814366738 -0.014110396231745963 0 -0.00068720447609812627 -0.01406961685130831 0 -0.0006114485445206818 -0.01386915414687586 0 -0.00074704803736891042 -0.013793146840949004 0 -0.00068720447609812627 -0.01406961685130831 0 -0.0006114485445206818 -0.01386915414687586 0 -0.00051803957208633282 -0.014071819941892997 0 -0.00068720447609812627 -0.01406961685130831 0 -0.00058208688585545041 -0.014287339287767179 0 -0.00078911767091737221 -0.014278149178467847 0 -0.00077195507546498436 -0.014417377138544681 0 -0.00058208688585545041 -0.014287339287767179 0 -0.00068720447609812627 -0.01406961685130831 0 -0.00078911767091737221 -0.014278149178467847 0 -0.00078911767091737221 -0.014278149178467847 0 -0.00077195507546498436 -0.014417377138544681 0 -0.00080746543307365424 -0.014336205423683763 0 -0.00078911767091737221 -0.014278149178467847 0 -0.00085856799328341198 -0.014282410374807339 0 -0.00080746543307365424 -0.014336205423683763 0 -0.00091851982814366738 -0.014110396231745963 0 -0.00085856799328341198 -0.014282410374807339 0 -0.0009293426361286195 -0.014215844094760656 0 -0.00085856799328341198 -0.014282410374807339 0 -0.0009293426361286195 -0.014215844094760656 0 -0.00088707576139695577 -0.014268351468674717 0 -0.00091851982814366738 -0.014110396231745963 0 -0.00078911767091737221 -0.014278149178467847 0 -0.00085856799328341198 -0.014282410374807339 0 -0.00071320432589245771 -0.013610212708877646 0 -0.00094427675800423173 -0.014423512049588711 0 -0.00085856799328341198 -0.014282410374807339 0 -0.00088707576139695577 -0.014268351468674717 0 -0.00082010878457943891 -0.014286875662183247 0 -0.00020409675383139248 -0.0058203963866659686 0 -0.00024480408222698374 -0.0058219616056945055 0 -0.00027890868493006044 -0.0057821087650195835 0 -0.00021918595195954003 -0.0057770930929790555 0 -0.00020409675383139248 -0.0058203963866659686 0 -0.00027890868493006044 -0.0057821087650195835 0 -0.00021918595195954003 -0.0057770930929790555 0 -0.00020409675383139248 -0.0058203963866659686 0 -9.8205659709570283e-05 -0.005828809005612866 0 -0.00055351381549585265 -0.010037822266302451 0 -0.00047100107682400779 -0.0099713724582997862 0 -0.00085856799328341198 -0.014282410374807339 0 -0.00080746543307365424 -0.014336205423683763 0 -0.00082010878457943891 -0.014286875662183247 0 -0.00080746543307365424 -0.014336205423683763 0 -0.00083713485142343687 -0.01430961091024003 0 -0.00082010878457943891 -0.014286875662183247 0 -0.00077195507546498436 -0.014417377138544681 0 -0.000854346065981785 -0.014845099388484394 0 -0.00061600667755887868 -0.01470531007136322 0 -0.00077195507546498436 -0.014417377138544681 0 -0.00080746543307365424 -0.014336205423683763 0 -0.00083713485142343687 -0.01430961091024003 0 -0.0007618907876921489 -0.014108513744815442 0 -0.00090711124704192137 -0.015396127792928817 0 -0.00090711124704192137 -0.015396127792928817 0 -0.00051257489598537976 -0.010751798110625458 0 -0.000854346065981785 -0.014845099388484394 0 -0.00086954695758074334 -0.015124749947070977 0 -0.0007156295294307273 -0.015059409060942375 0 -0.00083713485142343687 -0.01430961091024003 0 -0.00082010878457943891 -0.014286875662183247 0 -0.0008458911523030418 -0.014234902357980982 0 -0.00047100107682400779 -0.0099713724582997862 0 -0.00051257489598537976 -0.010751798110625458 0 -9.8205659709570283e-05 -0.005828809005612866 0 -7.5794627793656944e-05 -0.0058959340797588395 0 1.5580445959906403e-05 -0.0058991240336324071 0 -7.5794627793656944e-05 -0.0058959340797588395 0 1.5580445959906403e-05 -0.0058991240336324071 0 -1.4677135284261921e-05 -0.0059412231992630859 0 -3.1141945658011789e-05 -0.0089160407589841985 0 -0.00043273383581419236 -0.0080324066393960229 0 -0.00075550036335828713 -0.0085579975745880277 0 -0.00051257489598537976 -0.010751798110625458 0 -0.0006637417104742682 -0.011913223922755168 0 -3.1141945658011789e-05 -0.0089160407589841985 0 -0.00043273383581419236 -0.0080324066393960229 0 4.2776493120012507e-05 -0.0075677069696564103 0 1.5580445959906403e-05 -0.0058991240336324071 0 -1.4677135284261921e-05 -0.0059412231992630859 0 3.6336830460426432e-05 -0.0060010017173203608 0 -0.00051257489598537976 -0.010751798110625458 0 0.00012244221909795663 -0.0060003086377931536 0 -1.4677135284261921e-05 -0.0059412231992630859 0 -2.3540586905556579e-05 -0.0059811127652336484 0 3.6336830460426432e-05 -0.0060010017173203608 0 -0.00043273383581419236 -0.0080324066393960229 0 -0.00035691478475990382 -0.007421856290630289 0 4.2776493120012507e-05 -0.0075677069696564103 0 -7.5794627793656944e-05 -0.0058959340797588395 0 -1.4677135284261921e-05 -0.0059412231992630859 0 -6.7114940034548136e-05 -0.0059547147547177231 0 -7.5794627793656944e-05 -0.0058959340797588395 0 -6.7114940034548136e-05 -0.0059547147547177231 0 -0.00013398849230307689 -0.0059305312886572112 0 -1.4677135284261921e-05 -0.0059412231992630859 0 -2.3540586905556579e-05 -0.0059811127652336484 0 -6.7114940034548136e-05 -0.0059547147547177231 0 -2.3540586905556579e-05 -0.0059811127652336484 0 -6.7114940034548136e-05 -0.0059547147547177231 0 -5.2214443184356975e-05 -0.0060413455740802686 0 -6.7114940034548136e-05 -0.0059547147547177231 0 -0.00013398849230307689 -0.0059305312886572112 0 -0.0001109249175766233 -0.0059996287680065133 0 -0.00013398849230307689 -0.0059305312886572112 0 -0.00016145876612667768 -0.0059583799338311302 0 -0.0001109249175766233 -0.0059996287680065133 0 -0.00013398849230307689 -0.0059305312886572112 0 -0.00020782948630076645 -0.0058948731681587076 0 -0.00016178794042083985 -0.0058735000474136887 0 -0.00013398849230307689 -0.0059305312886572112 0 -0.00020782948630076645 -0.0058948731681587076 0 -0.00016145876612667768 -0.0059583799338311302 0 -0.00020782948630076645 -0.0058948731681587076 0 -0.00016178794042083985 -0.0058735000474136887 0 -0.00024480408222698374 -0.0058219616056945055 0 -0.00020409675383139248 -0.0058203963866659686 0 -0.00016178794042083985 -0.0058735000474136887 0 -0.00024480408222698374 -0.0058219616056945055 0 -0.00020409675383139248 -0.0058203963866659686 0 -9.8205659709570283e-05 -0.005828809005612866 0 -0.00016178794042083985 -0.0058735000474136887 0 -7.5794627793656944e-05 -0.0058959340797588395 0 -0.00013398849230307689 -0.0059305312886572112 0 -0.00016178794042083985 -0.0058735000474136887 0 -9.8205659709570283e-05 -0.005828809005612866 0 -7.5794627793656944e-05 -0.0058959340797588395 0 -0.00016178794042083985 -0.0058735000474136887 0 3.8165907747849617e-05 -0.015038480353160667 0 -0.00015642428371934249 -0.015103219750454358 0 -0.00017973271690811758 -0.014895722767460779 0 3.8165907747849617e-05 -0.015038480353160667 0 4.9217333251683186e-05 -0.014829143893539398 0 -0.00017973271690811758 -0.014895722767460779 0 -0.00017973271690811758 -0.014895722767460779 0 -0.00039139543752226115 -0.015026713570418376 0 -0.00040990142413146146 -0.014781080434447784 0 -0.00027347633021099254 -0.0146471437357231 0 -0.00017973271690811758 -0.014895722767460779 0 -0.00040990142413146146 -0.014781080434447784 0 -0.00015642428371934249 -0.015103219750454358 0 -0.00039139543752226115 -0.015026713570418376 0 -0.00033176033222454134 -0.015184209361485684 0 -0.00015642428371934249 -0.015103219750454358 0 -0.00017973271690811758 -0.014895722767460779 0 -0.00039139543752226115 -0.015026713570418376 0 -0.00039139543752226115 -0.015026713570418376 0 -0.00040990142413146146 -0.014781080434447784 0 -0.00059487701449784721 -0.014948834244644382 0 -0.00039139543752226115 -0.015026713570418376 0 -0.00059487701449784721 -0.014948834244644382 0 -0.00057111155932244352 -0.01510106544705196 0 -0.00040990142413146146 -0.014781080434447784 0 -0.00061600667755887868 -0.01470531007136322 0 -0.00059487701449784721 -0.014948834244644382 0 -0.00050798988335836522 -0.01451980104655457 0 -0.00040990142413146146 -0.014781080434447784 0 -0.00061600667755887868 -0.01470531007136322 0 -0.000854346065981785 -0.014845099388484394 0 -0.00061600667755887868 -0.01470531007136322 0 -0.00059487701449784721 -0.014948834244644382 0 -0.000854346065981785 -0.014845099388484394 0 -0.00059487701449784721 -0.014948834244644382 0 -0.0007156295294307273 -0.015059409060942375 0 -0.00059487701449784721 -0.014948834244644382 0 -0.0007156295294307273 -0.015059409060942375 0 -0.00057111155932244352 -0.01510106544705196 0 -0.00057111155932244352 -0.01510106544705196 0 -0.00066616928096858887 -0.015228583827845713 0 -0.00047935201181543031 -0.015214802888851025 0 -0.00086954695758074334 -0.015124749947070977 0 -0.0007156295294307273 -0.015059409060942375 0 -0.00066616928096858887 -0.015228583827845713 0 -0.0007156295294307273 -0.015059409060942375 0 -0.00057111155932244352 -0.01510106544705196 0 -0.00066616928096858887 -0.015228583827845713 0 -0.0006637417104742682 -0.011913223922755168 0 -0.0010974374187453602 -0.012710971538325958 0 -0.00043273383581419236 -0.0080324066393960229 0 -0.00075550036335828713 -0.0085579975745880277 0 -0.00088100087374053224 -0.0079778805597113343 0 -0.00043273383581419236 -0.0080324066393960229 0 -0.00063894417186544214 -0.0077268545458494689 0 -0.00088100087374053224 -0.0079778805597113343 0 -0.00043273383581419236 -0.0080324066393960229 0 -0.00063894417186544214 -0.0077268545458494689 0 -0.00035691478475990382 -0.007421856290630289 0 -0.00063894417186544214 -0.0077268545458494689 0 -0.00088100087374053224 -0.0079778805597113343 0 -0.00087641262340676851 -0.0074866376036062023 0 -0.00075550036335828713 -0.0085579975745880277 0 -0.00088100087374053224 -0.0079778805597113343 0 -0.0014453254185877169 -0.0082317091781935314 0 -0.00088100087374053224 -0.0079778805597113343 0 -0.0014453254185877169 -0.0082317091781935314 0 -0.0013698105319779267 -0.0074091723550581707 0 -0.0012918254030156277 -0.013183704793003473 0 -0.00066393013701159073 -0.013506484406636134 0 -0.0013323765168600243 -0.013673229723333164 0 -0.0010974374187453602 -0.012710971538325958 0 -0.0012158571900181359 -0.010754911934104713 0 -0.00047935201181543031 -0.015214802888851025 0 -0.00033176033222454134 -0.015184209361485684 0 -0.00035204598330880129 -0.015314669629367431 0 -0.00039139543752226115 -0.015026713570418376 0 -0.00047935201181543031 -0.015214802888851025 0 -0.00033176033222454134 -0.015184209361485684 0 -0.00049549300516383264 -0.015354419639486678 0 -0.00047935201181543031 -0.015214802888851025 0 -0.00035204598330880129 -0.015314669629367431 0 -0.00066616928096858887 -0.015228583827845713 0 -0.00049478007189493044 -0.015307268740520609 0 -0.00047935201181543031 -0.015214802888851025 0 -0.00039139543752226115 -0.015026713570418376 0 -0.00057111155932244352 -0.01510106544705196 0 -0.00047935201181543031 -0.015214802888851025 0 -0.0010974374187453602 -0.012710971538325958 0 -0.00080671654143704545 -0.015519905826538631 0 -0.00015642428371934249 -0.015103219750454358 0 -0.00033176033222454134 -0.015184209361485684 0 -0.00022983036979307175 -0.015298671787124771 0 -0.00033176033222454134 -0.015184209361485684 0 -0.00022983036979307175 -0.015298671787124771 0 -0.00035204598330880129 -0.015314669629367431 0 -0.00049549300516383264 -0.015354419639486678 0 -0.00035204598330880129 -0.015314669629367431 0 -0.00023402453804406418 -0.015513167360180847 0 -0.0010974374187453602 -0.012710971538325958 0 -0.00035519506111408725 -0.01471611198063752 0 -0.00022983036979307175 -0.015298671787124771 0 -0.00035204598330880129 -0.015314669629367431 0 -0.00023402453804406418 -0.015513167360180847 0 -0.00022983036979307175 -0.015298671787124771 0 -0.00023402453804406418 -0.015513167360180847 0 -5.743883664729045e-05 -0.015392280848116344 0 -1.3874400350931617e-05 -0.015676851153209246 0 -0.00023402453804406418 -0.015513167360180847 0 -5.743883664729045e-05 -0.015392280848116344 0 -0.00015642428371934249 -0.015103219750454358 0 -0.00022983036979307175 -0.015298671787124771 0 -5.743883664729045e-05 -0.015392280848116344 0 -0.00053184423273122151 -0.014247594745576211 0 -0.00074496198381289653 -0.014390834644618433 0 -0.00084908601639760201 -0.014098437082502656 0 -7.5780837171718324e-05 -0.013988584265417197 0 -6.1767090871776744e-05 -0.013832610435795022 0 -0.00069151521257795727 -0.013832086713343458 0 7.5130194066828841e-06 -0.01470025141093167 0 -0.00035519506111408725 -0.01471611198063752 0 -6.1767090871776744e-05 -0.013832610435795022 0 -0.00066393013701159073 -0.013506484406636134 0 -0.00069151521257795727 -0.013832086713343458 0 -0.0003106143655027546 -0.013991052312662422 0 -0.000712984721148295 -0.014264789530435154 0 -0.00084908601639760201 -0.014098437082502656 0 -0.0010115396727761138 -0.014234415253763191 0 -0.0012171135712707199 -0.013960180170817005 0 -0.00066393013701159073 -0.013506484406636134 0 -0.00069151521257795727 -0.013832086713343458 0 -0.0013323765168600243 -0.013673229723333164 0 -0.000712984721148295 -0.014264789530435154 0 -0.0012158571900181359 -0.010754911934104713 0 -0.00074496198381289653 -0.014390834644618433 0 -0.0010115396727761138 -0.014234415253763191 0 -0.0010287418199231009 -0.014457174213706063 0 -0.00074496198381289653 -0.014390834644618433 0 -0.00084908601639760201 -0.014098437082502656 0 -0.0010115396727761138 -0.014234415253763191 0 -0.0010115396727761138 -0.014234415253763191 0 -0.001239986136825594 -0.014251016752090426 0 -0.0012171135712707199 -0.013960180170817005 0 -0.00084320596555183573 -0.0091716113470453782 0 -0.00030835707813682285 -0.012613073535072752 0 -0.0010115396727761138 -0.014234415253763191 0 -0.001239986136825594 -0.014251016752090426 0 -0.0010287418199231009 -0.014457174213706063 0 -0.00084320596555183573 -0.0091716113470453782 0 -0.0012158571900181359 -0.010754911934104713 0 -0.0012311914590492049 -0.006777642136093661 0 -0.0012673889586962577 -0.0074226751311603691 0 -0.00087641262340676851 -0.0074866376036062023 0 -0.00084320596555183573 -0.0091716113470453782 0 -0.00067962653453690271 -0.006518450928288325 0 -0.0012311914590492049 -0.006777642136093661 0 -0.00087641262340676851 -0.0074866376036062023 0 -0.00035691478475990382 -0.007421856290630289 0 -0.00088100087374053224 -0.0079778805597113343 0 -0.0013698105319779267 -0.0074091723550581707 0 -0.00087641262340676851 -0.0074866376036062023 0 -0.0012158571900181359 -0.010754911934104713 0 -0.0013212018411120608 -0.0085838262155129436 0 -0.00063894417186544214 -0.0077268545458494689 0 -0.00087641262340676851 -0.0074866376036062023 0 -0.00035691478475990382 -0.007421856290630289 0 -0.0010108576723184914 -0.0065988566768457836 0 -0.00048363767016070669 -0.0066107886466946495 0 -0.00035691478475990382 -0.007421856290630289 0 -0.0010108576723184914 -0.0065988566768457836 0 -0.00048363767016070669 -0.0066107886466946495 0 -0.0005198835156013528 -0.0062306707701990953 0 -0.0005198835156013528 -0.0062306707701990953 0 -0.00042527246782931552 -0.0058345322187792871 0 -0.00082955067098179971 -0.0058747844565304533 0 -0.0010108576723184914 -0.0065988566768457836 0 -0.0005198835156013528 -0.0062306707701990953 0 -0.00082955067098179971 -0.0058747844565304533 0 -3.1989095133047627e-05 -0.0098453322390477244 0 2.3274044439245101e-07 -0.010167224064631178 0 -1.6925919520238252e-07 -0.0090596727037476517 0 -7.1843330501603808e-06 -0.0094270100407507478 0 -3.1989095133047627e-05 -0.0098453322390477244 0 -1.6925919520238252e-07 -0.0090596727037476517 0 0.00015301447804393442 -0.0077380938271813466 0 9.6433861721191138e-05 -0.0091378484586383951 0 -3.1989095133047627e-05 -0.0098453322390477244 0 0.00020535826339393648 -0.0095264304782540481 0 2.3274044439245101e-07 -0.010167224064631178 0 -0.0005810184778716679 -0.0096409872845796395 0 -3.1989095133047627e-05 -0.0098453322390477244 0 0.00020535826339393648 -0.0095264304782540481 0 0.00015301447804393442 -0.0077380938271813466 0 -0.00014257365839035578 -0.0089214755394702878 0 -3.3057740496453345e-05 -0.010647285414160761 0 4.5483307473245823e-07 -0.010169808415817085 0 -4.5221507312062567e-07 -0.011321909432009844 0 -0.00014257365839035578 -0.0089214755394702878 0 4.3175613357678584e-05 -0.012423158546664308 0 -0.00014257365839035578 -0.0089214755394702878 0 -1.0850049434919733e-07 -0.010168548611149521 0 -0.00041439362977614615 -0.010717316325610815 0 -6.9859397830329345e-05 -0.010349257580239366 0 0.00022418996758145036 -0.010629906334178135 0 -0.00084320596555183573 -0.0091716113470453782 0 -0.00014257365839035578 -0.0089214755394702878 0 -0.0003671031193238225 -0.010069737613304826 0 -0.00041439362977614615 -0.010717316325610815 0 -6.9859397830329345e-05 -0.010349257580239366 0 -0.00074496198381289653 -0.014390834644618433 0 -0.0010287418199231009 -0.014457174213706063 0 -0.00083506711770683321 -0.014632874580921194 0 -0.00030835707813682285 -0.012613073535072752 0 4.3175613357678584e-05 -0.012423158546664308 0 -3.3057740496453345e-05 -0.010647285414160761 0 2.1424321484998528e-05 -0.011299846080851925 0 -4.5221507312062567e-07 -0.011321909432009844 0 4.3175613357678584e-05 -0.012423158546664308 0 5.7408977790286641e-07 -0.012476008647834965 0 7.6037068135990818e-05 -0.013725598514716173 0 0.001217103813289227 -0.013481298060311418 0 1.3001799073749888e-06 -0.012478104113189826 0 2.1424321484998528e-05 -0.011299846080851925 0 -4.5221507312062567e-07 -0.011321909432009844 0 4.5443726636122087e-07 -0.01247477369698187 0 -0.00054820161820641987 -0.014601750273757817 0 -0.00074496198381289653 -0.014390834644618433 0 -0.00083506711770683321 -0.014632874580921194 0 -0.00023485733437241492 -0.014288568832014193 0 4.3175613357678584e-05 -0.012423158546664308 0 -0.00011676421277947395 -0.0060832047023604251 0 -0.00017617670168982181 -0.0060182242000303412 0 -0.00012818090687577975 -0.0061413534244130841 0 -0.00011676421277947395 -0.0060832047023604251 0 -0.00017617670168982181 -0.0060182242000303412 0 -0.00014609368753148929 -0.0060182306787429718 0 -0.00011676421277947395 -0.0060832047023604251 0 -8.6946559082264104e-05 -0.0060989455795395888 0 -5.6767138213807634e-05 -0.0061562670533412732 0 -0.00011676421277947395 -0.0060832047023604251 0 -0.00014609368753148929 -0.0060182306787429718 0 -8.6946559082264104e-05 -0.0060989455795395888 0 -0.00011676421277947395 -0.0060832047023604251 0 -5.6767138213807634e-05 -0.0061562670533412732 0 -0.00012818090687577975 -0.0061413534244130841 0 -0.00019755378017357835 -0.006005823221266699 0 -0.00017617670168982181 -0.0060182242000303412 0 -0.00012818090687577975 -0.0061413534244130841 0 -0.00019755378017357835 -0.006005823221266699 0 -0.00012818090687577975 -0.0061413534244130841 0 -0.00023327827496524996 -0.00593289083203418 0 -0.00019755378017357835 -0.006005823221266699 0 -0.00017617670168982181 -0.0060182242000303412 0 -0.00023366239552435872 -0.0059635571663647045 0 -0.00017617670168982181 -0.0060182242000303412 0 -0.00020269395837905436 -0.0059570063804662227 0 -0.00014609368753148929 -0.0060182306787429718 0 -0.00017617670168982181 -0.0060182242000303412 0 -0.00020269395837905436 -0.0059570063804662227 0 -0.00023366239552435872 -0.0059635571663647045 0 -0.00020269395837905436 -0.0059570063804662227 0 -0.00016145876612667768 -0.0059583799338311302 0 -0.00014609368753148929 -0.0060182306787429718 0 -0.00020782948630076645 -0.0058948731681587076 0 -0.00020269395837905436 -0.0059570063804662227 0 -0.00016145876612667768 -0.0059583799338311302 0 -0.00016145876612667768 -0.0059583799338311302 0 -0.00014609368753148929 -0.0060182306787429718 0 -0.0001109249175766233 -0.0059996287680065133 0 -0.00014609368753148929 -0.0060182306787429718 0 -0.0001109249175766233 -0.0059996287680065133 0 -8.6946559082264104e-05 -0.0060989455795395888 0 -6.7114940034548136e-05 -0.0059547147547177231 0 -0.0001109249175766233 -0.0059996287680065133 0 -5.2214443184356975e-05 -0.0060413455740802686 0 -2.3540586905556579e-05 -0.0059811127652336484 0 -5.2214443184356975e-05 -0.0060413455740802686 0 3.6336830460426432e-05 -0.0060010017173203608 0 -0.0001109249175766233 -0.0059996287680065133 0 -5.2214443184356975e-05 -0.0060413455740802686 0 -8.6946559082264104e-05 -0.0060989455795395888 0 -5.2214443184356975e-05 -0.0060413455740802686 0 3.6336830460426432e-05 -0.0060010017173203608 0 -2.4092491872599978e-05 -0.0063061654981644505 0 0.00012244221909795663 -0.0060003086377931536 0 -4.142842528005434e-05 -0.0066743879379419103 0 -0.00035691478475990382 -0.007421856290630289 0 4.2776493120012507e-05 -0.0075677069696564103 0 -2.4092491872599978e-05 -0.0063061654981644505 0 -0.00048363767016070669 -0.0066107886466946495 0 -0.00035691478475990382 -0.007421856290630289 0 -2.4092491872599978e-05 -0.0063061654981644505 0 -0.00048363767016070669 -0.0066107886466946495 0 -0.0005198835156013528 -0.0062306707701990953 0 -2.4092491872599978e-05 -0.0063061654981644505 0 -2.4092491872599978e-05 -0.0063061654981644505 0 -8.6946559082264104e-05 -0.0060989455795395888 0 -5.6767138213807634e-05 -0.0061562670533412732 0 -5.2214443184356975e-05 -0.0060413455740802686 0 -2.4092491872599978e-05 -0.0063061654981644505 0 -8.6946559082264104e-05 -0.0060989455795395888 0 -2.4092491872599978e-05 -0.0063061654981644505 0 -5.6767138213807634e-05 -0.0061562670533412732 0 -8.1943404804652345e-06 -0.0061181176442724455 0 -0.00042527246782931552 -0.0058345322187792871 0 -8.1943404804652345e-06 -0.0061181176442724455 0 -0.00022493223550417211 -0.0061221112618374514 0 -0.0005198835156013528 -0.0062306707701990953 0 -0.00042527246782931552 -0.0058345322187792871 0 -0.00022493223550417211 -0.0061221112618374514 0 -2.4092491872599978e-05 -0.0063061654981644505 0 -8.1943404804652345e-06 -0.0061181176442724455 0 -0.00022493223550417211 -0.0061221112618374514 0 -0.0005198835156013528 -0.0062306707701990953 0 -2.4092491872599978e-05 -0.0063061654981644505 0 -0.00022493223550417211 -0.0061221112618374514 0 0.0015032894944267798 -0.0064462252874230947 0 0.00088869219321360067 -0.00619541253455228 0 0.00083655934046203038 -0.0065615039668357805 0 0.00015301447804393442 -0.0077380938271813466 0 0.00044804611144568673 -0.0059637930093246923 0 0.00015301447804393442 -0.0077380938271813466 0 0.00044985491734568099 -0.007427099194401458 0 -7.1843330501603808e-06 -0.0094270100407507478 0 -1.6925919520238252e-07 -0.0090596727037476517 0 1.0439373748769086e-06 -0.0082383327589128381 0 -1.6925919520238252e-07 -0.0090596727037476517 0 3.8846266492889764e-08 -0.0079509639677143359 0 1.0439373748769086e-06 -0.0082383327589128381 0 0.00088869219321360067 -0.00619541253455228 0 0.00083655934046203038 -0.0065615039668357805 0 0.00043867964712687653 -0.0062928406956822436 0 3.8846266492889764e-08 -0.0079509639677143359 0 1.0439373748769086e-06 -0.0082383327589128381 0 4.3840168100850014e-08 -0.006842184631606409 0 0.00044985491734568099 -0.007427099194401458 0 -3.151099362398144e-07 -0.0068422816764304156 0 0.00083655934046203038 -0.0065615039668357805 0 0.00043867964712687653 -0.0062928406956822436 0 6.5174059989071998e-07 -0.0068400760850635843 0 0.00088869219321360067 -0.00619541253455228 0 0.00043867964712687653 -0.0062928406956822436 0 0.00014501009415050943 -0.0058983684843460556 0 0.00044804611144568673 -0.0059637930093246923 0 1.9642870496957926e-05 -0.0060441490164513069 0 -5.6767138213807634e-05 -0.0061562670533412732 0 -8.1943404804652345e-06 -0.0061181176442724455 0 -0.00012818090687577975 -0.0061413534244130841 0 0.00014501009415050943 -0.0058983684843460556 0 -0.00016308758885906439 -0.0059211749408752956 0 -0.00023327827496524996 -0.00593289083203418 0 0.00014501009415050943 -0.0058983684843460556 0 -0.00013924797435525257 -0.0060761516981661344 0 -0.00016308758885906439 -0.0059211749408752956 0 1.9642870496957926e-05 -0.0060441490164513069 0 -0.00020532379132244706 -0.0059387651969665407 0 0.00043867964712687653 -0.0062928406956822436 0 0.00014501009415050943 -0.0058983684843460556 0 -0.00013924797435525257 -0.0060761516981661344 0 0.00043867964712687653 -0.0062928406956822436 0 -0.00013924797435525257 -0.0060761516981661344 0 6.5174059989071998e-07 -0.0068400760850635843 0 -0.00013924797435525257 -0.0060761516981661344 0 6.5174059989071998e-07 -0.0068400760850635843 0 -9.9511770446026125e-07 -0.0055101284652850132 0 -0.00013924797435525257 -0.0060761516981661344 0 -9.9511770446026125e-07 -0.0055101284652850132 0 -0.00010051635987453756 -0.0057663623589370326 0 -9.9511770446026125e-07 -0.0055101284652850132 0 -6.4525875486569549e-05 -0.0054773724341701021 0 1.2497656896245492e-06 -0.0041797014645121953 0 -9.9511770446026125e-07 -0.0055101284652850132 0 -0.00010051635987453756 -0.0057663623589370326 0 -6.4525875486569549e-05 -0.0054773724341701021 0 -0.00010051635987453756 -0.0057663623589370326 0 -6.4525875486569549e-05 -0.0054773724341701021 0 -0.00013245734898549238 -0.0058041877944767948 0 -0.00017725956184611936 -0.0058772705466962642 0 -0.00010638185852168672 -0.0047102591962491641 0 -6.4525875486569549e-05 -0.0054773724341701021 0 -0.00010330243507157058 -0.0057878741664433133 0 0.00023866103481147966 -0.0057573004711712122 0 -6.4525875486569549e-05 -0.0054773724341701021 0 -0.00010330243507157058 -0.0057878741664433133 0 -0.00013245734898549238 -0.0058041877944767948 0 -0.00029398257702510845 -0.0059768241053825616 0 -0.00016308758885906439 -0.0059211749408752956 0 -0.00023327827496524996 -0.00593289083203418 0 -0.00010330243507157058 -0.0057878741664433133 0 -0.00013245734898549238 -0.0058041877944767948 0 -0.00016308758885906439 -0.0059211749408752956 0 -0.00017725956184611936 -0.0058772705466962642 0 -0.00019295776831024204 -0.0059070628647665468 0 -0.00013245734898549238 -0.0058041877944767948 0 -0.00016308758885906439 -0.0059211749408752956 0 -0.00014119896525233226 -0.0059026214674988428 0 -0.00013924797435525257 -0.0060761516981661344 0 -0.00016308758885906439 -0.0059211749408752956 0 -0.00014119896525233226 -0.0059026214674988428 0 -0.00013924797435525257 -0.0060761516981661344 0 -0.00010051635987453756 -0.0057663623589370326 0 -0.00014119896525233226 -0.0059026214674988428 0 -0.00010051635987453756 -0.0057663623589370326 0 -0.00013245734898549238 -0.0058041877944767948 0 -0.00014119896525233226 -0.0059026214674988428 0 -8.6179625908125326e-07 -0.0031847257381819351 0 -0.00011937357070524272 -0.0033481066247526363 0 6.6132170377706769e-07 -0.0041763863275316249 0 -8.6179625908125326e-07 -0.0031847257381819351 0 -0.00011937357070524272 -0.0033481066247526363 0 -8.0107639262878713e-05 -0.0030855120550220363 0 -6.4525875486569549e-05 -0.0054773724341701021 0 0.00029750878265216875 -0.0052586840067022685 0 1.2497656896245492e-06 -0.0041797014645121953 0 -0.00011937357070524272 -0.0033481066247526363 0 0.00015461500775491063 -0.0034575803408844422 0 6.6132170377706769e-07 -0.0041763863275316249 0 0.00016446402576367582 -0.0043391843554472509 0 1.3069107699201269e-07 -0.0041780682132214666 0 -0.00011937357070524272 -0.0033481066247526363 0 0.00015461500775491063 -0.0034575803408844422 0 0.00010838161558704124 -0.0032566952713056888 0 -6.4525875486569549e-05 -0.0054773724341701021 0 0.00029750878265216875 -0.0052586840067022685 0 0.00023866103481147966 -0.0057573004711712122 0 0.00016446402576367582 -0.0043391843554472509 0 -0.00010638185852168672 -0.0047102591962491641 0 -0.00011937357070524272 -0.0033481066247526363 0 0.00010838161558704124 -0.0032566952713056888 0 -0.00016886914608505197 -0.0033178916334832926 0 -0.00011937357070524272 -0.0033481066247526363 0 -0.00016886914608505197 -0.0033178916334832926 0 -8.0107639262878713e-05 -0.0030855120550220363 0 -0.00010638185852168672 -0.0047102591962491641 0 9.48943964433063e-05 -0.0035283697556064168 0 5.7597874087283311e-05 -0.0043193511554850007 0 0.00032811602807206354 -0.0039364631610492151 0 0.00044292689327101635 -0.0043085106673357784 0 -0.00026591944354532356 -0.0039033080292036355 0 5.7597874087283311e-05 -0.0043193511554850007 0 0.00032811602807206354 -0.0039364631610492151 0 -0.00033775936390228637 -0.0059698083518424927 0 -0.00035738195567715735 -0.005898990610668199 0 -0.0003110271355541403 -0.0059500439043703723 0 -0.00010638185852168672 -0.0047102591962491641 0 -0.00039262772486953266 -0.0053352360131551065 0 -0.00026591944354532356 -0.0039033080292036355 0 5.7597874087283311e-05 -0.0043193511554850007 0 -0.00038511096937912225 -0.0046554487810785304 0 5.7597874087283311e-05 -0.0043193511554850007 0 -0.00038511096937912225 -0.0046554487810785304 0 0.00025426475893046522 -0.0048526727919404105 0 5.7597874087283311e-05 -0.0043193511554850007 0 0.00025426475893046522 -0.0048526727919404105 0 0.00044292689327101635 -0.0043085106673357784 0 -0.00023366239552435872 -0.0059635571663647045 0 -0.00026711623571216525 -0.0059479891784558481 0 -0.00028462550041483326 -0.0059389117216257781 0 -0.00019755378017357835 -0.006005823221266699 0 -0.00023366239552435872 -0.0059635571663647045 0 -0.00023327827496524996 -0.00593289083203418 0 -0.00029398257702510845 -0.0059768241053825616 0 -0.00023327827496524996 -0.00593289083203418 0 -0.00026711623571216525 -0.0059479891784558481 0 -0.00023366239552435872 -0.0059635571663647045 0 -0.00023327827496524996 -0.00593289083203418 0 -0.00026711623571216525 -0.0059479891784558481 0 -0.00029398257702510845 -0.0059768241053825616 0 -0.00026711623571216525 -0.0059479891784558481 0 -0.0003110271355541403 -0.0059500439043703723 0 -0.00029398257702510845 -0.0059768241053825616 0 -0.00033775936390228637 -0.0059698083518424927 0 -0.0003110271355541403 -0.0059500439043703723 0 -0.00026711623571216525 -0.0059479891784558481 0 -0.0003110271355541403 -0.0059500439043703723 0 -0.00028462550041483326 -0.0059389117216257781 0 -0.00035738195567715735 -0.005898990610668199 0 -0.00028462550041483326 -0.0059389117216257781 0 -0.00025864074525409436 -0.0059119368362895632 0 -0.00035738195567715735 -0.005898990610668199 0 -0.0003110271355541403 -0.0059500439043703723 0 -0.00028462550041483326 -0.0059389117216257781 0 -0.00023366239552435872 -0.0059635571663647045 0 -0.00028462550041483326 -0.0059389117216257781 0 -0.00025864074525409436 -0.0059119368362895632 0 -0.00020269395837905436 -0.0059570063804662227 0 -0.00023366239552435872 -0.0059635571663647045 0 -0.00025864074525409436 -0.0059119368362895632 0 -0.00020782948630076645 -0.0058948731681587076 0 -0.00020269395837905436 -0.0059570063804662227 0 -0.00025864074525409436 -0.0059119368362895632 0 -0.00020782948630076645 -0.0058948731681587076 0 -0.00027902587578161646 -0.0058115162470108997 0 -0.00024480408222698374 -0.0058219616056945055 0 -0.00020782948630076645 -0.0058948731681587076 0 -0.00025864074525409436 -0.0059119368362895632 0 -0.00027902587578161646 -0.0058115162470108997 0 -0.00027902587578161646 -0.0058115162470108997 0 -0.00024480408222698374 -0.0058219616056945055 0 -0.00031010177792008498 -0.0057637256354708165 0 -0.00027902587578161646 -0.0058115162470108997 0 -0.00031010177792008498 -0.0057637256354708165 0 -0.00035951496986745763 -0.0056688333683172576 0 -0.00035738195567715735 -0.005898990610668199 0 -0.00025864074525409436 -0.0059119368362895632 0 -0.00027902587578161646 -0.0058115162470108997 0 -0.00035738195567715735 -0.005898990610668199 0 -0.00027902587578161646 -0.0058115162470108997 0 -0.00035951496986745763 -0.0056688333683172576 0 -0.00039262772486953266 -0.0053352360131551065 0 -0.00035877486906407978 -0.0056119493469738825 0 -0.00038511096937912225 -0.0046554487810785304 0 0.00025426475893046522 -0.0048526727919404105 0 -0.00010379934153083761 -0.0056035667133734288 0 -0.00038511096937912225 -0.0046554487810785304 0 -0.00035951496986745763 -0.0056688333683172576 0 -0.00010379934153083761 -0.0056035667133734288 0 0.00026869146861840281 -0.0048633635154455819 0 -0.00012896692828242545 -0.0054945174705847838 0 0.00025426475893046522 -0.0048526727919404105 0 0.00023281704575501373 -0.0052961510160523676 0 1.0033637392292747e-05 -0.005167650621027392 0 0.00025426475893046522 -0.0048526727919404105 0 0.00023281704575501373 -0.0052961510160523676 0 0.00047533691649218399 -0.0052065157374583428 0 -0.00035951496986745763 -0.0056688333683172576 0 -0.00010379934153083761 -0.0056035667133734288 0 -0.00033034470152773612 -0.0058000600355705362 0 0.00023281704575501373 -0.0052961510160523676 0 1.0033637392292747e-05 -0.005167650621027392 0 1.9696168931605083e-05 -0.0054741837369077628 0 -0.00012896692828242545 -0.0054945174705847838 0 -4.2085941132603213e-05 -0.0049970029914547026 0 1.0033637392292747e-05 -0.005167650621027392 0 1.9696168931605083e-05 -0.0054741837369077628 0 -0.00029346219820608807 -0.0055319866322901213 0 1.9696168931605083e-05 -0.0054741837369077628 0 0.00021784698393394054 -0.0055923068856946019 0 -6.085814230323209e-05 -0.0057921498515582032 0 1.9696168931605083e-05 -0.0054741837369077628 0 -6.085814230323209e-05 -0.0057921498515582032 0 -0.00029346219820608807 -0.0055319866322901213 0 0.00023281704575501373 -0.0052961510160523676 0 0.00021784698393394054 -0.0055923068856946019 0 0.00044788346920081605 -0.0054859903132378988 0 0.00023281704575501373 -0.0052961510160523676 0 0.00044788346920081605 -0.0054859903132378988 0 0.00047533691649218399 -0.0052065157374583428 0 0.00023281704575501373 -0.0052961510160523676 0 1.9696168931605083e-05 -0.0054741837369077628 0 0.00021784698393394054 -0.0055923068856946019 0 0.00021784698393394054 -0.0055923068856946019 0 0.00042572327056052714 -0.0057339075074802747 0 0.00044788346920081605 -0.0054859903132378988 0 0.00021784698393394054 -0.0055923068856946019 0 0.00042572327056052714 -0.0057339075074802747 0 0.00023501267938335225 -0.0058247851156224256 0 0.00021784698393394054 -0.0055923068856946019 0 0.00023501267938335225 -0.0058247851156224256 0 -6.085814230323209e-05 -0.0057921498515582032 0 0.00020634600354363481 -0.0060830784884286808 0 0.00023501267938335225 -0.0058247851156224256 0 -6.085814230323209e-05 -0.0057921498515582032 0 0.00020634600354363481 -0.0060830784884286808 0 0.00023501267938335225 -0.0058247851156224256 0 0.0003991913816798343 -0.0058992956435476055 0 0.00042572327056052714 -0.0057339075074802747 0 0.00023501267938335225 -0.0058247851156224256 0 0.0003991913816798343 -0.0058992956435476055 0 -0.00015581520615405307 -0.0061627283118865584 0 -6.085814230323209e-05 -0.0057921498515582032 0 -0.00060850415896351949 -0.0059657457677191623 0 -6.085814230323209e-05 -0.0057921498515582032 0 -0.00060850415896351949 -0.0059657457677191623 0 -0.00029346219820608807 -0.0055319866322901213 0 -0.00056260595855961101 -0.0099539542454151857 0 -4.2085941132603213e-05 -0.0049970029914547026 0 -0.00029777778649927927 -0.0057724292477418703 0 -0.00027890868493006044 -0.0057821087650195835 0 -0.00033034470152773612 -0.0058000600355705362 0 -0.00055351381549585265 -0.010037822266302451 0 -0.00056260595855961101 -0.0099539542454151857 0 -0.00021918595195954003 -0.0057770930929790555 0 -0.00029777778649927927 -0.0057724292477418703 0 -0.00027890868493006044 -0.0057821087650195835 0 -0.00024480408222698374 -0.0058219616056945055 0 -0.00031010177792008498 -0.0057637256354708165 0 -0.00027890868493006044 -0.0057821087650195835 0 -0.00031010177792008498 -0.0057637256354708165 0 -0.00035951496986745763 -0.0056688333683172576 0 -0.00033034470152773612 -0.0058000600355705362 0 -0.00031010177792008498 -0.0057637256354708165 0 -0.00027890868493006044 -0.0057821087650195835 0 -0.00033034470152773612 -0.0058000600355705362 0 0.0011028707200253323 -0.0055125263490250435 0 0.001334237546907997 -0.0055020130542771809 0 0.0011826424776023559 -0.005713977228714695 0 0.0011028707200253323 -0.0055125263490250435 0 0.00089166212757445956 -0.0053661151006261917 0 0.0011715651780841425 -0.00529663919777689 0 0.0013224169789470765 -0.0046796969204448095 0 0.0012991215779395954 -0.005357544277376002 0 0.0011028707200253323 -0.0055125263490250435 0 0.001334237546907997 -0.0055020130542771809 0 0.0011715651780841425 -0.00529663919777689 0 0.00077221663314282695 -0.0018716583248568378 0 0.00094777876479647705 -0.0018209833280629325 0 0.00095079749156929739 -0.0020584850307649527 0 0.00077221663314282695 -0.0018716583248568378 0 0.00094305594746932331 -0.0015798674288956115 0 0.00094777876479647705 -0.0018209833280629325 0 0.0013156264323843695 -0.0058463808391059227 0 0.0012810276817738905 -0.0055287211925799358 0 0.0015088246071280371 -0.0057773404859343836 0 0.0013156264323843695 -0.0058463808391059227 0 0.0012810276817738905 -0.0055287211925799358 0 0.0011826424776023559 -0.005713977228714695 0 0.0013224169789470765 -0.0046796969204448095 0 0.0010557592411040138 -0.0058195526856840134 0 0.0013224169789470765 -0.0046796969204448095 0 0.00070394280356645734 -0.0018489414210231178 0 0.0013156264323843695 -0.0058463808391059227 0 0.0011398000116017205 -0.0059137148071443883 0 0.0011826424776023559 -0.005713977228714695 0 0.0011028707200253323 -0.0055125263490250435 0 0.0011826424776023559 -0.005713977228714695 0 0.00092720330264452287 -0.0056417895252821723 0 0.0011826424776023559 -0.005713977228714695 0 0.00094402827579724536 -0.0058495935246363293 0 0.00092720330264452287 -0.0056417895252821723 0 0.0011398000116017205 -0.0059137148071443883 0 0.0011826424776023559 -0.005713977228714695 0 0.00094402827579724536 -0.0058495935246363293 0 0.00074909904641886217 -0.0058953214004911474 0 0.00094402827579724536 -0.0058495935246363293 0 0.00077917838577460882 -0.0057491438099656284 0 0.00077917838577460882 -0.0057491438099656284 0 0.00092720330264452287 -0.0056417895252821723 0 0.00067304096697149655 -0.0056179156581336103 0 0.00094402827579724536 -0.0058495935246363293 0 0.00077917838577460882 -0.0057491438099656284 0 0.00092720330264452287 -0.0056417895252821723 0 0.00042572327056052714 -0.0057339075074802747 0 0.0003991913816798343 -0.0058992956435476055 0 0.00059939636234470348 -0.0058496883781741687 0 0.00050709501269290168 -0.0060101945777968433 0 0.0003991913816798343 -0.0058992956435476055 0 0.00059939636234470348 -0.0058496883781741687 0 0.00074909904641886217 -0.0058953214004911474 0 0.00077917838577460882 -0.0057491438099656284 0 0.00059939636234470348 -0.0058496883781741687 0 0.00077917838577460882 -0.0057491438099656284 0 0.00059939636234470348 -0.0058496883781741687 0 0.00067304096697149655 -0.0056179156581336103 0 0.00042572327056052714 -0.0057339075074802747 0 0.00059939636234470348 -0.0058496883781741687 0 0.00067304096697149655 -0.0056179156581336103 0 0.00042572327056052714 -0.0057339075074802747 0 0.00044788346920081605 -0.0054859903132378988 0 0.00067304096697149655 -0.0056179156581336103 0 0.00044788346920081605 -0.0054859903132378988 0 0.00067304096697149655 -0.0056179156581336103 0 0.00063886216472517341 -0.0053756131860935594 0 0.00044788346920081605 -0.0054859903132378988 0 0.00063886216472517341 -0.0053756131860935594 0 0.00047533691649218399 -0.0052065157374583428 0 0.0011028707200253323 -0.0055125263490250435 0 0.00092720330264452287 -0.0056417895252821723 0 0.00089166212757445956 -0.0053661151006261917 0 0.00092720330264452287 -0.0056417895252821723 0 0.00067304096697149655 -0.0056179156581336103 0 0.00089166212757445956 -0.0053661151006261917 0 0.00067304096697149655 -0.0056179156581336103 0 0.00063886216472517341 -0.0053756131860935594 0 0.00089166212757445956 -0.0053661151006261917 0 0.00063886216472517341 -0.0053756131860935594 0 0.00089166212757445956 -0.0053661151006261917 0 0.00069326250842566218 -0.0049918221911221614 0 0.00089166212757445956 -0.0053661151006261917 0 0.0010054937718085406 -0.0050542728820448662 0 0.00069326250842566218 -0.0049918221911221614 0 0.00063886216472517341 -0.0053756131860935594 0 0.00047533691649218399 -0.0052065157374583428 0 0.00069326250842566218 -0.0049918221911221614 0 0.00025426475893046522 -0.0048526727919404105 0 0.00047533691649218399 -0.0052065157374583428 0 0.00069326250842566218 -0.0049918221911221614 0 0.00025426475893046522 -0.0048526727919404105 0 0.00069326250842566218 -0.0049918221911221614 0 0.00071658724612623395 -0.0045457346374515742 0 0.00069326250842566218 -0.0049918221911221614 0 0.0010301683660782223 -0.0047075265788165252 0 0.00071658724612623395 -0.0045457346374515742 0 0.0010054937718085406 -0.0050542728820448662 0 0.00069326250842566218 -0.0049918221911221614 0 0.0010301683660782223 -0.0047075265788165252 0 0.0010301683660782223 -0.0047075265788165252 0 0.001414162085588766 -0.0048881640624733281 0 0.00131056417459786 -0.004507243793048659 0 0.0010054937718085406 -0.0050542728820448662 0 0.0010301683660782223 -0.0047075265788165252 0 0.001414162085588766 -0.0048881640624733281 0 0.0010054937718085406 -0.0050542728820448662 0 0.001414162085588766 -0.0048881640624733281 0 0.0012667726622066495 -0.0053033675697976308 0 0.0010093043562605535 -0.0050618708143314204 0 0.0012991215779395954 -0.005357544277376002 0 0.00089166212757445956 -0.0053661151006261917 0 0.0010054937718085406 -0.0050542728820448662 0 0.0011715651780841425 -0.00529663919777689 0 0.001414162085588766 -0.0048881640624733281 0 0.0012667726622066495 -0.0053033675697976308 0 0.0018954636457329142 -0.0049632774329230024 0 0.0015173235909005849 -0.0055608978647582203 0 0.0012667726622066495 -0.0053033675697976308 0 0.0018954636457329142 -0.0049632774329230024 0 0.0013224169789470765 -0.0046796969204448095 0 0.00094840414141500939 -0.0014234777988102328 0 0.0015810099678033689 -0.0045961805841708888 0 0.0019096002058701094 -0.0044617585356230742 0 0.0018954636457329142 -0.0049632774329230024 0 0.001414162085588766 -0.0048881640624733281 0 0.0015810099678033689 -0.0045961805841708888 0 0.0018954636457329142 -0.0049632774329230024 0 0.001414162085588766 -0.0048881640624733281 0 0.0015810099678033689 -0.0045961805841708888 0 0.00131056417459786 -0.004507243793048659 0 0.0015557822461214307 -0.0042174044356672871 0 0.0019096002058701094 -0.0044617585356230742 0 0.0019628871489466015 -0.0038761652073951666 0 0.0015810099678033689 -0.0045961805841708888 0 0.0015557822461214307 -0.0042174044356672871 0 0.0019096002058701094 -0.0044617585356230742 0 0.0015810099678033689 -0.0045961805841708888 0 0.0015557822461214307 -0.0042174044356672871 0 0.00131056417459786 -0.004507243793048659 0 0.0015557822461214307 -0.0042174044356672871 0 0.0010939533487797867 -0.0042355796797877631 0 0.00131056417459786 -0.004507243793048659 0 0.0010301683660782223 -0.0047075265788165252 0 0.0010939533487797867 -0.0042355796797877631 0 0.00131056417459786 -0.004507243793048659 0 0.0015557822461214307 -0.0042174044356672871 0 0.0010939533487797867 -0.0042355796797877631 0 0.0013310414120266344 -0.0037603320954712571 0 0.0012912371743246066 -0.0037614265533946999 0 0.00059227636294647407 -0.0037393206851567724 0 0.0010939533487797867 -0.0042355796797877631 0 0.0013310414120266344 -0.0037603320954712571 0 0.0008315053468361482 -0.0039107809438031745 0 0.0015557822461214307 -0.0042174044356672871 0 0.0013310414120266344 -0.0037603320954712571 0 0.0019628871489466015 -0.0038761652073951666 0 0.00025426475893046522 -0.0048526727919404105 0 0.00044292689327101635 -0.0043085106673357784 0 0.00071658724612623395 -0.0045457346374515742 0 0.0010301683660782223 -0.0047075265788165252 0 0.0010939533487797867 -0.0042355796797877631 0 0.00071658724612623395 -0.0045457346374515742 0 0.0010939533487797867 -0.0042355796797877631 0 0.00071658724612623395 -0.0045457346374515742 0 0.0008315053468361482 -0.0039107809438031745 0 0.00044292689327101635 -0.0043085106673357784 0 0.00071658724612623395 -0.0045457346374515742 0 0.0008315053468361482 -0.0039107809438031745 0 0.00032811602807206354 -0.0039364631610492151 0 0.00044292689327101635 -0.0043085106673357784 0 0.0008315053468361482 -0.0039107809438031745 0 9.48943964433063e-05 -0.0035283697556064168 0 0.00059227636294647407 -0.0037393206851567724 0 -0.00016886914608505197 -0.0033178916334832926 0 0.00027876086964504442 -0.0035686909102499238 0 -8.0107639262878713e-05 -0.0030855120550220363 0 0.00027876086964504442 -0.0035686909102499238 0 0.0003073727083639719 -0.0030299954405268604 0 0.0011651986634813685 -0.0031273971427359252 0 0.00027876086964504442 -0.0035686909102499238 0 -8.0107639262878713e-05 -0.0030855120550220363 0 0.0003073727083639719 -0.0030299954405268604 0 0.0003073727083639719 -0.0030299954405268604 0 1.1152457596534484e-06 -0.0021933706976884964 0 0.0011651986634813685 -0.0031273971427359252 0 -2.4849385093809636e-07 -0.0021910463846050118 0 0.00059078510587028663 -0.0021733308363374149 0 -8.0107639262878713e-05 -0.0030855120550220363 0 0.0003073727083639719 -0.0030299954405268604 0 1.1152457596534484e-06 -0.0021933706976884964 0 -8.6179625908125326e-07 -0.0031847257381819351 0 -8.0107639262878713e-05 -0.0030855120550220363 0 1.1152457596534484e-06 -0.0021933706976884964 0 -4.7778053360858432e-05 -0.00071940913787450626 0 0.00012031557413899897 -0.00071796059094370458 0 0.00013209671391471977 -0.00086419521759073656 0 0.0013310414120266344 -0.0037603320954712571 0 0.0011651986634813685 -0.0031273971427359252 0 0.0019628871489466015 -0.0038761652073951666 0 0.00059078510587028663 -0.0021733308363374149 0 0.00088387953878534464 -0.0010448981721730372 0 0.0013310414120266344 -0.0037603320954712571 0 0.00027876086964504442 -0.0035686909102499238 0 0.0011651986634813685 -0.0031273971427359252 0 4.8359877189680768e-07 -0.0021902585216128151 0 -4.7778053360858432e-05 -0.00071940913787450626 0 -4.8449243611205056e-07 -0.0010633060744561342 0 -4.7778053360858432e-05 -0.00071940913787450626 0 -4.8449243611205056e-07 -0.0010633060744561342 0 -6.9735993480586503e-05 -0.00058871236719546904 0 -6.9735993480586503e-05 -0.00058871236719546904 0 5.1464047793792211e-07 6.3643172759986371e-05 0 0.00012031557413899897 -0.00071796059094370458 0 -4.8449243611205056e-07 -0.0010633060744561342 0 -6.9735993480586503e-05 -0.00058871236719546904 0 5.1464047793792211e-07 6.3643172759986371e-05 0 -4.7778053360858432e-05 -0.00071940913787450626 0 -6.9735993480586503e-05 -0.00058871236719546904 0 0.00012031557413899897 -0.00071796059094370458 0 1.6842487243582737e-07 6.4918369472094688e-05 0 0.00022215777718477339 0.00061607505431353858 0 1.3454523227233597e-06 6.680638688055454e-05 0 2.1120104922100682e-05 0.0013706487510343646 0 -5.3568908194275487e-07 0.0010548922406022339 0 1.3454523227233597e-06 6.680638688055454e-05 0 0.00045295223397768137 0.0013703161947691673 0 2.1120104922100682e-05 0.0013706487510343646 0 0.00045295223397768137 0.0013703161947691673 0 0.00014396594204623019 0.0017187059951294247 0 0.00045564048370914278 0.0018755714183807451 0 0.00022215777718477339 0.00061607505431353858 0 0.00088387953878534464 -0.0010448981721730372 0 0.00045295223397768137 0.0013703161947691673 0 0.00014396594204623019 0.0017187059951294247 0 2.1120104922100682e-05 0.0013706487510343646 0 0.00014396594204623019 0.0017187059951294247 0 -8.6196939360272743e-06 0.001722997101199905 0 9.0971013727892067e-05 0.0019159179839030342 0 0.00014396594204623019 0.0017187059951294247 0 -8.6196939360272743e-06 0.001722997101199905 0 2.1120104922100682e-05 0.0013706487510343646 0 -8.6196939360272743e-06 0.001722997101199905 0 -6.5438512578371464e-05 0.0016057360176384074 0 2.1120104922100682e-05 0.0013706487510343646 0 -6.5438512578371464e-05 0.0016057360176384074 0 -5.3568908194275487e-07 0.0010548922406022339 0 1.5875169954376229e-07 0.0020431739683314781 0 -6.5438512578371464e-05 0.0016057360176384074 0 2.1120104922100682e-05 0.0013706487510343646 0 -5.3568908194275487e-07 0.0010548922406022339 0 -6.5438512578371464e-05 0.0016057360176384074 0 1.5875169954376229e-07 0.0020431739683314781 0 3.196537503621409e-05 0.0018999766911351388 0 8.6387883404157858e-08 0.0020448361731690208 0 8.6543959184547112e-08 0.0032696363084768025 0 2.4332305300622497e-05 0.0036211972603384431 0 -1.9875250191283615e-07 0.0020448213239805898 0 -4.1344574496954589e-05 0.0028295564733421814 0 1.5875169954376229e-07 0.0020431739683314781 0 3.196537503621409e-05 0.0018999766911351388 0 5.2468823249693161e-05 0.001987317776875849 0 3.196537503621409e-05 0.0018999766911351388 0 2.5843260706274599e-05 0.0019065940232662589 0 4.3145958861807331e-05 0.0020676683167834935 0 3.196537503621409e-05 0.0018999766911351388 0 4.3145958861807331e-05 0.0020676683167834935 0 2.3158466539351454e-05 0.0020928727794045331 0 -8.6196939360272743e-06 0.001722997101199905 0 3.196537503621409e-05 0.0018999766911351388 0 2.5843260706274599e-05 0.0019065940232662589 0 -8.6196939360272743e-06 0.001722997101199905 0 -6.5438512578371464e-05 0.0016057360176384074 0 3.196537503621409e-05 0.0018999766911351388 0 -8.6196939360272743e-06 0.001722997101199905 0 2.5843260706274599e-05 0.0019065940232662589 0 5.497848308243663e-05 0.0019851983463065248 0 -8.6196939360272743e-06 0.001722997101199905 0 5.497848308243663e-05 0.0019851983463065248 0 9.0971013727892067e-05 0.0019159179839030342 0 5.497848308243663e-05 0.0019851983463065248 0 7.0220984552573829e-05 0.0021051014873162163 0 4.3145958861807331e-05 0.0020676683167834935 0 2.5843260706274599e-05 0.0019065940232662589 0 5.497848308243663e-05 0.0019851983463065248 0 4.3145958861807331e-05 0.0020676683167834935 0 5.497848308243663e-05 0.0019851983463065248 0 7.0220984552573829e-05 0.0021051014873162163 0 0.00010697476752809011 0.0021178199704087667 0 5.497848308243663e-05 0.0019851983463065248 0 0.00010697476752809011 0.0021178199704087667 0 9.0971013727892067e-05 0.0019159179839030342 0 7.0220984552573829e-05 0.0021051014873162163 0 4.3145958861807331e-05 0.0020676683167834935 0 9.0653526649084857e-05 0.0022531033107557339 0 4.3145958861807331e-05 0.0020676683167834935 0 9.0653526649084857e-05 0.0022531033107557339 0 3.472974584944484e-05 0.002281576124230889 0 7.0220984552573829e-05 0.0021051014873162163 0 9.0653526649084857e-05 0.0022531033107557339 0 0.00010697476752809011 0.0021178199704087667 0 9.0653526649084857e-05 0.0022531033107557339 0 0.00010697476752809011 0.0021178199704087667 0 0.00014550255799252533 0.0022743168854135838 0 0.00019018678453119593 0.0022370591597144951 0 0.00018086917028217725 0.0022809369249440323 0 0.00014550255799252533 0.0022743168854135838 0 0.00010697476752809011 0.0021178199704087667 0 0.00019434826360257947 0.0021021127188312325 0 0.00014550255799252533 0.0022743168854135838 0 0.00031435800714047039 0.0012255423604468579 0 -3.2544898698979457e-05 0.0024407283620423242 0 0.00010697476752809011 0.0021178199704087667 0 0.00019434826360257947 0.0021021127188312325 0 0.00015707995471405417 0.0020507032720465798 0 0.00031435800714047039 0.0012255423604468579 0 0.00042130111611179006 0.0016947945527654032 0 0.00031435800714047039 0.0012255423604468579 0 0.00069078969997738164 0.00082650285771161951 0 0.00019018678453119593 0.0022370591597144951 0 0.00021017447486753352 0.0022843805968560081 0 0.00018086917028217725 0.0022809369249440323 0 0.00098602736691555306 -0.00083001905044610648 0 0.00087145949648412616 -0.00088514159880741239 0 0.00093291994114903646 -0.00093013549748835217 0 0.0014623770531165434 -0.0032137452199184568 0 0.00088387953878534464 -0.0010448981721730372 0 0.00098602736691555306 -0.00083001905044610648 0 0.00087145949648412616 -0.00088514159880741239 0 0.00086806454347056541 -0.00074562247346282552 0 0.00031435800714047039 0.0012255423604468579 0 0.00088387953878534464 -0.0010448981721730372 0 0.0001711089579796338 0.0021151696937920131 0 0.00045564048370914278 0.0018755714183807451 0 0.00019010512174913864 0.0019396338936650509 0 0.00014396594204623019 0.0017187059951294247 0 0.00045564048370914278 0.0018755714183807451 0 0.00019010512174913864 0.0019396338936650509 0 0.00014396594204623019 0.0017187059951294247 0 9.0971013727892067e-05 0.0019159179839030342 0 0.00019010512174913864 0.0019396338936650509 0 0.00010697476752809011 0.0021178199704087667 0 9.0971013727892067e-05 0.0019159179839030342 0 0.00015707995471405417 0.0020507032720465798 0 0.0001711089579796338 0.0021151696937920131 0 0.00015707995471405417 0.0020507032720465798 0 0.00019010512174913864 0.0019396338936650509 0 9.0971013727892067e-05 0.0019159179839030342 0 0.00015707995471405417 0.0020507032720465798 0 0.00019010512174913864 0.0019396338936650509 0 -0.00018584875041955951 0.0043827560499973108 0 -7.7781591035061637e-05 0.0036417664033728302 0 -0.00025241542362241896 0.002234400801577364 0 -7.4600185130874102e-05 0.0021087516107028345 0 -0.00015217344311111485 0.0023070036503725732 0 -2.0717321720590003e-05 0.0065287192484795595 0 -1.1273479348111147e-08 0.0057190217808026893 0 2.7808096109232394e-05 0.0051583224042060904 0 -1.1273479348111147e-08 0.0057190217808026893 0 2.7808096109232394e-05 0.0051583224042060904 0 5.0276524354537659e-08 0.0044944947791546478 0 -7.4600185130874102e-05 0.0021087516107028345 0 -4.8625919566299744e-05 0.002242968745635004 0 -0.00015217344311111485 0.0023070036503725732 0 -7.4600185130874102e-05 0.0021087516107028345 0 2.3158466539351454e-05 0.0020928727794045331 0 -4.8625919566299744e-05 0.002242968745635004 0 -7.4600185130874102e-05 0.0021087516107028345 0 5.2468823249693161e-05 0.001987317776875849 0 2.3158466539351454e-05 0.0020928727794045331 0 2.7808096109232394e-05 0.0051583224042060904 0 5.0276524354537659e-08 0.0044944947791546478 0 2.4332305300622497e-05 0.0036211972603384431 0 -7.7781591035061637e-05 0.0036417664033728302 0 -4.1344574496954589e-05 0.0028295564733421814 0 5.0276524354537659e-08 0.0044944947791546478 0 8.6543959184547112e-08 0.0032696363084768025 0 2.4332305300622497e-05 0.0036211972603384431 0 3.196537503621409e-05 0.0018999766911351388 0 5.2468823249693161e-05 0.001987317776875849 0 2.3158466539351454e-05 0.0020928727794045331 0 4.3145958861807331e-05 0.0020676683167834935 0 2.3158466539351454e-05 0.0020928727794045331 0 3.472974584944484e-05 0.002281576124230889 0 9.0653526649084857e-05 0.0022531033107557339 0 3.472974584944484e-05 0.002281576124230889 0 9.500293276469946e-05 0.0023826713027126352 0 3.472974584944484e-05 0.002281576124230889 0 -8.7459282667642308e-05 0.0024460042367950336 0 4.8279895591155676e-05 0.0025248417542800905 0 3.472974584944484e-05 0.002281576124230889 0 -4.8625919566299744e-05 0.002242968745635004 0 -8.7459282667642308e-05 0.0024460042367950336 0 2.3158466539351454e-05 0.0020928727794045331 0 3.472974584944484e-05 0.002281576124230889 0 -4.8625919566299744e-05 0.002242968745635004 0 -4.8625919566299744e-05 0.002242968745635004 0 -8.7459282667642308e-05 0.0024460042367950336 0 -0.00015217344311111485 0.0023070036503725732 0 -8.7459282667642308e-05 0.0024460042367950336 0 -0.00022354153614904116 0.0026417866777742492 0 -0.00029232658911759198 0.0024896996963780422 0 -0.00025241542362241896 0.002234400801577364 0 -0.00015217344311111485 0.0023070036503725732 0 -0.00029232658911759198 0.0024896996963780422 0 -8.7459282667642308e-05 0.0024460042367950336 0 -0.00015217344311111485 0.0023070036503725732 0 -0.00029232658911759198 0.0024896996963780422 0 -0.00016012819666788792 0.0028883986497790985 0 -0.00011598975146077969 0.0026889367687655966 0 -0.00030696980821906127 0.0028555688705885411 0 -8.7459282667642308e-05 0.0024460042367950336 0 -0.00011598975146077969 0.0026889367687655966 0 -0.00022354153614904116 0.0026417866777742492 0 -0.00011598975146077969 0.0026889367687655966 0 -0.00022354153614904116 0.0026417866777742492 0 -0.00030696980821906127 0.0028555688705885411 0 -8.7459282667642308e-05 0.0024460042367950336 0 -0.00011598975146077969 0.0026889367687655966 0 4.8279895591155676e-05 0.0025248417542800905 0 -0.00011598975146077969 0.0026889367687655966 0 -8.6234459756369915e-06 0.0027928490806100621 0 4.8279895591155676e-05 0.0025248417542800905 0 -0.00016012819666788792 0.0028883986497790985 0 -0.00011598975146077969 0.0026889367687655966 0 -8.6234459756369915e-06 0.0027928490806100621 0 -8.6234459756369915e-06 0.0027928490806100621 0 0.00017516359205581422 0.0026520831066962573 0 4.8279895591155676e-05 0.0025248417542800905 0 0.00017516359205581422 0.0026520831066962573 0 4.8279895591155676e-05 0.0025248417542800905 0 0.00012069562346981097 0.0025130946368701929 0 4.8279895591155676e-05 0.0025248417542800905 0 9.500293276469946e-05 0.0023826713027126352 0 0.00012069562346981097 0.0025130946368701929 0 3.472974584944484e-05 0.002281576124230889 0 4.8279895591155676e-05 0.0025248417542800905 0 9.500293276469946e-05 0.0023826713027126352 0 9.500293276469946e-05 0.0023826713027126352 0 0.00012069562346981097 0.0025130946368701929 0 0.00013935964066521302 0.0024771379424515633 0 0.00017516359205581422 0.0026520831066962573 0 0.00012069562346981097 0.0025130946368701929 0 0.00013935964066521302 0.0024771379424515633 0 0.00017516359205581422 0.0026520831066962573 0 0.00013935964066521302 0.0024771379424515633 0 0.00015663877118227268 0.0024758318800233493 0 0.00020232154465020183 0.0024379013308892215 0 0.00015663877118227268 0.0024758318800233493 0 0.00017513523718873559 0.0024112104724357819 0 0.00020037952093080353 0.0026604354777536934 0 0.00025838651331761946 0.0027345947291802859 0 0.00017516359205581422 0.0026520831066962573 0 0.00020232154465020183 0.0024379013308892215 0 0.00015663877118227268 0.0024758318800233493 0 0.00025838651331761946 0.0027345947291802859 0 0.00057615773888477909 0.0029111560348741728 0 0.00020232154465020183 0.0024379013308892215 0 0.00017513523718873559 0.0024112104724357819 0 0.00020169013520276999 0.0023879987330892205 0 0.00037529216303019736 0.003069202648307534 0 0.00024612634045251361 0.0032281443685769681 0 0.00047827653230280462 0.0033670238731608689 0 0.00037529216303019736 0.003069202648307534 0 0.00024612634045251361 0.0032281443685769681 0 6.9715887946422478e-05 0.003086317591898635 0 0.00024612634045251361 0.0032281443685769681 0 6.9715887946422478e-05 0.003086317591898635 0 6.4677891716181734e-05 0.003382400279085982 0 -8.6234459756369915e-06 0.0027928490806100621 0 0.00017516359205581422 0.0026520831066962573 0 6.9715887946422478e-05 0.003086317591898635 0 0.00017516359205581422 0.0026520831066962573 0 0.00037529216303019736 0.003069202648307534 0 6.9715887946422478e-05 0.003086317591898635 0 -8.6234459756369915e-06 0.0027928490806100621 0 6.9715887946422478e-05 0.003086317591898635 0 -0.00011484437626244292 0.0030563848243473327 0 -0.00016012819666788792 0.0028883986497790985 0 -8.6234459756369915e-06 0.0027928490806100621 0 -0.00011484437626244292 0.0030563848243473327 0 6.9715887946422478e-05 0.003086317591898635 0 -8.9882962099879248e-05 0.0032552428265684181 0 6.4677891716181734e-05 0.003382400279085982 0 6.9715887946422478e-05 0.003086317591898635 0 -8.9882962099879248e-05 0.0032552428265684181 0 -0.00011484437626244292 0.0030563848243473327 0 -8.9882962099879248e-05 0.0032552428265684181 0 -0.00022223979077481455 0.0032822270307477832 0 -0.00021148438278861107 0.0034435333580249941 0 -8.9882962099879248e-05 0.0032552428265684181 0 -0.00022223979077481455 0.0032822270307477832 0 -0.00011484437626244292 0.0030563848243473327 0 -0.00016012819666788792 0.0028883986497790985 0 -0.00011484437626244292 0.0030563848243473327 0 -0.00025075392889879213 0.0030588636021805023 0 -0.00022223979077481455 0.0032822270307477832 0 -0.00011484437626244292 0.0030563848243473327 0 -0.00025075392889879213 0.0030588636021805023 0 0.00021196532197667261 0.0023190659551316907 0 0.00017555820327204511 0.0023425419117375193 0 0.0001742282539032126 0.0023710721355699091 0 0.00017555820327204511 0.0023425419117375193 0 0.00015585863139654259 0.0024185614867574872 0 0.0001742282539032126 0.0023710721355699091 0 0.00094840414141500939 -0.0014234777988102328 0 0.00050975603254808553 0.0010003994134944415 0 0.00021196532197667261 0.0023190659551316907 0 0.0001742282539032126 0.0023710721355699091 0 0.00017704003757398163 0.002355955250183968 0 0.00094840414141500939 -0.0014234777988102328 0 0.00069078969997738164 0.00082650285771161951 0 0.0014623770531165434 -0.0032137452199184568 0 0.00094840414141500939 -0.0014234777988102328 0 0.00021196532197667261 0.0023190659551316907 0 0.00021017447486753352 0.0022843805968560081 0 0.00017555820327204511 0.0023425419117375193 0 0.00087145949648412616 -0.00088514159880741239 0 0.00087104538214211459 -0.0010334691218637795 0 0.00093291994114903646 -0.00093013549748835217 0 0.00021017447486753352 0.0022843805968560081 0 0.00017555820327204511 0.0023425419117375193 0 0.00018086917028217725 0.0022809369249440323 0 0.00017555820327204511 0.0023425419117375193 0 0.00018086917028217725 0.0022809369249440323 0 0.00014550255799252533 0.0022743168854135838 0 9.0653526649084857e-05 0.0022531033107557339 0 0.00014550255799252533 0.0022743168854135838 0 0.00013866517888750811 0.0023762880986069805 0 0.00017555820327204511 0.0023425419117375193 0 0.00014550255799252533 0.0022743168854135838 0 0.00013866517888750811 0.0023762880986069805 0 9.0653526649084857e-05 0.0022531033107557339 0 9.500293276469946e-05 0.0023826713027126352 0 0.00013866517888750811 0.0023762880986069805 0 9.500293276469946e-05 0.0023826713027126352 0 0.00013866517888750811 0.0023762880986069805 0 0.00013935964066521302 0.0024771379424515633 0 0.00013866517888750811 0.0023762880986069805 0 0.00013935964066521302 0.0024771379424515633 0 0.00015585863139654259 0.0024185614867574872 0 0.00017555820327204511 0.0023425419117375193 0 0.00013866517888750811 0.0023762880986069805 0 0.00015585863139654259 0.0024185614867574872 0 0.00015585863139654259 0.0024185614867574872 0 0.00017513523718873559 0.0024112104724357819 0 0.00016526258022783326 0.0023756950445552828 0 0.00013935964066521302 0.0024771379424515633 0 0.00015585863139654259 0.0024185614867574872 0 0.00015663877118227268 0.0024758318800233493 0 0.00015585863139654259 0.0024185614867574872 0 0.00015663877118227268 0.0024758318800233493 0 0.00017513523718873559 0.0024112104724357819 0 0.00017513523718873559 0.0024112104724357819 0 0.00020320931561045128 0.002357801873113461 0 0.00020169013520276999 0.0023879987330892205 0 0.00017513523718873559 0.0024112104724357819 0 0.00016526258022783326 0.0023756950445552828 0 0.00020320931561045128 0.002357801873113461 0 0.00015585863139654259 0.0024185614867574872 0 0.00016526258022783326 0.0023756950445552828 0 0.0001742282539032126 0.0023710721355699091 0 0.00016526258022783326 0.0023756950445552828 0 0.0001742282539032126 0.0023710721355699091 0 0.00017704003757398163 0.002355955250183968 0 0.00050975603254808553 0.0010003994134944415 0 0.00070394280356645734 -0.0018489414210231178 0 0.00016526258022783326 0.0023756950445552828 0 0.00017704003757398163 0.002355955250183968 0 0.0001447072034206731 0.0023252867373007866 0 0.00070394280356645734 -0.0018489414210231178 0 0.0010288611550193297 -0.0044381127119175745 0 0.00070394280356645734 -0.0018489414210231178 0 0.0001695729305280624 0.00046056053102627595 0 0.00047425044056023289 -0.0019624595126207464 0 0.00054650282661681605 -0.0020422965183560663 0 0.00047397468064651799 -0.0020700985860059363 0 0.0013156264323843695 -0.0058463808391059227 0 0.0015088246071280371 -0.0057773404859343836 0 0.0015129076992596595 -0.0060951519805821077 0 0.00016526258022783326 0.0023756950445552828 0 0.0001447072034206731 0.0023252867373007866 0 0.0001338554929421778 0.0022843453348810679 0 0.00016526258022783326 0.0023756950445552828 0 0.0001338554929421778 0.0022843453348810679 0 0.00020320931561045128 0.002357801873113461 0 0.00054650282661681605 -0.0020422965183560663 0 0.00052132137529955515 -0.0021061692211553139 0 0.00062343270447118391 -0.002114197428052066 0 0.0001695729305280624 0.00046056053102627595 0 0.00049306828462658125 3.9922582953800739e-05 0 0.0010288611550193297 -0.0044381127119175745 0 0.00088589579759604925 -0.0044778676735941795 0 0.00054650282661681605 -0.0020422965183560663 0 0.00052132137529955515 -0.0021061692211553139 0 0.00047397468064651799 -0.0020700985860059363 0 0.00052132137529955515 -0.0021061692211553139 0 0.00047397468064651799 -0.0020700985860059363 0 0.00047731739741875941 -0.0021807427650042868 0 0.0013446645055025467 -0.004664171394287946 0 0.001345610438206239 -0.0046678480789911856 0 0.0014288846362782597 -0.0046389913867802878 0 0.0014239227000353361 -0.0063828849921427049 0 0.0015129076992596595 -0.0060951519805821077 0 0.0015168293706385413 -0.0063837569043156146 0 0.0013219344319814518 -0.0046928895047229123 0 0.0013453712691927115 -0.0046650440282416114 0 0.001345610438206239 -0.0046678480789911856 0 0.0015155610322302032 -0.0078656498911878116 0 0.001144194854986656 -0.0050822794796287069 0 0.0015974090203691518 -0.0060826403334630352 0 0.00088589579759604925 -0.0044778676735941795 0 0.0016595564942241887 -0.0069192851888562196 0 0.0016012151549287582 -0.0070145889214145718 0 0.0017442148409423383 -0.0069557727949331721 0 0.0015974090203691518 -0.0060826403334630352 0 0.001144194854986656 -0.0050822794796287069 0 0.0015970940283931648 -0.0054451438823913479 0 0.00080930741522570787 -0.0053862300698012781 0 0.00079747081846930372 -0.0050462851418594471 0 0.00088589579759604925 -0.0044778676735941795 0 0.001144194854986656 -0.0050822794796287069 0 0.001144194854986656 -0.0050822794796287069 0 0.0011480301653358299 -0.0050450069329741063 0 0.00088589579759604925 -0.0044778676735941795 0 0.00092454397910234792 -0.003411806585967471 0 0.0011275444803046503 -0.0042356922424756993 0 0.0011252655605077917 -0.0041672563645523825 0 0.00094045243546203702 -0.0042183221485942463 0 0.001144194854986656 -0.0050822794796287069 0 0.00092454397910234792 -0.003411806585967471 0 0.00052132137529955515 -0.0021061692211553139 0 0.00047731739741875941 -0.0021807427650042868 0 0.00051721714441715016 -0.0021756662115605032 0 0.00082148667030411393 -0.0016482552320676055 0 0.00087433076535751845 -0.0016321550086092888 0 0.00089769457801323698 -0.001593482569788409 0 0.00052132137529955515 -0.0021061692211553139 0 0.00051721714441715016 -0.0021756662115605032 0 0.00062343270447118391 -0.002114197428052066 0 0.00092454397910234792 -0.003411806585967471 0 0.0012681673171304629 -0.0030232015932473337 0 0.0011574588807584385 -0.0045153458069442445 0 0.0012837995274379277 -0.0044757452018458497 0 0.0014288846362782597 -0.0046389913867802878 0 0.0012837995274379277 -0.0044757452018458497 0 0.0014288846362782597 -0.0046389913867802878 0 0.0015163076798043395 -0.0044907675379553466 0 0.00092454397910234792 -0.003411806585967471 0 0.00049306828462658125 3.9922582953800739e-05 0 0.0021162383433350014 -0.010269859467913155 0 0.0018023620787036853 -0.01014028983100322 0 0.0017882898465833377 -0.010392796518140915 0 0.001144194854986656 -0.0050822794796287069 0 0.0013925130400970342 -0.0045922809225965285 0 0.0014288846362782597 -0.0046389913867802878 0 0.001454331341283355 -0.0047369960071047676 0 0.0013558878631870037 -0.0046869478948826353 0 0.0017814909203809773 -0.0074637852387288619 0 0.0015337840186130727 -0.0073954237849880068 0 0.0014288846362782597 -0.0046389913867802878 0 0.0015497695129126101 -0.0046108086465886915 0 0.0015163076798043395 -0.0044907675379553466 0 0.0014288846362782597 -0.0046389913867802878 0 0.001454331341283355 -0.0047369960071047676 0 0.0015497695129126101 -0.0046108086465886915 0 0.0016511364679814579 -0.010273572482499433 0 0.0018023620787036853 -0.01014028983100322 0 0.0017882898465833377 -0.010392796518140915 0 0.001345610438206239 -0.0046678480789911856 0 0.0014288846362782597 -0.0046389913867802878 0 0.0013558878631870037 -0.0046869478948826353 0 0.0015046387443405254 -0.010188995625737543 0 0.0016511364679814579 -0.010273572482499433 0 0.0018023620787036853 -0.01014028983100322 0 0.0015046387443405254 -0.010188995625737543 0 0.0014786628024353338 -0.0099767833680397457 0 0.0018023620787036853 -0.01014028983100322 0 0.0013219344319814518 -0.0046928895047229123 0 0.001345610438206239 -0.0046678480789911856 0 0.0013558878631870037 -0.0046869478948826353 0 0.0015155610322302032 -0.0078656498911878116 0 0.0015337840186130727 -0.0073954237849880068 0 0.0012395054979902444 0.0037255342671978775 0 0.0012569427582510848 0.0037640933079786851 0 0.0010861588936670764 0.0037787438207938714 0 0.0016972695576658106 -0.0046357193894659933 0 0.0016420442323192052 -0.0045428276357999736 0 0.0017389908196814466 -0.0045093644621210308 0 0.0015248398777444956 0.0011342067575853968 0 0.0015773850453421577 -0.0026481792922000654 0 0.0015773850453421577 -0.0026481792922000654 0 0.0012459033967979838 6.3161003795745863e-05 0 0.0019059039517360264 -0.0005445193467014316 0 0.0012898628682029181 -0.0007691120327053139 0 0.0015248690666854771 -0.00013380272449476407 0 0.0015248398777444956 0.0011342067575853968 0 0.0012459033967979838 6.3161003795745863e-05 0 0.0012395054979902444 0.0037255342671978775 0 0.0012569427582510848 0.0037640933079786851 0 0.0013136932412489773 0.0036971116596332828 0 0.0017741618695162936 -0.0018649990785179534 0 0.0017122789825802967 -0.0018016114706762996 0 0.0017808077226397535 -0.0018234625532514285 0 0.0017741618695162936 -0.0018649990785179534 0 0.0018130129894751224 -0.0018613283056595751 0 0.0017808077226397535 -0.0018234625532514285 0 0.0015773850453421577 -0.0026481792922000654 0 0.0021919530702290647 -0.0054635995131227166 0 0.0014018188004157424 -0.0051838978395033954 0 0.0022573868903731707 -0.0048599294537687663 0 0.002034179257697253 -0.0054741375983671419 0 0.0017814909203809773 -0.0074637852387288619 0 0.0015773850453421577 -0.0026481792922000654 0 0.001454331341283355 -0.0047369960071047676 0 0.0016972695576658106 -0.0046357193894659933 0 0.0015497695129126101 -0.0046108086465886915 0 0.0015497695129126101 -0.0046108086465886915 0 0.0016420442323192052 -0.0045428276357999736 0 0.0015163076798043395 -0.0044907675379553466 0 0.0016972695576658106 -0.0046357193894659933 0 0.0015497695129126101 -0.0046108086465886915 0 0.0016420442323192052 -0.0045428276357999736 0 0.0016420442323192052 -0.0045428276357999736 0 0.0015163076798043395 -0.0044907675379553466 0 0.0017079962435327832 -0.0044792186897964301 0 0.00087433076535751845 -0.0016321550086092888 0 0.00089769457801323698 -0.001593482569788409 0 0.00092796525772353272 -0.0016188346589670738 0 0.0012681673171304629 -0.0030232015932473337 0 0.0011860632252814274 -5.1201462497788555e-05 0 0.00049306828462658125 3.9922582953800739e-05 0 0.00045753680505284864 0.0019601811731305321 0 0.00049306828462658125 3.9922582953800739e-05 0 0.0011860632252814274 -5.1201462497788555e-05 0 0.00031508302195636578 0.0019869233910460417 0 0.00027979038150183894 0.0019879386270921177 0 0.00032370695216127842 0.0021445313194129135 0 0.0012194172469591976 0.0037592329483562077 0 0.0011744281072092746 0.0037133716707643035 0 0.0011764754943821014 0.0036442377215064365 0 0.00031508302195636578 0.0019869233910460417 0 0.00037072249214446665 0.0021960747209524216 0 0.00032370695216127842 0.0021445313194129135 0 0.0012395054979902444 0.0037255342671978775 0 0.0013033226271194575 0.0036681734575946898 0 0.0010861588936670764 0.0037787438207938714 0 0.0012584689083270696 0.001537649344693274 0 0.00081702584069192263 0.0031364814841028385 0 0.00018917985990958737 0.0020810504045523578 0 0.00027979038150183894 0.0019879386270921177 0 0.00032370695216127842 0.0021445313194129135 0 0.0016420442323192052 -0.0045428276357999736 0 0.0017389908196814466 -0.0045093644621210308 0 0.0017079962435327832 -0.0044792186897964301 0 0.0012395054979902444 0.0037255342671978775 0 0.0013033226271194575 0.0036681734575946898 0 0.0013136932412489773 0.0036971116596332828 0 0.0012584689083270696 0.001537649344693274 0 0.0012459033967979838 6.3161003795745863e-05 0 0.00046625502311016461 0.00044960679131497927 0 0.00068743997480490084 0.0010417386738243181 0 0.0012915548183721564 0.00038913544127031383 0 0.0012584689083270696 0.001537649344693274 0 0.0011860632252814274 -5.1201462497788555e-05 0 0.0012459033967979838 6.3161003795745863e-05 0 0.0011860632252814274 -5.1201462497788555e-05 0 0.0012194172469591976 0.0037592329483562077 0 0.0011744281072092746 0.0037133716707643035 0 0.0011330937461494202 0.0037325563011521776 0 0.0011744281072092746 0.0037133716707643035 0 0.001151933421418733 0.0036941247639104735 0 0.0011330937461494202 0.0037325563011521776 0 0.00037072249214446665 0.0021960747209524216 0 0.00025521997936749237 0.002256266266902372 0 0.00042922593522317287 0.00237127980785258 0 0.0011744281072092746 0.0037133716707643035 0 0.001151933421418733 0.0036941247639104735 0 0.0011764754943821014 0.0036442377215064365 0 0.00032370695216127842 0.0021445313194129135 0 0.00025521997936749237 0.002256266266902372 0 0.0002487411091002562 0.0021840213912548727 0 0.00037072249214446665 0.0021960747209524216 0 0.00032370695216127842 0.0021445313194129135 0 0.00025521997936749237 0.002256266266902372 0 0.0001338554929421778 0.0022843453348810679 0 0.00021180132263246161 0.0021297099486802503 0 0.0002487411091002562 0.0021840213912548727 0 0.0001338554929421778 0.0022843453348810679 0 0.00025521997936749237 0.002256266266902372 0 0.0002487411091002562 0.0021840213912548727 0 0.00021180132263246161 0.0021297099486802503 0 0.00032370695216127842 0.0021445313194129135 0 0.0002487411091002562 0.0021840213912548727 0 0.0001338554929421778 0.0022843453348810679 0 0.00025521997936749237 0.002256266266902372 0 0.00020320931561045128 0.002357801873113461 0 0.00081702584069192263 0.0031364814841028385 0 0.00057615773888477909 0.0029111560348741728 0 0.00025521997936749237 0.002256266266902372 0 0.00020320931561045128 0.002357801873113461 0 0.00042922593522317287 0.00237127980785258 0 0.0001103217030279624 0.0022773082245500951 0 0.00057615773888477909 0.0029111560348741728 0 0.0011338010154468454 0.0035084636450335594 0 0.0010879391551559129 0.0035961460937524808 0 0.00093480653334329243 0.003489757187274469 0 0.00057615773888477909 0.0029111560348741728 0 0.00055033340842260126 0.0035091371584133539 0 0.00024612634045251361 0.0032281443685769681 0 0.00047827653230280462 0.0033670238731608689 0 6.4677891716181734e-05 0.003382400279085982 0 0.00092768006880300513 0.0036928053615313079 0 0.0010204111307381236 0.0036550549416438424 0 0.00093480653334329243 0.003489757187274469 0 0.0010204111307381236 0.0036550549416438424 0 0.0010879391551559129 0.0035961460937524808 0 0.00093480653334329243 0.003489757187274469 0 0.00092768006880300513 0.0036928053615313079 0 0.0010204111307381236 0.0036550549416438424 0 0.00099688838946246556 0.0037380108564171906 0 0.0010204111307381236 0.0036550549416438424 0 0.0010546381434081379 0.0037169573281552286 0 0.00099688838946246556 0.0037380108564171906 0 0.0011764754943821014 0.0036442377215064365 0 0.0011338010154468454 0.0035084636450335594 0 0.0010879391551559129 0.0035961460937524808 0 0.0010695554012945456 0.0036669686388066808 0 0.001119164444811738 0.0036720748056564673 0 0.0011007429310945947 0.0037181015760190204 0 0.0010204111307381236 0.0036550549416438424 0 0.0010695554012945456 0.0036669686388066808 0 0.0010546381434081379 0.0037169573281552286 0 0.0010695554012945456 0.0036669686388066808 0 0.001119164444811738 0.0036720748056564673 0 0.0010879391551559129 0.0035961460937524808 0 0.001151933421418733 0.0036941247639104735 0 0.0011764754943821014 0.0036442377215064365 0 0.001119164444811738 0.0036720748056564673 0 0.0011764754943821014 0.0036442377215064365 0 0.001119164444811738 0.0036720748056564673 0 0.0010879391551559129 0.0035961460937524808 0 0.0010204111307381236 0.0036550549416438424 0 0.0010695554012945456 0.0036669686388066808 0 0.0010879391551559129 0.0035961460937524808 0 0.00060983057855900399 0.0035305087054811864 0 0.00048554960835367331 0.0035187149884671823 0 0.00093480653334329243 0.003489757187274469 0 0.00060983057855900399 0.0035305087054811864 0 0.00048554960835367331 0.0035187149884671823 0 0.00020166274633949652 0.0040406940165036674 0 0.00060983057855900399 0.0035305087054811864 0 0.00093480653334329243 0.003489757187274469 0 0.00072561633985057411 0.0036031553807510937 0 0.00093480653334329243 0.003489757187274469 0 0.0008118212894861061 0.003665721581863607 0 0.00072561633985057411 0.0036031553807510937 0 -8.9882962099879248e-05 0.0032552428265684181 0 -0.00021148438278861107 0.0034435333580249941 0 6.4677891716181734e-05 0.003382400279085982 0 0.0001124979459175885 0.0034846700986531751 0 0.00055033340842260126 0.0035091371584133539 0 0.00092768006880300513 0.0036928053615313079 0 0.00093480653334329243 0.003489757187274469 0 0.0008118212894861061 0.003665721581863607 0 0.0008118212894861061 0.003665721581863607 0 0.00065497810442966334 0.0036844995391071725 0 0.00086525210875623736 0.0037619001150163314 0 0.00092768006880300513 0.0036928053615313079 0 0.0008118212894861061 0.003665721581863607 0 0.00086525210875623736 0.0037619001150163314 0 0.00060983057855900399 0.0035305087054811864 0 0.00065497810442966334 0.0036844995391071725 0 0.00041859733821420582 0.0036694694918361016 0 0.00060983057855900399 0.0035305087054811864 0 0.00072561633985057411 0.0036031553807510937 0 0.00065497810442966334 0.0036844995391071725 0 0.00057657118748417446 0.0035867279463723247 0 0.0003013817099484603 0.0037609094804493424 0 0.0008118212894861061 0.003665721581863607 0 0.00072561633985057411 0.0036031553807510937 0 0.00065497810442966334 0.0036844995391071725 0 0.00079615500706412521 0.00387760086692785 0 0.00044772197572993374 0.0041471430422316104 0 0.00041505780631906759 0.0038826025916160302 0 0.00065497810442966334 0.0036844995391071725 0 0.00079615500706412521 0.00387760086692785 0 0.00086525210875623736 0.0037619001150163314 0 0.00065497810442966334 0.0036844995391071725 0 0.00079615500706412521 0.00387760086692785 0 0.00041505780631906759 0.0038826025916160302 0 0.00079615500706412521 0.00387760086692785 0 0.00086525210875623736 0.0037619001150163314 0 0.00092352354008368913 0.0038011818841752363 0 0.00079615500706412521 0.00387760086692785 0 0.00092352354008368913 0.0038011818841752363 0 0.00091436475469481508 0.0038686752746499866 0 0.00092768006880300513 0.0036928053615313079 0 0.00086525210875623736 0.0037619001150163314 0 0.00092352354008368913 0.0038011818841752363 0 0.00079615500706412521 0.00387760086692785 0 0.00088343160526595634 0.0039116876607668914 0 0.00084118163533904752 0.0039293196427864592 0 0.00079615500706412521 0.00387760086692785 0 0.00091436475469481508 0.0038686752746499866 0 0.00088343160526595634 0.0039116876607668914 0 0.00091436475469481508 0.0038686752746499866 0 0.00088343160526595634 0.0039116876607668914 0 0.00094185993526589096 0.0039038462843729036 0 0.00088343160526595634 0.0039116876607668914 0 0.00094185993526589096 0.0039038462843729036 0 0.00093593862599222798 0.0039385041312310284 0 0.00079615500706412521 0.00387760086692785 0 0.00052561350087689343 0.0045453848100807806 0 0.00044772197572993374 0.0041471430422316104 0 0.00079615500706412521 0.00387760086692785 0 0.00084118163533904752 0.0039293196427864592 0 0.00077962649927942993 0.0039408983240688403 0 0.00077292005293090572 0.0039607562746166039 0 0.0006836131282167326 0.0041036522183434043 0 0.0012584689083270696 0.001537649344693274 0 0.0010364499519211182 0.0042506963209538702 0 0.0012194172469591976 0.0037592329483562077 0 0.0010858750591102838 0.0037545136308140487 0 0.0010495122645295977 0.0037884240709837595 0 0.0013033226271194575 0.0036681734575946898 0 0.0010495122645295977 0.0037884240709837595 0 0.0010861588936670764 0.0037787438207938714 0 0.0012194172469591976 0.0037592329483562077 0 0.0010858750591102838 0.0037545136308140487 0 0.0011330937461494202 0.0037325563011521776 0 0.0010858750591102838 0.0037545136308140487 0 0.0010495122645295977 0.0037884240709837595 0 0.001040905052439725 0.0037591597162568188 0 0.0010858750591102838 0.0037545136308140487 0 0.0011117603720423369 0.0037280171069393321 0 0.0011007429310945947 0.0037181015760190204 0 0.0010858750591102838 0.0037545136308140487 0 0.0011117603720423369 0.0037280171069393321 0 0.0011330937461494202 0.0037325563011521776 0 0.0011117603720423369 0.0037280171069393321 0 0.0011330937461494202 0.0037325563011521776 0 0.0011275840506784938 0.0037064379712117138 0 0.001151933421418733 0.0036941247639104735 0 0.001119164444811738 0.0036720748056564673 0 0.0011275840506784938 0.0037064379712117138 0 0.001151933421418733 0.0036941247639104735 0 0.0011330937461494202 0.0037325563011521776 0 0.0011275840506784938 0.0037064379712117138 0 0.0011117603720423369 0.0037280171069393321 0 0.0011275840506784938 0.0037064379712117138 0 0.0011007429310945947 0.0037181015760190204 0 0.001119164444811738 0.0036720748056564673 0 0.0011275840506784938 0.0037064379712117138 0 0.0011007429310945947 0.0037181015760190204 0 0.0010695554012945456 0.0036669686388066808 0 0.0011007429310945947 0.0037181015760190204 0 0.0010546381434081379 0.0037169573281552286 0 0.0010858750591102838 0.0037545136308140487 0 0.0011007429310945947 0.0037181015760190204 0 0.0010546381434081379 0.0037169573281552286 0 0.0010858750591102838 0.0037545136308140487 0 0.0010546381434081379 0.0037169573281552286 0 0.001040905052439725 0.0037591597162568188 0 0.0010546381434081379 0.0037169573281552286 0 0.00099688838946246556 0.0037380108564171906 0 0.001040905052439725 0.0037591597162568188 0 0.00099688838946246556 0.0037380108564171906 0 0.001040905052439725 0.0037591597162568188 0 0.00099978481212197067 0.0037930476798648909 0 0.00092768006880300513 0.0036928053615313079 0 0.00092352354008368913 0.0038011818841752363 0 0.00099688838946246556 0.0037380108564171906 0 0.00092352354008368913 0.0038011818841752363 0 0.00099688838946246556 0.0037380108564171906 0 0.00099978481212197067 0.0037930476798648909 0 0.00092352354008368913 0.0038011818841752363 0 0.00091436475469481508 0.0038686752746499866 0 0.00096754271011178627 0.003841793612336504 0 0.00092352354008368913 0.0038011818841752363 0 0.00099978481212197067 0.0037930476798648909 0 0.00096754271011178627 0.003841793612336504 0 0.0010495122645295977 0.0037884240709837595 0 0.001040905052439725 0.0037591597162568188 0 0.00099978481212197067 0.0037930476798648909 0 0.0010495122645295977 0.0037884240709837595 0 0.00099978481212197067 0.0037930476798648909 0 0.0010174662515861788 0.0038323471340552554 0 0.0010174662515861788 0.0038323471340552554 0 0.00098241132999207282 0.0038758906615576766 0 0.0010520596275725076 0.0038665195814631035 0 0.0010495122645295977 0.0037884240709837595 0 0.0010174662515861788 0.0038323471340552554 0 0.0010594316987645332 0.0038264565633375257 0 0.00099978481212197067 0.0037930476798648909 0 0.0010174662515861788 0.0038323471340552554 0 0.00096754271011178627 0.003841793612336504 0 0.0010174662515861788 0.0038323471340552554 0 0.00096754271011178627 0.003841793612336504 0 0.00098241132999207282 0.0038758906615576766 0 0.00091436475469481508 0.0038686752746499866 0 0.00096754271011178627 0.003841793612336504 0 0.00098241132999207282 0.0038758906615576766 0 0.00094185993526589096 0.0039038462843729036 0 0.00098241132999207282 0.0038758906615576766 0 0.0010031606137164562 0.0039142505183780802 0 0.00091436475469481508 0.0038686752746499866 0 0.00094185993526589096 0.0039038462843729036 0 0.00098241132999207282 0.0038758906615576766 0 0.00098241132999207282 0.0038758906615576766 0 0.0010520596275725076 0.0038665195814631035 0 0.0010031606137164562 0.0039142505183780802 0 0.0010520596275725076 0.0038665195814631035 0 0.001131564820888386 0.0038333399423212729 0 0.0011106206535472839 0.0039114489636297416 0 0.0010520596275725076 0.0038665195814631035 0 0.0011106206535472839 0.0039114489636297416 0 0.0010031606137164562 0.0039142505183780802 0 0.0012095849533128829 0.0038049448590529028 0 0.0010861588936670764 0.0037787438207938714 0 0.001131564820888386 0.0038333399423212729 0 0.0015248398777444956 0.0011342067575853968 0 0.0012747303647295542 0.0038992594658069021 0 0.0010520596275725076 0.0038665195814631035 0 0.0010594316987645332 0.0038264565633375257 0 0.001131564820888386 0.0038333399423212729 0 0.0010861588936670764 0.0037787438207938714 0 0.0010594316987645332 0.0038264565633375257 0 0.001131564820888386 0.0038333399423212729 0 0.0010174662515861788 0.0038323471340552554 0 0.0010520596275725076 0.0038665195814631035 0 0.0010594316987645332 0.0038264565633375257 0 0.0010495122645295977 0.0037884240709837595 0 0.0010861588936670764 0.0037787438207938714 0 0.0010594316987645332 0.0038264565633375257 0 0.0015248398777444956 0.0011342067575853968 0 0.0012708880140176416 0.0012271944097697002 0 0.0012095849533128829 0.0038049448590529028 0 0.001131564820888386 0.0038333399423212729 0 0.0011106206535472839 0.0039114489636297416 0 0.0017012265029417899 -0.00038491217753955511 0 0.0028337510714232942 -0.0049414836092756022 0 0.0017122789825802967 -0.0018016114706762996 0 0.001647505888497093 -0.0017214038486822623 0 0.001798767956712815 -0.0017810225760391289 0 0.0012708880140176416 0.0012271944097697002 0 0.0017012265029417899 -0.00038491217753955511 0 0.0011106206535472839 0.0039114489636297416 0 0.0010031606137164562 0.0039142505183780802 0 0.0010230755144922316 0.0039892048974938888 0 0.00097222281244128397 0.0039570672424504311 0 0.0010230755144922316 0.0039892048974938888 0 0.00092894663301264257 0.0039790297265755717 0 0.0010031606137164562 0.0039142505183780802 0 0.00097222281244128397 0.0039570672424504311 0 0.00093593862599222798 0.0039385041312310284 0 0.00094185993526589096 0.0039038462843729036 0 0.0010031606137164562 0.0039142505183780802 0 0.00093593862599222798 0.0039385041312310284 0 0.0010031606137164562 0.0039142505183780802 0 0.00097222281244128397 0.0039570672424504311 0 0.0010230755144922316 0.0039892048974938888 0 0.0026172852750313736 -0.0021589508597761073 0 0.0029444150959243107 -0.0022191343301305425 0 0.0024620244584425263 -0.0019547008084038944 0 0.0039492231448406741 -0.0066635681711686486 0 0.0030735861433642186 -0.0019747326666786696 0 0.0027629891212138016 -0.0022614908157097329 0 0.0026172852750313736 -0.0021589508597761073 0 0.0023801528860360401 -0.0022147633650675073 0 0.0017012265029417899 -0.00038491217753955511 0 0.0026552396578103112 0.0028190532099462598 0 0.0028229637830470833 -0.0023283268191737327 0 0.0027629891212138016 -0.0022614908157097329 0 0.0023801528860360401 -0.0022147633650675073 0 0.0027629891212138016 -0.0022614908157097329 0 0.0026172852750313736 -0.0021589508597761073 0 0.0029444150959243107 -0.0022191343301305425 0 0.0028232036278284245 -0.0023497750172723018 0 0.0027629891212138016 -0.0022614908157097329 0 0.0029444150959243107 -0.0022191343301305425 0 0.0017012265029417899 -0.00038491217753955511 0 0.0024204378166653197 -0.0012990341702619871 0 0.0028232036278284245 -0.0023497750172723018 0 0.0029444150959243107 -0.0022191343301305425 0 0.0034811167330206791 -0.0025518818782097807 0 0.0039492231448406741 -0.0066635681711686486 0 0.0028337510714232942 -0.0049414836092756022 0 0.00084118163533904752 0.0039293196427864592 0 0.00085066530916966233 0.0039700675801708296 0 0.00077962649927942993 0.0039408983240688403 0 0.00085066530916966233 0.0039700675801708296 0 0.00079493874464010535 0.0040546475584326532 0 0.00077962649927942993 0.0039408983240688403 0 0.00085066530916966233 0.0039700675801708296 0 0.00089138365515810446 0.0039748784444647587 0 0.00089929519428108931 0.0039504839038299521 0 0.00089138365515810446 0.0039748784444647587 0 0.00092894663301264257 0.0039790297265755717 0 0.00088820397213553294 0.0040008525355335724 0 0.00085066530916966233 0.0039700675801708296 0 0.00089138365515810446 0.0039748784444647587 0 0.00088820397213553294 0.0040008525355335724 0 0.00084118163533904752 0.0039293196427864592 0 0.00085066530916966233 0.0039700675801708296 0 0.00089929519428108931 0.0039504839038299521 0 0.00088343160526595634 0.0039116876607668914 0 0.00084118163533904752 0.0039293196427864592 0 0.00089929519428108931 0.0039504839038299521 0 0.00089929519428108931 0.0039504839038299521 0 0.00093593862599222798 0.0039385041312310284 0 0.00092894663301264257 0.0039790297265755717 0 0.00088343160526595634 0.0039116876607668914 0 0.00089929519428108931 0.0039504839038299521 0 0.00093593862599222798 0.0039385041312310284 0 0.00097222281244128397 0.0039570672424504311 0 0.00093593862599222798 0.0039385041312310284 0 0.00092894663301264257 0.0039790297265755717 0 0.00089138365515810446 0.0039748784444647587 0 0.00089929519428108931 0.0039504839038299521 0 0.00092894663301264257 0.0039790297265755717 0 0.0010230755144922316 0.0039892048974938888 0 0.00092894663301264257 0.0039790297265755717 0 0.0008965799669725411 0.0040184791772529156 0 0.0026172852750313736 -0.0021589508597761073 0 0.0023801528860360401 -0.0022147633650675073 0 0.0024620244584425263 -0.0019547008084038944 0 0.0039447370469225494 0.0050834373067377946 0 0.0030902221590687895 0.0060933572494880741 0 0.0043353987065125089 0.006308978970097065 0 0.0026552396578103112 0.0028190532099462598 0 0.0030735861433642186 -0.0019747326666786696 0 0.00092894663301264257 0.0039790297265755717 0 0.0008965799669725411 0.0040184791772529156 0 0.00088820397213553294 0.0040008525355335724 0 0.0026552396578103112 0.0028190532099462598 0 0.0024209329720085741 0.0032127887012598317 0 0.0039447370469225494 0.0050834373067377946 0 0.0021109421115299526 0.0054532651540384197 0 0.0030902221590687895 0.0060933572494880741 0 0.00085066530916966233 0.0039700675801708296 0 0.00088820397213553294 0.0040008525355335724 0 0.00079493874464010535 0.0040546475584326532 0 0.00089763409450400436 0.0040211324595130814 0 0.00088820397213553294 0.0040008525355335724 0 0.00079493874464010535 0.0040546475584326532 0 0.0026552396578103112 0.0028190532099462598 0 0.0014082273785978143 0.0048369072968972322 0 0.0019709492922725847 0.00020217746758023687 0 0.0020235792927464679 8.2382865879051766e-05 0 0.0021331176498203949 0.00017019456935268371 0 0.0021109421115299526 0.0054532651540384197 0 0.0030902221590687895 0.0060933572494880741 0 0.0019647499858900974 0.0075359599202962403 0 0.0030735861433642186 -0.0019747326666786696 0 0.0018880529272916919 0.0046239138900474111 0 0.0030902221590687895 0.0060933572494880741 0 0.0043353987065125089 0.006308978970097065 0 0.0019647499858900974 0.0075359599202962403 0 0.0030735861433642186 -0.0019747326666786696 0 0.0031393851266028634 -0.00595054288345424 0 0.0019709492922725847 0.00020217746758023687 0 0.0020235792927464679 8.2382865879051766e-05 0 0.0018974107379757309 2.8085966786889422e-05 0 0.0020235792927464679 8.2382865879051766e-05 0 0.0021331176498203949 0.00017019456935268371 0 0.0020856899424922604 -1.2360630523067804e-05 0 0.0041530363874913122 -0.0096964702969422317 0 0.0038676110652256955 -0.01036093665969943 0 0.0043279971410007806 -0.010291752482250839 0 0.0041530363874913122 -0.0096964702969422317 0 0.0038676110652256955 -0.01036093665969943 0 0.0034649904868696985 -0.009968126551305077 0 0.0047728411115874865 -0.010001945587971 0 0.0043279971410007806 -0.010291752482250839 0 0.0044942711985028428 -0.010705472673667952 0 0.0041530363874913122 -0.0096964702969422317 0 0.0047728411115874865 -0.010001945587971 0 0.0043279971410007806 -0.010291752482250839 0 0.0043279971410007806 -0.010291752482250839 0 0.0044942711985028428 -0.010705472673667952 0 0.0042330544101209589 -0.010735041251607137 0 0.0038676110652256955 -0.01036093665969943 0 0.0043279971410007806 -0.010291752482250839 0 0.0042330544101209589 -0.010735041251607137 0 0.0038676110652256955 -0.01036093665969943 0 0.0042330544101209589 -0.010735041251607137 0 0.0037051411065307546 -0.010783707271240608 0 0.0042330544101209589 -0.010735041251607137 0 0.0037051411065307546 -0.010783707271240608 0 0.0034459721290780159 -0.011423564830758057 0 0.0038676110652256955 -0.01036093665969943 0 0.0037051411065307546 -0.010783707271240608 0 0.0032198808220448355 -0.010623516779637415 0 0.0037051411065307546 -0.010783707271240608 0 0.0032198808220448355 -0.010623516779637415 0 0.0034459721290780159 -0.011423564830758057 0 0.0038676110652256955 -0.01036093665969943 0 0.0032198808220448355 -0.010623516779637415 0 0.0034649904868696985 -0.009968126551305077 0 0.0030441099106214486 -0.010246520998869994 0 0.0032198808220448355 -0.010623516779637415 0 0.0034649904868696985 -0.009968126551305077 0 0.0030441099106214486 -0.010246520998869994 0 0.0027710938237398642 -0.010504015718690016 0 0.0026992333996117067 -0.009982007949207285 0 0.0030441099106214486 -0.010246520998869994 0 0.0029364402345979099 -0.010686321921299593 0 0.0032198808220448355 -0.010623516779637415 0 0.0030441099106214486 -0.010246520998869994 0 0.0027710938237398642 -0.010504015718690016 0 0.0029364402345979099 -0.010686321921299593 0 0.0027710938237398642 -0.010504015718690016 0 0.0029364402345979099 -0.010686321921299593 0 0.0027241757562263135 -0.010830611822353587 0 0.0032198808220448355 -0.010623516779637415 0 0.0028893232136058804 -0.010996836113442043 0 0.0034459721290780159 -0.011423564830758057 0 0.0029364402345979099 -0.010686321921299593 0 0.0027241757562263135 -0.010830611822353587 0 0.0028893232136058804 -0.010996836113442043 0 0.0029364402345979099 -0.010686321921299593 0 0.0032198808220448355 -0.010623516779637415 0 0.0028893232136058804 -0.010996836113442043 0 0.0028893232136058804 -0.010996836113442043 0 0.0026249322491496288 -0.011070173720284017 0 0.0027089288937717521 -0.011452564125660035 0 0.0027241757562263135 -0.010830611822353587 0 0.0028893232136058804 -0.010996836113442043 0 0.0026249322491496288 -0.011070173720284017 0 0.0026249322491496288 -0.011070173720284017 0 0.0023900850127170858 -0.011158616856991444 0 0.0027089288937717521 -0.011452564125660035 0 0.0026249322491496288 -0.011070173720284017 0 0.0023900850127170858 -0.011158616856991444 0 0.0024035893380932893 -0.010894087403890864 0 0.0023900850127170858 -0.011158616856991444 0 0.0023778682680954499 -0.010897808555045158 0 0.0018380101970734565 -0.011067457451250767 0 0.0023900850127170858 -0.011158616856991444 0 0.0018380101970734565 -0.011067457451250767 0 0.0022739013942174309 -0.011476576057528689 0 0.0022093593533761531 -0.01081072847491025 0 0.002102864667743246 -0.011460932529211708 0 0.0027241757562263135 -0.010830611822353587 0 0.0026249322491496288 -0.011070173720284017 0 0.0024035893380932893 -0.010894087403890864 0 0.0027710938237398642 -0.010504015718690016 0 0.0027241757562263135 -0.010830611822353587 0 0.0024035893380932893 -0.010894087403890864 0 0.0023778682680954499 -0.010897808555045158 0 0.0024035893380932893 -0.010894087403890864 0 0.002393935477906266 -0.010886775611613754 0 0.0023900850127170858 -0.011158616856991444 0 0.0023778682680954499 -0.010897808555045158 0 0.0024035893380932893 -0.010894087403890864 0 0.0013762464185019193 -0.011977587620394199 0 0.002102864667743246 -0.011460932529211708 0 0.0009276437665415476 -0.011359442853216769 0 0.0018380101970734565 -0.011067457451250767 0 0.0022739013942174309 -0.011476576057528689 0 0.0009276437665415476 -0.011359442853216769 0 0.0018380101970734565 -0.011067457451250767 0 0.0017886375471760623 -0.010498514181509813 0 0.0023778682680954499 -0.010897808555045158 0 0.0018380101970734565 -0.011067457451250767 0 0.0017886375471760623 -0.010498514181509813 0 0.0013648446188047432 -0.011066129719730398 0 0.0018694571020744619 -0.01139238667589961 0 0.0017177486729678419 -0.011078078078882067 0 0.0018694571020744619 -0.01139238667589961 0 0.0021783027203407849 -0.011063331273063668 0 0.0019306682722917143 -0.011026730439675491 0 0.0018694571020744619 -0.01139238667589961 0 0.0017177486729678419 -0.011078078078882067 0 0.0019306682722917143 -0.011026730439675491 0 0.0027710938237398642 -0.010504015718690016 0 0.0024035893380932893 -0.010894087403890864 0 0.0026992333996117067 -0.009982007949207285 0 0.0024035893380932893 -0.010894087403890864 0 0.002393935477906266 -0.010886775611613754 0 0.0024182984793611317 -0.01087673157589935 0 0.0024409699429653806 -0.010739483551456257 0 0.0025386951246896381 -0.010745995110463298 0 0.0023778682680954499 -0.010897808555045158 0 0.0023669203968600065 -0.010889702795092908 0 0.0023769600933959524 -0.010887164216034417 0 0.0023778682680954499 -0.010897808555045158 0 0.002393935477906266 -0.010886775611613754 0 0.0023769600933959524 -0.010887164216034417 0 0.002393935477906266 -0.010886775611613754 0 0.0023769600933959524 -0.010887164216034417 0 0.0023868999547717986 -0.010881226332969729 0 0.002102864667743246 -0.011460932529211708 0 0.0023032784819424028 -0.010922319120622215 0 0.0023769600933959524 -0.010887164216034417 0 0.0023868999547717986 -0.010881226332969729 0 0.0023646915909436537 -0.010867769745512157 0 0.0023669203968600065 -0.010889702795092908 0 0.0023769600933959524 -0.010887164216034417 0 0.0023646915909436537 -0.010867769745512157 0 0.002393935477906266 -0.010886775611613754 0 0.0023868999547717986 -0.010881226332969729 0 0.0024182984793611317 -0.01087673157589935 0 0.0023868999547717986 -0.010881226332969729 0 0.0023646915909436537 -0.010867769745512157 0 0.0024182984793611317 -0.01087673157589935 0 0.0023032784819424028 -0.010922319120622215 0 0.0024249930403288352 -0.010760291089910664 0 0.0023646915909436537 -0.010867769745512157 0 0.0024182984793611317 -0.01087673157589935 0 0.0024488637693019948 -0.010712078826736662 0 0.0021783027203407849 -0.011063331273063668 0 0.002056821476099588 -0.010866039511466315 0 0.0019306682722917143 -0.011026730439675491 0 0.0021783027203407849 -0.011063331273063668 0 0.002056821476099588 -0.010866039511466315 0 0.0022391009277386931 -0.010753153892768919 0 0.002056821476099588 -0.010866039511466315 0 0.0022391009277386931 -0.010753153892768919 0 0.00204879990233951 -0.010651483988018576 0 0.0021783027203407849 -0.011063331273063668 0 0.0022391009277386931 -0.010753153892768919 0 0.0024488637693019948 -0.010712078826736662 0 0.0017177486729678419 -0.011078078078882067 0 0.0019306682722917143 -0.011026730439675491 0 0.0017478538240781152 -0.01089941005273236 0 0.0015753140459353089 -0.010877638470806453 0 0.0017177486729678419 -0.011078078078882067 0 0.0017478538240781152 -0.01089941005273236 0 0.002056821476099588 -0.010866039511466315 0 0.0019306682722917143 -0.011026730439675491 0 0.0018972556641613737 -0.010826823619980285 0 0.0019306682722917143 -0.011026730439675491 0 0.0018972556641613737 -0.010826823619980285 0 0.0017478538240781152 -0.01089941005273236 0 0.0018972556641613737 -0.010826823619980285 0 0.0017669139121892776 -0.010702589263749914 0 0.00204879990233951 -0.010651483988018576 0 0.002056821476099588 -0.010866039511466315 0 0.0018972556641613737 -0.010826823619980285 0 0.00204879990233951 -0.010651483988018576 0 0.0015753140459353089 -0.010877638470806453 0 0.0017478538240781152 -0.01089941005273236 0 0.0017669139121892776 -0.010702589263749914 0 0.0018972556641613737 -0.010826823619980285 0 0.0017478538240781152 -0.01089941005273236 0 0.0017669139121892776 -0.010702589263749914 0 0.0015670726355636983 -0.010698266554161815 0 0.0015753140459353089 -0.010877638470806453 0 0.0017669139121892776 -0.010702589263749914 0 0.0016224657006645344 -0.010551842822811248 0 0.0017669139121892776 -0.010702589263749914 0 0.0019452233917121304 -0.010441979495909099 0 0.0015670726355636983 -0.010698266554161815 0 0.0016224657006645344 -0.010551842822811248 0 0.0017669139121892776 -0.010702589263749914 0 0.0017669139121892776 -0.010702589263749914 0 0.0019452233917121304 -0.010441979495909099 0 0.00204879990233951 -0.010651483988018576 0 0.001841106925151214 -0.0095689140175618803 0 0.0017729170997637209 -0.0098656820982005403 0 0.0014711550296421824 -0.010390104287756963 0 0.0016511364679814579 -0.010273572482499433 0 0.0017882898465833377 -0.010392796518140915 0 0.0015712629651497517 -0.010351956024993706 0 0.0017729170997637209 -0.0098656820982005403 0 0.0014894987744362047 -0.010561082727879272 0 0.0016224657006645344 -0.010551842822811248 0 0.0018866512289223919 -0.010406596132538786 0 0.0015826675776104712 -0.010390931706843076 0 0.001841106925151214 -0.0095689140175618803 0 0.0016224657006645344 -0.010551842822811248 0 0.0019552941453424679 -0.010415352886971256 0 0.0018866512289223919 -0.010406596132538786 0 0.0014638461412041313 -0.010569418675661958 0 0.0017729170997637209 -0.0098656820982005403 0 0.0017814909203809773 -0.0074637852387288619 0 0.0017729170997637209 -0.0098656820982005403 0 0.001841106925151214 -0.0095689140175618803 0 0.0022826311081687745 -0.0082267136801593942 0 0.0022391009277386931 -0.010753153892768919 0 0.00204879990233951 -0.010651483988018576 0 0.002562487602325378 -0.010579704224591863 0 0.0019452233917121304 -0.010441979495909099 0 0.00204879990233951 -0.010651483988018576 0 0.002562487602325378 -0.010579704224591863 0 0.0020844201308836607 -0.008572915720096606 0 0.0016153108916702134 -0.0087813996320971841 0 0.0015330114088677313 -0.0087730055944737068 0 0.0018540810427320328 -0.00798969700384769 0 0.0019657865484076355 -0.0079655717021367284 0 0.0017500222949256091 -0.0079008455154348546 0 0.0017814909203809773 -0.0074637852387288619 0 0.001841106925151214 -0.0095689140175618803 0 0.0022391009277386931 -0.010753153892768919 0 0.002562487602325378 -0.010579704224591863 0 0.0024488637693019948 -0.010712078826736662 0 0.0017814909203809773 -0.0074637852387288619 0 0.0021919530702290647 -0.0054635995131227166 0 0.0018540810427320328 -0.00798969700384769 0 0.0017500222949256091 -0.0079008455154348546 0 0.001741151667282153 -0.0079222989448306767 0 0.0030621258940442407 -0.0062341994626336685 0 0.0029816874798401067 -0.0064482917541350566 0 0.0022307967530787545 -0.0060817565421211689 0 0.0022826311081687745 -0.0082267136801593942 0 0.0028337510714232942 -0.0049414836092756022 0 0.002988732859680464 -0.0092118853110943651 0 0.0033921509114869992 -0.0092907343837249218 0 0.0031245306462566783 -0.0097237812108119728 0 0.0022826311081687745 -0.0082267136801593942 0 0.0021919530702290647 -0.0054635995131227166 0 0.0018130129894751224 -0.0018613283056595751 0 0.0018417822978176207 -0.0018152191676213299 0 0.0017808077226397535 -0.0018234625532514285 0 0.0018417822978176207 -0.0018152191676213299 0 0.0017808077226397535 -0.0018234625532514285 0 0.001798767956712815 -0.0017810225760391289 0 0.0017122789825802967 -0.0018016114706762996 0 0.0017808077226397535 -0.0018234625532514285 0 0.001798767956712815 -0.0017810225760391289 0 0.0021919530702290647 -0.0054635995131227166 0 0.0028337510714232942 -0.0049414836092756022 0 0.0041530363874913122 -0.0096964702969422317 0 0.0033921509114869992 -0.0092907343837249218 0 0.0034649904868696985 -0.009968126551305077 0 0.0033921509114869992 -0.0092907343837249218 0 0.0034649904868696985 -0.009968126551305077 0 0.0031245306462566783 -0.0097237812108119728 0 0.0030441099106214486 -0.010246520998869994 0 0.0034649904868696985 -0.009968126551305077 0 0.0031245306462566783 -0.0097237812108119728 0 0.0022826311081687745 -0.0082267136801593942 0 0.0025386951246896381 -0.010745995110463298 0 0.0030441099106214486 -0.010246520998869994 0 0.0031245306462566783 -0.0097237812108119728 0 0.0026992333996117067 -0.009982007949207285 0 0.002988732859680464 -0.0092118853110943651 0 0.0031245306462566783 -0.0097237812108119728 0 0.0026992333996117067 -0.009982007949207285 0 0.002562487602325378 -0.010579704224591863 0 0.0024182984793611317 -0.01087673157589935 0 0.0024488637693019948 -0.010712078826736662 0 1.906534078344958e-05 0.009872952703900038 0 6.7297537026027939e-05 0.0097947965235200326 0 -3.6006128438536594e-05 0.0097981440453869407 0 1.906534078344958e-05 0.009872952703900038 0 -3.6006128438536594e-05 0.0097981440453869407 0 -0.00016304137621536911 0.0099129334313482892 0 1.906534078344958e-05 0.009872952703900038 0 -0.00011162444992314269 0.010008660644221189 0 -0.00016304137621536911 0.0099129334313482892 0 1.906534078344958e-05 0.009872952703900038 0 -0.00011162444992314269 0.010008660644221189 0 3.5725207792964172e-05 0.0099175967629862131 0 1.906534078344958e-05 0.009872952703900038 0 0.00037873771158555028 0.0098470955811539845 0 3.5725207792964172e-05 0.0099175967629862131 0 0.00030104509759192716 0.0093351876920500926 0 3.5725207792964172e-05 0.0099175967629862131 0 0.00023612037019930538 0.0097977613181559672 0 0.00030104509759192716 0.0093351876920500926 0 0.00023612037019930538 0.0097977613181559672 0 0.00047181474468259595 0.009560039748012724 0 1.906534078344958e-05 0.009872952703900038 0 0.00037873771158555028 0.0098470955811539845 0 6.7297537026027939e-05 0.0097947965235200326 0 0.00036979052874728 0.0095453407960064216 0 6.0834627974202939e-05 0.0098895576394344414 0 0.00037873771158555028 0.0098470955811539845 0 0.00014608551324964318 0.00974499079255285 0 6.7297537026027939e-05 0.0097947965235200326 0 0.00014608551324964318 0.00974499079255285 0 3.4147756764181854e-05 0.0097085086686152667 0 6.7297537026027939e-05 0.0097947965235200326 0 0.00014608551324964318 0.00974499079255285 0 0.00029906565501930052 0.009656214772408302 0 0.00023219429804909275 0.0094538674575352921 0 0.00037873771158555028 0.0098470955811539845 0 0.00014608551324964318 0.00974499079255285 0 0.00029906565501930052 0.009656214772408302 0 0.00037873771158555028 0.0098470955811539845 0 0.00029906565501930052 0.009656214772408302 0 0.00043475163216981577 0.0094415141408687089 0 0.00043475163216981577 0.0094415141408687089 0 0.00058775746668083564 0.0091166341486920224 0 0.00024113182272682092 0.0092199824482028514 0 0.00029906565501930052 0.009656214772408302 0 0.00043475163216981577 0.0094415141408687089 0 0.00023219429804909275 0.0094538674575352921 0 0.00043475163216981577 0.0094415141408687089 0 0.00023219429804909275 0.0094538674575352921 0 0.00024113182272682092 0.0092199824482028514 0 0.00014608551324964318 0.00974499079255285 0 0.00023219429804909275 0.0094538674575352921 0 2.6871711610902939e-05 0.0091635478588546464 0 0.00023219429804909275 0.0094538674575352921 0 2.6871711610902939e-05 0.0091635478588546464 0 0.00024113182272682092 0.0092199824482028514 0 3.4147756764181854e-05 0.0097085086686152667 0 -3.2162526554744165e-05 0.0096869543766857861 0 2.0746722472284032e-05 0.0095287942102923028 0 0.00014608551324964318 0.00974499079255285 0 3.4147756764181854e-05 0.0097085086686152667 0 -6.9884682383407264e-05 0.0090829947028836597 0 3.4147756764181854e-05 0.0097085086686152667 0 6.7297537026027939e-05 0.0097947965235200326 0 -3.6006128438536594e-05 0.0097981440453869407 0 3.4147756764181854e-05 0.0097085086686152667 0 -3.6006128438536594e-05 0.0097981440453869407 0 -3.2162526554744165e-05 0.0096869543766857861 0 -3.6006128438536594e-05 0.0097981440453869407 0 -0.00015965530590424511 0.0097681574037596589 0 -0.00016304137621536911 0.0099129334313482892 0 -3.6006128438536594e-05 0.0097981440453869407 0 -3.2162526554744165e-05 0.0096869543766857861 0 -0.00015965530590424511 0.0097681574037596589 0 -3.2162526554744165e-05 0.0096869543766857861 0 -0.00011265979807704245 0.0096194488901762895 0 -0.00015965530590424511 0.0097681574037596589 0 -3.2162526554744165e-05 0.0096869543766857861 0 -0.00011265979807704245 0.0096194488901762895 0 2.0746722472284032e-05 0.0095287942102923028 0 -0.00011265979807704245 0.0096194488901762895 0 -0.00036552969513892387 0.0096789818851918952 0 -0.00015965530590424511 0.0097681574037596589 0 -0.00011265979807704245 0.0096194488901762895 0 -0.00036552969513892387 0.0096789818851918952 0 -0.00010615219343643719 0.0094612685422568871 0 -0.00036552969513892387 0.0096789818851918952 0 -0.00037108803976672983 0.0098763229964691779 0 -0.00070626945739927919 0.0098401968717402172 0 -0.00037108803976672983 0.0098763229964691779 0 -0.00015965530590424511 0.0097681574037596589 0 -0.00016304137621536911 0.0099129334313482892 0 -0.00036552969513892387 0.0096789818851918952 0 -0.00037108803976672983 0.0098763229964691779 0 -0.00015965530590424511 0.0097681574037596589 0 -0.00036552969513892387 0.0096789818851918952 0 -0.00070626945739927919 0.0098401968717402172 0 -0.00062764809457664563 0.0094458968923937219 0 -0.00037108803976672983 0.0098763229964691779 0 -0.00070626945739927919 0.0098401968717402172 0 -0.00049597111846553913 0.010167884279352165 0 -0.00070626945739927919 0.0098401968717402172 0 -0.00049597111846553913 0.010167884279352165 0 -0.00096847002525887369 0.010264170821724572 0 -0.00011162444992314269 0.010008660644221189 0 -0.00049597111846553913 0.010167884279352165 0 -0.00016304137621536911 0.0099129334313482892 0 -0.00037108803976672983 0.0098763229964691779 0 -0.00049597111846553913 0.010167884279352165 0 -0.00016304137621536911 0.0099129334313482892 0 -0.00012270891496337445 0.010281906133088688 0 0.00028345910638330354 0.0099390028642770602 0 -0.00011162444992314269 0.010008660644221189 0 -0.00049597111846553913 0.010167884279352165 0 -0.00013333393911958095 0.010157714781387675 0 -0.00049597111846553913 0.010167884279352165 0 -0.00074662566124679387 0.010607286789168478 0 -2.3356933266904744e-05 0.010517440387266314 0 -0.00053422508616385496 0.010209559565237477 0 0.00028345910638330354 0.0099390028642770602 0 0.00061436876352338494 0.0096930497795087375 0 0.00039809167677951052 0.009565745629807677 0 0.00019920915776750156 0.0097344608062482005 0 -0.00049597111846553913 0.010167884279352165 0 -0.00074662566124679387 0.010607286789168478 0 -0.00096847002525887369 0.010264170821724572 0 0.00061436876352338494 0.0096930497795087375 0 0.00057784224243971627 0.0094436677641178812 0 0.00039809167677951052 0.009565745629807677 0 0.00061436876352338494 0.0096930497795087375 0 0.00057784224243971627 0.0094436677641178812 0 0.00075580744090969498 0.0095891555568145981 0 0.00057784224243971627 0.0094436677641178812 0 0.00039809167677951052 0.009565745629807677 0 0.00018459080521673549 0.0093882525610054848 0 0.00039809167677951052 0.009565745629807677 0 0.00018459080521673549 0.0093882525610054848 0 0.00019920915776750156 0.0097344608062482005 0 0.0014673235933104004 0.0067908710771029113 0 0.00059407112241985621 0.0065367904388102067 0 0.00018459080521673549 0.0093882525610054848 0 -3.3554004424829255e-05 0.0095570260278573741 0 -0.00027868456615931633 0.0093513757931655735 0 0.00059407112241985621 0.0065367904388102067 0 -0.00081976994814739971 0.0077574870572153379 0 0.00018459080521673549 0.0093882525610054848 0 -3.3554004424829255e-05 0.0095570260278573741 0 0.00019920915776750156 0.0097344608062482005 0 -0.00013333393911958095 0.010157714781387675 0 3.5725207792964172e-05 0.0099175967629862131 0 0.00023412723776559811 0.0097398937492221421 0 0.00028345910638330354 0.0099390028642770602 0 0.00041575723091095648 0.0097410778900932325 0 0.0006518855539364689 0.0094835549853624773 0 0.00028345910638330354 0.0099390028642770602 0 0.00089434114679814308 0.0090734143099618463 0 0.001556232954604826 0.0095656471217840412 0 0.00053776447651254821 0.0093493590786829419 0 -0.00011162444992314269 0.010008660644221189 0 -0.00013333393911958095 0.010157714781387675 0 3.5725207792964172e-05 0.0099175967629862131 0 0.001556232954604826 0.0095656471217840412 0 0.00023412723776559811 0.0097398937492221421 0 0.00053776447651254821 0.0093493590786829419 0 3.5725207792964172e-05 0.0099175967629862131 0 0.00023612037019930538 0.0097977613181559672 0 0.00023412723776559811 0.0097398937492221421 0 0.00053776447651254821 0.0093493590786829419 0 0.00027803215833098797 0.0094228749056448052 0 0.00015251334145631036 0.0091180362501387269 0 0.00023412723776559811 0.0097398937492221421 0 0.00053776447651254821 0.0093493590786829419 0 0.00027803215833098797 0.0094228749056448052 0 0.00023412723776559811 0.0097398937492221421 0 0.00027803215833098797 0.0094228749056448052 0 0.00011483384563032721 0.0094190941901235638 0 0.00027803215833098797 0.0094228749056448052 0 0.00011483384563032721 0.0094190941901235638 0 0.00015251334145631036 0.0091180362501387269 0 0.00089434114679814308 0.0090734143099618463 0 0.00053776447651254821 0.0093493590786829419 0 0.00015251334145631036 0.0091180362501387269 0 0.00089434114679814308 0.0090734143099618463 0 0.00015251334145631036 0.0091180362501387269 0 0.0002433220917704537 0.0085969884400859346 0 0.0006518855539364689 0.0094835549853624773 0 -0.00081976994814739971 0.0077574870572153379 0 -0.00081976994814739971 0.0077574870572153379 0 -0.00084333154002643222 0.0088018634222814685 0 0.0002433220917704537 0.0085969884400859346 0 -0.00016361064552508013 0.009049729034937672 0 -0.00050570302673620313 0.0088653584500318315 0 0.0002433220917704537 0.0085969884400859346 0 -0.00050570302673620313 0.0088653584500318315 0 -0.00084898403058428175 0.0086164199881419209 0 0.00015251334145631036 0.0091180362501387269 0 -0.00016361064552508013 0.009049729034937672 0 -0.00012623929565417716 0.0094350605973644742 0 0.00015251334145631036 0.0091180362501387269 0 0.0002433220917704537 0.0085969884400859346 0 -0.00016361064552508013 0.009049729034937672 0 -0.00016361064552508013 0.009049729034937672 0 -0.00050570302673620313 0.0088653584500318315 0 -0.00042547974752685155 0.0092437934980762349 0 -0.00050570302673620313 0.0088653584500318315 0 -0.00090719528507145805 0.0085862172478830268 0 -0.00084898403058428175 0.0086164199881419209 0 -0.00090719528507145805 0.0085862172478830268 0 -0.00084898403058428175 0.0086164199881419209 0 -0.00044101545003448549 0.0086721545380637581 0 -0.00090719528507145805 0.0085862172478830268 0 -0.00065576150472048636 0.0090132723623988064 0 -0.00077740141456712341 0.0093098565195912572 0 -0.00050570302673620313 0.0088653584500318315 0 -0.00090719528507145805 0.0085862172478830268 0 -0.00065576150472048636 0.0090132723623988064 0 -0.00050570302673620313 0.0088653584500318315 0 -0.00065576150472048636 0.0090132723623988064 0 -0.00042547974752685155 0.0092437934980762349 0 -0.00065576150472048636 0.0090132723623988064 0 -0.00077740141456712341 0.0093098565195912572 0 -0.00042547974752685155 0.0092437934980762349 0 -0.00090719528507145805 0.0085862172478830268 0 -0.00077740141456712341 0.0093098565195912572 0 -0.0011278983677864716 0.0099402735457562175 0 -0.00090719528507145805 0.0085862172478830268 0 -0.00060106717519598407 0.0073206011824284312 0 -0.00090151298242157035 0.0061108633626546479 0 -0.00077740141456712341 0.0093098565195912572 0 -0.00033465077745585011 0.009790973695712895 0 -0.0011278983677864716 0.0099402735457562175 0 -0.00077740141456712341 0.0093098565195912572 0 -0.00033465077745585011 0.009790973695712895 0 -0.00042547974752685155 0.0092437934980762349 0 0.00014689789736852427 0.0097784103829509431 0 -0.0002979833374219299 0.0076957249532984308 0 -0.0011088817843286926 0.0087026280089585652 0 -0.0002979833374219299 0.0076957249532984308 0 0.00023612037019930538 0.0097977613181559672 0 0.00023412723776559811 0.0097398937492221421 0 -0.00033465077745585011 0.009790973695712895 0 0.00023412723776559811 0.0097398937492221421 0 -0.00033465077745585011 0.009790973695712895 0 -0.00012623929565417716 0.0094350605973644742 0 0.00023950192881378295 0.0097805642281961844 0 0.00014689789736852427 0.0097784103829509431 0 0.00023612037019930538 0.0097977613181559672 0 0.00064670312160627365 0.009731574241121161 0 0.00047181474468259595 0.009560039748012724 0 0.00023412723776559811 0.0097398937492221421 0 0.00011483384563032721 0.0094190941901235638 0 -0.00012623929565417716 0.0094350605973644742 0 0.00011483384563032721 0.0094190941901235638 0 0.00015251334145631036 0.0091180362501387269 0 -0.00012623929565417716 0.0094350605973644742 0 -0.00016361064552508013 0.009049729034937672 0 -0.00012623929565417716 0.0094350605973644742 0 -0.00042547974752685155 0.0092437934980762349 0 -0.00033465077745585011 0.009790973695712895 0 -0.00012623929565417716 0.0094350605973644742 0 -0.00042547974752685155 0.0092437934980762349 0 0.0022882352180920379 0.00011779575081999662 0 0.0021331176498203949 0.00017019456935268371 0 0.0022141479882702209 3.2583803516913341e-05 0 -0.00044101545003448549 0.0086721545380637581 0 0.0019647499858900974 0.0075359599202962403 0 0.00065395494002488518 0.0069786549460865138 0 0.00098788326085656438 0.0045118253468985842 0 0.0018880529272916919 0.0046239138900474111 0 -0.00090719528507145805 0.0085862172478830268 0 -0.00044101545003448549 0.0086721545380637581 0 -0.00060106717519598407 0.0073206011824284312 0 -0.00044101545003448549 0.0086721545380637581 0 -0.00060106717519598407 0.0073206011824284312 0 0.00065395494002488518 0.0069786549460865138 0 -0.0006063134085735124 0.0073154299573612728 0 0.00033444733283918582 0.0052984144580755484 0 -0.00060106717519598407 0.0073206011824284312 0 0.00033398652896922783 0.005897191073749905 0 -0.00090151298242157035 0.0061108633626546479 0 -0.00060106717519598407 0.0073206011824284312 0 0.00065395494002488518 0.0069786549460865138 0 0.00027738652529142105 0.0058350280404946093 0 0.0021109421115299526 0.0054532651540384197 0 0.0019647499858900974 0.0075359599202962403 0 0.00065395494002488518 0.0069786549460865138 0 0.0021109421115299526 0.0054532651540384197 0 0.00065395494002488518 0.0069786549460865138 0 0.00027738652529142105 0.0058350280404946093 0 0.0014082273785978143 0.0048369072968972322 0 0.00033444733283918582 0.0052984144580755484 0 0.00079493874464010535 0.0040546475584326532 0 0.00067516114027065107 0.0040872780654782181 0 0.00077962649927942993 0.0039408983240688403 0 0.00010540750403973819 0.0052356396953093772 0 -0.00019698999567668496 0.0046761901023678141 0 -0.00025378805550093064 0.0053117196341985785 0 0.00033444733283918582 0.0052984144580755484 0 -0.0002979833374219299 0.0076957249532984308 0 0.00010540750403973819 0.0052356396953093772 0 -0.00019698999567668496 0.0046761901023678141 0 0.00052561350087689343 0.0045453848100807806 0 -0.00019698999567668496 0.0046761901023678141 0 0.00052561350087689343 0.0045453848100807806 0 0.0001489030531095922 0.0043464958077665998 0 0.00033444733283918582 0.0052984144580755484 0 0.0006836131282167326 0.0041036522183434043 0 0.00030104509759192716 0.0093351876920500926 0 0.00072737693353973462 0.0093574751827778108 0 0.00047181474468259595 0.009560039748012724 0 0.00064670312160627365 0.009731574241121161 0 0.00072737693353973462 0.0093574751827778108 0 0.00047181474468259595 0.009560039748012724 0 0.0011986731266508473 0.0089860505521829736 0 0.00072737693353973462 0.0093574751827778108 0 0.001124020107283329 0.0096477184476637841 0 0.00064670312160627365 0.009731574241121161 0 0.00072737693353973462 0.0093574751827778108 0 0.001124020107283329 0.0096477184476637841 0 0.00055289717969513952 0.0066819706580313462 0 -0.0002979833374219299 0.0076957249532984308 0 0.0011986731266508473 0.0089860505521829736 0 0.00072737693353973462 0.0093574751827778108 0 0.00074487170891430164 0.0087973924332313616 0 0.00036979052874728 0.0095453407960064216 0 0.00093917023935721376 0.0092354842449798163 0 0.00043475163216981577 0.0094415141408687089 0 0.0011074247379646428 0.0092504064273117737 0 0.00058775746668083564 0.0091166341486920224 0 0.00030104509759192716 0.0093351876920500926 0 0.00072737693353973462 0.0093574751827778108 0 0.00074487170891430164 0.0087973924332313616 0 0.00037873771158555028 0.0098470955811539845 0 0.00043475163216981577 0.0094415141408687089 0 0.0011074247379646428 0.0092504064273117737 0 0.0011074247379646428 0.0092504064273117737 0 0.0007618812526533034 0.0087037907454632791 0 0.0012971091037920356 0.0084506611937948586 0 0.00058775746668083564 0.0091166341486920224 0 0.0007618812526533034 0.0087037907454632791 0 0.00041965566233943705 0.008965842816025792 0 0.0011074247379646428 0.0092504064273117737 0 0.00058775746668083564 0.0091166341486920224 0 0.0007618812526533034 0.0087037907454632791 0 0.0011986731266508473 0.0089860505521829736 0 0.00074487170891430164 0.0087973924332313616 0 0.0012592548073317993 0.0082563547494853753 0 0.0011074247379646428 0.0092504064273117737 0 0.0012971091037920356 0.0084506611937948586 0 0.0017892296332704765 0.0085617675458808124 0 0.00093917023935721376 0.0092354842449798163 0 0.00076916838275392337 0.0066754738738593429 0 -0.00078796845390254869 0.0041905465230399411 0 -0.00038127825827673147 0.0043528404969768956 0 -0.00037607238534992805 0.0042454046137582078 0 0.0012971091037920356 0.0084506611937948586 0 0.00091722795342723859 0.0080236387533341134 0 0.0018074609651224463 0.0082662541092126916 0 0.00012368873046002634 0.0061760061959632634 0 0.00065461516978870934 0.0058283626758312114 0 0.0012971091037920356 0.0084506611937948586 0 0.0017892296332704765 0.0085617675458808124 0 0.0018074609651224463 0.0082662541092126916 0 0.0007618812526533034 0.0087037907454632791 0 0.00091722795342723859 0.0080236387533341134 0 0.00038972240689297131 0.0083149986674574978 0 0.0007618812526533034 0.0087037907454632791 0 0.0012971091037920356 0.0084506611937948586 0 0.00091722795342723859 0.0080236387533341134 0 0.00052561350087689343 0.0045453848100807806 0 0.00044772197572993374 0.0041471430422316104 0 0.0001489030531095922 0.0043464958077665998 0 0.00044772197572993374 0.0041471430422316104 0 0.00025192798600001621 0.0041194114390884435 0 0.0001489030531095922 0.0043464958077665998 0 0.00055289717969513952 0.0066819706580313462 0 0.00076916838275392337 0.0066754738738593429 0 -0.00019698999567668496 0.0046761901023678141 0 0.0001489030531095922 0.0043464958077665998 0 -0.00013026845049241356 0.0040877640813335387 0 9.0805200940037472e-05 0.0041017590861739612 0 0.0001489030531095922 0.0043464958077665998 0 -0.00013026845049241356 0.0040877640813335387 0 0.00025192798600001621 0.0041194114390884435 0 9.0805200940037472e-05 0.0041017590861739612 0 0.0001489030531095922 0.0043464958077665998 0 -0.00025423277424547601 0.0044407177237978084 0 -0.00037607238534992805 0.0042454046137582078 0 -0.0001916231865615688 0.0039913986461377494 0 5.6196396677026488e-05 0.0039479771123914929 0 0.0001556300061635638 0.0039753261069915063 0 0.00041859733821420582 0.0036694694918361016 0 9.0805200940037472e-05 0.0041017590861739612 0 -0.00013026845049241356 0.0040877640813335387 0 2.4394188976663555e-05 0.0039413731152675643 0 0.00076916838275392337 0.0066754738738593429 0 0.00027836904977188669 0.0049857142617325562 0 0.00047514767420340408 0.0059713797154692027 0 0.00077251489692913423 0.0056799041915000055 0 0.00050298830795910115 0.0056051538936612248 0 0.00027836904977188669 0.0049857142617325562 0 0.00065461516978870934 0.0058283626758312114 0 0.00076916838275392337 0.0066754738738593429 0 0.00065461516978870934 0.0058283626758312114 0 0.00065461516978870934 0.0058283626758312114 0 0.00042531802289506675 0.0047920787199919384 0 -0.00025423277424547601 0.0044407177237978084 0 -0.00039022976641391553 0.0043994156889174425 0 -0.00037607238534992805 0.0042454046137582078 0 0.00027836904977188669 0.0049857142617325562 0 7.8908776271658916e-05 0.0047116319448450138 0 9.0805200940037472e-05 0.0041017590861739612 0 2.4394188976663555e-05 0.0039413731152675643 0 0.0001556300061635638 0.0039753261069915063 0 0.00025192798600001621 0.0041194114390884435 0 9.0805200940037472e-05 0.0041017590861739612 0 0.0001556300061635638 0.0039753261069915063 0 0.0001556300061635638 0.0039753261069915063 0 0.00041505780631906759 0.0038826025916160302 0 0.00041859733821420582 0.0036694694918361016 0 0.00027836904977188669 0.0049857142617325562 0 0.0003013817099484603 0.0037609094804493424 0 0.00044772197572993374 0.0041471430422316104 0 0.00025192798600001621 0.0041194114390884435 0 0.00041505780631906759 0.0038826025916160302 0 0.00025192798600001621 0.0041194114390884435 0 0.0001556300061635638 0.0039753261069915063 0 0.00041505780631906759 0.0038826025916160302 0 0.00065497810442966334 0.0036844995391071725 0 0.00041505780631906759 0.0038826025916160302 0 0.00041859733821420582 0.0036694694918361016 0 0.00048554960835367331 0.0035187149884671823 0 0.00020166274633949652 0.0040406940165036674 0 -0.0001916231865615688 0.0039913986461377494 0 -0.00025423277424547601 0.0044407177237978084 0 0.00020166274633949652 0.0040406940165036674 0 -0.0001916231865615688 0.0039913986461377494 0 -0.00037607238534992805 0.0042454046137582078 0 -0.0001916231865615688 0.0039913986461377494 0 -0.00058749388106047319 0.0039604865349176033 0 -0.0001916231865615688 0.0039913986461377494 0 -0.00039624144466718657 0.0036541306750737836 0 -0.00058749388106047319 0.0039604865349176033 0 0.0001124979459175885 0.0034846700986531751 0 -0.00036903940831654186 0.00362855677199134 0 0.00048554960835367331 0.0035187149884671823 0 -0.0001916231865615688 0.0039913986461377494 0 -0.00039624144466718657 0.0036541306750737836 0 -0.00021148438278861107 0.0034435333580249941 0 -0.00039624144466718657 0.0036541306750737836 0 -0.00032107149761021299 0.0034173192895643597 0 -0.00078796845390254869 0.0041905465230399411 0 -0.00077548980366492148 0.0037860502662603124 0 -0.00098264682184068968 0.0039367559023059644 0 -0.00078796845390254869 0.0041905465230399411 0 -0.00058749388106047319 0.0039604865349176033 0 -0.00077548980366492148 0.0037860502662603124 0 -0.00078796845390254869 0.0041905465230399411 0 -0.00037607238534992805 0.0042454046137582078 0 -0.00058749388106047319 0.0039604865349176033 0 -0.00039624144466718657 0.0036541306750737836 0 -0.00077548980366492148 0.0037860502662603124 0 -0.00046726192517396539 0.0034378199765290017 0 -0.00039624144466718657 0.0036541306750737836 0 -0.00058749388106047319 0.0039604865349176033 0 -0.00077548980366492148 0.0037860502662603124 0 -0.00077548980366492148 0.0037860502662603124 0 -0.00098264682184068968 0.0039367559023059644 0 -0.0010696767806391097 0.0038378214616863922 0 -0.00098264682184068968 0.0039367559023059644 0 -0.00114244820962053 0.0039824784290670174 0 -0.0010696767806391097 0.0038378214616863922 0 -0.0012300885540671481 0.0039916649805595509 0 -0.00114244820962053 0.0039824784290670174 0 -0.0010696767806391097 0.0038378214616863922 0 -0.0012300885540671481 0.0039916649805595509 0 -0.00114244820962053 0.0039824784290670174 0 -0.0012327264365076921 0.0040147335260353719 0 -0.00114244820962053 0.0039824784290670174 0 -0.0012020879682155083 0.004027506854039826 0 -0.0012327264365076921 0.0040147335260353719 0 -0.0012020879682155083 0.004027506854039826 0 -0.0012327264365076921 0.0040147335260353719 0 -0.0012281555596923379 0.0040280727901266956 0 -0.00114244820962053 0.0039824784290670174 0 -0.0012020879682155083 0.004027506854039826 0 -0.0010588686560378533 0.0041185229948238165 0 -0.00065834801920405014 0.0057909998116891298 0 -0.00065177310805451707 0.0069502986949449026 0 1.5317089138303759e-05 0.0077515858055591316 0 -0.00051754298444460739 0.008027987654018404 0 -0.00095216745671524155 0.0074649850268263696 0 -0.0012020879682155083 0.004027506854039826 0 -0.0010588686560378533 0.0041185229948238165 0 -0.0012447122969617382 0.004068769969003635 0 -0.00078796845390254869 0.0041905465230399411 0 -0.00098264682184068968 0.0039367559023059644 0 -0.0010588686560378533 0.0041185229948238165 0 0.00012368873046002634 0.0061760061959632634 0 -0.00065834801920405014 0.0057909998116891298 0 -0.00098264682184068968 0.0039367559023059644 0 -0.00114244820962053 0.0039824784290670174 0 -0.0010588686560378533 0.0041185229948238165 0 0.00091722795342723859 0.0080236387533341134 0 1.5317089138303759e-05 0.0077515858055591316 0 0.00038972240689297131 0.0083149986674574978 0 0.00038972240689297131 0.0083149986674574978 0 -4.7865106363773681e-05 0.0083539035849360468 0 0.00022923554915935308 0.0086478822601909807 0 0.0007618812526533034 0.0087037907454632791 0 0.00038972240689297131 0.0083149986674574978 0 0.00022923554915935308 0.0086478822601909807 0 -0.00012816374255916237 0.0085901989310955672 0 -4.7865106363773681e-05 0.0083539035849360468 0 0.00022923554915935308 0.0086478822601909807 0 1.5317089138303759e-05 0.0077515858055591316 0 -4.7865106363773681e-05 0.0083539035849360468 0 -0.00035741481302825395 0.0082825912951544692 0 1.5317089138303759e-05 0.0077515858055591316 0 0.00038972240689297131 0.0083149986674574978 0 -4.7865106363773681e-05 0.0083539035849360468 0 1.5317089138303759e-05 0.0077515858055591316 0 -0.00035741481302825395 0.0082825912951544692 0 -0.00051754298444460739 0.008027987654018404 0 -0.00051754298444460739 0.008027987654018404 0 -0.00045731642078533045 0.0086415370884312531 0 -0.00095216745671524155 0.0074649850268263696 0 -0.00017691870937926228 0.0090394472541111427 0 -6.9884682383407264e-05 0.0090829947028836597 0 -0.00042562531059489882 0.0080464844554472038 0 0.00012415640307174966 0.0092211969796994319 0 -0.00065177310805451707 0.0069502986949449026 0 -0.00023545657549173688 0.0090428013660169056 0 -0.00065177310805451707 0.0069502986949449026 0 -0.00035741481302825395 0.0082825912951544692 0 -0.00027119803151490728 0.008470946108461214 0 -0.00045731642078533045 0.0086415370884312531 0 -0.00035741481302825395 0.0082825912951544692 0 -0.00051754298444460739 0.008027987654018404 0 -0.00045731642078533045 0.0086415370884312531 0 -4.7865106363773681e-05 0.0083539035849360468 0 -0.00035741481302825395 0.0082825912951544692 0 -0.00027119803151490728 0.008470946108461214 0 -0.00012816374255916237 0.0085901989310955672 0 -4.7865106363773681e-05 0.0083539035849360468 0 -0.00027119803151490728 0.008470946108461214 0 -0.00012816374255916237 0.0085901989310955672 0 -0.00027119803151490728 0.008470946108461214 0 -0.00045731642078533045 0.0086415370884312531 0 3.4147756764181854e-05 0.0097085086686152667 0 0.00025377914304493303 0.0091554760154888507 0 2.0746722472284032e-05 0.0095287942102923028 0 0.00025377914304493303 0.0091554760154888507 0 2.0746722472284032e-05 0.0095287942102923028 0 -0.00010615219343643719 0.0094612685422568871 0 1.890991486967109e-05 0.009594248168373504 0 0.00012415640307174966 0.0092211969796994319 0 -0.00045731642078533045 0.0086415370884312531 0 2.6871711610902939e-05 0.0091635478588546464 0 -5.5951392698929473e-05 0.0088278027163858803 0 0.00014608551324964318 0.00974499079255285 0 -0.00045731642078533045 0.0086415370884312531 0 2.6871711610902939e-05 0.0091635478588546464 0 -0.00012816374255916237 0.0085901989310955672 0 -0.00045731642078533045 0.0086415370884312531 0 -5.5951392698929473e-05 0.0088278027163858803 0 3.4147756764181854e-05 0.0097085086686152667 0 -0.00017691870937926228 0.0090394472541111427 0 -6.9884682383407264e-05 0.0090829947028836597 0 0.00010206644258075175 0.0096232066339051996 0 -0.00023545657549173688 0.0090428013660169056 0 -0.00011265979807704245 0.0096194488901762895 0 2.0746722472284032e-05 0.0095287942102923028 0 -0.00010615219343643719 0.0094612685422568871 0 2.6871711610902939e-05 0.0091635478588546464 0 0.00017228106694032951 0.0089670328519110085 0 -5.5951392698929473e-05 0.0088278027163858803 0 2.6871711610902939e-05 0.0091635478588546464 0 0.00017228106694032951 0.0089670328519110085 0 0.00024113182272682092 0.0092199824482028514 0 0.00058775746668083564 0.0091166341486920224 0 0.00024113182272682092 0.0092199824482028514 0 0.00041965566233943705 0.008965842816025792 0 0.00017228106694032951 0.0089670328519110085 0 0.00024113182272682092 0.0092199824482028514 0 0.00041965566233943705 0.008965842816025792 0 0.0007618812526533034 0.0087037907454632791 0 0.00041965566233943705 0.008965842816025792 0 0.00022923554915935308 0.0086478822601909807 0 0.00017228106694032951 0.0089670328519110085 0 0.00041965566233943705 0.008965842816025792 0 0.00022923554915935308 0.0086478822601909807 0 -0.00012816374255916237 0.0085901989310955672 0 0.00022923554915935308 0.0086478822601909807 0 -5.5951392698929473e-05 0.0088278027163858803 0 0.00017228106694032951 0.0089670328519110085 0 0.00022923554915935308 0.0086478822601909807 0 -5.5951392698929473e-05 0.0088278027163858803 0 -0.00070626945739927919 0.0098401968717402172 0 -0.00062764809457664563 0.0094458968923937219 0 -0.00093255502961755998 0.0095315500591026375 0 -0.00062764809457664563 0.0094458968923937219 0 -0.00085525905235752102 0.0089801020955913857 0 -0.00093255502961755998 0.0095315500591026375 0 -0.00036552969513892387 0.0096789818851918952 0 -0.00062764809457664563 0.0094458968923937219 0 -0.00010615219343643719 0.0094612685422568871 0 0.00025377914304493303 0.0091554760154888507 0 -0.00010615219343643719 0.0094612685422568871 0 -0.000305966158670101 0.0091723348902522754 0 -0.00062764809457664563 0.0094458968923937219 0 -0.000305966158670101 0.0091723348902522754 0 -0.00085525905235752102 0.0089801020955913857 0 -0.00062764809457664563 0.0094458968923937219 0 -0.00010615219343643719 0.0094612685422568871 0 -0.000305966158670101 0.0091723348902522754 0 -0.000305966158670101 0.0091723348902522754 0 -0.00027353143099181025 0.0085819918947731572 0 -0.00085525905235752102 0.0089801020955913857 0 0.00025377914304493303 0.0091554760154888507 0 -0.00010573936570695051 0.0080251248062206751 0 0.00017316980260334409 0.0071608763858300268 0 0.00025377914304493303 0.0091554760154888507 0 -0.000305966158670101 0.0091723348902522754 0 -0.00027353143099181025 0.0085819918947731572 0 0.00025377914304493303 0.0091554760154888507 0 -0.00027353143099181025 0.0085819918947731572 0 -0.00010573936570695051 0.0080251248062206751 0 -0.00027353143099181025 0.0085819918947731572 0 -0.00085525905235752102 0.0089801020955913857 0 -0.00061564749365859283 0.0077857981843203047 0 -0.00027353143099181025 0.0085819918947731572 0 -0.00010573936570695051 0.0080251248062206751 0 -0.00061564749365859283 0.0077857981843203047 0 -0.00093042083894044809 0.008936495425816135 0 -0.0016627759436204758 0.0082624678803269579 0 -0.00085525905235752102 0.0089801020955913857 0 -0.00093255502961755998 0.0095315500591026375 0 -0.0010619527737511182 0.0093126250241180649 0 -0.00085525905235752102 0.0089801020955913857 0 -0.0010619527737511182 0.0093126250241180649 0 -0.0010333861654707359 0.0091711587095161893 0 -0.00085525905235752102 0.0089801020955913857 0 -0.0014783859652484931 0.0070799710612963751 0 -0.00061564749365859283 0.0077857981843203047 0 -0.00085525905235752102 0.0089801020955913857 0 -0.0014783859652484931 0.0070799710612963751 0 -0.0024635087381838804 0.0072795738001154237 0 -0.00099338119986147914 0.0065958536481198439 0 -0.0014783859652484931 0.0070799710612963751 0 -0.00061564749365859283 0.0077857981843203047 0 -0.0014783859652484931 0.0070799710612963751 0 -0.0024635087381838804 0.0072795738001154237 0 -0.0023078438875522209 0.0061442512409971379 0 -0.00010573936570695051 0.0080251248062206751 0 -0.00033152285138614756 0.0073980699514943965 0 0.00017316980260334409 0.0071608763858300268 0 -0.00010573936570695051 0.0080251248062206751 0 -0.00061564749365859283 0.0077857981843203047 0 -0.00033152285138614756 0.0073980699514943965 0 -0.00063947510752063988 0.0067719226349352872 0 -0.00065177310805451707 0.0069502986949449026 0 -0.00099338119986147914 0.0065958536481198439 0 -0.00033152285138614756 0.0073980699514943965 0 0.00017316980260334409 0.0071608763858300268 0 -0.00099338119986147914 0.0065958536481198439 0 0.00019592384130164304 0.006915933481459669 0 5.5932650467587236e-05 0.0064661716361178231 0 -0.00099338119986147914 0.0065958536481198439 0 -0.00061564749365859283 0.0077857981843203047 0 -0.00033152285138614756 0.0073980699514943965 0 -0.00065177310805451707 0.0069502986949449026 0 -0.00096659903570761564 0.0048369655278250965 0 -0.0012020879682155083 0.004027506854039826 0 -0.0012447122969617382 0.004068769969003635 0 -0.0012281555596923379 0.0040280727901266956 0 -0.0012447122969617382 0.004068769969003635 0 -0.0012281555596923379 0.0040280727901266956 0 -0.0012376630862291934 0.0040238692443889884 0 -0.00079048462095332938 0.005876456425808598 0 -0.0012227455608697258 0.0052914110713457472 0 -0.0012419931059088752 0.0042800762420233795 0 -0.00096659903570761564 0.0048369655278250965 0 -0.0010650607570741096 0.0043875470124908958 0 -0.0012327264365076921 0.0040147335260353719 0 -0.0012376630862291934 0.0040238692443889884 0 -0.0012832590975366037 0.0040862475852922733 0 -0.00096659903570761564 0.0048369655278250965 0 -0.0013697293468276229 0.0036748830555476709 0 -0.0012637973556296469 0.0034895262968095966 0 -0.0012419931059088752 0.0042800762420233795 0 -0.0012832590975366037 0.0040862475852922733 0 5.5932650467587236e-05 0.0064661716361178231 0 -0.00079048462095332938 0.005876456425808598 0 -0.0012419931059088752 0.0042800762420233795 0 -0.0012327264365076921 0.0040147335260353719 0 -0.0012281555596923379 0.0040280727901266956 0 -0.0012376630862291934 0.0040238692443889884 0 -0.00099338119986147914 0.0065958536481198439 0 5.5932650467587236e-05 0.0064661716361178231 0 -0.00079048462095332938 0.005876456425808598 0 -0.0012300885540671481 0.0039916649805595509 0 -0.0012327264365076921 0.0040147335260353719 0 -0.0012832590975366037 0.0040862475852922733 0 -0.0014783859652484931 0.0070799710612963751 0 -0.0014965092363803387 0.0059203696055278301 0 -0.0023078438875522209 0.0061442512409971379 0 -0.00099338119986147914 0.0065958536481198439 0 -0.0014783859652484931 0.0070799710612963751 0 -0.0014965092363803387 0.0059203696055278301 0 -0.00099338119986147914 0.0065958536481198439 0 -0.00079048462095332938 0.005876456425808598 0 -0.0014965092363803387 0.0059203696055278301 0 -0.00079048462095332938 0.005876456425808598 0 -0.0014965092363803387 0.0059203696055278301 0 -0.0012227455608697258 0.0052914110713457472 0 -0.0014965092363803387 0.0059203696055278301 0 -0.0012227455608697258 0.0052914110713457472 0 -0.0015900527766922561 0.0049700568992542774 0 -0.0014965092363803387 0.0059203696055278301 0 -0.0019881827665828044 0.0053612309113680893 0 -0.0015900527766922561 0.0049700568992542774 0 -0.0014965092363803387 0.0059203696055278301 0 -0.0019881827665828044 0.0053612309113680893 0 -0.0023078438875522209 0.0061442512409971379 0 -0.0019881827665828044 0.0053612309113680893 0 -0.0015900527766922561 0.0049700568992542774 0 -0.0019386676217517825 0.0045739408353116916 0 -0.0019881827665828044 0.0053612309113680893 0 -0.0019386676217517825 0.0045739408353116916 0 -0.0023352767303981862 0.0049436290603621013 0 -0.0012227455608697258 0.0052914110713457472 0 -0.0015900527766922561 0.0049700568992542774 0 -0.0012419931059088752 0.0042800762420233795 0 -0.0015900527766922561 0.0049700568992542774 0 -0.001608386907982842 0.0044889411915263692 0 -0.0019386676217517825 0.0045739408353116916 0 -0.0015900527766922561 0.0049700568992542774 0 -0.001608386907982842 0.0044889411915263692 0 -0.0012419931059088752 0.0042800762420233795 0 -0.001608386907982842 0.0044889411915263692 0 -0.0016554624741184337 0.0042036908176271417 0 -0.0012419931059088752 0.0042800762420233795 0 -0.001608386907982842 0.0044889411915263692 0 -0.0016554624741184337 0.0042036908176271417 0 -0.0019386676217517825 0.0045739408353116916 0 -0.0016554624741184337 0.0042036908176271417 0 -0.0014227261400955632 0.004045164278640742 0 -0.0012419931059088752 0.0042800762420233795 0 -0.0016554624741184337 0.0042036908176271417 0 -0.0019386676217517825 0.0045739408353116916 0 -0.0021208096036673448 0.0042592525491921083 0 -0.0016554624741184337 0.0042036908176271417 0 -0.0018478110143570346 0.0039097952934288261 0 -0.0021208096036673448 0.0042592525491921083 0 -0.0018478110143570346 0.0039097952934288261 0 -0.0021208096036673448 0.0042592525491921083 0 -0.0024128627063447401 0.0040439207427828893 0 -0.0016554624741184337 0.0042036908176271417 0 -0.0018478110143570346 0.0039097952934288261 0 -0.0014227261400955632 0.004045164278640742 0 -0.0018478110143570346 0.0039097952934288261 0 -0.0014243089959690973 0.0037921670627166322 0 -0.0014227261400955632 0.004045164278640742 0 -0.0018478110143570346 0.0039097952934288261 0 -0.0014243089959690973 0.0037921670627166322 0 -0.0017571189839348206 0.0035421059511435427 0 -0.0018478110143570346 0.0039097952934288261 0 -0.0017571189839348206 0.0035421059511435427 0 -0.0023142841028718454 0.0035788666612098564 0 -0.0014243089959690973 0.0037921670627166322 0 -0.0011850768231536732 0.003754085485673935 0 -0.0013886125302158051 0.0033849287023380954 0 -0.0014243089959690973 0.0037921670627166322 0 -0.0012936631469313597 0.0040199698611953789 0 -0.0011850768231536732 0.003754085485673935 0 -0.0014243089959690973 0.0037921670627166322 0 -0.0014227261400955632 0.004045164278640742 0 -0.0012936631469313597 0.0040199698611953789 0 -0.0012936631469313597 0.0040199698611953789 0 -0.001257854716232791 0.0040041010769091209 0 -0.0012058717249300911 0.0039153115236126449 0 -0.0014227261400955632 0.004045164278640742 0 -0.0012936631469313597 0.0040199698611953789 0 -0.0012419931059088752 0.0042800762420233795 0 -0.0012936631469313597 0.0040199698611953789 0 -0.0012419931059088752 0.0042800762420233795 0 -0.0012832590975366037 0.0040862475852922733 0 -0.0012936631469313597 0.0040199698611953789 0 -0.0012832590975366037 0.0040862475852922733 0 -0.001257854716232791 0.0040041010769091209 0 -0.0012300885540671481 0.0039916649805595509 0 -0.0012832590975366037 0.0040862475852922733 0 -0.001257854716232791 0.0040041010769091209 0 -0.0012058717249300911 0.0039153115236126449 0 -0.0010696767806391097 0.0038378214616863922 0 -0.0011850768231536732 0.003754085485673935 0 -0.0012300885540671481 0.0039916649805595509 0 -0.001257854716232791 0.0040041010769091209 0 -0.0012058717249300911 0.0039153115236126449 0 -0.0012300885540671481 0.0039916649805595509 0 -0.0012058717249300911 0.0039153115236126449 0 -0.0010696767806391097 0.0038378214616863922 0 -0.0012936631469313597 0.0040199698611953789 0 -0.0012058717249300911 0.0039153115236126449 0 -0.0011850768231536732 0.003754085485673935 0 -0.00077548980366492148 0.0037860502662603124 0 -0.0010696767806391097 0.0038378214616863922 0 -0.0009222727324128757 0.0035287002189614536 0 -0.0010696767806391097 0.0038378214616863922 0 -0.0009222727324128757 0.0035287002189614536 0 -0.0011850768231536732 0.003754085485673935 0 -0.0009222727324128757 0.0035287002189614536 0 -0.0011017572031639556 0.0034164450173015826 0 -0.0009330873595686229 0.0032729450826574137 0 -0.0009222727324128757 0.0035287002189614536 0 -0.0011850768231536732 0.003754085485673935 0 -0.0011017572031639556 0.0034164450173015826 0 -0.0011850768231536732 0.003754085485673935 0 -0.0011017572031639556 0.0034164450173015826 0 -0.0013886125302158051 0.0033849287023380954 0 -0.0011017572031639556 0.0034164450173015826 0 -0.0010858521769956477 0.0030409474432576762 0 -0.0013886125302158051 0.0033849287023380954 0 -0.0011017572031639556 0.0034164450173015826 0 -0.0009330873595686229 0.0032729450826574137 0 -0.0010858521769956477 0.0030409474432576762 0 -0.0009330873595686229 0.0032729450826574137 0 -0.0010858521769956477 0.0030409474432576762 0 -0.00083244132965846823 0.0030181729364440225 0 -0.0010858521769956477 0.0030409474432576762 0 -0.00083244132965846823 0.0030181729364440225 0 -0.00084934980765584715 0.0027564358915490653 0 -0.0010858521769956477 0.0030409474432576762 0 -0.0014132906994346829 0.0028978562291758886 0 -0.0013886125302158051 0.0033849287023380954 0 -0.0014132906994346829 0.0028978562291758886 0 -0.0018651058403585078 0.0030722917187115135 0 -0.0017186499006948707 0.0025481940459246362 0 -0.0014132906994346829 0.0028978562291758886 0 -0.0018651058403585078 0.0030722917187115135 0 -0.0013886125302158051 0.0033849287023380954 0 -0.0018651058403585078 0.0030722917187115135 0 -0.0023142841028718454 0.0035788666612098564 0 -0.0024316775557951848 0.0031481957628179224 0 -0.0018651058403585078 0.0030722917187115135 0 -0.0017571189839348206 0.0035421059511435427 0 -0.0023142841028718454 0.0035788666612098564 0 -0.0018651058403585078 0.0030722917187115135 0 -0.0017571189839348206 0.0035421059511435427 0 -0.0013886125302158051 0.0033849287023380954 0 -0.0014243089959690973 0.0037921670627166322 0 -0.0017571189839348206 0.0035421059511435427 0 -0.0013886125302158051 0.0033849287023380954 0 -0.00022223979077481455 0.0032822270307477832 0 -0.00025075392889879213 0.0030588636021805023 0 -0.00034541077527008358 0.0032319075134381197 0 -0.00025075392889879213 0.0030588636021805023 0 -0.00034541077527008358 0.0032319075134381197 0 -0.00034920686527562303 0.0030535768020141718 0 -0.00022223979077481455 0.0032822270307477832 0 -0.00021148438278861107 0.0034435333580249941 0 -0.00032107149761021299 0.0034173192895643597 0 -0.00022223979077481455 0.0032822270307477832 0 -0.00034541077527008358 0.0032319075134381197 0 -0.00032107149761021299 0.0034173192895643597 0 -0.00039624144466718657 0.0036541306750737836 0 -0.00032107149761021299 0.0034173192895643597 0 -0.00046726192517396539 0.0034378199765290017 0 -0.00034541077527008358 0.0032319075134381197 0 -0.00032107149761021299 0.0034173192895643597 0 -0.00046726192517396539 0.0034378199765290017 0 -0.00034541077527008358 0.0032319075134381197 0 -0.00048036842331340869 0.003084438878275743 0 -0.00034920686527562303 0.0030535768020141718 0 -0.00034541077527008358 0.0032319075134381197 0 -0.00046726192517396539 0.0034378199765290017 0 -0.00048036842331340869 0.003084438878275743 0 -0.00066046498137915962 0.0034084257972343841 0 -0.00070787997839659488 0.0031593643383259437 0 -0.00048036842331340869 0.003084438878275743 0 -0.00046726192517396539 0.0034378199765290017 0 -0.00066046498137915962 0.0034084257972343841 0 -0.00048036842331340869 0.003084438878275743 0 -0.00077548980366492148 0.0037860502662603124 0 -0.00046726192517396539 0.0034378199765290017 0 -0.00066046498137915962 0.0034084257972343841 0 -0.00077548980366492148 0.0037860502662603124 0 -0.0009222727324128757 0.0035287002189614536 0 -0.00066046498137915962 0.0034084257972343841 0 -0.0009222727324128757 0.0035287002189614536 0 -0.0009330873595686229 0.0032729450826574137 0 -0.00070787997839659488 0.0031593643383259437 0 -0.0009222727324128757 0.0035287002189614536 0 -0.00066046498137915962 0.0034084257972343841 0 -0.00070787997839659488 0.0031593643383259437 0 -0.0009330873595686229 0.0032729450826574137 0 -0.00070787997839659488 0.0031593643383259437 0 -0.00083244132965846823 0.0030181729364440225 0 -0.00083244132965846823 0.0030181729364440225 0 -0.00062883599746482949 0.0028655359697753067 0 -0.00084934980765584715 0.0027564358915490653 0 -0.00070787997839659488 0.0031593643383259437 0 -0.00083244132965846823 0.0030181729364440225 0 -0.00062883599746482949 0.0028655359697753067 0 -0.00070787997839659488 0.0031593643383259437 0 -0.00062883599746482949 0.0028655359697753067 0 -0.00048036842331340869 0.003084438878275743 0 -0.00048036842331340869 0.003084438878275743 0 -0.00042053190429640439 0.0027167195949147744 0 -0.00030696980821906127 0.0028555688705885411 0 -0.00048036842331340869 0.003084438878275743 0 -0.00030696980821906127 0.0028555688705885411 0 -0.00034920686527562303 0.0030535768020141718 0 -0.00062883599746482949 0.0028655359697753067 0 -0.00048036842331340869 0.003084438878275743 0 -0.00042053190429640439 0.0027167195949147744 0 -0.00022354153614904116 0.0026417866777742492 0 -0.00042053190429640439 0.0027167195949147744 0 -0.00030696980821906127 0.0028555688705885411 0 -0.00025075392889879213 0.0030588636021805023 0 -0.00030696980821906127 0.0028555688705885411 0 -0.00034920686527562303 0.0030535768020141718 0 -0.00016012819666788792 0.0028883986497790985 0 -0.00025075392889879213 0.0030588636021805023 0 -0.00030696980821906127 0.0028555688705885411 0 -0.00025241542362241896 0.002234400801577364 0 -0.00029232658911759198 0.0024896996963780422 0 -0.00048697874464484004 0.0023633921855105945 0 -0.00022354153614904116 0.0026417866777742492 0 -0.00042053190429640439 0.0027167195949147744 0 -0.00029232658911759198 0.0024896996963780422 0 -0.00042053190429640439 0.0027167195949147744 0 -0.00029232658911759198 0.0024896996963780422 0 -0.00056459041400736833 0.0025924837964066824 0 -0.00029232658911759198 0.0024896996963780422 0 -0.00056459041400736833 0.0025924837964066824 0 -0.00048697874464484004 0.0023633921855105945 0 -0.00037947077320412748 0.005387019607963825 0 -0.00029703405033806055 0.0049574144880798268 0 -0.00056459041400736833 0.0025924837964066824 0 -0.00077367817651776544 0.0024697700367364464 0 -0.00048697874464484004 0.0023633921855105945 0 -0.00062883599746482949 0.0028655359697753067 0 -0.00056459041400736833 0.0025924837964066824 0 -0.00084934980765584715 0.0027564358915490653 0 -0.00062883599746482949 0.0028655359697753067 0 -0.00042053190429640439 0.0027167195949147744 0 -0.00056459041400736833 0.0025924837964066824 0 -0.00056459041400736833 0.0025924837964066824 0 -0.00084934980765584715 0.0027564358915490653 0 -0.00077367817651776544 0.0024697700367364464 0 8.7482090332841386e-05 0.0083047793183086971 0 7.8626010556027205e-05 0.0080989584520697062 0 5.0160656115741613e-05 0.008308787711953744 0 7.8626010556027205e-05 0.0080989584520697062 0 5.0160656115741613e-05 0.008308787711953744 0 5.736825276810538e-05 0.0082563989124152665 0 7.8626010556027205e-05 0.0080989584520697062 0 1.1961101136708472e-07 0.0081662047227383551 0 5.736825276810538e-05 0.0082563989124152665 0 9.0960345531737581e-08 0.0081689711826603405 0 1.3730168112836925e-07 0.009485871269205623 0 2.4885737993928493e-05 0.0097343745465792199 0 -1.7082811501141831e-07 0.0081689505827524864 0 -2.7575299612282117e-05 0.0090267811297043438 0 8.7482090332841386e-05 0.0083047793183086971 0 7.8626010556027205e-05 0.0080989584520697062 0 -4.2054231749221261e-05 0.0075482717083070906 0 7.8626010556027205e-05 0.0080989584520697062 0 1.1961101136708472e-07 0.0081662047227383551 0 -4.2054231749221261e-05 0.0075482717083070906 0 1.1961101136708472e-07 0.0081662047227383551 0 -4.2054231749221261e-05 0.0075482717083070906 0 -2.2071242077718186e-07 0.0069445553305866655 0 -2.0717321720590003e-05 0.0065287192484795595 0 -1.1273479348111147e-08 0.0057190217808026893 0 -2.2071242077718186e-07 0.0069445553305866655 0 -0.00018584875041955951 0.0043827560499973108 0 -0.00029703405033806055 0.0049574144880798268 0 -2.0717321720590003e-05 0.0065287192484795595 0 -4.2054231749221261e-05 0.0075482717083070906 0 -2.2071242077718186e-07 0.0069445553305866655 0 -0.00018161817968772681 0.0091075908625809915 0 -0.00017214687606834084 0.0090826592662763845 0 -0.00012731871921250646 0.0088630203715992662 0 -0.00018161817968772681 0.0091075908625809915 0 -0.00017214687606834084 0.0090826592662763845 0 0.00018649489423276118 0.0094631917919904066 0 -0.00018161817968772681 0.0091075908625809915 0 -4.45197304862241e-05 0.0095036651111138591 0 0.00018649489423276118 0.0094631917919904066 0 -0.0018651058403585078 0.0030722917187115135 0 -0.0017186499006948707 0.0025481940459246362 0 -0.0026201378823976001 0.0026252552194051355 0 -0.00098660193545096727 0.0058868089320714308 0 -0.00096101461538648163 0.0051985912833813859 0 -0.00017214687606834084 0.0090826592662763845 0 0.00018649489423276118 0.0094631917919904066 0 0.00050035653599743424 0.0088494737110734484 0 -0.0014132906994346829 0.0028978562291758886 0 -0.0017186499006948707 0.0025481940459246362 0 -0.0011476906117391409 0.0025317199891266313 0 -0.00098660193545096727 0.0058868089320714308 0 -0.00064840635525771043 0.0056783891230172637 0 -0.0010858521769956477 0.0030409474432576762 0 -0.0014132906994346829 0.0028978562291758886 0 -0.0011476906117391409 0.0025317199891266313 0 -0.0010858521769956477 0.0030409474432576762 0 -0.00084934980765584715 0.0027564358915490653 0 -0.0011476906117391409 0.0025317199891266313 0 -0.00084934980765584715 0.0027564358915490653 0 -0.00077367817651776544 0.0024697700367364464 0 -0.0011476906117391409 0.0025317199891266313 0 8.7482090332841386e-05 0.0083047793183086971 0 -0.00012731871921250646 0.0088630203715992662 0 -4.625579233674096e-05 0.0085729843608529852 0 -0.00037947077320412748 0.005387019607963825 0 -0.00064840635525771043 0.0056783891230172637 0 -0.00012731871921250646 0.0088630203715992662 0 -0.00014252913191638707 0.0088322175162329885 0 -4.625579233674096e-05 0.0085729843608529852 0 -0.00018161817968772681 0.0091075908625809915 0 -0.00012731871921250646 0.0088630203715992662 0 -0.00014252913191638707 0.0088322175162329885 0 -0.00014252913191638707 0.0088322175162329885 0 -4.625579233674096e-05 0.0085729843608529852 0 -0.00018561407352106637 0.0087692701483913157 0 -4.625579233674096e-05 0.0085729843608529852 0 5.736825276810538e-05 0.0082563989124152665 0 -0.00018561407352106637 0.0087692701483913157 0 8.7482090332841386e-05 0.0083047793183086971 0 5.0160656115741613e-05 0.008308787711953744 0 -4.625579233674096e-05 0.0085729843608529852 0 5.0160656115741613e-05 0.008308787711953744 0 -4.625579233674096e-05 0.0085729843608529852 0 5.736825276810538e-05 0.0082563989124152665 0 1.3730168112836925e-07 0.009485871269205623 0 2.4885737993928493e-05 0.0097343745465792199 0 -1.3863081102995352e-07 0.010802452216929213 0 -2.7575299612282117e-05 0.0090267811297043438 0 -0.0001307182048759273 0.0099824950860964313 0 2.4885737993928493e-05 0.0097343745465792199 0 -8.7117225810399211e-06 0.01121334682444099 0 -1.3863081102995352e-07 0.010802452216929213 0 -1.3863081102995352e-07 0.010802452216929213 0 -0.0001346050332174282 0.011520546516082794 0 -5.3964599771983716e-07 0.012119038347693709 0 -8.7117225810399211e-06 0.01121334682444099 0 -1.3863081102995352e-07 0.010802452216929213 0 -0.0001346050332174282 0.011520546516082794 0 -0.0001307182048759273 0.0099824950860964313 0 -0.00012827366029973647 0.010628093973133669 0 -0.00018161817968772681 0.0091075908625809915 0 -0.00014252913191638707 0.0088322175162329885 0 -0.00018561407352106637 0.0087692701483913157 0 -8.7117225810399211e-06 0.01121334682444099 0 -0.0001346050332174282 0.011520546516082794 0 -0.00039333711560922933 0.011892699070719192 0 -0.00018161817968772681 0.0091075908625809915 0 -0.00018561407352106637 0.0087692701483913157 0 -4.45197304862241e-05 0.0095036651111138591 0 -0.0001346050332174282 0.011520546516082794 0 -0.00039333711560922933 0.011892699070719192 0 -5.3964599771983716e-07 0.012119038347693709 0 -0.00039333711560922933 0.011892699070719192 0 -5.3964599771983716e-07 0.012119038347693709 0 0.00010309227823180983 0.01257632916183943 0 -5.3964599771983716e-07 0.012119038347693709 0 0.00010309227823180983 0.01257632916183943 0 9.3877565152727481e-09 0.013435708129075173 0 9.3877565152727481e-09 0.013435708129075173 0 1.9731461422797914e-05 0.013208351511395365 0 -2.4861145164004204e-05 0.013622889274410355 0 0.00010309227823180983 0.01257632916183943 0 9.3877565152727481e-09 0.013435708129075173 0 1.9731461422797914e-05 0.013208351511395365 0 1.9731461422797914e-05 0.013208351511395365 0 -2.4861145164004204e-05 0.013622889274410355 0 -4.1703126515926835e-05 0.013393108149759685 0 0.00010309227823180983 0.01257632916183943 0 1.9731461422797914e-05 0.013208351511395365 0 -4.1703126515926835e-05 0.013393108149759685 0 0.00010309227823180983 0.01257632916183943 0 0.0013798658496223467 0.011296793669715751 0 0.00089578418296001959 0.010464119047969175 0 -1.5777845371193074e-06 0.012664647600931264 0 0.00087022181358383487 0.012169653321800511 0 0.0013798658496223467 0.011296793669715751 0 0.00089578418296001959 0.010464119047969175 0 0.0015967967188093477 0.010538030935808622 0 -0.00012827366029973647 0.010628093973133669 0 0.00093593456344653729 0.010449845731670926 0 -0.00039333711560922933 0.011892699070719192 0 0.00010309227823180983 0.01257632916183943 0 0.00089578418296001959 0.010464119047969175 0 -4.45197304862241e-05 0.0095036651111138591 0 0.00089578418296001959 0.010464119047969175 0 0.00018649489423276118 0.0094631917919904066 0 0.00089578418296001959 0.010464119047969175 0 0.00018649489423276118 0.0094631917919904066 0 0.00081318466517228856 0.009473326944956775 0 0.00089578418296001959 0.010464119047969175 0 0.00081318466517228856 0.009473326944956775 0 0.0016466538041181957 0.0099346629522107811 0 0.00089578418296001959 0.010464119047969175 0 0.0015967967188093477 0.010538030935808622 0 0.0016466538041181957 0.0099346629522107811 0 0.00081318466517228856 0.009473326944956775 0 0.0014465016219272727 0.0091935287010141351 0 0.0016466538041181957 0.0099346629522107811 0 0.0014465016219272727 0.0091935287010141351 0 0.00050035653599743424 0.0088494737110734484 0 0.0020438204259748028 0.0083567954375587256 0 0.00081318466517228856 0.009473326944956775 0 0.0014465016219272727 0.0091935287010141351 0 0.00050035653599743424 0.0088494737110734484 0 0.00018649489423276118 0.0094631917919904066 0 0.00081318466517228856 0.009473326944956775 0 0.00050035653599743424 0.0088494737110734484 0 -0.00014651165027646196 0.015988755926528618 0 -0.00027682238159046618 0.015975519407691902 0 -0.00014229052160768575 0.016173083922306875 0 -0.00027682238159046618 0.015975519407691902 0 -0.00036926951275929643 0.01606768441315921 0 -0.00014229052160768575 0.016173083922306875 0 0.0014465016219272727 0.0091935287010141351 0 0.0021938983439467909 0.0093613445106565645 0 0.0020438204259748028 0.0083567954375587256 0 -0.00027682238159046618 0.015975519407691902 0 -0.00036926951275929643 0.01606768441315921 0 -0.00040342456116544315 0.015849992264499298 0 0.00095044712349935244 0.013102820941281672 0 -0.00082041392533717796 0.0094216352642484524 0 0.0021938983439467909 0.0093613445106565645 0 0.0016466538041181957 0.0099346629522107811 0 0.0023985893211011071 0.010479149593801397 0 0.00095044712349935244 0.013102820941281672 0 0.00058078345436434625 0.013923760764144831 0 0.0014465016219272727 0.0091935287010141351 0 0.0021938983439467909 0.0093613445106565645 0 0.0016466538041181957 0.0099346629522107811 0 0.0015967967188093477 0.010538030935808622 0 0.0016466538041181957 0.0099346629522107811 0 0.0023985893211011071 0.010479149593801397 0 0.00058078345436434625 0.013923760764144831 0 -0.00032889696261398209 0.016656590795626362 0 -0.00036926951275929643 0.01606768441315921 0 -0.00034275578465074627 0.016234002299758903 0 -0.00014229052160768575 0.016173083922306875 0 0.00032564798632236881 0.01649051028608849 0 5.3993477921540514e-06 0.01642606326304533 0 -8.8499151761506906e-05 0.016529300262331587 0 5.3993477921540514e-06 0.01642606326304533 0 0.00039035220924542942 0.016019075612102092 0 -5.3724234302192912e-05 0.016056487260038603 0 0.00032564798632236881 0.01649051028608849 0 5.3993477921540514e-06 0.01642606326304533 0 0.00039035220924542942 0.016019075612102092 0 0.0013798658496223467 0.011296793669715751 0 0.0015967967188093477 0.010538030935808622 0 0.0023985893211011071 0.010479149593801397 0 -2.4861145164004204e-05 0.013622889274410355 0 -4.1703126515926835e-05 0.013393108149759685 0 0.00027183145312919334 0.013589242599679459 0 -4.1703126515926835e-05 0.013393108149759685 0 0.00025788144282485253 0.013260755456067252 0 0.00027183145312919334 0.013589242599679459 0 0.00058078345436434625 0.013923760764144831 0 0.00028343297695282112 0.014939910681201695 0 0.00087022181358383487 0.012169653321800511 0 0.00058078345436434625 0.013923760764144831 0 -2.4861145164004204e-05 0.013622889274410355 0 0.00027183145312919334 0.013589242599679459 0 8.5219232611542971e-07 0.014751028349360679 0 9.3877565152727481e-09 0.013435708129075173 0 -2.4861145164004204e-05 0.013622889274410355 0 8.5219232611542971e-07 0.014751028349360679 0 0.00028343297695282112 0.014939910681201695 0 1.9244668794478468e-07 0.014752707774887771 0 0.00039035220924542942 0.016019075612102092 0 1.4314248768712566e-06 0.014755043312534133 0 -5.3724234302192912e-05 0.016056487260038603 0 1.4314248768712566e-06 0.014755043312534133 0 -5.3724234302192912e-05 0.016056487260038603 0 -8.8544757816820235e-07 0.016295165085077962 0 -5.3724234302192912e-05 0.016056487260038603 0 -8.8544757816820235e-07 0.016295165085077962 0 -4.0743628053135431e-05 0.016750690064281419 0 -8.8544757816820235e-07 0.016295165085077962 0 -4.0743628053135431e-05 0.016750690064281419 0 -0.00012721221845840867 0.017267834609313817 0 -4.0743628053135431e-05 0.016750690064281419 0 -0.00012721221845840867 0.017267834609313817 0 -0.00016687646156806336 0.017314390896955873 0 -4.0743628053135431e-05 0.016750690064281419 0 -0.00016687646156806336 0.017314390896955873 0 -0.00017651717585399681 0.017300570038750258 0 5.3993477921540514e-06 0.01642606326304533 0 -4.0743628053135431e-05 0.016750690064281419 0 -8.8499151761506906e-05 0.016529300262331587 0 5.3993477921540514e-06 0.01642606326304533 0 -5.3724234302192912e-05 0.016056487260038603 0 -4.0743628053135431e-05 0.016750690064281419 0 -8.8544757816820235e-07 0.016295165085077962 0 1.7327651573479532e-07 0.018378799788611504 0 -0.00012721221845840867 0.017267834609313817 0 1.7327651573479532e-07 0.018378799788611504 0 -0.00011949059128200941 0.017828474166178575 0 0.00012685570519695928 0.018924790734633698 0 1.7327651573479532e-07 0.018378799788611504 0 -0.00012721221845840867 0.017267834609313817 0 -0.00011949059128200941 0.017828474166178575 0 -0.00012721221845840867 0.017267834609313817 0 -0.00016687646156806336 0.017314390896955873 0 -0.00011949059128200941 0.017828474166178575 0 -0.00016687646156806336 0.017314390896955873 0 -0.00015503629055776941 0.017444244864178213 0 -0.00017651717585399681 0.017300570038750258 0 -0.00016687646156806336 0.017314390896955873 0 -0.00011949059128200941 0.017828474166178575 0 -0.00015503629055776941 0.017444244864178213 0 0.00019750229827041217 0.018499336093536028 0 0.00020593597237229602 0.018871682031892729 0 -0.00011949059128200941 0.017828474166178575 0 0.00010864424430514787 0.017640422341749153 0 -0.00015503629055776941 0.017444244864178213 0 -0.00011949059128200941 0.017828474166178575 0 0.00010864424430514787 0.017640422341749153 0 0.00012685570519695928 0.018924790734633698 0 0.00013546922642790977 0.019763668685360884 0 0.00068614973805105391 0.021399938923607944 0 -4.1618667595184937e-05 0.022476836623770802 0 0.0010052035085771713 0.022776059749128864 0 0.00073610179515488483 0.022182567926217374 0 0.00010864424430514787 0.017640422341749153 0 -7.1382314684447136e-05 0.017324301178447986 0 -0.00015503629055776941 0.017444244864178213 0 0.00019750229827041217 0.018499336093536028 0 0.00013546922642790977 0.019763668685360884 0 0.00050843009755312273 0.019615242081941143 0 0.00070451871406687259 0.02001767250684065 0 0.00019244788065496504 0.019715281862983224 0 -7.1382314684447136e-05 0.017324301178447986 0 -0.00015503629055776941 0.017444244864178213 0 -0.00016264870332846764 0.017349022242553531 0 -0.00015503629055776941 0.017444244864178213 0 -0.00016264870332846764 0.017349022242553531 0 -0.00017651717585399681 0.017300570038750258 0 -7.1382314684447136e-05 0.017324301178447986 0 -0.00016264870332846764 0.017349022242553531 0 -0.00016228508595142607 0.017345743119826292 0 0.00013546922642790977 0.019763668685360884 0 -0.00024931121921240588 0.017235475055505694 0 -8.1435334408397019e-05 0.019405350125199009 0 -0.00019911824905049239 0.019176688529688318 0 -0.00043186701388123997 0.019212995012392108 0 0.00013546922642790977 0.019763668685360884 0 -0.00021735779192012992 0.020699867503017423 0 -4.1618667595184937e-05 0.022476836623770802 0 -0.00047806037070849888 0.021838368748923614 0 0.00022645561823970867 0.021701706590861385 0 -4.1618667595184937e-05 0.022476836623770802 0 0.00022645561823970867 0.021701706590861385 0 0.00073610179515488483 0.022182567926217374 0 -8.8499151761506906e-05 0.016529300262331587 0 0.0001617466848081457 0.016487499436012843 0 0.00015739251851834183 0.016172389613127263 0 -4.0743628053135431e-05 0.016750690064281419 0 -8.8499151761506906e-05 0.016529300262331587 0 0.0001617466848081457 0.016487499436012843 0 -2.8005137613124296e-05 0.016829206739317971 0 6.473088773623653e-05 0.016783695501124987 0 -4.0743628053135431e-05 0.016750690064281419 0 -0.00017651717585399681 0.017300570038750258 0 -8.6987274674001723e-05 0.017335316741948978 0 -0.00016264870332846764 0.017349022242553531 0 -0.00017651717585399681 0.017300570038750258 0 -8.6987274674001723e-05 0.017335316741948978 0 6.473088773623653e-05 0.016783695501124987 0 -0.00024931121921240588 0.017235475055505694 0 -0.00016264870332846764 0.017349022242553531 0 -8.6987274674001723e-05 0.017335316741948978 0 -0.00016228508595142607 0.017345743119826292 0 0.0001617466848081457 0.016487499436012843 0 0.00015739251851834183 0.016172389613127263 0 0.00031558059849331435 0.016106495403680539 0 0.00015739251851834183 0.016172389613127263 0 0.00031558059849331435 0.016106495403680539 0 -2.7150572158816805e-05 0.015882727430796956 0 -0.00014651165027646196 0.015988755926528618 0 -0.00014229052160768575 0.016173083922306875 0 -3.4442645438446945e-05 0.016065370972639735 0 -0.00032889696261398209 0.016656590795626362 0 0.00026725979330761133 0.016084763663406592 0 0.00015739251851834183 0.016172389613127263 0 -3.4442645438446945e-05 0.016065370972639735 0 -2.7150572158816805e-05 0.015882727430796956 0 -0.00014229052160768575 0.016173083922306875 0 0.00015739251851834183 0.016172389613127263 0 -3.4442645438446945e-05 0.016065370972639735 0 -0.00014651165027646196 0.015988755926528618 0 -3.4442645438446945e-05 0.016065370972639735 0 -2.7150572158816805e-05 0.015882727430796956 0 -0.00014651165027646196 0.015988755926528618 0 -2.7150572158816805e-05 0.015882727430796956 0 -0.00024239979073800185 0.015824291040176287 0 -0.00063687155012235762 0.017150980197594114 0 -0.0015249709474918088 0.016668010540196388 0 -0.0010795029881318055 0.016101960289296335 0 -0.00024931121921240588 0.017235475055505694 0 -0.0006990598396984022 0.016428526165494409 0 -0.00063687155012235762 0.017150980197594114 0 -0.0010795029881318055 0.016101960289296335 0 -0.0002972296432616908 0.016373576149206922 0 -0.0010795029881318055 0.016101960289296335 0 -0.0002972296432616908 0.016373576149206922 0 -0.0007553890161380839 0.015470258314375649 0 -0.00088456729129485732 0.019497415413988122 0 -0.0017434203743170607 0.017729620617651497 0 -0.0010795029881318055 0.016101960289296335 0 -0.0012951162273228231 0.015368822189270742 0 -0.0007553890161380839 0.015470258314375649 0 -0.0010795029881318055 0.016101960289296335 0 -0.0017625649878929639 0.015613646644802576 0 -0.0012951162273228231 0.015368822189270742 0 -0.0015249709474918088 0.016668010540196388 0 -0.0010795029881318055 0.016101960289296335 0 -0.0017625649878929639 0.015613646644802576 0 -0.0015249709474918088 0.016668010540196388 0 -0.0017625649878929639 0.015613646644802576 0 -0.0024109873838822639 0.016178904261918169 0 -0.00047806037070849888 0.021838368748923614 0 0.00022645561823970867 0.021701706590861385 0 0.00010712523991786768 0.021021752125306683 0 0.00022645561823970867 0.021701706590861385 0 0.00010712523991786768 0.021021752125306683 0 0.00085278354338616373 0.021403411460215144 0 -0.00024931121921240588 0.017235475055505694 0 -0.00088456729129485732 0.019497415413988122 0 -0.00019911824905049239 0.019176688529688318 0 -0.00043186701388123997 0.019212995012392108 0 -0.00031717568675436312 0.01895442095750775 0 -0.00047806037070849888 0.021838368748923614 0 0.00010712523991786768 0.021021752125306683 0 -0.00094811988021499289 0.021129057114270999 0 -0.00021735779192012992 0.020699867503017423 0 -0.00088456729129485732 0.019497415413988122 0 -0.0016082096005364584 0.022112262243239474 0 -0.00065572032594643644 0.019979020151419367 0 -0.0026533036413909196 0.020131655308647071 0 -0.00088456729129485732 0.019497415413988122 0 -0.00094435433555640754 0.020875437000510744 0 0.00010712523991786768 0.021021752125306683 0 -0.00094811988021499289 0.021129057114270999 0 -0.00065572032594643644 0.019979020151419367 0 0.00010712523991786768 0.021021752125306683 0 0.00064790194582391495 0.020009660818906466 0 0.0010141896082002551 0.020760996497955226 0 0.00010712523991786768 0.021021752125306683 0 0.00064790194582391495 0.020009660818906466 0 -0.00065572032594643644 0.019979020151419367 0 0.00064790194582391495 0.020009660818906466 0 7.7648068634910173e-05 0.018940592626612362 0 0.0013064194839541303 0.018608689302546569 0 0.00064790194582391495 0.020009660818906466 0 7.7648068634910173e-05 0.018940592626612362 0 -0.00065572032594643644 0.019979020151419367 0 7.7648068634910173e-05 0.018940592626612362 0 -0.00065572032594643644 0.019979020151419367 0 -0.0010215305207872181 0.018125478995008111 0 -0.00065572032594643644 0.019979020151419367 0 -0.0010215305207872181 0.018125478995008111 0 -0.0021471631257401523 0.018805169931889149 0 -0.00065572032594643644 0.019979020151419367 0 -0.0026533036413909196 0.020131655308647071 0 -0.0021471631257401523 0.018805169931889149 0 -0.0010215305207872181 0.018125478995008111 0 -0.0021471631257401523 0.018805169931889149 0 -0.0023444850363284328 0.017466799671023582 0 -0.0010215305207872181 0.018125478995008111 0 -0.0023444850363284328 0.017466799671023582 0 -0.0011066772473313691 0.016550201220126834 0 -0.0010215305207872181 0.018125478995008111 0 -3.3424759100169032e-05 0.017438077349636497 0 -0.0011066772473313691 0.016550201220126834 0 -3.3424759100169032e-05 0.017438077349636497 0 0.0013064194839541303 0.018608689302546569 0 0.00053422278557620077 0.016561667971868903 0 7.7648068634910173e-05 0.018940592626612362 0 -3.3424759100169032e-05 0.017438077349636497 0 0.0013064194839541303 0.018608689302546569 0 7.7648068634910173e-05 0.018940592626612362 0 -0.0010215305207872181 0.018125478995008111 0 -3.3424759100169032e-05 0.017438077349636497 0 -0.0016557628407844829 0.015084900443121156 0 -0.0018938874964690188 0.014491563715340605 0 -0.0021246098461696369 0.015263196944486765 0 -0.0016557628407844829 0.015084900443121156 0 -0.0012951162273228231 0.015368822189270742 0 -0.001220278282187831 0.014585459282751389 0 -0.0017625649878929639 0.015613646644802576 0 -0.0016557628407844829 0.015084900443121156 0 -0.0021246098461696369 0.015263196944486765 0 -0.0017625649878929639 0.015613646644802576 0 -0.0016557628407844829 0.015084900443121156 0 -0.0012951162273228231 0.015368822189270742 0 -0.0026533036413909196 0.020131655308647071 0 -0.0021471631257401523 0.018805169931889149 0 -0.0038262633670405966 0.018173377387809476 0 -0.0017434203743170607 0.017729620617651497 0 -0.002495455534300306 0.016498905078038105 0 -0.0012951162273228231 0.015368822189270742 0 -0.0007553890161380839 0.015470258314375649 0 -0.001220278282187831 0.014585459282751389 0 -0.0021471631257401523 0.018805169931889149 0 -0.0038262633670405966 0.018173377387809476 0 -0.0023444850363284328 0.017466799671023582 0 -0.0038262633670405966 0.018173377387809476 0 -0.0023444850363284328 0.017466799671023582 0 -0.0035212146956624039 0.016662105055326011 0 -0.002495455534300306 0.016498905078038105 0 -0.0033141071991800324 0.014076310006831863 0 -0.0038262633670405966 0.018173377387809476 0 -0.0051507031970329737 0.015920176962641509 0 -0.0035212146956624039 0.016662105055326011 0 -0.002134986924097981 0.012887026364872418 0 -0.0033141071991800324 0.014076310006831863 0 -0.001220278282187831 0.014585459282751389 0 -0.0018938874964690188 0.014491563715340605 0 -0.0016744677079084346 0.0137255791165856 0 -0.0016557628407844829 0.015084900443121156 0 -0.001220278282187831 0.014585459282751389 0 -0.0018938874964690188 0.014491563715340605 0 -0.0024926754296454891 0.011585840917745373 0 -0.0024102265337784877 0.011327508332831131 0 -0.0021089849954848278 0.011588083643898893 0 -0.0024926754296454891 0.011585840917745373 0 -0.0021089849954848278 0.011588083643898893 0 -0.0023021954746592957 0.011797254358249756 0 -0.002134986924097981 0.012887026364872418 0 -0.0021219379961511138 0.012675711103352026 0 -0.0021219379961511138 0.012675711103352026 0 -0.002416782594105851 0.0087514578319121336 0 -0.0012104306165998341 0.0095629607344223898 0 -0.0021271690284133029 0.009227267153824598 0 -0.0017745629299969284 0.010007795416804251 0 -0.0012362597312354374 0.015261526485754661 0 -0.0021219379961511138 0.012675711103352026 0 -0.0035336026226116817 0.0043936222436295261 0 -0.0032973462234218032 0.003924575543892134 0 -0.0036839490297166347 0.0037094417975931252 0 -0.0027079405659669016 0.0071187770179576611 0 -0.0033472774362913417 0.0062684998289434975 0 -0.0021271690284133029 0.009227267153824598 0 -0.0025802992748173801 0.0085064725088043972 0 -0.0024547024677614901 0.0099955193671728438 0 -0.0012104306165998341 0.0095629607344223898 0 -0.0021271690284133029 0.009227267153824598 0 -0.0024439505626043241 0.0083723495201191208 0 -0.003757168606546033 0.0046179326936078187 0 -0.0035336026226116817 0.0043936222436295261 0 -0.0036839490297166347 0.0037094417975931252 0 -0.0021271690284133029 0.009227267153824598 0 -0.0017745629299969284 0.010007795416804251 0 -0.0024547024677614901 0.0099955193671728438 0 -0.0038995209287449404 0.0046896166457392682 0 -0.0037232566695272 0.0047406858654562827 0 -0.0035336026226116817 0.0043936222436295261 0 -0.0027079405659669016 0.0071187770179576611 0 -0.002720834291792268 0.0054546494538378777 0 -0.0027295186354296366 0.0081760992191779441 0 -0.002708847642873948 0.008156404413161707 0 -0.0027341867837188294 0.0081330015346288073 0 -0.0027079405659669016 0.0071187770179576611 0 -0.0025594824214746708 0.0078308384227697789 0 -0.0027079405659669016 0.0071187770179576611 0 -0.002416782594105851 0.0087514578319121336 0 -0.0037232566695272 0.0047406858654562827 0 -0.0038809669862809363 0.0049040294598991412 0 -0.0035443606066290663 0.0047694849206694791 0 -0.0038995209287449404 0.0046896166457392682 0 -0.0037232566695272 0.0047406858654562827 0 -0.0038809669862809363 0.0049040294598991412 0 -0.0021271690284133029 0.009227267153824598 0 -0.0025802992748173801 0.0085064725088043972 0 -0.0024439505626043241 0.0083723495201191208 0 -0.002416782594105851 0.0087514578319121336 0 -0.0019248632872163446 0.01032300454792227 0 -0.0015670669357650767 0.0088272825374630243 0 -0.0015329169579067494 0.0088615590403551461 0 -0.0015939937124984317 0.0090155895599335518 0 -0.002416782594105851 0.0087514578319121336 0 -0.0025594824214746708 0.0078308384227697789 0 -0.0038809669862809363 0.0049040294598991412 0 -0.0032487490993100099 0.005016731288323647 0 -0.0035443606066290663 0.0047694849206694791 0 -0.0038809669862809363 0.0049040294598991412 0 -0.0032487490993100099 0.005016731288323647 0 -0.0033123353210984634 0.005813230205106339 0 -0.0032487490993100099 0.005016731288323647 0 -0.0030705087036060185 0.0045059826946570623 0 -0.0035443606066290663 0.0047694849206694791 0 -0.0032487490993100099 0.005016731288323647 0 -0.0030705087036060185 0.0045059826946570623 0 -0.0028233378662307798 0.0047807112156779989 0 -0.0030705087036060185 0.0045059826946570623 0 -0.0035443606066290663 0.0047694849206694791 0 -0.0035336026226116817 0.0043936222436295261 0 -0.0037232566695272 0.0047406858654562827 0 -0.0035443606066290663 0.0047694849206694791 0 -0.0035336026226116817 0.0043936222436295261 0 -0.0019881827665828044 0.0053612309113680893 0 -0.0023352767303981862 0.0049436290603621013 0 -0.0027158824809406699 0.0053475927141106248 0 -0.0032487490993100099 0.005016731288323647 0 -0.0028233378662307798 0.0047807112156779989 0 -0.0027158824809406699 0.0053475927141106248 0 -0.0023352767303981862 0.0049436290603621013 0 -0.0028233378662307798 0.0047807112156779989 0 -0.0027158824809406699 0.0053475927141106248 0 -0.0030705087036060185 0.0045059826946570623 0 -0.0028233378662307798 0.0047807112156779989 0 -0.0027169447032379529 0.0042904771565383613 0 -0.0028233378662307798 0.0047807112156779989 0 -0.002498333712159725 0.0045385723659064807 0 -0.0027169447032379529 0.0042904771565383613 0 -0.0023352767303981862 0.0049436290603621013 0 -0.0028233378662307798 0.0047807112156779989 0 -0.002498333712159725 0.0045385723659064807 0 -0.0019386676217517825 0.0045739408353116916 0 -0.0023352767303981862 0.0049436290603621013 0 -0.002498333712159725 0.0045385723659064807 0 -0.0019386676217517825 0.0045739408353116916 0 -0.0021208096036673448 0.0042592525491921083 0 -0.002498333712159725 0.0045385723659064807 0 -0.002498333712159725 0.0045385723659064807 0 -0.0024128627063447401 0.0040439207427828893 0 -0.0027169447032379529 0.0042904771565383613 0 -0.0021208096036673448 0.0042592525491921083 0 -0.002498333712159725 0.0045385723659064807 0 -0.0024128627063447401 0.0040439207427828893 0 -0.0024128627063447401 0.0040439207427828893 0 -0.0027169447032379529 0.0042904771565383613 0 -0.0028670860164399696 0.0039764301397304863 0 -0.0030705087036060185 0.0045059826946570623 0 -0.0027169447032379529 0.0042904771565383613 0 -0.0028670860164399696 0.0039764301397304863 0 -0.0024128627063447401 0.0040439207427828893 0 -0.0028670860164399696 0.0039764301397304863 0 -0.0023142841028718454 0.0035788666612098564 0 -0.0018478110143570346 0.0039097952934288261 0 -0.0024128627063447401 0.0040439207427828893 0 -0.0023142841028718454 0.0035788666612098564 0 -0.0030705087036060185 0.0045059826946570623 0 -0.0035336026226116817 0.0043936222436295261 0 -0.0031988439412554376 0.0042074945245343847 0 -0.0035336026226116817 0.0043936222436295261 0 -0.0031988439412554376 0.0042074945245343847 0 -0.0032973462234218032 0.003924575543892134 0 -0.0030705087036060185 0.0045059826946570623 0 -0.0031988439412554376 0.0042074945245343847 0 -0.0028670860164399696 0.0039764301397304863 0 -0.0031988439412554376 0.0042074945245343847 0 -0.0028670860164399696 0.0039764301397304863 0 -0.0032973462234218032 0.003924575543892134 0 -0.0032973462234218032 0.003924575543892134 0 -0.0029866841642223131 0.0033870829369047235 0 -0.0036839490297166347 0.0037094417975931252 0 -0.0028670860164399696 0.0039764301397304863 0 -0.0032973462234218032 0.003924575543892134 0 -0.0029866841642223131 0.0033870829369047235 0 -0.0029866841642223131 0.0033870829369047235 0 -0.0023142841028718454 0.0035788666612098564 0 -0.0024316775557951848 0.0031481957628179224 0 -0.0028670860164399696 0.0039764301397304863 0 -0.0029866841642223131 0.0033870829369047235 0 -0.0023142841028718454 0.0035788666612098564 0 -0.0026201378823976001 0.0026252552194051355 0 -0.0029866841642223131 0.0033870829369047235 0 -0.0024316775557951848 0.0031481957628179224 0 -0.0018651058403585078 0.0030722917187115135 0 -0.0026201378823976001 0.0026252552194051355 0 -0.0024316775557951848 0.0031481957628179224 0 -0.00096101461538648163 0.0051985912833813859 0 -0.00082041392533717796 0.0094216352642484524 0 -0.0026201378823976001 0.0026252552194051355 0 -0.0029866841642223131 0.0033870829369047235 0 -0.0036612653133891713 0.0028832594974269659 0 -0.0023164288745654875 0.011472573075106407 0 -0.0017287789465923824 0.011323913710610934 0 -0.0017842224570315181 0.010689453566266865 0 -0.00027682238159046618 0.015975519407691902 0 -0.00040342456116544315 0.015849992264499298 0 -0.00029392468441762407 0.015835832216661558 0 -0.00082041392533717796 0.0094216352642484524 0 -0.00071151556359384945 0.013596652715229557 0 -0.0006990598396984022 0.016428526165494409 0 -0.0012170264887361476 0.013730041409540705 0 -2.7150572158816805e-05 0.015882727430796956 0 -0.00024239979073800185 0.015824291040176287 0 -0.00027915038738914586 0.015715000704480758 0 -0.00027682238159046618 0.015975519407691902 0 -0.00029392468441762407 0.015835832216661558 0 -0.00024239979073800185 0.015824291040176287 0 -0.00071151556359384945 0.013596652715229557 0 -0.00066292402573983231 0.014123769928177675 0 -0.00014651165027646196 0.015988755926528618 0 -0.00027682238159046618 0.015975519407691902 0 -0.00024239979073800185 0.015824291040176287 0 -0.00031592766518075377 0.015837386946313609 0 -0.00024239979073800185 0.015824291040176287 0 -0.00027915038738914586 0.015715000704480758 0 -0.00071151556359384945 0.013596652715229557 0 -0.0012170264887361476 0.013730041409540705 0 -0.0017287789465923824 0.011323913710610934 0 -0.0015827184617327244 0.010797768616279169 0 -0.0017842224570315181 0.010689453566266865 0 -0.0015838988913577338 0.010800157900431262 0 -0.0017842224570315181 0.010689453566266865 0 -0.0017745629299969284 0.010007795416804251 0 -0.0012104306165998341 0.0095629607344223898 0 -0.0015838988913577338 0.010800157900431262 0 -0.0017745629299969284 0.010007795416804251 0 -0.0017625649878929639 0.015613646644802576 0 -0.0021342909101458247 0.015245020701787869 0 -0.0024109873838822639 0.016178904261918169 0 -0.0021219379961511138 0.012675711103352026 0 -0.0012170264887361476 0.013730041409540705 0 -0.0012170264887361476 0.013730041409540705 0 -0.0017255462363817955 0.013122194512878842 0 -0.0017842224570315181 0.010689453566266865 0 -0.0017745629299969284 0.010007795416804251 0 -0.0024547024677614901 0.0099955193671728438 0 -0.0023164288745654875 0.011472573075106407 0 -0.0017842224570315181 0.010689453566266865 0 -0.0024547024677614901 0.0099955193671728438 0 -0.00082041392533717796 0.0094216352642484524 0 -0.0033472774362913417 0.0062684998289434975 0 -0.0029866841642223131 0.0033870829369047235 0 -0.0036612653133891713 0.0028832594974269659 0 -0.0036839490297166347 0.0037094417975931252 0 -3.0363361882886088e-07 0.024998884346974646 0 -3.0595030765344395e-05 0.022688759630416108 0 7.0645386865881416e-07 0.021196142650980659 0 8.9873914742276634e-05 0.024849489584554744 0 -2.0055763772579227e-07 0.024998926901698807 0 1.3718676999829877e-05 0.024988559585928442 0 -5.2848205865376822e-05 0.024223620983454007 0 -9.2995514479066662e-05 0.024576859231845681 0 -0.00015164752869691365 0.023595097515331644 0 7.7719552156037593e-06 0.023923750199337481 0 -0.00026895380597582894 0.024201551783785497 0 -0.00015164752869691365 0.023595097515331644 0 -4.9793962971259999e-05 0.02345580478962556 0 7.7719552156037593e-06 0.023923750199337481 0 -5.2848205865376822e-05 0.024223620983454007 0 -1.7795422817262385e-05 0.023832289421356088 0 -0.00015164752869691365 0.023595097515331644 0 -2.534590667773589e-05 0.023745335140073941 0 -4.9793962971259999e-05 0.02345580478962556 0 8.9873914742276634e-05 0.024849489584554744 0 -2.0055763772579227e-07 0.024998926901698807 0 -2.534590667773589e-05 0.023745335140073941 0 -2.0055763772579227e-07 0.024998926901698807 0 -3.0363361882886088e-07 0.024998884346974646 0 -2.534590667773589e-05 0.023745335140073941 0 -3.0363361882886088e-07 0.024998884346974646 0 -2.534590667773589e-05 0.023745335140073941 0 -3.0595030765344395e-05 0.022688759630416108 0 -2.534590667773589e-05 0.023745335140073941 0 -3.0595030765344395e-05 0.022688759630416108 0 1.6313419101696331e-05 0.02297740866197422 0 -3.0595030765344395e-05 0.022688759630416108 0 1.6313419101696331e-05 0.02297740866197422 0 0.00018639661948552377 0.02235426498799083 0 1.6313419101696331e-05 0.02297740866197422 0 -4.9793962971259999e-05 0.02345580478962556 0 0.00018197208446957372 0.023433583943179341 0 -2.534590667773589e-05 0.023745335140073941 0 1.6313419101696331e-05 0.02297740866197422 0 -4.9793962971259999e-05 0.02345580478962556 0 -4.9793962971259999e-05 0.02345580478962556 0 0.00018197208446957372 0.023433583943179341 0 7.7719552156037593e-06 0.023923750199337481 0 0.00018197208446957372 0.023433583943179341 0 0.00044710678133385174 0.022904217146076652 0 0.00087629505552303314 0.023681940579149775 0 0.00097114849888205092 0.022759873761941263 0 0.001355520244385102 0.022641922266604352 0 0.00087629505552303314 0.023681940579149775 0 0.00097114849888205092 0.022759873761941263 0 0.00044710678133385174 0.022904217146076652 0 0.00087629505552303314 0.023681940579149775 0 0.00097114849888205092 0.022759873761941263 0 0.00063762230752886968 0.02242404223757162 0 0.0013164920433256146 0.02238955958038719 0 0.00097114849888205092 0.022759873761941263 0 0.00044710678133385174 0.022904217146076652 0 0.00063762230752886968 0.02242404223757162 0 1.6313419101696331e-05 0.02297740866197422 0 0.00044710678133385174 0.022904217146076652 0 0.00018639661948552377 0.02235426498799083 0 1.6313419101696331e-05 0.02297740866197422 0 0.00018197208446957372 0.023433583943179341 0 0.00044710678133385174 0.022904217146076652 0 0.00044710678133385174 0.022904217146076652 0 0.00018639661948552377 0.02235426498799083 0 0.00063762230752886968 0.02242404223757162 0 -3.0595030765344395e-05 0.022688759630416108 0 0.00018639661948552377 0.02235426498799083 0 0.00018036248343692243 0.02131971867950036 0 0.00018639661948552377 0.02235426498799083 0 0.00018036248343692243 0.02131971867950036 0 0.00063762230752886968 0.02242404223757162 0 -3.0595030765344395e-05 0.022688759630416108 0 7.0645386865881416e-07 0.021196142650980659 0 0.00018036248343692243 0.02131971867950036 0 7.0645386865881416e-07 0.021196142650980659 0 0.00018036248343692243 0.02131971867950036 0 8.1155409020459082e-05 0.020078705439170806 0 0.00018036248343692243 0.02131971867950036 0 0.00063762230752886968 0.02242404223757162 0 0.0013164920433256146 0.02238955958038719 0 0.00018726103520415308 0.021232815846716331 0 0.0005620660509920597 0.021210432280357124 0 1.7327651573479532e-07 0.018378799788611504 0 7.0645386865881416e-07 0.021196142650980659 0 0.00012685570519695928 0.018924790734633698 0 7.0645386865881416e-07 0.021196142650980659 0 8.1155409020459082e-05 0.020078705439170806 0 0.00012685570519695928 0.018924790734633698 0 0.0005620660509920597 0.021210432280357124 0 0.00068614973805105391 0.021399938923607944 0 8.1155409020459082e-05 0.020078705439170806 0 0.00012685570519695928 0.018924790734633698 0 0.00017338356681090896 0.019520526976821457 0 0.00050843009755312273 0.019615242081941143 0 0.00012685570519695928 0.018924790734633698 0 0.00017338356681090896 0.019520526976821457 0 8.1155409020459082e-05 0.020078705439170806 0 0.00017338356681090896 0.019520526976821457 0 0.00019244788065496504 0.019715281862983224 0 0.00050843009755312273 0.019615242081941143 0 0.00017338356681090896 0.019520526976821457 0 0.00019244788065496504 0.019715281862983224 0 0.0010052035085771713 0.022776059749128864 0 0.001355520244385102 0.022641922266604352 0 0.00073610179515488483 0.022182567926217374 0 0.0013164920433256146 0.02238955958038719 0 0.0010052035085771713 0.022776059749128864 0 0.001355520244385102 0.022641922266604352 0 0.00097114849888205092 0.022759873761941263 0 0.0013164920433256146 0.02238955958038719 0 0.001355520244385102 0.022641922266604352 0 0.00134550158879072 0.022657700697884142 0 0.0014428698674976061 0.022521573691017309 0 0.001355520244385102 0.022641922266604352 0 0.0013243152217290528 0.021727699600092017 0 0.0020906454884465561 0.021317568769469889 0 0.00022645561823970867 0.021701706590861385 0 0.00073610179515488483 0.022182567926217374 0 0.00085278354338616373 0.021403411460215144 0 0.001355520244385102 0.022641922266604352 0 0.0013243152217290528 0.021727699600092017 0 0.00073610179515488483 0.022182567926217374 0 0.0013243152217290528 0.021727699600092017 0 0.00073610179515488483 0.022182567926217374 0 0.00085278354338616373 0.021403411460215144 0 0.00010712523991786768 0.021021752125306683 0 0.00085278354338616373 0.021403411460215144 0 0.0010141896082002551 0.020760996497955226 0 0.00085278354338616373 0.021403411460215144 0 0.001540198378553088 0.02099918230567327 0 0.0010141896082002551 0.020760996497955226 0 0.0013243152217290528 0.021727699600092017 0 0.00085278354338616373 0.021403411460215144 0 0.001540198378553088 0.02099918230567327 0 0.0013243152217290528 0.021727699600092017 0 0.001540198378553088 0.02099918230567327 0 0.0020906454884465561 0.021317568769469889 0 0.001540198378553088 0.02099918230567327 0 0.0010141896082002551 0.020760996497955226 0 0.0016826282563965199 0.020332571885602103 0 0.001540198378553088 0.02099918230567327 0 0.0016826282563965199 0.020332571885602103 0 0.0018945264044451687 0.020702196691180366 0 0.0016826282563965199 0.020332571885602103 0 0.0018009185635855837 0.020477766254702396 0 0.0018945264044451687 0.020702196691180366 0 0.00064790194582391495 0.020009660818906466 0 0.0010141896082002551 0.020760996497955226 0 0.0016826282563965199 0.020332571885602103 0 0.00064790194582391495 0.020009660818906466 0 0.0013064194839541303 0.018608689302546569 0 0.0016826282563965199 0.020332571885602103 0 0.0014838620436347372 0.01948895363962953 0 0.0017054565634930083 0.020215882320457033 0 0.0014838620436347372 0.01948895363962953 0 0.0011495030228579762 0.018649320447027457 0 0.0017738489204541625 0.020469348432417725 0 0.0017412663766349307 0.020491519421134835 0 0.001777435586548801 0.020497781356230958 0 0.0017738489204541625 0.020469348432417725 0 0.0017412663766349307 0.020491519421134835 0 0.0016858717434025897 0.020503735466205625 0 0.0017738489204541625 0.020469348432417725 0 0.0017639620505198886 0.020469068868090155 0 0.001777435586548801 0.020497781356230958 0 0.0017639620505198886 0.020469068868090155 0 0.0016826282563965199 0.020332571885602103 0 0.0018009185635855837 0.020477766254702396 0 0.0017738489204541625 0.020469348432417725 0 0.0017639620505198886 0.020469068868090155 0 0.0016826282563965199 0.020332571885602103 0 0.0018009185635855837 0.020477766254702396 0 0.0019239901528083979 0.020567771383003457 0 0.0018945264044451687 0.020702196691180366 0 0.0018009185635855837 0.020477766254702396 0 0.0018086373340596563 0.020482299702521078 0 0.0019239901528083979 0.020567771383003457 0 0.0017639620505198886 0.020469068868090155 0 0.0018009185635855837 0.020477766254702396 0 0.0018086373340596563 0.020482299702521078 0 0.0017639620505198886 0.020469068868090155 0 0.0018086373340596563 0.020482299702521078 0 0.0017830835294300746 0.020484159989937321 0 0.0017639620505198886 0.020469068868090155 0 0.0017830835294300746 0.020484159989937321 0 0.0017963699238583866 0.020505509322856798 0 0.0018086373340596563 0.020482299702521078 0 0.0017830835294300746 0.020484159989937321 0 0.001731373984816553 0.020465200743808053 0 0.0017818481563395697 0.02062529792769215 0 0.0018981017072964596 0.020575176374776485 0 0.0018086373340596563 0.020482299702521078 0 0.001731373984816553 0.020465200743808053 0 0.0019239901528083979 0.020567771383003457 0 0.0018311974080905612 0.020770763563026852 0 0.0018434936495229628 0.02064897862237975 0 0.0019239901528083979 0.020567771383003457 0 0.0018434936495229628 0.02064897862237975 0 0.0019239901528083979 0.020567771383003457 0 0.0020249130462452378 0.020636791480967743 0 0.0019239901528083979 0.020567771383003457 0 0.0020249130462452378 0.020636791480967743 0 0.0018945264044451687 0.020702196691180366 0 0.0020249130462452378 0.020636791480967743 0 0.0018945264044451687 0.020702196691180366 0 0.0020906454884465561 0.021317568769469889 0 0.001540198378553088 0.02099918230567327 0 0.0018945264044451687 0.020702196691180366 0 0.0020906454884465561 0.021317568769469889 0 0.0012701336905250255 0.022489133334953674 0 0.0014428698674976061 0.022521573691017309 0 0.00053113493708025134 0.024302672352453328 0 0.00087629505552303314 0.023681940579149775 0 0.00026695283215661021 0.024005484133283111 0 0.00018197208446957372 0.023433583943179341 0 0.00087629505552303314 0.023681940579149775 0 0.00026695283215661021 0.024005484133283111 0 0.00018197208446957372 0.023433583943179341 0 0.00026695283215661021 0.024005484133283111 0 7.7719552156037593e-06 0.023923750199337481 0 0.00026695283215661021 0.024005484133283111 0 7.7719552156037593e-06 0.023923750199337481 0 8.4819067268326694e-05 0.024352255287644668 0 8.4819067268326694e-05 0.024352255287644668 0 0.00023751132508750171 0.024438897359891902 0 -8.4930556998432158e-06 0.024754734138732741 0 0.00053113493708025134 0.024302672352453328 0 0.00026695283215661021 0.024005484133283111 0 0.00023751132508750171 0.024438897359891902 0 0.00026695283215661021 0.024005484133283111 0 8.4819067268326694e-05 0.024352255287644668 0 0.00023751132508750171 0.024438897359891902 0 0.0012701336905250255 0.022489133334953674 0 0.00093224497905599355 0.02272767443237584 0 0.0018434936495229628 0.02064897862237975 0 0.0020249130462452378 0.020636791480967743 0 0.0016811429020887141 0.020649568952257436 0 0.00053113493708025134 0.024302672352453328 0 0.00023751132508750171 0.024438897359891902 0 0.00022494986151921906 0.024732951885757474 0 0.0018434936495229628 0.02064897862237975 0 0.0016811429020887141 0.020649568952257436 0 0.0016550080141589528 0.020806395040075747 0 0.0018311974080905612 0.020770763563026852 0 0.0018434936495229628 0.02064897862237975 0 0.0016550080141589528 0.020806395040075747 0 0.0016811429020887141 0.020649568952257436 0 0.0014779525442682614 0.020822098499931919 0 0.0016550080141589528 0.020806395040075747 0 0.00093224497905599355 0.02272767443237584 0 0.00084609138031536816 0.022718171020630156 0 0.00022494986151921906 0.024732951885757474 0 -8.4930556998432158e-06 0.024754734138732741 0 3.7932382522278557e-05 0.024920204431881674 0 0.00023751132508750171 0.024438897359891902 0 0.00022494986151921906 0.024732951885757474 0 -8.4930556998432158e-06 0.024754734138732741 0 -8.4930556998432158e-06 0.024754734138732741 0 -1.05017797484028e-05 0.02489977553515076 0 3.7932382522278557e-05 0.024920204431881674 0 -1.05017797484028e-05 0.02489977553515076 0 6.1885618919064606e-07 0.02490466885152854 0 3.7932382522278557e-05 0.024920204431881674 0 -4.7639596494956138e-08 0.024999781855587617 0 3.0517495197049564e-05 0.025155958183946857 0 4.704164154330967e-07 0.02500014659708755 0 -1.05017797484028e-05 0.02489977553515076 0 6.1885618919064606e-07 0.02490466885152854 0 -8.4930556998432158e-06 0.024754734138732741 0 4.704164154330967e-07 0.02500014659708755 0 -1.05017797484028e-05 0.02489977553515076 0 -8.4930556998432158e-06 0.024754734138732741 0 4.704164154330967e-07 0.02500014659708755 0 -1.0080075138792847e-06 0.024998836760900641 0 -2.0055763772579227e-07 0.024998926901698807 0 1.308399265363434e-07 0.02500049246919071 0 1.3718676999829877e-05 0.024988559585928442 0 -1.0080075138792847e-06 0.024998836760900641 0 -4.7846983865583807e-05 0.024519240915829504 0 -0.00026895380597582894 0.024201551783785497 0 -8.4930556998432158e-06 0.024754734138732741 0 -1.0080075138792847e-06 0.024998836760900641 0 -4.7846983865583807e-05 0.024519240915829504 0 -4.5690808436856674e-08 0.024999794305609977 0 -9.2995514479066662e-05 0.024576859231845681 0 8.4819067268326694e-05 0.024352255287644668 0 -8.4930556998432158e-06 0.024754734138732741 0 -4.7846983865583807e-05 0.024519240915829504 0 7.7719552156037593e-06 0.023923750199337481 0 -4.7846983865583807e-05 0.024519240915829504 0 -0.00026895380597582894 0.024201551783785497 0 7.7719552156037593e-06 0.023923750199337481 0 8.4819067268326694e-05 0.024352255287644668 0 -4.7846983865583807e-05 0.024519240915829504 0 -0.00016897269814206324 0.024466358777728583 0 -0.00026445171270809606 0.024647945060063351 0 -9.0706976133209119e-06 0.024985931786042633 0 -2.3199923049414037e-06 0.025007818952555216 0 -3.448841440026938e-08 0.025000011603994995 0 -9.0706976133209119e-06 0.024985931786042633 0 -9.3604581904770267e-05 0.024739768903741109 0 -9.5977045293802901e-06 0.024971901253884012 0 0.0014013861236587223 0.021024978540481618 0 0.0013796476113567793 0.020943823491773001 0 0.0015026800909461303 0.020933529360798384 0 -3.448841440026938e-08 0.025000011603994995 0 -9.0706976133209119e-06 0.024985931786042633 0 6.5382829828958468e-08 0.02499990202772237 0 -0.00026445171270809606 0.024647945060063351 0 -9.0706976133209119e-06 0.024985931786042633 0 -0.0001246677952954151 0.025187790818541982 0 0.00063353167265580129 0.02256506253149098 0 0.00041777390376789676 0.023667654229186541 0 -9.0706976133209119e-06 0.024985931786042633 0 6.5382829828958468e-08 0.02499990202772237 0 -0.0001246677952954151 0.025187790818541982 0 -6.7995897047747605e-07 0.025000540508030345 0 0.00041777390376789676 0.023667654229186541 0 9.0100774677387813e-10 0.02499999114718942 0 1.793194314304531e-06 0.024996034692457193 0 2.7028829558998506e-09 0.024999995204822743 0 1.2321205067794942e-05 0.024903299402582395 0 6.1885618919064606e-07 0.02490466885152854 0 3.7932382522278557e-05 0.024920204431881674 0 0.00041777390376789676 0.023667654229186541 0 3.0517495197049564e-05 0.025155958183946857 0 1.793194314304531e-06 0.024996034692457193 0 2.7028829558998506e-09 0.024999995204822743 0 1.995472547227927e-07 0.024999880862785772 0 -1.2857940665728688e-09 0.025000002708174766 0 2.7028829558998506e-09 0.024999995204822743 0 1.995472547227927e-07 0.024999880862785772 0 0.00041777390376789676 0.023667654229186541 0 0.00084609138031536816 0.022718171020630156 0 0.0013796476113567793 0.020943823491773001 0 0.0014779525442682614 0.020822098499931919 0 0.0015026800909461303 0.020933529360798384 0 0.0015026800909461303 0.020933529360798384 0 0.001646615821557534 0.020924228817417827 0 0.0015078014486315922 0.020954051798753575 0 0.0014779525442682614 0.020822098499931919 0 0.0015026800909461303 0.020933529360798384 0 0.0016550080141589528 0.020806395040075747 0 0.0018311974080905612 0.020770763563026852 0 0.0016550080141589528 0.020806395040075747 0 0.001646615821557534 0.020924228817417827 0 0.0017818481563395697 0.02062529792769215 0 0.0016160500074526441 0.020780107443415168 0 0.0015026800909461303 0.020933529360798384 0 0.0016550080141589528 0.020806395040075747 0 0.001646615821557534 0.020924228817417827 0 0.0015721011393500693 0.020640690154026021 0 0.0015078014486315922 0.020954051798753575 0 0.001681639006244733 0.020839815655703947 0 0.0016160500074526441 0.020780107443415168 0 0.0015191819203738204 0.020936719343044669 0 0.0014013861236587223 0.021024978540481618 0 0.0015026800909461303 0.020933529360798384 0 0.0015078014486315922 0.020954051798753575 0 0.0014013861236587223 0.021024978540481618 0 0.0015078014486315922 0.020954051798753575 0 0.0014607991081410929 0.021058767667846749 0 0.0015078014486315922 0.020954051798753575 0 0.0015900000331507001 0.021007603070570195 0 0.001681639006244733 0.020839815655703947 0 0.0015078014486315922 0.020954051798753575 0 0.0015900000331507001 0.021007603070570195 0 0.0014607991081410929 0.021058767667846749 0 0.0015900000331507001 0.021007603070570195 0 0.0017202489653414268 0.020965243586313416 0 0.001681639006244733 0.020839815655703947 0 0.0017202489653414268 0.020965243586313416 0 0.0017509488463930609 0.020865364221638136 0 0.00182229154478638 0.020964966910475315 0 0.0017202489653414268 0.020965243586313416 0 0.0017509488463930609 0.020865364221638136 0 0.001681639006244733 0.020839815655703947 0 0.0019136678037086298 0.02078483352041597 0 0.0016359074931228616 0.020831156236633196 0 0.0017867351528072842 0.02073199510523821 0 0.0017280106937640864 0.020673117738257071 0 0.0017937310307439083 0.020593960373953744 0 0.0017867351528072842 0.02073199510523821 0 0.001681639006244733 0.020839815655703947 0 0.0017280106937640864 0.020673117738257071 0 0.0015721011393500693 0.020640690154026021 0 0.0017511285547879764 0.020557225511512397 0 0.0017280106937640864 0.020673117738257071 0 0.0015721011393500693 0.020640690154026021 0 0.001681639006244733 0.020839815655703947 0 0.0017280106937640864 0.020673117738257071 0 0.001731373984816553 0.020465200743808053 0 0.0015721011393500693 0.020640690154026021 0 0.0017511285547879764 0.020557225511512397 0 0.0017830835294300746 0.020484159989937321 0 0.001731373984816553 0.020465200743808053 0 0.0017511285547879764 0.020557225511512397 0 0.0017830835294300746 0.020484159989937321 0 0.0017511285547879764 0.020557225511512397 0 0.0017963699238583866 0.020505509322856798 0 0.0017511285547879764 0.020557225511512397 0 0.0017937310307439083 0.020593960373953744 0 0.0017963699238583866 0.020505509322856798 0 0.0017511285547879764 0.020557225511512397 0 0.0017280106937640864 0.020673117738257071 0 0.0017937310307439083 0.020593960373953744 0 0.0018240068494383181 0.020407410954314118 0 0.00085166211265423337 0.020774599132542863 0 0.0017937310307439083 0.020593960373953744 0 0.0018380484561774831 0.020501274644291939 0 0.0017963699238583866 0.020505509322856798 0 0.0018380484561774831 0.020501274644291939 0 0.0017501154054935636 0.020370555033579207 0 0.001850256570357292 0.020295349306635169 0 0.0017937310307439083 0.020593960373953744 0 0.0018380484561774831 0.020501274644291939 0 0.0018759996445853455 0.020684909717645958 0 0.0018380484561774831 0.020501274644291939 0 0.0017963699238583866 0.020505509322856798 0 0.001777435586548801 0.020497781356230958 0 0.0017639620505198886 0.020469068868090155 0 0.0017963699238583866 0.020505509322856798 0 0.001777435586548801 0.020497781356230958 0 0.0018380484561774831 0.020501274644291939 0 0.001777435586548801 0.020497781356230958 0 0.0017284514061532026 0.020450159815725576 0 0.0017412663766349307 0.020491519421134835 0 0.00172258662026793 0.020479025256907167 0 0.0016858717434025897 0.020503735466205625 0 0.0017412663766349307 0.020491519421134835 0 0.001777435586548801 0.020497781356230958 0 0.00172258662026793 0.020479025256907167 0 0.00172258662026793 0.020479025256907167 0 0.0017284514061532026 0.020450159815725576 0 0.0016522703378616345 0.020435535206316635 0 0.001777435586548801 0.020497781356230958 0 0.00172258662026793 0.020479025256907167 0 0.0017284514061532026 0.020450159815725576 0 0.0017284514061532026 0.020450159815725576 0 0.0017501154054935636 0.020370555033579207 0 0.0016188924321840856 0.020358012173306357 0 0.0018380484561774831 0.020501274644291939 0 0.0017284514061532026 0.020450159815725576 0 0.0017501154054935636 0.020370555033579207 0 -0.0018256981267440792 0.020381561893277004 0 -0.001655967460819102 0.020535467885008696 0 -0.0014247741816764089 0.020316792847416002 0 0.0017501154054935636 0.020370555033579207 0 0.001850256570357292 0.020295349306635169 0 0.0016435235004303292 0.020273883253744962 0 0.00085166211265423337 0.020774599132542863 0 0.00013237952502981348 0.020705365163125603 0 0.0017509488463930609 0.020865364221638136 0 0.001824422127225104 0.02086359622223102 0 0.00182229154478638 0.020964966910475315 0 0.0017867351528072842 0.02073199510523821 0 0.0017937310307439083 0.020593960373953744 0 0.0018759996445853455 0.020684909717645958 0 0.0019136678037086298 0.02078483352041597 0 0.00085166211265423337 0.020774599132542863 0 0.00085166211265423337 0.020774599132542863 0 -6.8648379595453851e-06 0.020679977033498009 0 0.0017202489653414268 0.020965243586313416 0 0.00182229154478638 0.020964966910475315 0 0.0017576311330701414 0.021024342616784045 0 -0.0018256981267440792 0.020381561893277004 0 -0.0018401435824491393 0.020696359774748277 0 -0.001655967460819102 0.020535467885008696 0 -0.0018401435824491393 0.020696359774748277 0 -0.0015726370440388238 0.020995164964262403 0 -0.0014872637977701791 0.020695150505647235 0 -0.0018401435824491393 0.020696359774748277 0 -0.001655967460819102 0.020535467885008696 0 -0.0014872637977701791 0.020695150505647235 0 -0.001655967460819102 0.020535467885008696 0 -0.0014247741816764089 0.020316792847416002 0 -0.0014872637977701791 0.020695150505647235 0 -0.0018401435824491393 0.020696359774748277 0 -0.0015726370440388238 0.020995164964262403 0 -0.0018441637222149337 0.021019436943991915 0 -0.0018117658331938174 0.021074685680269201 0 -0.00076302175000508127 0.021806103197392485 0 -0.0017054670391174432 0.021058925753735015 0 -0.0021704112219992498 0.021100793122055112 0 -0.0017873781422657825 0.021509677775287558 0 0.00182229154478638 0.020964966910475315 0 0.0018120478471106585 0.021071198398340207 0 0.0017576311330701414 0.021024342616784045 0 -6.8648379595453851e-06 0.020679977033498009 0 -0.00076302175000508127 0.021806103197392485 0 -0.00076302175000508127 0.021806103197392485 0 -0.0021516918325657315 0.023045878909310612 0 -0.0021704112219992498 0.021100793122055112 0 -0.0017873781422657825 0.021509677775287558 0 -0.0021860645759875113 0.021814652507226865 0 -0.0019499859464700553 0.024549972746807661 0 -0.0019948665797670582 0.023864025013320481 0 -0.0015449868954294031 0.024135276744146932 0 -0.0017054670391174432 0.021058925753735015 0 -0.0017873781422657825 0.021509677775287558 0 -0.0014903327774570187 0.021318983901812607 0 -0.0017873781422657825 0.021509677775287558 0 -0.0014903327774570187 0.021318983901812607 0 -0.0014922635508361848 0.021750027725072469 0 -0.0017873781422657825 0.021509677775287558 0 -0.001785145174346917 0.022207898132477654 0 -0.0021860645759875113 0.021814652507226865 0 -0.0017873781422657825 0.021509677775287558 0 -0.001785145174346917 0.022207898132477654 0 -0.0014922635508361848 0.021750027725072469 0 -0.001785145174346917 0.022207898132477654 0 -0.001502987284767304 0.022122663852872117 0 -0.0014922635508361848 0.021750027725072469 0 -0.001785145174346917 0.022207898132477654 0 -0.0018156433020685566 0.022640430540954076 0 -0.0019094643660119402 0.022810068696970862 0 -0.001785145174346917 0.022207898132477654 0 -0.0018156433020685566 0.022640430540954076 0 -0.001502987284767304 0.022122663852872117 0 -0.0018156433020685566 0.022640430540954076 0 -0.0019094643660119402 0.022810068696970862 0 -0.0016635761584314118 0.022908249923146728 0 -0.0019094643660119402 0.022810068696970862 0 -0.0015371838229457013 0.023471839921393664 0 -0.0016635761584314118 0.022908249923146728 0 -0.0011720039335871789 0.022603147762297784 0 -0.0013179142441311464 0.022775353019939347 0 -0.0019094643660119402 0.022810068696970862 0 -0.0019948665797670582 0.023864025013320481 0 -0.0015371838229457013 0.023471839921393664 0 -0.001785145174346917 0.022207898132477654 0 -0.0019094643660119402 0.022810068696970862 0 -0.0021860645759875113 0.021814652507226865 0 -0.0019948665797670582 0.023864025013320481 0 -0.0015371838229457013 0.023471839921393664 0 -0.0015449868954294031 0.024135276744146932 0 -0.0019443676954588823 0.022714376956841236 0 -0.0021516918325657315 0.023045878909310612 0 -0.0015371838229457013 0.023471839921393664 0 -0.0011076819291874088 0.02380428331995944 0 -0.0015449868954294031 0.024135276744146932 0 -0.0015371838229457013 0.023471839921393664 0 -0.0011433705194463157 0.023460209989208582 0 -0.0011076819291874088 0.02380428331995944 0 -0.0015371838229457013 0.023471839921393664 0 -0.0016635761584314118 0.022908249923146728 0 -0.0011433705194463157 0.023460209989208582 0 -0.00075493967493797719 0.023418770865170194 0 -0.0011433705194463157 0.023460209989208582 0 -0.00059240137146628839 0.023826649433450333 0 -0.0016635761584314118 0.022908249923146728 0 -0.00075493967493797719 0.023418770865170194 0 -0.0011433705194463157 0.023460209989208582 0 -0.0013179142441311464 0.022775353019939347 0 -0.0011451556674392034 0.022938754485389578 0 -0.0011433705194463157 0.023460209989208582 0 -0.0011076819291874088 0.02380428331995944 0 -0.00059240137146628839 0.023826649433450333 0 -0.0011076819291874088 0.02380428331995944 0 -0.00072790265644852368 0.024092337486877904 0 -0.00059240137146628839 0.023826649433450333 0 -0.0011218380628747289 0.024465629449734766 0 -0.00050236463379094089 0.024352610103824997 0 -0.00072790265644852368 0.024092337486877904 0 -0.0011076819291874088 0.02380428331995944 0 -0.0011218380628747289 0.024465629449734766 0 -0.00072790265644852368 0.024092337486877904 0 -0.0011076819291874088 0.02380428331995944 0 -0.0015449868954294031 0.024135276744146932 0 -0.0011218380628747289 0.024465629449734766 0 -0.0019499859464700553 0.024549972746807661 0 -0.0015449868954294031 0.024135276744146932 0 -0.0011218380628747289 0.024465629449734766 0 0.0018120478471106585 0.021071198398340207 0 0.0016708969008686764 0.02110069675451004 0 0.0017576311330701414 0.021024342616784045 0 -0.00076302175000508127 0.021806103197392485 0 0.0003905726276544332 0.022908650289269167 0 0.0017202489653414268 0.020965243586313416 0 0.0016708969008686764 0.02110069675451004 0 0.0017576311330701414 0.021024342616784045 0 0.0015900000331507001 0.021007603070570195 0 0.0017202489653414268 0.020965243586313416 0 0.0016708969008686764 0.02110069675451004 0 0.0015900000331507001 0.021007603070570195 0 0.0016708969008686764 0.02110069675451004 0 0.00152546969256439 0.021130490893795265 0 0.0003905726276544332 0.022908650289269167 0 0.00058419833530775256 0.022647024874363431 0 0.0015900000331507001 0.021007603070570195 0 0.0014607991081410929 0.021058767667846749 0 0.00152546969256439 0.021130490893795265 0 0.0014607991081410929 0.021058767667846749 0 0.00152546969256439 0.021130490893795265 0 0.0013984649106844778 0.021153469035795021 0 -0.00050236463379094089 0.024352610103824997 0 -0.00046228364056756537 0.024104236076002768 0 -0.0002880101811219292 0.024132110341015141 0 0.00058419833530775256 0.022647024874363431 0 0.00012114137805479594 0.023379263453653855 0 -0.00050236463379094089 0.024352610103824997 0 -0.0002880101811219292 0.024132110341015141 0 -0.00023379189206596562 0.024307451416529919 0 -0.00050236463379094089 0.024352610103824997 0 -0.00072790265644852368 0.024092337486877904 0 -0.00046228364056756537 0.024104236076002768 0 -0.00072790265644852368 0.024092337486877904 0 -0.00046228364056756537 0.024104236076002768 0 -0.00059240137146628839 0.023826649433450333 0 -0.00046228364056756537 0.024104236076002768 0 -0.00059240137146628839 0.023826649433450333 0 -0.00032433814554041259 0.024107154630959051 0 -0.00075493967493797719 0.023418770865170194 0 -0.00059240137146628839 0.023826649433450333 0 -0.00032802674444448851 0.024000212097775489 0 -0.0011451556674392034 0.022938754485389578 0 -0.00066609821061208989 0.024015173434593567 0 -0.00075493967493797719 0.023418770865170194 0 -0.00017205079590098336 0.023897678445571956 0 -0.00032802674444448851 0.024000212097775489 0 -0.00059240137146628839 0.023826649433450333 0 -0.00032802674444448851 0.024000212097775489 0 -0.00032433814554041259 0.024107154630959051 0 -0.00032519131388164882 0.024254681803130906 0 -0.00032802674444448851 0.024000212097775489 0 -0.00031430457116871893 0.024316161121707862 0 -0.00066609821061208989 0.024015173434593567 0 -0.00037638250530844941 0.023948186061360954 0 -0.00032802674444448851 0.024000212097775489 0 -0.00031430457116871893 0.024316161121707862 0 -0.00032433814554041259 0.024107154630959051 0 -0.00031430457116871893 0.024316161121707862 0 -0.00032433814554041259 0.024107154630959051 0 -0.0002880101811219292 0.024132110341015141 0 -0.00046228364056756537 0.024104236076002768 0 -0.00032433814554041259 0.024107154630959051 0 -0.0002880101811219292 0.024132110341015141 0 -0.00031430457116871893 0.024316161121707862 0 -0.0002880101811219292 0.024132110341015141 0 -0.00032694300639109236 0.024060618398892855 0 -0.00031430457116871893 0.024316161121707862 0 -0.0001170614576013006 0.024794883586013953 0 -0.00013468884308635222 0.025046638888613797 0 -0.00031430457116871893 0.024316161121707862 0 -0.0001170614576013006 0.024794883586013953 0 -7.3361541765318836e-05 0.024781339444719594 0 -0.00030861897428107675 0.024338829583147967 0 -0.00022543698304324528 0.024546629640513386 0 -0.0001170614576013006 0.024794883586013953 0 -2.6505144349682033e-05 0.024964028304461938 0 -0.00013468884308635222 0.025046638888613797 0 -0.00066609821061208989 0.024015173434593567 0 -4.9876707142717471e-05 0.024794759794204792 0 -0.00032519131388164882 0.024254681803130906 0 -0.00018127095370103024 0.024529124681304658 0 -0.00012492162339626143 0.02456595730107293 0 -0.00031430457116871893 0.024316161121707862 0 -7.3361541765318836e-05 0.024781339444719594 0 -0.00018127095370103024 0.024529124681304658 0 -7.3361541765318836e-05 0.024781339444719594 0 -0.00018127095370103024 0.024529124681304658 0 -4.0425634562277134e-05 0.02481359745694011 0 -0.00018127095370103024 0.024529124681304658 0 -0.00012492162339626143 0.02456595730107293 0 -4.0425634562277134e-05 0.02481359745694011 0 -0.00032519131388164882 0.024254681803130906 0 -0.00031430457116871893 0.024316161121707862 0 -0.00018127095370103024 0.024529124681304658 0 -4.9876707142717471e-05 0.024794759794204792 0 -1.6632686660985337e-07 0.024999876071297163 0 -2.5597668011753898e-08 0.024999320789210137 0 -4.0425634562277134e-05 0.02481359745694011 0 2.6474562644176673e-08 0.024999813769784923 0 -0.00012492162339626143 0.02456595730107293 0 -2.5597668011753898e-08 0.024999320789210137 0 -4.0425634562277134e-05 0.02481359745694011 0 -7.3361541765318836e-05 0.024781339444719594 0 2.6474562644176673e-08 0.024999813769784923 0 -2.6505144349682033e-05 0.024964028304461938 0 -7.3361541765318836e-05 0.024781339444719594 0 -4.0425634562277134e-05 0.02481359745694011 0 2.6474562644176673e-08 0.024999813769784923 0 -0.0001170614576013006 0.024794883586013953 0 -7.3361541765318836e-05 0.024781339444719594 0 -2.6505144349682033e-05 0.024964028304461938 0 2.6474562644176673e-08 0.024999813769784923 0 -2.979412936268048e-08 0.025000077858292311 0 -2.6505144349682033e-05 0.024964028304461938 0 -2.979412936268048e-08 0.025000077858292311 0 -3.9589735525237657e-05 0.025009558123425302 0 -2.215856557705784e-05 0.025014404836153387 0 -2.979412936268048e-08 0.025000077858292311 0 -3.9589735525237657e-05 0.025009558123425302 0 -2.6505144349682033e-05 0.024964028304461938 0 -3.9589735525237657e-05 0.025009558123425302 0 -0.00013468884308635222 0.025046638888613797 0 -2.215856557705784e-05 0.025014404836153387 0 -3.9589735525237657e-05 0.025009558123425302 0 -2.6505144349682033e-05 0.024964028304461938 0 -0.00013468884308635222 0.025046638888613797 0 -0.00023789255208697365 0.024374660300103081 0 0.00012114137805479594 0.023379263453653855 0 -0.0002880101811219292 0.024132110341015141 0 -0.00032694300639109236 0.024060618398892855 0 -0.0003445448671025927 0.024100760106748886 0 -0.00032694300639109236 0.024060618398892855 0 -0.0003445448671025927 0.024100760106748886 0 -0.00031119980395753305 0.024156958698731582 0 0.00012114137805479594 0.023379263453653855 0 -6.9408741372452805e-05 0.023488151180104673 0 -0.00016897269814206324 0.024466358777728583 0 -0.00032694300639109236 0.024060618398892855 0 -0.00031119980395753305 0.024156958698731582 0 -9.3604581904770267e-05 0.024739768903741109 0 -0.00022543698304324528 0.024546629640513386 0 -0.00016897269814206324 0.024466358777728583 0 -0.00036841562293045426 0.024156952153502359 0 -0.00031119980395753305 0.024156958698731582 0 -0.00016897269814206324 0.024466358777728583 0 -0.00026445171270809606 0.024647945060063351 0 -0.00036841562293045426 0.024156952153502359 0 0.00063353167265580129 0.02256506253149098 0 0.00012114137805479594 0.023379263453653855 0 0.0014013861236587223 0.021024978540481618 0 0.0014607991081410929 0.021058767667846749 0 0.0013984649106844778 0.021153469035795021 0 -2.3199923049414037e-06 0.025007818952555216 0 -0.00013468884308635222 0.025046638888613797 0 -2.215856557705784e-05 0.025014404836153387 0 -3.448841440026938e-08 0.025000011603994995 0 -2.979412936268048e-08 0.025000077858292311 0 -2.215856557705784e-05 0.025014404836153387 0 -2.3199923049414037e-06 0.025007818952555216 0 -3.448841440026938e-08 0.025000011603994995 0 -2.215856557705784e-05 0.025014404836153387 0 -0.0015085117963673505 0.0095182421635785028 0 -0.0017507365074606708 0.0096402157419693251 0 -0.0017212247518240695 0.0098714701912649677 0 -0.0015085117963673505 0.0095182421635785028 0 -0.0017507365074606708 0.0096402157419693251 0 -0.0016878086615694933 0.0093909034218260454 0 -0.0017507365074606708 0.0096402157419693251 0 -0.0018272567237943658 0.0095091514957855276 0 -0.0016878086615694933 0.0093909034218260454 0 -0.0017507365074606708 0.0096402157419693251 0 -0.0018272567237943658 0.0095091514957855276 0 -0.0019690138022335929 0.0096572670324028692 0 -0.0017507365074606708 0.0096402157419693251 0 -0.0019690138022335929 0.0096572670324028692 0 -0.0019696915242436645 0.0098658827194929993 0 -0.0017507365074606708 0.0096402157419693251 0 -0.0017212247518240695 0.0098714701912649677 0 -0.0019696915242436645 0.0098658827194929993 0 -0.0017212247518240695 0.0098714701912649677 0 -0.0019696915242436645 0.0098658827194929993 0 -0.0019737164746603487 0.01010049938683839 0 -0.0015085117963673505 0.0095182421635785028 0 -0.0017212247518240695 0.0098714701912649677 0 -0.0014042577364163586 0.0098423087492527685 0 -0.0015085117963673505 0.0095182421635785028 0 -0.0014042577364163586 0.0098423087492527685 0 -0.0012702037229543183 0.0094812847330365112 0 -0.0014042577364163586 0.0098423087492527685 0 -0.0011486564285886321 0.0096188199052017666 0 -0.0011327982887456667 0.0099060349366256739 0 -0.0014042577364163586 0.0098423087492527685 0 -0.0011486564285886321 0.0096188199052017666 0 -0.0012702037229543183 0.0094812847330365112 0 -0.00093255502961755998 0.0095315500591026375 0 -0.0011486564285886321 0.0096188199052017666 0 -0.0011327982887456667 0.0099060349366256739 0 -0.00093255502961755998 0.0095315500591026375 0 -0.0011486564285886321 0.0096188199052017666 0 -0.0010619527737511182 0.0093126250241180649 0 -0.0010619527737511182 0.0093126250241180649 0 -0.0012511999597916228 0.0092688263258120275 0 -0.0010333861654707359 0.0091711587095161893 0 -0.0011486564285886321 0.0096188199052017666 0 -0.0010619527737511182 0.0093126250241180649 0 -0.0012702037229543183 0.0094812847330365112 0 -0.0015085117963673505 0.0095182421635785028 0 -0.0012702037229543183 0.0094812847330365112 0 -0.0012511999597916228 0.0092688263258120275 0 -0.0010619527737511182 0.0093126250241180649 0 -0.0012702037229543183 0.0094812847330365112 0 -0.0012511999597916228 0.0092688263258120275 0 -0.0012511999597916228 0.0092688263258120275 0 -0.0012419649766711254 0.0090096124901752877 0 -0.0014813103212618051 0.0091962722074112983 0 -0.0015085117963673505 0.0095182421635785028 0 -0.0012511999597916228 0.0092688263258120275 0 -0.0014813103212618051 0.0091962722074112983 0 -0.0016627759436204758 0.0082624678803269579 0 -0.0023551944390097371 0.0072852399930203419 0 -0.0012511999597916228 0.0092688263258120275 0 -0.0010333861654707359 0.0091711587095161893 0 -0.0012419649766711254 0.0090096124901752877 0 -0.0023078438875522209 0.0061442512409971379 0 -0.0027158824809406699 0.0053475927141106248 0 -0.0033123353210984634 0.005813230205106339 0 -0.0024635087381838804 0.0072795738001154237 0 -0.0023078438875522209 0.0061442512409971379 0 -0.0033123353210984634 0.005813230205106339 0 -0.0019881827665828044 0.0053612309113680893 0 -0.0023078438875522209 0.0061442512409971379 0 -0.0027158824809406699 0.0053475927141106248 0 -0.0025594824214746708 0.0078308384227697789 0 -0.0023551944390097371 0.0072852399930203419 0 -0.0015527886857202575 0.008704528405767388 0 -0.0012419649766711254 0.0090096124901752877 0 -0.0014813103212618051 0.0091962722074112983 0 -0.0032487490993100099 0.005016731288323647 0 -0.0027158824809406699 0.0053475927141106248 0 -0.0033123353210984634 0.005813230205106339 0 -0.0015329169579067494 0.0088615590403551461 0 -0.0015939937124984317 0.0090155895599335518 0 -0.0014813103212618051 0.0091962722074112983 0 -0.0025594824214746708 0.0078308384227697789 0 -0.0012603277928669135 0.0095825893943230645 0 -0.0015670669357650767 0.0088272825374630243 0 -0.0015939937124984317 0.0090155895599335518 0 -0.0017546287253282751 0.009009454941761464 0 -0.0015939937124984317 0.0090155895599335518 0 -0.0014813103212618051 0.0091962722074112983 0 -0.0016477663381785097 0.0091950587154960642 0 -0.0015939937124984317 0.0090155895599335518 0 -0.0016477663381785097 0.0091950587154960642 0 -0.0017546287253282751 0.009009454941761464 0 -0.0015085117963673505 0.0095182421635785028 0 -0.0014813103212618051 0.0091962722074112983 0 -0.0016878086615694933 0.0093909034218260454 0 -0.0014813103212618051 0.0091962722074112983 0 -0.0016477663381785097 0.0091950587154960642 0 -0.0016878086615694933 0.0093909034218260454 0 -0.0018272567237943658 0.0095091514957855276 0 -0.0019323351711771684 0.0094652993072416834 0 -0.001837072673774022 0.0093113956208125542 0 -0.0018272567237943658 0.0095091514957855276 0 -0.0019323351711771684 0.0094652993072416834 0 -0.0019690138022335929 0.0096572670324028692 0 -0.0019323351711771684 0.0094652993072416834 0 -0.0019351086463654306 0.0093689940428192588 0 -0.0020010893458390351 0.009400475240595221 0 -0.0018272567237943658 0.0095091514957855276 0 -0.0016878086615694933 0.0093909034218260454 0 -0.001837072673774022 0.0093113956208125542 0 -0.0016477663381785097 0.0091950587154960642 0 -0.0016878086615694933 0.0093909034218260454 0 -0.001837072673774022 0.0093113956208125542 0 -0.001837072673774022 0.0093113956208125542 0 -0.0019745328289954467 0.00929645627357043 0 -0.0019937552401049006 0.0092574539140176191 0 -0.0019323351711771684 0.0094652993072416834 0 -0.001837072673774022 0.0093113956208125542 0 -0.0019351086463654306 0.0093689940428192588 0 -0.001837072673774022 0.0093113956208125542 0 -0.0019351086463654306 0.0093689940428192588 0 -0.0019745328289954467 0.00929645627357043 0 -0.0019248632872163446 0.01032300454792227 0 -0.0030015244423772058 0.011851413997202494 0 -0.0016477663381785097 0.0091950587154960642 0 -0.001837072673774022 0.0093113956208125542 0 -0.0017546287253282751 0.009009454941761464 0 -0.0023021954746592957 0.011797254358249756 0 -0.0025850036323321348 0.011862738830883676 0 -0.0025097002751993738 0.012013351447851312 0 -0.001837072673774022 0.0093113956208125542 0 -0.0017546287253282751 0.009009454941761464 0 -0.0019937552401049006 0.0092574539140176191 0 -0.0024926754296454891 0.011585840917745373 0 -0.0023021954746592957 0.011797254358249756 0 -0.0025850036323321348 0.011862738830883676 0 -0.0033141071991800324 0.014076310006831863 0 -0.0030015244423772058 0.011851413997202494 0 -0.005200210116243483 0.015820201299150207 0 -0.0057965324110009807 0.014691355818778571 0 -0.0048370695225344986 0.014613219190856655 0 -0.0033141071991800324 0.014076310006831863 0 -0.0045633286957223159 0.015324894045821444 0 -0.0051507031970329737 0.015920176962641509 0 -0.0038044591758555155 0.015615864262627311 0 -0.0048370695225344986 0.014613219190856655 0 -0.0038044591758555155 0.015615864262627311 0 -0.0039476140691586756 0.01476604963726086 0 -0.0048370695225344986 0.014613219190856655 0 -0.0051507031970329737 0.015920176962641509 0 -0.0035212146956624039 0.016662105055326011 0 -0.0038044591758555155 0.015615864262627311 0 -0.0035212146956624039 0.016662105055326011 0 -0.0025352726314680071 0.01608314992779114 0 -0.0038044591758555155 0.015615864262627311 0 -0.0023444850363284328 0.017466799671023582 0 -0.0035212146956624039 0.016662105055326011 0 -0.0025352726314680071 0.01608314992779114 0 -0.0025352726314680071 0.01608314992779114 0 -0.0030955506929023391 0.014647334566677935 0 -0.0016577529021470534 0.015142425810103201 0 -0.0025352726314680071 0.01608314992779114 0 -0.0038044591758555155 0.015615864262627311 0 -0.0030955506929023391 0.014647334566677935 0 -0.0038044591758555155 0.015615864262627311 0 -0.0039476140691586756 0.01476604963726086 0 -0.0030955506929023391 0.014647334566677935 0 -0.0039476140691586756 0.01476604963726086 0 -0.0030955506929023391 0.014647334566677935 0 -0.0038970445722711295 0.014096031828688285 0 -0.0030955506929023391 0.014647334566677935 0 -0.0038970445722711295 0.014096031828688285 0 -0.003252067643530426 0.013504847879993377 0 -0.0030955506929023391 0.014647334566677935 0 -0.0021643341714045589 0.013685582274472138 0 -0.003252067643530426 0.013504847879993377 0 -0.0030955506929023391 0.014647334566677935 0 -0.0021643341714045589 0.013685582274472138 0 -0.0016577529021470534 0.015142425810103201 0 -0.0021643341714045589 0.013685582274472138 0 -0.0013406399931810743 0.012433569036924712 0 -0.0029549072749023015 0.012342188595677336 0 -0.0021643341714045589 0.013685582274472138 0 -0.003252067643530426 0.013504847879993377 0 -0.0029549072749023015 0.012342188595677336 0 -0.0038970445722711295 0.014096031828688285 0 -0.003252067643530426 0.013504847879993377 0 -0.0042439573629091988 0.012900689290851787 0 -0.003252067643530426 0.013504847879993377 0 -0.0042439573629091988 0.012900689290851787 0 -0.0029549072749023015 0.012342188595677336 0 -0.0032808327393283217 0.011345149853000057 0 -0.0030015244423772058 0.011851413997202494 0 -0.0023067042594086206 0.0096648837510588392 0 -0.002100142983955658 0.0095175776244233266 0 -0.0021534623210503205 0.0096677989082835057 0 -0.002100142983955658 0.0095175776244233266 0 -0.0019690138022335929 0.0096572670324028692 0 -0.0021534623210503205 0.0096677989082835057 0 -0.0023067042594086206 0.0096648837510588392 0 -0.002100142983955658 0.0095175776244233266 0 -0.0020029094688722711 0.0092410549338761867 0 -0.0019323351711771684 0.0094652993072416834 0 -0.002100142983955658 0.0095175776244233266 0 -0.0020010893458390351 0.009400475240595221 0 -0.0019323351711771684 0.0094652993072416834 0 -0.002100142983955658 0.0095175776244233266 0 -0.0019690138022335929 0.0096572670324028692 0 -0.002100142983955658 0.0095175776244233266 0 -0.0020010893458390351 0.009400475240595221 0 -0.0020029094688722711 0.0092410549338761867 0 -0.0020010893458390351 0.009400475240595221 0 -0.0019745328289954467 0.00929645627357043 0 -0.0020029094688722711 0.0092410549338761867 0 -0.0019351086463654306 0.0093689940428192588 0 -0.0020010893458390351 0.009400475240595221 0 -0.0019745328289954467 0.00929645627357043 0 -0.0030600615634356993 0.011503264821836329 0 -0.0030015244423772058 0.011851413997202494 0 -0.0038970445722711295 0.014096031828688285 0 -0.0042439573629091988 0.012900689290851787 0 -0.0048370695225344986 0.014613219190856655 0 -0.0042439573629091988 0.012900689290851787 0 -0.0057965324110009807 0.014691355818778571 0 -0.0048370695225344986 0.014613219190856655 0 -0.0039476140691586756 0.01476604963726086 0 -0.0038970445722711295 0.014096031828688285 0 -0.0048370695225344986 0.014613219190856655 0 0.0016858717434025897 0.020503735466205625 0 0.0015027419857771404 0.020384571566486469 0 0.0016522703378616345 0.020435535206316635 0 0.0011495030228579762 0.018649320447027457 0 0.00038076316503819389 0.016780813497629533 0 0.00053422278557620077 0.016561667971868903 0 0.0002266853391804215 0.016201536939861694 0 -0.00038424366350945451 0.01476479906534006 0 0.00172258662026793 0.020479025256907167 0 0.0016858717434025897 0.020503735466205625 0 0.0016522703378616345 0.020435535206316635 0 -3.3424759100169032e-05 0.017438077349636497 0 8.0102192614533549e-05 0.016715394070466631 0 -0.00036312286961100003 0.016471158459877244 0 -3.3424759100169032e-05 0.017438077349636497 0 0.00053422278557620077 0.016561667971868903 0 8.0102192614533549e-05 0.016715394070466631 0 0.0002266853391804215 0.016201536939861694 0 -0.00036312286961100003 0.016471158459877244 0 -0.00068647524018515115 0.015722741343029024 0 0.00053422278557620077 0.016561667971868903 0 0.0002266853391804215 0.016201536939861694 0 8.0102192614533549e-05 0.016715394070466631 0 0.0002266853391804215 0.016201536939861694 0 8.0102192614533549e-05 0.016715394070466631 0 -0.00036312286961100003 0.016471158459877244 0 -0.00020128723574728804 0.015299500928731063 0 0.00038076316503819389 0.016780813497629533 0 0.0002266853391804215 0.016201536939861694 0 -0.00068647524018515115 0.015722741343029024 0 -0.00048651146280861339 0.014236423451766532 0 -0.00068647524018515115 0.015722741343029024 0 -0.0011066772473313691 0.016550201220126834 0 -0.0016577529021470534 0.015142425810103201 0 -0.00068647524018515115 0.015722741343029024 0 -0.0016577529021470534 0.015142425810103201 0 -0.00048651146280861339 0.014236423451766532 0 -0.00036312286961100003 0.016471158459877244 0 -0.00068647524018515115 0.015722741343029024 0 -0.0011066772473313691 0.016550201220126834 0 -3.3424759100169032e-05 0.017438077349636497 0 -0.00036312286961100003 0.016471158459877244 0 -0.0011066772473313691 0.016550201220126834 0 -0.0023444850363284328 0.017466799671023582 0 -0.0025352726314680071 0.01608314992779114 0 -0.0011066772473313691 0.016550201220126834 0 -0.0025352726314680071 0.01608314992779114 0 -0.0011066772473313691 0.016550201220126834 0 -0.0016577529021470534 0.015142425810103201 0 0.0015027419857771404 0.020384571566486469 0 0.0016188924321840856 0.020358012173306357 0 0.001399085379455098 0.020218657872299949 0 -0.0021643341714045589 0.013685582274472138 0 -0.0016577529021470534 0.015142425810103201 0 -0.00048651146280861339 0.014236423451766532 0 -0.0021643341714045589 0.013685582274472138 0 -0.00048651146280861339 0.014236423451766532 0 -0.0013406399931810743 0.012433569036924712 0 0.00038076316503819389 0.016780813497629533 0 -0.0010169391316236548 0.014909689507907921 0 0.0017501154054935636 0.020370555033579207 0 0.0016188924321840856 0.020358012173306357 0 0.0016435235004303292 0.020273883253744962 0 0.0015027419857771404 0.020384571566486469 0 0.0016188924321840856 0.020358012173306357 0 0.0016522703378616345 0.020435535206316635 0 0.0017284514061532026 0.020450159815725576 0 0.0016188924321840856 0.020358012173306357 0 0.0016522703378616345 0.020435535206316635 0 0.00013237952502981348 0.020705365163125603 0 -0.0010169391316236548 0.014909689507907921 0 0.0016188924321840856 0.020358012173306357 0 0.0016435235004303292 0.020273883253744962 0 0.001399085379455098 0.020218657872299949 0 -0.0014247741816764089 0.020316792847416002 0 -0.00099547301328133044 0.020230745511004209 0 -0.0011495152563732172 0.020672496333142169 0 -0.00099547301328133044 0.020230745511004209 0 -0.0011495152563732172 0.020672496333142169 0 -0.00070731510348493235 0.020752245062101486 0 -0.0014247741816764089 0.020316792847416002 0 -0.0011495152563732172 0.020672496333142169 0 -0.0014872637977701791 0.020695150505647235 0 -0.0011495152563732172 0.020672496333142169 0 -0.0014872637977701791 0.020695150505647235 0 -0.0013003041323761332 0.020997806381929437 0 -0.0021313931758230038 0.0098264829639265854 0 -0.0022141361777457502 0.010006798969056988 0 -0.0019696915242436645 0.0098658827194929993 0 -0.0021313931758230038 0.0098264829639265854 0 -0.0022445217163367609 0.010020052028501408 0 -0.0022141361777457502 0.010006798969056988 0 -0.0019690138022335929 0.0096572670324028692 0 -0.0021313931758230038 0.0098264829639265854 0 -0.0019696915242436645 0.0098658827194929993 0 -0.0019690138022335929 0.0096572670324028692 0 -0.0021534623210503205 0.0096677989082835057 0 -0.0021313931758230038 0.0098264829639265854 0 -0.0023067042594086206 0.0096648837510588392 0 -0.0021534623210503205 0.0096677989082835057 0 -0.0021313931758230038 0.0098264829639265854 0 -0.0023067042594086206 0.0096648837510588392 0 -0.0021313931758230038 0.0098264829639265854 0 -0.0022445217163367609 0.010020052028501408 0 -0.0032808327393283217 0.011345149853000057 0 -0.0021346273932815671 0.010471772227356756 0 -0.0042439573629091988 0.012900689290851787 0 -0.0029549072749023015 0.012342188595677336 0 -0.0020417150088448037 0.010518879189943497 0 -0.0023067042594086206 0.0096648837510588392 0 -0.0020417150088448037 0.010518879189943497 0 -0.0022445217163367609 0.010020052028501408 0 -0.0010391895274753865 0.011818564831983574 0 -0.0029549072749023015 0.012342188595677336 0 -0.0020417150088448037 0.010518879189943497 0 -0.0010169391316236548 0.014909689507907921 0 -0.0026613150626931563 0.012777309645169188 0 -0.0010169391316236548 0.014909689507907921 0 -0.0030438035071971049 0.0091529479607925859 0 -0.0010391895274753865 0.011818564831983574 0 -0.0020417150088448037 0.010518879189943497 0 -0.0023193281401197338 0.0099719016459966208 0 -0.0020417150088448037 0.010518879189943497 0 -0.0022713421234453082 0.010095957748680297 0 -0.0023193281401197338 0.0099719016459966208 0 -0.0020417150088448037 0.010518879189943497 0 -0.0022445217163367609 0.010020052028501408 0 -0.0022713421234453082 0.010095957748680297 0 -0.0022445217163367609 0.010020052028501408 0 -0.0022713421234453082 0.010095957748680297 0 -0.0022141361777457502 0.010006798969056988 0 -0.0010169391316236548 0.014909689507907921 0 -0.0015788381876182334 0.015431839209227827 0 -0.0022713421234453082 0.010095957748680297 0 -0.0022141361777457502 0.010006798969056988 0 -0.0023193281401197338 0.0099719016459966208 0 -0.0024261366650562598 0.0098495316039725455 0 -0.0023193281401197338 0.0099719016459966208 0 -0.002267831762395818 0.010114891569810517 0 -0.0022141361777457502 0.010006798969056988 0 -0.0023193281401197338 0.0099719016459966208 0 -0.002267831762395818 0.010114891569810517 0 -0.0022141361777457502 0.010006798969056988 0 -0.0019696915242436645 0.0098658827194929993 0 -0.0019737164746603487 0.01010049938683839 0 -0.0022141361777457502 0.010006798969056988 0 -0.002267831762395818 0.010114891569810517 0 -0.0019737164746603487 0.01010049938683839 0 -0.002267831762395818 0.010114891569810517 0 -0.0019737164746603487 0.01010049938683839 0 -0.0019930524484143928 0.010495129948751904 0 -0.0015788381876182334 0.015431839209227827 0 -0.0013568372164582678 0.015913614438295347 0 -0.00070731510348493235 0.020752245062101486 0 -0.00076415238001891796 0.021244434230490133 0 -0.00047946300169993128 0.021269944642237235 0 -0.00070731510348493235 0.020752245062101486 0 -0.00076415238001891796 0.021244434230490133 0 -0.0010046274955875535 0.02109631904202099 0 -0.00076415238001891796 0.021244434230490133 0 -0.00095898636202337026 0.021514162704840242 0 -0.00070498284431260013 0.021577306547840961 0 -0.00076415238001891796 0.021244434230490133 0 -0.00047946300169993128 0.021269944642237235 0 -0.00070498284431260013 0.021577306547840961 0 -0.0015726370440388238 0.020995164964262403 0 -0.0014872637977701791 0.020695150505647235 0 -0.0013003041323761332 0.020997806381929437 0 -0.0017054670391174432 0.021058925753735015 0 -0.0013003041323761332 0.020997806381929437 0 -0.0014903327774570187 0.021318983901812607 0 -0.0018117658331938174 0.021074685680269201 0 -0.0012872850393829769 0.020997381744923608 0 -0.0011495152563732172 0.020672496333142169 0 -0.00070731510348493235 0.020752245062101486 0 -0.0010046274955875535 0.02109631904202099 0 -0.0011495152563732172 0.020672496333142169 0 -0.0013003041323761332 0.020997806381929437 0 -0.0010046274955875535 0.02109631904202099 0 -0.0013003041323761332 0.020997806381929437 0 -0.0010046274955875535 0.02109631904202099 0 -0.0012191361218409625 0.021403408956971764 0 -0.00095898636202337026 0.021514162704840242 0 -0.0012191361218409625 0.021403408956971764 0 -0.0012111374704122705 0.021813496932964971 0 -0.00076415238001891796 0.021244434230490133 0 -0.0010046274955875535 0.02109631904202099 0 -0.00095898636202337026 0.021514162704840242 0 -0.0010046274955875535 0.02109631904202099 0 -0.00095898636202337026 0.021514162704840242 0 -0.0012191361218409625 0.021403408956971764 0 -0.0013003041323761332 0.020997806381929437 0 -0.0012191361218409625 0.021403408956971764 0 -0.0014903327774570187 0.021318983901812607 0 -0.0012191361218409625 0.021403408956971764 0 -0.0014903327774570187 0.021318983901812607 0 -0.0014922635508361848 0.021750027725072469 0 -0.0012191361218409625 0.021403408956971764 0 -0.0014922635508361848 0.021750027725072469 0 -0.0012111374704122705 0.021813496932964971 0 -0.001502987284767304 0.022122663852872117 0 -0.0012111374704122705 0.021813496932964971 0 -0.0011860620888620422 0.022200717836375249 0 -0.001502987284767304 0.022122663852872117 0 -0.0014922635508361848 0.021750027725072469 0 -0.0012111374704122705 0.021813496932964971 0 -0.0012111374704122705 0.021813496932964971 0 -0.00093296563639221563 0.021801365369930274 0 -0.0011860620888620422 0.022200717836375249 0 -0.00095898636202337026 0.021514162704840242 0 -0.0012111374704122705 0.021813496932964971 0 -0.00093296563639221563 0.021801365369930274 0 -0.00068999980633886629 0.022388828299780332 0 0.00034905189306270247 0.020237250094035281 0 -0.00099063193681063542 0.02231724263838452 0 -0.0011860620888620422 0.022200717836375249 0 -0.00038049108287980155 0.021826561665783735 0 -0.0011268300549900406 0.02194444520718768 0 -0.00056733365552304031 0.022623799152744616 0 -0.00093296563639221563 0.021801365369930274 0 -0.0011860620888620422 0.022200717836375249 0 -0.00066427336341206308 0.021850800929640403 0 -0.0018156433020685566 0.022640430540954076 0 -0.001502987284767304 0.022122663852872117 0 -0.0011860620888620422 0.022200717836375249 0 -0.0011720039335871789 0.022603147762297784 0 -0.00068999980633886629 0.022388828299780332 0 -0.0018156433020685566 0.022640430540954076 0 -0.00099063193681063542 0.02231724263838452 0 -0.0011860620888620422 0.022200717836375249 0 -0.00047946300169993128 0.021269944642237235 0 -0.00053239645741198966 0.021578186588526872 0 -0.00070498284431260013 0.021577306547840961 0 -0.00047946300169993128 0.021269944642237235 0 -0.00053239645741198966 0.021578186588526872 0 -0.00029289023274374569 0.021612449058561516 0 -0.00093296563639221563 0.021801365369930274 0 -0.00070498284431260013 0.021577306547840961 0 -0.00066427336341206308 0.021850800929640403 0 -0.00053239645741198966 0.021578186588526872 0 -0.00070498284431260013 0.021577306547840961 0 -0.00066427336341206308 0.021850800929640403 0 -0.00095898636202337026 0.021514162704840242 0 -0.00093296563639221563 0.021801365369930274 0 -0.00070498284431260013 0.021577306547840961 0 -0.00099063193681063542 0.02231724263838452 0 -0.00038049108287980155 0.021826561665783735 0 -0.00053137386435327084 0.022142506126862228 0 0.00034905189306270247 0.020237250094035281 0 0.00021448227919011682 0.020330987125795692 0 -0.00038049108287980155 0.021826561665783735 0 -0.00053137386435327084 0.022142506126862228 0 -0.00021211006072601975 0.022009451927295285 0 -0.00038049108287980155 0.021826561665783735 0 -0.00021211006072601975 0.022009451927295285 0 0.00026203718981090664 0.021601958080537643 0 -0.00056733365552304031 0.022623799152744616 0 -0.00012039863595787773 0.015937502683234316 0 -0.00053239645741198966 0.021578186588526872 0 -0.00066427336341206308 0.021850800929640403 0 -0.00029289023274374569 0.021612449058561516 0 0.00021448227919011682 0.020330987125795692 0 0.001159803875025471 0.012616370139341372 0 -0.00021211006072601975 0.022009451927295285 0 0.00026203718981090664 0.021601958080537643 0 0.00042459745021948271 0.021830070674345694 0 -0.00012039863595787773 0.015937502683234316 0 0.001159803875025471 0.012616370139341372 0 -0.00012039863595787773 0.015937502683234316 0 -0.0001520903048315881 0.0094489495873215628 0 0.001195480395055968 0.0097415946664977607 0 0.0011335718596895161 0.0095984039410930751 0 0.00093120714589503746 0.0096917822581547748 0 0.001159803875025471 0.012616370139341372 0 0.0022607241588673199 0.0060752809860921252 0 -0.0017257294371647903 0.010899687580491691 0 -0.0016403471356061172 0.010315048813805426 0 -0.0012895866122990256 0.010730296227456526 0 -0.0013568372164582678 0.015913614438295347 0 -0.00012039863595787773 0.015937502683234316 0 -0.0019930524484143928 0.010495129948751904 0 -0.0017257294371647903 0.010899687580491691 0 -0.0016403471356061172 0.010315048813805426 0 -0.0016403471356061172 0.010315048813805426 0 -0.0012920948981260268 0.010207874771618207 0 -0.0012895866122990256 0.010730296227456526 0 -0.0014042577364163586 0.0098423087492527685 0 -0.0016403471356061172 0.010315048813805426 0 -0.0012920948981260268 0.010207874771618207 0 -0.0017212247518240695 0.0098714701912649677 0 -0.0014042577364163586 0.0098423087492527685 0 -0.0016403471356061172 0.010315048813805426 0 -0.0017212247518240695 0.0098714701912649677 0 -0.0019737164746603487 0.01010049938683839 0 -0.0016403471356061172 0.010315048813805426 0 -0.0019737164746603487 0.01010049938683839 0 -0.0019930524484143928 0.010495129948751904 0 -0.0016403471356061172 0.010315048813805426 0 -0.00070626945739927919 0.0098401968717402172 0 -0.00093255502961755998 0.0095315500591026375 0 -0.0011327982887456667 0.0099060349366256739 0 -0.00070626945739927919 0.0098401968717402172 0 -0.0011327982887456667 0.0099060349366256739 0 -0.00096847002525887369 0.010264170821724572 0 -0.0014042577364163586 0.0098423087492527685 0 -0.0011327982887456667 0.0099060349366256739 0 -0.0012920948981260268 0.010207874771618207 0 -0.0012920948981260268 0.010207874771618207 0 -0.00096847002525887369 0.010264170821724572 0 -0.0012895866122990256 0.010730296227456526 0 -0.0011327982887456667 0.0099060349366256739 0 -0.0012920948981260268 0.010207874771618207 0 -0.00096847002525887369 0.010264170821724572 0 -0.00074662566124679387 0.010607286789168478 0 -0.00096847002525887369 0.010264170821724572 0 -0.0012895866122990256 0.010730296227456526 0 -0.00012270891496337445 0.010281906133088688 0 -0.0001520903048315881 0.0094489495873215628 0 0.0011335718596895161 0.0095984039410930751 0 0.00093120714589503746 0.0096917822581547748 0 0.00088536985014474291 0.0095185766427990631 0 0.00093120714589503746 0.0096917822581547748 0 0.00088536985014474291 0.0095185766427990631 0 0.00075580744090969498 0.0095891555568145981 0 0.0014673235933104004 0.0067908710771029113 0 0.0022607241588673199 0.0060752809860921252 0 0.00061436876352338494 0.0096930497795087375 0 0.00093120714589503746 0.0096917822581547748 0 0.00075580744090969498 0.0095891555568145981 0 0.00057784224243971627 0.0094436677641178812 0 0.00088536985014474291 0.0095185766427990631 0 0.00075580744090969498 0.0095891555568145981 0 0.0030912865975371768 0.003985954052301263 0 0.0026841570681968956 0.0035373351306741095 0 0.0030185240499659032 0.0036157194190173814 0 0.0025077524757068973 0.0039413132337369873 0 0.0030912865975371768 0.003985954052301263 0 0.0026841570681968956 0.0035373351306741095 0 0.0030912865975371768 0.003985954052301263 0 0.0030185240499659032 0.0036157194190173814 0 0.0033685987330368977 0.0035479518233648331 0 0.0031297816067203067 0.0037865034764139392 0 0.00073210240067268946 0.0096713040296530061 0 0.0017995251350919829 0.0069979420878932682 0 0.0018262134049530372 0.0069910114714572778 0 0.0018454662770046857 0.0070466075699340963 0 0.0030185240499659032 0.0036157194190173814 0 0.0029960985494460316 0.0033568500562870069 0 0.0033685987330368977 0.0035479518233648331 0 0.0031297816067203067 0.0037865034764139392 0 0.001441459823161571 0.0076306085706999661 0 0.001441459823161571 0.0076306085706999661 0 0.00073210240067268946 0.0096713040296530061 0 0.0031297816067203067 0.0037865034764139392 0 0.0029614047108118772 0.002621684153010386 0 0.0026841570681968956 0.0035373351306741095 0 0.0030185240499659032 0.0036157194190173814 0 0.0029960985494460316 0.0033568500562870069 0 0.0033314330190149406 0.0018636165100098807 0 0.0029610252983483967 0.0019158575904987265 0 0.0028532258205020097 0.0021386266594349266 0 0.0026841570681968956 0.0035373351306741095 0 0.0029960985494460316 0.0033568500562870069 0 0.0026487395852777965 0.0034791061150581267 0 0.0033314330190149406 0.0018636165100098807 0 0.0031056668352315111 0.0017697067126714089 0 0.0029610252983483967 0.0019158575904987265 0 0.0031297816067203067 0.0037865034764139392 0 0.0028387794389271867 0.0026362018109835324 0 0.0031056668352315111 0.0017697067126714089 0 0.0029610252983483967 0.0019158575904987265 0 0.0028955158426958432 0.0017868808583112084 0 0.0029610252983483967 0.0019158575904987265 0 0.0028955158426958432 0.0017868808583112084 0 0.0028686236719164338 0.0018734035510340147 0 0.0031056668352315111 0.0017697067126714089 0 0.0029245916148892864 0.0016376195713995189 0 0.0031717752135128324 0.0015532884425955406 0 0.0031056668352315111 0.0017697067126714089 0 0.0029245916148892864 0.0016376195713995189 0 0.0028955158426958432 0.0017868808583112084 0 0.0029245916148892864 0.0016376195713995189 0 0.0029231883768533564 0.0013206839964213046 0 0.0031717752135128324 0.0015532884425955406 0 0.0033233763335584797 0.0018796528702717543 0 0.0031056668352315111 0.0017697067126714089 0 0.0031717752135128324 0.0015532884425955406 0 0.0010179084579123468 0.0086683134992225231 0 0.00086013700986807833 0.0078982498518838217 0 0.0014293412450224188 0.0084435964395157687 0 0.0031717752135128324 0.0015532884425955406 0 0.0035952851262552165 0.001737852919891613 0 0.0032499251580449641 0.0011138788549908357 0 0.001441459823161571 0.0076306085706999661 0 0.0018741840601153388 0.0038073910137691618 0 0.0033233763335584797 0.0018796528702717543 0 0.0031717752135128324 0.0015532884425955406 0 0.0035952851262552165 0.001737852919891613 0 0.00015795448416867149 0.011363770548641926 0 -0.0003958964736351506 0.011981563261512538 0 0.0010179084579123468 0.0086683134992225231 0 0.00086013700986807833 0.0078982498518838217 0 0.00064745375258815476 0.0080129045940191129 0 0.0029231883768533564 0.0013206839964213046 0 0.0031717752135128324 0.0015532884425955406 0 0.0032499251580449641 0.0011138788549908357 0 0.0029231883768533564 0.0013206839964213046 0 0.0032499251580449641 0.0011138788549908357 0 0.0028515084492263293 0.00094263582605801435 0 -0.00072780378487253086 0.013754590562178216 0 -0.00067710311531334793 0.013758493330822488 0 -0.0006691446310179318 0.013807580149692458 0 -0.00060349420368981913 0.013766322972799025 0 -0.00067710311531334793 0.013758493330822488 0 -0.00066330158389592861 0.013703631968132275 0 -0.00072780378487253086 0.013754590562178216 0 -0.00067710311531334793 0.013758493330822488 0 -0.00066330158389592861 0.013703631968132275 0 -0.00060349420368981913 0.013766322972799025 0 -0.00067710311531334793 0.013758493330822488 0 -0.0006691446310179318 0.013807580149692458 0 -0.00044026438547909824 0.013548722278703018 0 -0.00056166717389610993 0.013640099016052376 0 -0.00055781202737038317 0.013547960250630056 0 0.001441459823161571 0.0076306085706999661 0 -0.0003958964736351506 0.011981563261512538 0 -0.00056166717389610993 0.013640099016052376 0 -0.00065415292800283763 0.013602524023847829 0 -0.00055781202737038317 0.013547960250630056 0 -0.0003958964736351506 0.011981563261512538 0 -0.000279874322938464 0.01352484958131803 0 -0.00072780378487253086 0.013754590562178216 0 -0.00057364339988901284 0.013668129473249333 0 -0.00065415292800283763 0.013602524023847829 0 -0.00072780378487253086 0.013754590562178216 0 -0.00065415292800283763 0.013602524023847829 0 -0.00077471555539399982 0.013639097455019684 0 -0.0010035392891162805 0.013996485224086681 0 -0.0003958964736351506 0.011981563261512538 0 0.00016825144296659481 0.017611607687703111 0 -0.0003829043933012827 0.018351208394447042 0 -0.00065415292800283763 0.013602524023847829 0 -0.00065369235854725622 0.013445779362510528 0 -0.00077471555539399982 0.013639097455019684 0 0.000291036456788329 0.022641516749625779 0 0.00016155816665049569 0.022729431382751505 0 0.00014979652146037239 0.022866604123109299 0 -0.00065415292800283763 0.013602524023847829 0 -0.00055781202737038317 0.013547960250630056 0 -0.00065369235854725622 0.013445779362510528 0 0.00073210240067268946 0.0096713040296530061 0 0.00016825144296659481 0.017611607687703111 0 -0.00055781202737038317 0.013547960250630056 0 -0.00050740729716425607 0.013466258706885108 0 -0.00065369235854725622 0.013445779362510528 0 -0.00044026438547909824 0.013548722278703018 0 -0.00055781202737038317 0.013547960250630056 0 -0.00050740729716425607 0.013466258706885108 0 -0.00012131797201561161 0.016414024078504261 0 -0.00082013952727897125 0.015210731420740899 0 -0.00010671942101948809 0.015969327853454725 0 0.0036335784587243642 0.0040881918608416693 0 0.0030912865975371768 0.003985954052301263 0 0.0033685987330368977 0.0035479518233648331 0 -0.00082013952727897125 0.015210731420740899 0 -0.00010671942101948809 0.015969327853454725 0 0.00011618839806775525 0.015613133341257203 0 0.001159803875025471 0.012616370139341372 0 0.00073210240067268946 0.0096713040296530061 0 0.0012001679330075001 0.016475239126822337 0 -0.00012131797201561161 0.016414024078504261 0 0.00039934319096757891 0.016134542997205129 0 7.9227015251655589e-05 0.01570261620203477 0 0.00039934319096757891 0.016134542997205129 0 0.00093216017446896523 0.016099617657779185 0 0.000291036456788329 0.022641516749625779 0 0.00011882542635091416 0.022611832819810541 0 0.00016155816665049569 0.022729431382751505 0 0.00016825144296659481 0.017611607687703111 0 0.000640401635327782 0.01944147885844081 0 -0.00010671942101948809 0.015969327853454725 0 7.9227015251655589e-05 0.01570261620203477 0 0.00039934319096757891 0.016134542997205129 0 0.00043779462163132544 0.016331017038989017 0 0.00016825144296659481 0.017611607687703111 0 -0.00012131797201561161 0.016414024078504261 0 -0.00010671942101948809 0.015969327853454725 0 0.00039934319096757891 0.016134542997205129 0 0.00034905189306270247 0.020237250094035281 0 0.000640401635327782 0.01944147885844081 0 0.0017533186359335075 0.016521130170876426 0 0.0012001679330075001 0.016475239126822337 0 0.00093216017446896523 0.016099617657779185 0 0.0012001679330075001 0.016475239126822337 0 0.00039934319096757891 0.016134542997205129 0 0.00093216017446896523 0.016099617657779185 0 0.00011882542635091416 0.022611832819810541 0 0.00016155816665049569 0.022729431382751505 0 8.4429279766828574e-05 0.022741425547746528 0 0.00011882542635091416 0.022611832819810541 0 8.2854360647829776e-06 0.022677271322607388 0 8.4429279766828574e-05 0.022741425547746528 0 -3.4605283980136334e-05 0.022560795052950819 0 0.00011882542635091416 0.022611832819810541 0 8.2854360647829776e-06 0.022677271322607388 0 -3.4605283980136334e-05 0.022560795052950819 0 8.2854360647829776e-06 0.022677271322607388 0 -0.00012809244994817085 0.022714925429052794 0 8.2854360647829776e-06 0.022677271322607388 0 -2.2912299967138351e-05 0.02281870272758647 0 8.4429279766828574e-05 0.022741425547746528 0 -2.2912299967138351e-05 0.02281870272758647 0 -0.00012809244994817085 0.022714925429052794 0 -0.00013664354909436789 0.022928108720616697 0 8.2854360647829776e-06 0.022677271322607388 0 -2.2912299967138351e-05 0.02281870272758647 0 -0.00012809244994817085 0.022714925429052794 0 -2.2912299967138351e-05 0.02281870272758647 0 8.4429279766828574e-05 0.022741425547746528 0 0.00014979652146037239 0.022866604123109299 0 0.00016155816665049569 0.022729431382751505 0 8.4429279766828574e-05 0.022741425547746528 0 0.00014979652146037239 0.022866604123109299 0 -0.00055475690733352266 0.022559930796142602 0 -0.00019221374734492073 0.022562342900702199 0 -0.00032750340935050373 0.022700928961641761 0 -0.00055475690733352266 0.022559930796142602 0 -0.00032750340935050373 0.022700928961641761 0 -0.00051162226526156216 0.022810163892428043 0 -0.00019221374734492073 0.022562342900702199 0 -3.4605283980136334e-05 0.022560795052950819 0 -0.00012809244994817085 0.022714925429052794 0 -0.00019221374734492073 0.022562342900702199 0 -0.00032750340935050373 0.022700928961641761 0 -0.00012809244994817085 0.022714925429052794 0 -0.00032750340935050373 0.022700928961641761 0 -0.00012809244994817085 0.022714925429052794 0 -0.00028935772453943687 0.02285088911500421 0 -0.00012809244994817085 0.022714925429052794 0 -0.00028935772453943687 0.02285088911500421 0 -0.00013664354909436789 0.022928108720616697 0 -0.00028935772453943687 0.02285088911500421 0 -0.00036092892506070577 0.023074514863367597 0 -0.00051162226526156216 0.022810163892428043 0 -0.00032750340935050373 0.022700928961641761 0 -0.00028935772453943687 0.02285088911500421 0 -0.00051162226526156216 0.022810163892428043 0 -0.00028935772453943687 0.02285088911500421 0 -0.00036092892506070577 0.023074514863367597 0 -0.00013664354909436789 0.022928108720616697 0 -0.00036092892506070577 0.023074514863367597 0 -0.00013664354909436789 0.022928108720616697 0 -0.00012701717467931238 0.02313891918824839 0 -0.00013664354909436789 0.022928108720616697 0 -0.00012701717467931238 0.02313891918824839 0 -7.1765202097135998e-05 0.022996252018639342 0 -0.00012701717467931238 0.02313891918824839 0 -0.00010582731218261727 0.023044105576488096 0 -7.0610749588778936e-05 0.022968313782691135 0 -0.00012701717467931238 0.02313891918824839 0 -7.1765202097135998e-05 0.022996252018639342 0 -0.00010582731218261727 0.023044105576488096 0 -0.00011855123174854738 0.023160178191236891 0 -0.0002011433371423546 0.023300871722109949 0 -0.00012701717467931238 0.02313891918824839 0 5.1799670965502332e-05 0.023028187521904584 0 -7.0610749588778936e-05 0.022968313782691135 0 -0.00036092892506070577 0.023074514863367597 0 -0.00012701717467931238 0.02313891918824839 0 -0.00039882516013192194 0.023549641120707468 0 0.00014979652146037239 0.022866604123109299 0 -7.1765202097135998e-05 0.022996252018639342 0 -2.0710595363197137e-05 0.023025822302541226 0 -0.0003829043933012827 0.018351208394447042 0 -0.00040969705413239252 0.018356868566346232 0 -2.2912299967138351e-05 0.02281870272758647 0 0.00014979652146037239 0.022866604123109299 0 -7.1765202097135998e-05 0.022996252018639342 0 -2.2912299967138351e-05 0.02281870272758647 0 -0.00013664354909436789 0.022928108720616697 0 -7.1765202097135998e-05 0.022996252018639342 0 -7.1765202097135998e-05 0.022996252018639342 0 -0.00010582731218261727 0.023044105576488096 0 -2.0710595363197137e-05 0.023025822302541226 0 -0.00072780378487253086 0.013754590562178216 0 -0.00077471555539399982 0.013639097455019684 0 -0.00085116187638422985 0.013796552568612098 0 -0.00072780378487253086 0.013754590562178216 0 -0.00085116187638422985 0.013796552568612098 0 -0.00077735772101334474 0.013852784766769412 0 -0.00085116187638422985 0.013796552568612098 0 -0.00077735772101334474 0.013852784766769412 0 -0.00092718754914347104 0.013908669927557361 0 -0.00077735772101334474 0.013852784766769412 0 -0.00092718754914347104 0.013908669927557361 0 -0.00084146279979900834 0.013938640144913484 0 -0.00040969705413239252 0.018356868566346232 0 -0.00058130138304738981 0.018533319988777445 0 -0.00010582731218261727 0.023044105576488096 0 -2.0710595363197137e-05 0.023025822302541226 0 -0.00014269106750194494 0.022947444727687921 0 -0.00092718754914347104 0.013908669927557361 0 -0.00084146279979900834 0.013938640144913484 0 -0.0010157799638463496 0.014050098823189671 0 -0.00077735772101334474 0.013852784766769412 0 -0.00084146279979900834 0.013938640144913484 0 -0.00070738959775819949 0.013906393963012884 0 -0.00084146279979900834 0.013938640144913484 0 -0.00084597046448349218 0.014039148277923619 0 -0.00070738959775819949 0.013906393963012884 0 5.1799670965502332e-05 0.023028187521904584 0 -7.0610749588778936e-05 0.022968313782691135 0 3.5904533384575779e-05 0.022838373161441109 0 -0.00010582731218261727 0.023044105576488096 0 -0.00014269106750194494 0.022947444727687921 0 -7.0610749588778936e-05 0.022968313782691135 0 -7.0610749588778936e-05 0.022968313782691135 0 3.5904533384575779e-05 0.022838373161441109 0 -9.7472003959186147e-05 0.02275859003560635 0 -0.00058130138304738981 0.018533319988777445 0 -0.00036577714370259471 0.017883325203486834 0 -0.00014269106750194494 0.022947444727687921 0 -7.0610749588778936e-05 0.022968313782691135 0 -9.7472003959186147e-05 0.02275859003560635 0 3.5904533384575779e-05 0.022838373161441109 0 -9.7472003959186147e-05 0.02275859003560635 0 -1.2217480025032547e-05 0.022596414585586089 0 3.5904533384575779e-05 0.022838373161441109 0 -1.2217480025032547e-05 0.022596414585586089 0 0.00014962331172042818 0.022717169106349605 0 -0.00036577714370259471 0.017883325203486834 0 -0.00087864368201204463 0.021182257378789864 0 -0.0010157799638463496 0.014050098823189671 0 -0.0010971340691514307 0.014224635760994031 0 -0.00095650763621660327 0.01413581455797523 0 -0.0010971340691514307 0.014224635760994031 0 -0.00095650763621660327 0.01413581455797523 0 -0.00097086081519112655 0.014247643052717973 0 -0.00087864368201204463 0.021182257378789864 0 -0.0011423219164762152 0.019144709336863585 0 -0.00087864368201204463 0.021182257378789864 0 -5.6729633223261219e-05 0.024126401029861702 0 -0.0010157799638463496 0.014050098823189671 0 -0.00084597046448349218 0.014039148277923619 0 -0.00095650763621660327 0.01413581455797523 0 -0.00084146279979900834 0.013938640144913484 0 -0.0010157799638463496 0.014050098823189671 0 -0.00084597046448349218 0.014039148277923619 0 -0.00084597046448349218 0.014039148277923619 0 -0.00095650763621660327 0.01413581455797523 0 -0.00086911460247040271 0.014151322564887131 0 -0.00095650763621660327 0.01413581455797523 0 -0.00086911460247040271 0.014151322564887131 0 -0.00097086081519112655 0.014247643052717973 0 -0.00084597046448349218 0.014039148277923619 0 -0.00086911460247040271 0.014151322564887131 0 -0.0007298823779773822 0.014062744566242333 0 -0.00084597046448349218 0.014039148277923619 0 -0.0007298823779773822 0.014062744566242333 0 -0.00070738959775819949 0.013906393963012884 0 -0.0007298823779773822 0.014062744566242333 0 -0.0006254033591937486 0.013923392555150014 0 -0.00070738959775819949 0.013906393963012884 0 -0.0007298823779773822 0.014062744566242333 0 -0.0006254033591937486 0.013923392555150014 0 -0.00051737663450387669 0.013903810188187623 0 -0.00051737663450387669 0.013903810188187623 0 -0.00060201809656307997 0.013827954423269445 0 -0.00065993025759456979 0.01370132103929635 0 -0.00051737663450387669 0.013903810188187623 0 -0.00060201809656307997 0.013827954423269445 0 -0.00059822914984282135 0.01385187734833845 0 -0.0006254033591937486 0.013923392555150014 0 -0.00051737663450387669 0.013903810188187623 0 -0.00059822914984282135 0.01385187734833845 0 -0.00060349420368981913 0.013766322972799025 0 -0.00059822914984282135 0.01385187734833845 0 -0.00060027990086485602 0.013792588659941814 0 -0.00060201809656307997 0.013827954423269445 0 -0.00059822914984282135 0.01385187734833845 0 -0.00060027990086485602 0.013792588659941814 0 -0.00060349420368981913 0.013766322972799025 0 -0.00059822914984282135 0.01385187734833845 0 -0.0006449791461982118 0.013853691692551857 0 0.0032499251580449641 0.0011138788549908357 0 0.0028871159905893345 0.00056681638106347834 0 0.0028515084492263293 0.00094263582605801435 0 0.00086013700986807833 0.0078982498518838217 0 0.00064745375258815476 0.0080129045940191129 0 0.00027670219658437349 0.0073282210329851947 0 0.0018741840601153388 0.0038073910137691618 0 0.0014496603950974669 0.0059902046676914029 0 0.00015795448416867149 0.011363770548641926 0 0.0014496603950974669 0.0059902046676914029 0 -0.00060349420368981913 0.013766322972799025 0 -0.0006691446310179318 0.013807580149692458 0 -0.0006449791461982118 0.013853691692551857 0 -0.00072780378487253086 0.013754590562178216 0 -0.00077735772101334474 0.013852784766769412 0 -0.0006691446310179318 0.013807580149692458 0 -0.00077735772101334474 0.013852784766769412 0 -0.0006691446310179318 0.013807580149692458 0 -0.00070738959775819949 0.013906393963012884 0 -0.0006254033591937486 0.013923392555150014 0 -0.00059822914984282135 0.01385187734833845 0 -0.0006449791461982118 0.013853691692551857 0 -0.0006254033591937486 0.013923392555150014 0 -0.00070738959775819949 0.013906393963012884 0 -0.0006449791461982118 0.013853691692551857 0 -0.0006691446310179318 0.013807580149692458 0 -0.00070738959775819949 0.013906393963012884 0 -0.0006449791461982118 0.013853691692551857 0 -1.9400369803969081e-08 0.025000035144810383 0 -4.1064309646488387e-05 0.025038531982214375 0 -4.2774578483909613e-05 0.025012444125117654 0 -1.9400369803969081e-08 0.025000035144810383 0 -4.1064309646488387e-05 0.025038531982214375 0 -4.3451225881834118e-09 0.025000036754307505 0 -0.00022588359843738384 0.0244723306679628 0 -0.00014604190139869881 0.02485852547113588 0 -0.00044400019703681037 0.024807092567746582 0 -0.00022588359843738384 0.0244723306679628 0 -0.00014604190139869881 0.02485852547113588 0 1.3770802217911968e-07 0.024999631322886059 0 -0.00015497318880850302 0.024753096855187243 0 -6.4457940904008831e-08 0.024999895593141881 0 -0.00014604190139869881 0.02485852547113588 0 1.3770802217911968e-07 0.024999631322886059 0 -7.3861965941903941e-08 0.025000022036314941 0 -2.8880484440476833e-10 0.025000009731739187 0 -1.9067689796210839e-09 0.024999971756878844 0 -2.9859096754933642e-06 0.024996104018457421 0 2.6505077026720124e-08 0.025000351067740189 0 -0.00052748559984276504 0.024305154724152938 0 -0.00014604190139869881 0.02485852547113588 0 -7.3861965941903941e-08 0.025000022036314941 0 -0.00016657636635560101 0.025011390609870964 0 -4.7655891334378109e-05 0.025006966882391533 0 -1.1088258609557296e-08 0.025000021306254838 0 -5.7401372804767616e-07 0.024997534941872079 0 -1.9067689796210839e-09 0.024999971756878844 0 -5.7401372804767616e-07 0.024997534941872079 0 -2.9859096754933642e-06 0.024996104018457421 0 -1.1088258609557296e-08 0.025000021306254838 0 -1.9067689796210839e-09 0.024999971756878844 0 -5.7401372804767616e-07 0.024997534941872079 0 -4.7655891334378109e-05 0.025006966882391533 0 -5.7401372804767616e-07 0.024997534941872079 0 -4.8573166402190059e-05 0.024953427610066685 0 0.00022174370113668232 0.025131048120921384 0 -0.00052748559984276504 0.024305154724152938 0 -0.0016748655771340929 0.022700885747657381 0 -0.0018555724231590234 0.022908647602530686 0 -0.0016504249522935163 0.023028570500589447 0 -0.00066609821061208989 0.024015173434593567 0 -0.00052748559984276504 0.024305154724152938 0 -0.00010881153573737411 0.024998579684714285 0 -4.7655891334378109e-05 0.025006966882391533 0 -4.8573166402190059e-05 0.024953427610066685 0 -0.00014604190139869881 0.02485852547113588 0 -0.00016657636635560101 0.025011390609870964 0 -0.00044400019703681037 0.024807092567746582 0 -0.00052748559984276504 0.024305154724152938 0 -0.0011457879656765944 0.023849182806283144 0 -0.0016748655771340929 0.022700885747657381 0 -0.0016504249522935163 0.023028570500589447 0 -0.0014442108384215592 0.022911757210949086 0 -0.0013606056221340517 0.022656212520212878 0 -0.0016748655771340929 0.022700885747657381 0 -0.0014442108384215592 0.022911757210949086 0 -0.0016504249522935163 0.023028570500589447 0 -0.0014442108384215592 0.022911757210949086 0 -0.0014385227935603594 0.023186183130228324 0 -0.0011457879656765944 0.023849182806283144 0 -0.0010585920158395535 0.023831715275001563 0 -0.00022588359843738384 0.0244723306679628 0 -0.00044400019703681037 0.024807092567746582 0 -0.00050830979756730059 0.024445870443346531 0 -0.00044400019703681037 0.024807092567746582 0 -0.00074694695897908208 0.024438237475134284 0 -0.00050830979756730059 0.024445870443346531 0 -0.00015497318880850302 0.024753096855187243 0 -0.00037310128023273695 0.024559827005273031 0 -0.00022588359843738384 0.0244723306679628 0 -0.00050830979756730059 0.024445870443346531 0 -0.00060388891911255052 0.024072994452929077 0 -0.00074694695897908208 0.024438237475134284 0 -0.00050830979756730059 0.024445870443346531 0 -0.00060388891911255052 0.024072994452929077 0 -0.00074694695897908208 0.024438237475134284 0 -0.00096185973000444461 0.024061075293766217 0 -0.00060388891911255052 0.024072994452929077 0 -0.0012001103352470063 0.023384365831793132 0 -0.00090254164821496779 0.023192554291965071 0 -0.00088769835548313883 0.02369197218240297 0 -0.0010581416181588573 0.023728134380637769 0 -0.00088710317455772112 0.023723794385603493 0 -0.0012001103352470063 0.023384365831793132 0 -0.0011622329338343606 0.022963454084611454 0 -0.00090254164821496779 0.023192554291965071 0 -0.0010585920158395535 0.023831715275001563 0 -0.0010581416181588573 0.023728134380637769 0 -0.0014385227935603594 0.023186183130228324 0 -0.0012001103352470063 0.023384365831793132 0 -0.0011622329338343606 0.022963454084611454 0 -0.0014442108384215592 0.022911757210949086 0 -0.0014385227935603594 0.023186183130228324 0 -0.0011622329338343606 0.022963454084611454 0 -0.0013606056221340517 0.022656212520212878 0 -0.0014442108384215592 0.022911757210949086 0 -0.0011622329338343606 0.022963454084611454 0 -0.00097913661742222947 0.022596308400946185 0 -0.0013606056221340517 0.022656212520212878 0 -0.0011622329338343606 0.022963454084611454 0 -0.00097913661742222947 0.022596308400946185 0 -0.0011622329338343606 0.022963454084611454 0 -0.00079168588679988286 0.02285316009047976 0 -0.0011622329338343606 0.022963454084611454 0 -0.00079168588679988286 0.02285316009047976 0 -0.00090254164821496779 0.023192554291965071 0 -0.00079168588679988286 0.02285316009047976 0 -0.00063827097456266725 0.02304353879483563 0 -0.00090254164821496779 0.023192554291965071 0 -0.00055475690733352266 0.022559930796142602 0 -0.00097913661742222947 0.022596308400946185 0 -0.00079168588679988286 0.02285316009047976 0 -0.00055475690733352266 0.022559930796142602 0 -0.00079168588679988286 0.02285316009047976 0 -0.00051162226526156216 0.022810163892428043 0 -0.00036092892506070577 0.023074514863367597 0 -0.00051162226526156216 0.022810163892428043 0 -0.00063827097456266725 0.02304353879483563 0 -0.00079168588679988286 0.02285316009047976 0 -0.00051162226526156216 0.022810163892428043 0 -0.00063827097456266725 0.02304353879483563 0 -0.00036092892506070577 0.023074514863367597 0 -0.00063827097456266725 0.02304353879483563 0 -0.00064084534597376485 0.02339573462186624 0 -0.00063827097456266725 0.02304353879483563 0 -0.00090254164821496779 0.023192554291965071 0 -0.00064084534597376485 0.02339573462186624 0 -0.00090254164821496779 0.023192554291965071 0 -0.00064084534597376485 0.02339573462186624 0 -0.00088769835548313883 0.02369197218240297 0 -0.00036092892506070577 0.023074514863367597 0 -0.00039882516013192194 0.023549641120707468 0 -0.00064084534597376485 0.02339573462186624 0 -0.0002011433371423546 0.023300871722109949 0 -0.00019515134315831114 0.023270706421925788 0 5.1799670965502332e-05 0.023028187521904584 0 3.5904533384575779e-05 0.022838373161441109 0 0.00017785391214991068 0.022919327730950637 0 -0.00039882516013192194 0.023549641120707468 0 -0.00064084534597376485 0.02339573462186624 0 -0.00072233641149570314 0.023841161663942543 0 -0.00064084534597376485 0.02339573462186624 0 -0.00072233641149570314 0.023841161663942543 0 -0.00088769835548313883 0.02369197218240297 0 -0.00072233641149570314 0.023841161663942543 0 -0.00088769835548313883 0.02369197218240297 0 -0.00092591453131582739 0.023815666600170197 0 -0.00072233641149570314 0.023841161663942543 0 -0.00089201170841667326 0.023888471342677891 0 -0.00092591453131582739 0.023815666600170197 0 -0.00019515134315831114 0.023270706421925788 0 -0.00047924160275375705 0.024073906374327912 0 0.00017785391214991068 0.022919327730950637 0 0.00029377012211087816 0.022823212411018486 0 0.00014962331172042818 0.022717169106349605 0 3.5904533384575779e-05 0.022838373161441109 0 0.00017785391214991068 0.022919327730950637 0 0.00014962331172042818 0.022717169106349605 0 -0.00096647165031978836 0.024736239601759719 0 -0.0007467674667740522 0.024883227396749922 0 -0.00072432342218321159 0.024698283810384143 0 -0.00072432342218321159 0.024698283810384143 0 -0.00057657036465985211 0.024698423402166211 0 -0.00054416370508987815 0.024851737024472818 0 -0.0007467674667740522 0.024883227396749922 0 -0.00072432342218321159 0.024698283810384143 0 -0.00054416370508987815 0.024851737024472818 0 -0.00047924160275375705 0.024073906374327912 0 -5.6729633223261219e-05 0.024126401029861702 0 -0.00053435730198349751 0.025016050184922495 0 -0.0007467674667740522 0.024883227396749922 0 -0.00054416370508987815 0.024851737024472818 0 -0.00053435730198349751 0.025016050184922495 0 -0.00054416370508987815 0.024851737024472818 0 -0.00037348457395271667 0.024892465797395954 0 -0.00047924160275375705 0.024073906374327912 0 -0.00051310299383081537 0.025093473881873052 0 -0.00057657036465985211 0.024698423402166211 0 -0.00054416370508987815 0.024851737024472818 0 -0.00038751185763450242 0.024733757138764488 0 -0.00054416370508987815 0.024851737024472818 0 -0.00037348457395271667 0.024892465797395954 0 -0.00038751185763450242 0.024733757138764488 0 -0.00037348457395271667 0.024892465797395954 0 -0.00038751185763450242 0.024733757138764488 0 -0.00021837386623467636 0.02484406491567439 0 -0.00037348457395271667 0.024892465797395954 0 -0.00025057850534662923 0.024936175990929933 0 -0.00021837386623467636 0.02484406491567439 0 -0.00037348457395271667 0.024892465797395954 0 -0.00025057850534662923 0.024936175990929933 0 -0.00028936226543988599 0.025038459824890572 0 -0.00045443317015624653 0.024958705472377586 0 -0.00037348457395271667 0.024892465797395954 0 -0.00028936226543988599 0.025038459824890572 0 -0.00089201170841667326 0.023888471342677891 0 -0.00092591453131582739 0.023815666600170197 0 -0.0008787430614130362 0.023829900265510219 0 -0.00047924160275375705 0.024073906374327912 0 -0.00060726778901729213 0.024483729926766621 0 -0.00096185973000444461 0.024061075293766217 0 -0.00092591453131582739 0.023815666600170197 0 -0.0008787430614130362 0.023829900265510219 0 -0.00096185973000444461 0.024061075293766217 0 -0.00088769835548313883 0.02369197218240297 0 -0.00092591453131582739 0.023815666600170197 0 -0.00096185973000444461 0.024061075293766217 0 -0.0008787430614130362 0.023829900265510219 0 -0.00060388891911255052 0.024072994452929077 0 -0.00028936226543988599 0.025038459824890572 0 -0.0001354199092566826 0.025062596575017949 0 -0.0001370659252513935 0.024970268178854359 0 -0.00060726778901729213 0.024483729926766621 0 -0.00037310128023273695 0.024559827005273031 0 -0.0001354199092566826 0.025062596575017949 0 -0.0001370659252513935 0.024970268178854359 0 -4.2774578483909613e-05 0.025012444125117654 0 -0.00025057850534662923 0.024936175990929933 0 -0.00028936226543988599 0.025038459824890572 0 -0.0001370659252513935 0.024970268178854359 0 -0.00025057850534662923 0.024936175990929933 0 -0.0001370659252513935 0.024970268178854359 0 -0.00021837386623467636 0.02484406491567439 0 -0.0001370659252513935 0.024970268178854359 0 -0.00021837386623467636 0.02484406491567439 0 -9.31572720310979e-05 0.024905288052217651 0 -9.31572720310979e-05 0.024905288052217651 0 -2.9400627470558452e-05 0.024940441322861592 0 -0.00011083141850333591 0.024767108232849926 0 -0.00021837386623467636 0.02484406491567439 0 -9.31572720310979e-05 0.024905288052217651 0 -0.00011083141850333591 0.024767108232849926 0 -0.0001370659252513935 0.024970268178854359 0 -9.31572720310979e-05 0.024905288052217651 0 -3.5470328720832534e-05 0.024970443366847672 0 -9.31572720310979e-05 0.024905288052217651 0 -3.5470328720832534e-05 0.024970443366847672 0 -2.9400627470558452e-05 0.024940441322861592 0 -3.5470328720832534e-05 0.024970443366847672 0 -2.9400627470558452e-05 0.024940441322861592 0 -2.540463160275041e-09 0.024999923211796192 0 -2.9400627470558452e-05 0.024940441322861592 0 -2.540463160275041e-09 0.024999923211796192 0 -4.7051526420810797e-08 0.02500000107962012 0 -3.5470328720832534e-05 0.024970443366847672 0 -2.540463160275041e-09 0.024999923211796192 0 -1.13133467846792e-08 0.025000001061386393 0 -3.5470328720832534e-05 0.024970443366847672 0 -1.13133467846792e-08 0.025000001061386393 0 -4.2774578483909613e-05 0.025012444125117654 0 -0.0001370659252513935 0.024970268178854359 0 -3.5470328720832534e-05 0.024970443366847672 0 -4.2774578483909613e-05 0.025012444125117654 0 -4.1064309646488387e-05 0.025038531982214375 0 -0.0001354199092566826 0.025062596575017949 0 -4.2774578483909613e-05 0.025012444125117654 0 -1.9400369803969081e-08 0.025000035144810383 0 -1.13133467846792e-08 0.025000001061386393 0 -4.2774578483909613e-05 0.025012444125117654 0 3.6776364452687012e-05 0.024950335502465476 0 2.0643038752591106e-09 0.024999959939525963 0 1.6754921764654618e-05 0.024989620081853185 0 3.6776364452687012e-05 0.024950335502465476 0 4.0811578649731372e-08 0.024999922381270741 0 2.0643038752591106e-09 0.024999959939525963 0 3.6776364452687012e-05 0.024950335502465476 0 2.8345880773260095e-05 0.024959932407136638 0 4.0811578649731372e-08 0.024999922381270741 0 -2.1769977334341909e-05 0.024978829365713204 0 -2.176890793095767e-05 0.02498777197613658 0 -8.096893844545126e-05 0.024943372637271883 0 -1.801151165366475e-05 0.024800352667396944 0 2.8345880773260095e-05 0.024959932407136638 0 -0.0001247729586267965 0.02478723604762913 0 -2.7444186638264343e-05 0.024868259890620848 0 -0.00012778728341819535 0.024706992426488848 0 1.6377902175757937e-05 0.024984002918964975 0 -0.00012778728341819535 0.024706992426488848 0 -1.801151165366475e-05 0.024800352667396944 0 3.6776364452687012e-05 0.024950335502465476 0 2.8345880773260095e-05 0.024959932407136638 0 -1.8538827154085827e-05 0.024744572134037288 0 -3.9254925012210194e-05 0.024894883051155857 0 -0.00013529103452595548 0.024728971529748459 0 -1.8538827154085827e-05 0.024744572134037288 0 1.3132883846996352e-07 0.024999562997288147 0 -3.9254925012210194e-05 0.024894883051155857 0 -2.7444186638264343e-05 0.024868259890620848 0 -2.6644303620292363e-08 0.02499992744725759 0 -2.176890793095767e-05 0.02498777197613658 0 -1.3445122111657357e-08 0.02499994836210459 0 1.1849690779786481e-08 0.025000047385983295 0 -2.1769977334341909e-05 0.024978829365713204 0 -2.176890793095767e-05 0.02498777197613658 0 -1.3445122111657357e-08 0.02499994836210459 0 1.6377902175757937e-05 0.024984002918964975 0 -6.21156113247371e-09 0.024999979739270085 0 1.3132883846996352e-07 0.024999562997288147 0 -4.7051526420810797e-08 0.02500000107962012 0 -3.9254925012210194e-05 0.024894883051155857 0 -2.9400627470558452e-05 0.024940441322861592 0 -4.7051526420810797e-08 0.02500000107962012 0 -3.9254925012210194e-05 0.024894883051155857 0 -2.9400627470558452e-05 0.024940441322861592 0 -3.9254925012210194e-05 0.024894883051155857 0 -0.00011831022466508917 0.024922389433330593 0 -3.9254925012210194e-05 0.024894883051155857 0 -0.00016826695939483404 0.024817300432775951 0 -0.00013529103452595548 0.024728971529748459 0 -3.9337826063665022e-05 0.024922777446470042 0 -0.0001213595425201056 0.02484415314262757 0 -3.9254925012210194e-05 0.024894883051155857 0 -0.00011831022466508917 0.024922389433330593 0 -0.00016826695939483404 0.024817300432775951 0 -0.00021837386623467636 0.02484406491567439 0 -0.00011083141850333591 0.024767108232849926 0 -0.00025987601002780007 0.024624049883431646 0 -0.0001213595425201056 0.02484415314262757 0 -0.00027213293827241909 0.024727045989106144 0 -0.00011831022466508917 0.024922389433330593 0 -0.00016826695939483404 0.024817300432775951 0 -0.00028192820121685441 0.024832987090831472 0 -0.00016826695939483404 0.024817300432775951 0 -0.00029233784578670488 0.024621526533210127 0 -0.00028192820121685441 0.024832987090831472 0 -0.00016826695939483404 0.024817300432775951 0 -0.00013529103452595548 0.024728971529748459 0 -0.00029233784578670488 0.024621526533210127 0 -0.00019280734432112286 0.024596156427850256 0 -0.00013529103452595548 0.024728971529748459 0 -0.00029233784578670488 0.024621526533210127 0 -0.00019280734432112286 0.024596156427850256 0 -0.00024339264557766372 0.02450733894584305 0 -0.00029233784578670488 0.024621526533210127 0 -1.8538827154085827e-05 0.024744572134037288 0 -0.00013529103452595548 0.024728971529748459 0 -0.00012604126483724582 0.024539486335997361 0 -0.00019280734432112286 0.024596156427850256 0 -0.00013529103452595548 0.024728971529748459 0 -0.00012604126483724582 0.024539486335997361 0 -0.00012604126483724582 0.024539486335997361 0 -0.00020666903634831141 0.024522156519212961 0 -0.00021996007667115838 0.024475215683797354 0 -0.00020666903634831141 0.024522156519212961 0 -0.00023143402155291232 0.024495456308306029 0 -0.00024339264557766372 0.02450733894584305 0 -0.00023143402155291232 0.024495456308306029 0 -0.00024339264557766372 0.02450733894584305 0 -0.00023606135273815252 0.024488023890696806 0 -0.00020666903634831141 0.024522156519212961 0 -0.00023143402155291232 0.024495456308306029 0 -0.00021996007667115838 0.024475215683797354 0 -0.00019280734432112286 0.024596156427850256 0 -0.00020666903634831141 0.024522156519212961 0 -0.00024339264557766372 0.02450733894584305 0 -0.00019280734432112286 0.024596156427850256 0 -0.00012604126483724582 0.024539486335997361 0 -0.00020666903634831141 0.024522156519212961 0 -0.00024339264557766372 0.02450733894584305 0 -0.00046988683475548173 0.024313182246303827 0 -0.00029233784578670488 0.024621526533210127 0 -0.00025376924707003521 0.024487532832167407 0 -0.0003587085692564405 0.02440461486068923 0 -0.00024339264557766372 0.02450733894584305 0 -0.0002377287271749383 0.024486774025737262 0 -0.00023606135273815252 0.024488023890696806 0 -0.00046988683475548173 0.024313182246303827 0 -0.00052674964693062351 0.024447104340965978 0 -0.0006872632515553445 0.024172032062399193 0 -0.00046988683475548173 0.024313182246303827 0 -0.00052674964693062351 0.024447104340965978 0 -0.00029233784578670488 0.024621526533210127 0 -0.00052674964693062351 0.024447104340965978 0 -0.00029233784578670488 0.024621526533210127 0 -0.00047790414449473402 0.024674259657089772 0 -0.00052674964693062351 0.024447104340965978 0 -0.00047790414449473402 0.024674259657089772 0 -0.00066893722494427499 0.024437096945201856 0 -0.00027213293827241909 0.024727045989106144 0 -0.00046752858124978906 0.024585014611247992 0 -0.00029233784578670488 0.024621526533210127 0 -0.00028192820121685441 0.024832987090831472 0 -0.00047790414449473402 0.024674259657089772 0 -0.00038751185763450242 0.024733757138764488 0 -0.00025987601002780007 0.024624049883431646 0 -0.0004627318589808814 0.024496879123759186 0 -0.00038751185763450242 0.024733757138764488 0 -0.00021837386623467636 0.02484406491567439 0 -0.00025987601002780007 0.024624049883431646 0 -0.00057657036465985211 0.024698423402166211 0 -0.00038751185763450242 0.024733757138764488 0 -0.0004627318589808814 0.024496879123759186 0 -0.00046752858124978906 0.024585014611247992 0 -0.00064853976015523851 0.0244600067569226 0 -0.0004627318589808814 0.024496879123759186 0 -0.00065033052377450474 0.024543110085927952 0 -0.00066893722494427499 0.024437096945201856 0 -0.00072432342218321159 0.024698283810384143 0 -0.00057657036465985211 0.024698423402166211 0 -0.00065033052377450474 0.024543110085927952 0 -0.00057657036465985211 0.024698423402166211 0 -0.0004627318589808814 0.024496879123759186 0 -0.00065033052377450474 0.024543110085927952 0 -0.00096647165031978836 0.024736239601759719 0 -0.00072432342218321159 0.024698283810384143 0 -0.0008130076067116304 0.024497282685493716 0 -0.00072432342218321159 0.024698283810384143 0 -0.00065033052377450474 0.024543110085927952 0 -0.0008130076067116304 0.024497282685493716 0 -0.0008130076067116304 0.024497282685493716 0 -0.00066893722494427499 0.024437096945201856 0 -0.00087185371523532552 0.024380305820787485 0 -0.00065033052377450474 0.024543110085927952 0 -0.0008130076067116304 0.024497282685493716 0 -0.00066893722494427499 0.024437096945201856 0 -0.00066893722494427499 0.024437096945201856 0 -0.00087185371523532552 0.024380305820787485 0 -0.00083976665211464292 0.024269488956149016 0 -0.00052674964693062351 0.024447104340965978 0 -0.00066893722494427499 0.024437096945201856 0 -0.0006872632515553445 0.024172032062399193 0 -0.0003587085692564405 0.02440461486068923 0 -0.0004924535805226947 0.024330546671890569 0 -0.00066893722494427499 0.024437096945201856 0 -0.0006872632515553445 0.024172032062399193 0 -0.00083976665211464292 0.024269488956149016 0 -0.0006872632515553445 0.024172032062399193 0 -0.00083976665211464292 0.024269488956149016 0 -0.00088491832144493941 0.024054463726763165 0 -0.00028322620772843816 0.024488288662361111 0 -0.00030254214753095039 0.024381145711864359 0 -0.00044841627034050371 0.024493244564137418 0 -0.0004924535805226947 0.024330546671890569 0 -0.00067224011125673186 0.024271119440677131 0 -0.0002377287271749383 0.024486774025737262 0 -0.00028322620772843816 0.024488288662361111 0 -0.00024545903003405809 0.02443916821501713 0 -0.00028322620772843816 0.024488288662361111 0 -0.00030254214753095039 0.024381145711864359 0 -0.00024545903003405809 0.02443916821501713 0 -0.00030254214753095039 0.024381145711864359 0 -0.00024691625712089404 0.02433246573807683 0 -0.00024545903003405809 0.02443916821501713 0 -0.00030254214753095039 0.024381145711864359 0 -0.00031368748431437376 0.024174202150716074 0 -0.00041636865003919665 0.024333068577908446 0 -0.00030254214753095039 0.024381145711864359 0 -0.00044841627034050371 0.024493244564137418 0 -0.00041636865003919665 0.024333068577908446 0 -0.00030254214753095039 0.024381145711864359 0 -0.00031368748431437376 0.024174202150716074 0 -0.00024691625712089404 0.02433246573807683 0 -0.00029987908624695225 0.024187192509061092 0 -3.5075379792162578e-06 0.024235796482371542 0 -0.00031368748431437376 0.024174202150716074 0 -0.00014504250268211564 0.023841549886956394 0 0.00028385215449215558 0.024160678080099512 0 -0.0001929441584742296 0.0234942571532183 0 2.1900362252347457e-05 0.023658526296018386 0 -0.00014504250268211564 0.023841549886956394 0 -0.0001929441584742296 0.0234942571532183 0 -0.00014504250268211564 0.023841549886956394 0 -0.00038611345540776363 0.023637141924857663 0 -0.00014504250268211564 0.023841549886956394 0 0.00027554574169609997 0.023834529087628925 0 0.00028385215449215558 0.024160678080099512 0 0.00027554574169609997 0.023834529087628925 0 0.00028385215449215558 0.024160678080099512 0 0.00051178096062500715 0.023987500723618094 0 2.1900362252347457e-05 0.023658526296018386 0 -0.00014504250268211564 0.023841549886956394 0 0.00027554574169609997 0.023834529087628925 0 -0.00024691625712089404 0.02433246573807683 0 -0.00023037723803012917 0.024420691389032079 0 -0.00023526368890871763 0.024417716607686393 0 -3.5075379792162578e-06 0.024235796482371542 0 0.00014585432547593527 0.024231891168958568 0 0.00028385215449215558 0.024160678080099512 0 0.00051178096062500715 0.023987500723618094 0 0.00054618688444752416 0.024039316290685668 0 0.00065378515919517098 0.023900905764855884 0 0.00027554574169609997 0.023834529087628925 0 0.00051178096062500715 0.023987500723618094 0 0.00065378515919517098 0.023900905764855884 0 0.00051178096062500715 0.023987500723618094 0 0.00053050925880226258 0.024046544229044554 0 0.00014585432547593527 0.024231891168958568 0 9.2536197600640979e-05 0.024144607527797547 0 0.00053050925880226258 0.024046544229044554 0 0.00054618688444752416 0.024039316290685668 0 0.00040636530519961515 0.023918981396803995 0 -0.00023037723803012917 0.024420691389032079 0 -0.00023523243717269305 0.024447016269196813 0 -0.00019885506648599868 0.024448007048280845 0 0.00051178096062500715 0.023987500723618094 0 0.00053050925880226258 0.024046544229044554 0 0.00054618688444752416 0.024039316290685668 0 -0.00023640237637795382 0.024486318448739355 0 -0.00023523243717269305 0.024447016269196813 0 -0.00019885506648599868 0.024448007048280845 0 -0.00023640237637795382 0.024486318448739355 0 -0.00023523243717269305 0.024447016269196813 0 -0.0002346939438803731 0.024475739117146032 0 -0.00023523243717269305 0.024447016269196813 0 -0.00023539138254785876 0.0244499364986 0 -0.0002346939438803731 0.024475739117146032 0 -0.00023037723803012917 0.024420691389032079 0 -0.00023523243717269305 0.024447016269196813 0 -0.00023526368890871763 0.024417716607686393 0 -0.00024691625712089404 0.02433246573807683 0 -0.00023526368890871763 0.024417716607686393 0 -0.00024545903003405809 0.02443916821501713 0 -0.00023526368890871763 0.024417716607686393 0 -0.00023539138254785876 0.0244499364986 0 -0.00024545903003405809 0.02443916821501713 0 -0.00023523243717269305 0.024447016269196813 0 -0.00023526368890871763 0.024417716607686393 0 -0.00023539138254785876 0.0244499364986 0 -0.00023539138254785876 0.0244499364986 0 -0.00024545903003405809 0.02443916821501713 0 -0.0002347383759383179 0.024471506720298311 0 -0.0002377287271749383 0.024486774025737262 0 -0.00024545903003405809 0.02443916821501713 0 -0.0002347383759383179 0.024471506720298311 0 -0.00023640237637795382 0.024486318448739355 0 -0.0002346939438803731 0.024475739117146032 0 -0.00023281459147692359 0.024494059625821647 0 -0.0002377287271749383 0.024486774025737262 0 -0.0002347383759383179 0.024471506720298311 0 -0.00023606135273815252 0.024488023890696806 0 -0.00022717385242324823 0.024481132626172419 0 -0.00024048431705977875 0.024475057701703939 0 -0.0002347383759383179 0.024471506720298311 0 -0.00023606135273815252 0.024488023890696806 0 -0.00023447521610120024 0.024478537407331535 0 -0.00023033989468657326 0.024480780988978535 0 -0.0002346939438803731 0.024475739117146032 0 -0.00021996007667115838 0.024475215683797354 0 -0.00023143402155291232 0.024495456308306029 0 -0.00023606135273815252 0.024488023890696806 0 -0.00023033989468657326 0.024480780988978535 0 -0.00023606135273815252 0.024488023890696806 0 -0.00023033989468657326 0.024480780988978535 0 -0.00023447521610120024 0.024478537407331535 0 -0.00023033989468657326 0.024480780988978535 0 -0.00023447521610120024 0.024478537407331535 0 -0.0002346939438803731 0.024475739117146032 0 -0.0002347383759383179 0.024471506720298311 0 -0.00023447521610120024 0.024478537407331535 0 -0.0002346939438803731 0.024475739117146032 0 -0.00023539138254785876 0.0244499364986 0 -0.0002347383759383179 0.024471506720298311 0 -0.0002346939438803731 0.024475739117146032 0 -0.00019644973821143183 0.024523465287915252 0 -0.00023281459147692359 0.024494059625821647 0 -0.00022916027275481153 0.024492140180038684 0 -0.00020878269328429951 0.024555204036139769 0 -0.00021340882189403504 0.024629622178834767 0 -0.00016660255050217739 0.024591768248829617 0 -0.00023300502631463883 0.024509945956736817 0 -0.00022124303612625494 0.024558822478247491 0 -0.00023640237637795382 0.024486318448739355 0 -0.00020878269328429951 0.024555204036139769 0 -0.00021340882189403504 0.024629622178834767 0 -0.00023640237637795382 0.024486318448739355 0 -0.00023281459147692359 0.024494059625821647 0 -0.00022916027275481153 0.024492140180038684 0 -0.00023143402155291232 0.024495456308306029 0 -0.00023033989468657326 0.024480780988978535 0 -0.00021996007667115838 0.024475215683797354 0 -1.801151165366475e-05 0.024800352667396944 0 -0.0001247729586267965 0.02478723604762913 0 -8.6838042851588771e-05 0.024605622706167268 0 -0.0001247729586267965 0.02478723604762913 0 -0.00021340882189403504 0.024629622178834767 0 -0.00016660255050217739 0.024591768248829617 0 -0.00012778728341819535 0.024706992426488848 0 -0.00024048431705977875 0.024475057701703939 0 -0.0001247729586267965 0.02478723604762913 0 -8.6838042851588771e-05 0.024605622706167268 0 -0.00016660255050217739 0.024591768248829617 0 -0.00012778728341819535 0.024706992426488848 0 -0.00022124303612625494 0.024558822478247491 0 -0.0001427107312148091 0.024514975293104275 0 -0.00019885506648599868 0.024448007048280845 0 -2.9386831652772005e-05 0.024441141554888277 0 -8.6838042851588771e-05 0.024605622706167268 0 -0.00016660255050217739 0.024591768248829617 0 -0.0001427107312148091 0.024514975293104275 0 -8.6838042851588771e-05 0.024605622706167268 0 -0.0001427107312148091 0.024514975293104275 0 -2.9386831652772005e-05 0.024441141554888277 0 -0.00023640237637795382 0.024486318448739355 0 -0.00020027434680795536 0.0245121142883063 0 -0.00019885506648599868 0.024448007048280845 0 -0.0001427107312148091 0.024514975293104275 0 -0.00020027434680795536 0.0245121142883063 0 -0.00019885506648599868 0.024448007048280845 0 -0.00020878269328429951 0.024555204036139769 0 -0.00016660255050217739 0.024591768248829617 0 -0.00020027434680795536 0.0245121142883063 0 -0.00016660255050217739 0.024591768248829617 0 -0.0001427107312148091 0.024514975293104275 0 -0.00020027434680795536 0.0245121142883063 0 -0.00023640237637795382 0.024486318448739355 0 -0.00020878269328429951 0.024555204036139769 0 -0.00020027434680795536 0.0245121142883063 0 0.00053050925880226258 0.024046544229044554 0 0.00040636530519961515 0.023918981396803995 0 0.00032270348610574808 0.024030648780312028 0 0.00049361951893712628 0.024107639309877242 0 0.00053050925880226258 0.024046544229044554 0 0.00039687597600762122 0.024239148969207966 0 0.00053050925880226258 0.024046544229044554 0 0.00039687597600762122 0.024239148969207966 0 0.00032270348610574808 0.024030648780312028 0 0.00014308349414076291 0.024597804339171293 0 7.2730001479420973e-05 0.024466637178902961 0 0.00039687597600762122 0.024239148969207966 0 0.00012672317469698813 0.024089911858408464 0 0.00032270348610574808 0.024030648780312028 0 0.00015369139323570801 0.024567102317614595 0 0.00039687597600762122 0.024239148969207966 0 0.00012672317469698813 0.024089911858408464 0 0.00015369139323570801 0.024567102317614595 0 4.9804527908884665e-06 0.024881073626581571 0 5.4846868140525718e-05 0.024799611230433359 0 0.00012672317469698813 0.024089911858408464 0 0.00032270348610574808 0.024030648780312028 0 8.5852242942256228e-05 0.023859902659520659 0 0.00040636530519961515 0.023918981396803995 0 0.00032270348610574808 0.024030648780312028 0 8.5852242942256228e-05 0.023859902659520659 0 7.2730001479420973e-05 0.024466637178902961 0 4.8339322858784127e-05 0.024571973480075199 0 9.2536197600640979e-05 0.024144607527797547 0 4.8339322858784127e-05 0.024571973480075199 0 4.9804527908884665e-06 0.024881073626581571 0 1.0310508879226717e-05 0.024943233871906067 0 2.9263904015512016e-05 0.024923441859973819 0 1.5771975075819978e-05 0.024903844843764719 0 2.9263904015512016e-05 0.024923441859973819 0 5.4846868140525718e-05 0.024799611230433359 0 4.9804527908884665e-06 0.024881073626581571 0 2.9263904015512016e-05 0.024923441859973819 0 5.4846868140525718e-05 0.024799611230433359 0 1.5771975075819978e-05 0.024903844843764719 0 2.9263904015512016e-05 0.024923441859973819 0 3.1759433880181386e-08 0.024999859653607886 0 4.8339322858784127e-05 0.024571973480075199 0 -2.9114958780167488e-09 0.025000235823081831 0 1.0310508879226717e-05 0.024943233871906067 0 2.9263904015512016e-05 0.024923441859973819 0 4.4694260962788728e-08 0.024999947557400821 0 2.9263904015512016e-05 0.024923441859973819 0 3.1759433880181386e-08 0.024999859653607886 0 4.4694260962788728e-08 0.024999947557400821 0 4.8339322858784127e-05 0.024571973480075199 0 2.8583787182784926e-05 0.024846197714077509 0 -8.6838042851588771e-05 0.024605622706167268 0 -2.9386831652772005e-05 0.024441141554888277 0 3.8635092525178774e-05 0.02463647897545709 0 2.6052132394541708e-05 0.025003359736546143 0 1.6392212224910263e-08 0.025000041492056261 0 2.5349563822002589e-05 0.024995124715584363 0 3.6776364452687012e-05 0.024950335502465476 0 2.5349563822002589e-05 0.024995124715584363 0 1.6754921764654618e-05 0.024989620081853185 0 -1.801151165366475e-05 0.024800352667396944 0 3.6776364452687012e-05 0.024950335502465476 0 3.8635092525178774e-05 0.02463647897545709 0 3.7692496298477532e-05 0.02491932682334801 0 2.8583787182784926e-05 0.024846197714077509 0 -1.801151165366475e-05 0.024800352667396944 0 -8.6838042851588771e-05 0.024605622706167268 0 3.8635092525178774e-05 0.02463647897545709 0 1.6392212224910263e-08 0.025000041492056261 0 2.5349563822002589e-05 0.024995124715584363 0 1.6754921764654618e-05 0.024989620081853185 0 1.6392212224910263e-08 0.025000041492056261 0 2.0643038752591106e-09 0.024999959939525963 0 1.6754921764654618e-05 0.024989620081853185 0 -0.00075846210249292583 0.017997182290571213 0 -0.0010557364250857494 0.019463378362248117 0 -0.0016091411594860137 0.024110534612443859 0 -0.0014231266423888162 0.024040913515010181 0 -0.0013995058379475598 0.024243298966515048 0 -0.0014231266423888162 0.024040913515010181 0 -0.0013995058379475598 0.024243298966515048 0 -0.0013096781497565653 0.024117892548751706 0 -0.0014231266423888162 0.024040913515010181 0 -0.001396184550084443 0.023986012779600108 0 -0.0014682432865249359 0.023947918315511407 0 -0.0014231266423888162 0.024040913515010181 0 -0.0013096781497565653 0.024117892548751706 0 -0.0013278406319895862 0.02402672554065859 0 -0.0014231266423888162 0.024040913515010181 0 -0.001396184550084443 0.023986012779600108 0 -0.0013278406319895862 0.02402672554065859 0 -0.001396184550084443 0.023986012779600108 0 -0.0013278406319895862 0.02402672554065859 0 -0.0013437336439654538 0.023965705908792934 0 -0.001006378193075805 0.015439997163557427 0 -0.0018835964284627501 0.021796643232846372 0 -0.00075846210249292583 0.017997182290571213 0 -0.0018835964284627501 0.021796643232846372 0 -0.0014775647218831264 0.016900400002625753 0 6.1342820518385979e-05 0.017813176312498024 0 -0.0022526067447158999 0.020775083658098263 0 -0.0016091411594860137 0.024110534612443859 0 -0.0014231266423888162 0.024040913515010181 0 -0.0015619554934441515 0.023754190393302302 0 -0.0011323830760700266 0.024729333577070172 0 -0.0018835964284627501 0.021796643232846372 0 -0.0018244656045425505 0.017296727444368405 0 -0.0021000059521897878 0.017678123154352288 0 -0.0018112903129134566 0.017603716988524264 0 -0.0014961647235450296 0.017486976277310474 0 -0.0018244656045425505 0.017296727444368405 0 -0.0018112903129134566 0.017603716988524264 0 -0.00093866819294443151 0.015581692079581566 0 -0.001006378193075805 0.015439997163557427 0 -0.00064124082961891724 0.013271533529613147 0 -0.00060555454064252533 0.013394678007759236 0 -0.00047069772191938176 0.013383653450903022 0 -0.00060555454064252533 0.013394678007759236 0 -0.00057589020947644261 0.013513801917531551 0 -0.0006707832021722041 0.013522656755098327 0 -0.00060555454064252533 0.013394678007759236 0 -0.00047069772191938176 0.013383653450903022 0 -0.00057589020947644261 0.013513801917531551 0 -0.00075846210249292583 0.017997182290571213 0 -0.001006378193075805 0.015439997163557427 0 -0.001006378193075805 0.015439997163557427 0 -0.00018743676078560725 0.012915480556848262 0 -0.00049374072566387426 0.013474341315292378 0 -0.00049633012834339105 0.013530123280470017 0 -0.00057589020947644261 0.013513801917531551 0 -0.00043392001248227798 0.013508351227193365 0 -0.00049374072566387426 0.013474341315292378 0 -0.00049633012834339105 0.013530123280470017 0 -0.00043392001248227798 0.013508351227193365 0 -0.00049633012834339105 0.013530123280470017 0 -0.00043663071407767207 0.013631526273248457 0 -0.00049633012834339105 0.013530123280470017 0 -0.00057003938861215347 0.013635691109037141 0 -0.00057589020947644261 0.013513801917531551 0 -0.00049633012834339105 0.013530123280470017 0 -0.00043663071407767207 0.013631526273248457 0 -0.00057003938861215347 0.013635691109037141 0 -0.00057003938861215347 0.013635691109037141 0 -0.00057589020947644261 0.013513801917531551 0 -0.0006707832021722041 0.013522656755098327 0 -0.00051737663450387669 0.013903810188187623 0 -0.00057003938861215347 0.013635691109037141 0 -0.00065993025759456979 0.01370132103929635 0 -0.00057003938861215347 0.013635691109037141 0 -0.00065993025759456979 0.01370132103929635 0 -0.0006707832021722041 0.013522656755098327 0 -0.00051737663450387669 0.013903810188187623 0 -0.00043663071407767207 0.013631526273248457 0 -0.00057003938861215347 0.013635691109037141 0 -0.00055790170502778992 0.01423811984054757 0 -0.00034619858407088457 0.013121527658020667 0 -0.00051737663450387669 0.013903810188187623 0 -0.00047938787006784916 0.014265750145864538 0 -0.00067588370325680973 0.014203115703220663 0 -0.0007298823779773822 0.014062744566242333 0 -0.00051737663450387669 0.013903810188187623 0 -0.00067588370325680973 0.014203115703220663 0 -0.00051882571423303491 0.014578189417192659 0 -0.00047938787006784916 0.014265750145864538 0 -0.00060611993744940501 0.014358456829746194 0 -0.00075846210249292583 0.017997182290571213 0 -0.00034619858407088457 0.013121527658020667 0 -0.00051882571423303491 0.014578189417192659 0 -0.00060611993744940501 0.014358456829746194 0 -0.0007395496480595182 0.014398000869799487 0 -0.00047938787006784916 0.014265750145864538 0 -0.00067588370325680973 0.014203115703220663 0 -0.00060611993744940501 0.014358456829746194 0 -0.00067588370325680973 0.014203115703220663 0 -0.0007395496480595182 0.014398000869799487 0 -0.00086896132980719904 0.014293651967807193 0 -0.00067588370325680973 0.014203115703220663 0 -0.00060611993744940501 0.014358456829746194 0 -0.0007395496480595182 0.014398000869799487 0 -0.0007298823779773822 0.014062744566242333 0 -0.00067588370325680973 0.014203115703220663 0 -0.00086896132980719904 0.014293651967807193 0 -0.00086911460247040271 0.014151322564887131 0 -0.0007298823779773822 0.014062744566242333 0 -0.00086896132980719904 0.014293651967807193 0 -0.0012387869109092857 0.024369412754825119 0 -0.0010974749718370639 0.024359607418817281 0 -0.001070408587491745 0.024481118180804763 0 -0.00086911460247040271 0.014151322564887131 0 -0.00086896132980719904 0.014293651967807193 0 -0.00097086081519112655 0.014247643052717973 0 -0.0010298314518559623 0.019348203427070696 0 -0.0011423219164762152 0.019144709336863585 0 -0.0012387869109092857 0.024369412754825119 0 -0.0010974749718370639 0.024359607418817281 0 -0.0011852751281053585 0.024225855538585587 0 -0.0010974749718370639 0.024359607418817281 0 -0.0010137171363186614 0.024285782807853463 0 -0.0011852751281053585 0.024225855538585587 0 -0.0010557364250857494 0.019463378362248117 0 -0.0010298314518559623 0.019348203427070696 0 -0.0013995058379475598 0.024243298966515048 0 -0.0012387869109092857 0.024369412754825119 0 -0.0011852751281053585 0.024225855538585587 0 -0.00093402110268864908 0.024555461352256829 0 -0.0008130076067116304 0.024497282685493716 0 -0.00096728706532487555 0.02443456415861012 0 -0.00087864368201204463 0.021182257378789864 0 -0.0011057379751348334 0.025840051278681598 0 -0.00093402110268864908 0.024555461352256829 0 -0.001070408587491745 0.024481118180804763 0 -0.00096728706532487555 0.02443456415861012 0 -0.0010974749718370639 0.024359607418817281 0 -0.001070408587491745 0.024481118180804763 0 -0.00096728706532487555 0.02443456415861012 0 -0.0010974749718370639 0.024359607418817281 0 -0.00096728706532487555 0.02443456415861012 0 -0.0010137171363186614 0.024285782807853463 0 -0.0008130076067116304 0.024497282685493716 0 -0.00096728706532487555 0.02443456415861012 0 -0.00087185371523532552 0.024380305820787485 0 -0.00096728706532487555 0.02443456415861012 0 -0.00087185371523532552 0.024380305820787485 0 -0.0010137171363186614 0.024285782807853463 0 -0.00087185371523532552 0.024380305820787485 0 -0.00083976665211464292 0.024269488956149016 0 -0.0010137171363186614 0.024285782807853463 0 -0.00083976665211464292 0.024269488956149016 0 -0.0010137171363186614 0.024285782807853463 0 -0.0010571506490106156 0.024124070987680064 0 -0.00083976665211464292 0.024269488956149016 0 -0.0010571506490106156 0.024124070987680064 0 -0.00088491832144493941 0.024054463726763165 0 -0.0013096781497565653 0.024117892548751706 0 -0.0011852751281053585 0.024225855538585587 0 -0.0012172697790920502 0.024073518856867097 0 -0.0013995058379475598 0.024243298966515048 0 -0.0013096781497565653 0.024117892548751706 0 -0.0011852751281053585 0.024225855538585587 0 -0.0010137171363186614 0.024285782807853463 0 -0.0010571506490106156 0.024124070987680064 0 -0.0011852751281053585 0.024225855538585587 0 -0.0010571506490106156 0.024124070987680064 0 -0.0011852751281053585 0.024225855538585587 0 -0.0012172697790920502 0.024073518856867097 0 -0.0010571506490106156 0.024124070987680064 0 -0.0012172697790920502 0.024073518856867097 0 -0.0011819292566878591 0.024000186464136656 0 -0.0013096781497565653 0.024117892548751706 0 -0.0012172697790920502 0.024073518856867097 0 -0.0013278406319895862 0.02402672554065859 0 -0.0012172697790920502 0.024073518856867097 0 -0.0013278406319895862 0.02402672554065859 0 -0.0012723448575232351 0.0239725469271003 0 -0.0013278406319895862 0.02402672554065859 0 -0.0012723448575232351 0.0239725469271003 0 -0.0013437336439654538 0.023965705908792934 0 -0.0013242155460759315 0.023906152180186033 0 -0.0012723448575232351 0.0239725469271003 0 -0.0013437336439654538 0.023965705908792934 0 -0.0013242155460759315 0.023906152180186033 0 -0.0012723448575232351 0.0239725469271003 0 -0.0012731807298445987 0.023882637049901935 0 -0.001231353060911547 0.024018336046480307 0 -0.0010916084560699214 0.024059589661633424 0 -0.0012723448575232351 0.0239725469271003 0 -0.0011819292566878591 0.024000186464136656 0 -0.0012731807298445987 0.023882637049901935 0 -0.0012172697790920502 0.024073518856867097 0 -0.0012723448575232351 0.0239725469271003 0 -0.0011819292566878591 0.024000186464136656 0 -0.0010916084560699214 0.024059589661633424 0 -0.00089631999685174614 0.024211622853478911 0 -0.0010571506490106156 0.024124070987680064 0 -0.0011819292566878591 0.024000186464136656 0 -0.0010814393602917108 0.023955533760257712 0 -0.0011819292566878591 0.024000186464136656 0 -0.0012731807298445987 0.023882637049901935 0 -0.0010814393602917108 0.023955533760257712 0 -0.00075051055539892967 0.023781866660962749 0 -0.00095798689571800148 0.02372436442222316 0 -0.0010247199170133755 0.023901690410842079 0 -0.0007370903095005384 0.024284048004669427 0 -0.00094565292672792189 0.024393605476872117 0 -0.00070382564437308629 0.024451841760754982 0 -0.00072857821818753251 0.024040324061258278 0 -0.0010916084560699214 0.024059589661633424 0 -0.0010643290319893983 0.023772103380893261 0 -0.0010247199170133755 0.023901690410842079 0 -0.0012767459190941735 0.023843215889695776 0 -0.00095798689571800148 0.02372436442222316 0 -0.0010643290319893983 0.023772103380893261 0 -0.0010247199170133755 0.023901690410842079 0 -0.0010643290319893983 0.023772103380893261 0 -0.0010691674132603851 0.023615943480460911 0 -0.0011722990354177886 0.023706727878909956 0 -0.0010571506490106156 0.024124070987680064 0 -0.00088491832144493941 0.024054463726763165 0 -0.0010814393602917108 0.023955533760257712 0 -0.00067224011125673186 0.024271119440677131 0 -0.00089631999685174614 0.024211622853478911 0 -0.00044841627034050371 0.024493244564137418 0 -0.00070382564437308629 0.024451841760754982 0 -0.0005721522781497499 0.024342688086577313 0 -0.0007370903095005384 0.024284048004669427 0 -0.0005721522781497499 0.024342688086577313 0 -0.00055867347517943842 0.024169290214856958 0 -0.0007370903095005384 0.024284048004669427 0 -0.00070382564437308629 0.024451841760754982 0 -0.0005721522781497499 0.024342688086577313 0 -0.00044841627034050371 0.024493244564137418 0 -0.0005721522781497499 0.024342688086577313 0 -0.00041636865003919665 0.024333068577908446 0 -0.0005721522781497499 0.024342688086577313 0 -0.00041636865003919665 0.024333068577908446 0 -0.00055867347517943842 0.024169290214856958 0 -0.00031368748431437376 0.024174202150716074 0 -0.00014504250268211564 0.023841549886956394 0 -0.00055867347517943842 0.024169290214856958 0 -0.00016063228317986751 0.023829242344743148 0 -0.00050115175469240831 0.023950264348122263 0 -0.00031368748431437376 0.024174202150716074 0 -0.00041636865003919665 0.024333068577908446 0 -0.00055867347517943842 0.024169290214856958 0 -0.00075051055539892967 0.023781866660962749 0 -0.00048500462610600009 0.023743094800901199 0 -0.00071084039188661584 0.023575293495393248 0 -0.00072857821818753251 0.024040324061258278 0 -0.00050115175469240831 0.023950264348122263 0 -0.00048500462610600009 0.023743094800901199 0 -0.00071084039188661584 0.023575293495393248 0 -0.0005550756659091267 0.023569908439271245 0 -0.00070870016814608596 0.023374636933898966 0 -0.00071084039188661584 0.023575293495393248 0 -0.0005550756659091267 0.023569908439271245 0 -0.00070870016814608596 0.023374636933898966 0 -0.00049170665316517652 0.023426715107930277 0 -0.0005550756659091267 0.023569908439271245 0 -0.00014504250268211564 0.023841549886956394 0 -0.00048500462610600009 0.023743094800901199 0 -0.00038611345540776363 0.023637141924857663 0 -0.00048500462610600009 0.023743094800901199 0 -0.0005550756659091267 0.023569908439271245 0 -0.00038611345540776363 0.023637141924857663 0 -0.00049170665316517652 0.023426715107930277 0 -0.0005550756659091267 0.023569908439271245 0 -0.00038611345540776363 0.023637141924857663 0 -0.0010691674132603851 0.023615943480460911 0 -0.00090394245590768403 0.023566997421962908 0 -0.0010806654007145366 0.023420545623538645 0 -0.0010691674132603851 0.023615943480460911 0 -0.0010806654007145366 0.023420545623538645 0 -0.0012053450156625583 0.023519801570257407 0 -0.00095798689571800148 0.02372436442222316 0 -0.0010643290319893983 0.023772103380893261 0 -0.0010691674132603851 0.023615943480460911 0 -0.00095798689571800148 0.02372436442222316 0 -0.0010691674132603851 0.023615943480460911 0 -0.00090394245590768403 0.023566997421962908 0 -0.00075051055539892967 0.023781866660962749 0 -0.00071084039188661584 0.023575293495393248 0 -0.00090394245590768403 0.023566997421962908 0 -0.00075051055539892967 0.023781866660962749 0 -0.00095798689571800148 0.02372436442222316 0 -0.00090394245590768403 0.023566997421962908 0 -0.00071084039188661584 0.023575293495393248 0 -0.00090394245590768403 0.023566997421962908 0 -0.00089925508833533596 0.023370669740648206 0 -0.00070870016814608596 0.023374636933898966 0 -0.00071084039188661584 0.023575293495393248 0 -0.00089925508833533596 0.023370669740648206 0 -0.0010749331990369591 0.023204770596404335 0 -0.00089925508833533596 0.023370669740648206 0 -0.0010806654007145366 0.023420545623538645 0 -0.00090394245590768403 0.023566997421962908 0 -0.00089925508833533596 0.023370669740648206 0 -0.0010806654007145366 0.023420545623538645 0 -0.0010749331990369591 0.023204770596404335 0 -0.0010806654007145366 0.023420545623538645 0 -0.0012709238911718628 0.023287790731029708 0 -0.0010806654007145366 0.023420545623538645 0 -0.0012709238911718628 0.023287790731029708 0 -0.0012053450156625583 0.023519801570257407 0 -0.0012709238911718628 0.023287790731029708 0 -0.0014972781124813861 0.023306631303507866 0 -0.0013800608471096867 0.023436264266162413 0 -0.0014132440123219416 0.023082985193810007 0 -0.0012709238911718628 0.023287790731029708 0 -0.0014972781124813861 0.023306631303507866 0 -0.0014132440123219416 0.023082985193810007 0 -0.0014972781124813861 0.023306631303507866 0 -0.0015654342124279794 0.023105484824533774 0 -0.0014171682942230172 0.023732609734310611 0 -0.0015504640898074331 0.022927726257057073 0 -0.0013800608471096867 0.023436264266162413 0 -0.001503783058600346 0.023461246392013746 0 -0.0014403296578646173 0.023562589755148366 0 -0.0014972781124813861 0.023306631303507866 0 -0.0013800608471096867 0.023436264266162413 0 -0.001503783058600346 0.023461246392013746 0 -0.0013800608471096867 0.023436264266162413 0 -0.0012965686932053281 0.023666158457831751 0 -0.001470578317471188 0.023825347880842687 0 -0.0012709238911718628 0.023287790731029708 0 -0.0013800608471096867 0.023436264266162413 0 -0.0012053450156625583 0.023519801570257407 0 -0.0013800608471096867 0.023436264266162413 0 -0.0012053450156625583 0.023519801570257407 0 -0.0012965686932053281 0.023666158457831751 0 -0.0012053450156625583 0.023519801570257407 0 -0.0012965686932053281 0.023666158457831751 0 -0.0011722990354177886 0.023706727878909956 0 -0.0010691674132603851 0.023615943480460911 0 -0.0012053450156625583 0.023519801570257407 0 -0.0011722990354177886 0.023706727878909956 0 -0.0013242155460759315 0.023906152180186033 0 -0.0012789037688073596 0.023881824820118983 0 -0.0013972353931277414 0.023853387294795966 0 -0.0012735561996753827 0.023691935780837399 0 -0.0014922242533182233 0.023606151152956334 0 -0.0012965686932053281 0.023666158457831751 0 -0.0011722990354177886 0.023706727878909956 0 -0.0012914955975751867 0.023861645007507145 0 -0.0010643290319893983 0.023772103380893261 0 -0.0011722990354177886 0.023706727878909956 0 -0.0012767459190941735 0.023843215889695776 0 -0.0010916084560699214 0.024059589661633424 0 -0.0014922242533182233 0.023606151152956334 0 -0.0014922242533182233 0.023606151152956334 0 -0.0015504640898074331 0.022927726257057073 0 -0.0012965686932053281 0.023666158457831751 0 -0.0012914955975751867 0.023861645007507145 0 -0.001470578317471188 0.023825347880842687 0 -0.0019698821894437082 0.022963272492996789 0 -0.0015511195747785556 0.023057523345433529 0 -0.0014178203345338164 0.022250417773651995 0 -0.0018835964284627501 0.021796643232846372 0 -0.0018202055582278026 0.020170502343605307 0 -0.0015601679381086655 0.021452698307289714 0 -0.0016408632765637001 0.021923215661440426 0 -0.0019570738704609764 0.021355305393177648 0 -0.0015504640898074331 0.022927726257057073 0 -0.0018202055582278026 0.020170502343605307 0 -0.001503783058600346 0.023461246392013746 0 -0.0014403296578646173 0.023562589755148366 0 -0.0015731398223406063 0.023531507371996281 0 -0.0014922242533182233 0.023606151152956334 0 -0.0018835964284627501 0.021796643232846372 0 -0.0015504640898074331 0.022927726257057073 0 -0.0018835964284627501 0.021796643232846372 0 -0.0021000059521897878 0.017678123154352288 0 -0.0019173453948389352 0.017763040930717063 0 -0.0019008607958139305 0.018020651289504155 0 -0.0013972353931277414 0.023853387294795966 0 -0.0014682432865249359 0.023947918315511407 0 -0.0013896948636872614 0.023931094054512273 0 -0.001396184550084443 0.023986012779600108 0 -0.0014682432865249359 0.023947918315511407 0 -0.0013896948636872614 0.023931094054512273 0 -0.001396184550084443 0.023986012779600108 0 -0.0013437336439654538 0.023965705908792934 0 -0.0013896948636872614 0.023931094054512273 0 -0.0013242155460759315 0.023906152180186033 0 -0.0013437336439654538 0.023965705908792934 0 -0.0013896948636872614 0.023931094054512273 0 -0.0013242155460759315 0.023906152180186033 0 -0.0013972353931277414 0.023853387294795966 0 -0.0013896948636872614 0.023931094054512273 0 -0.0014961647235450296 0.017486976277310474 0 -0.0016874389419102354 0.017836364949924462 0 -0.0013967787938522131 0.017862033601561581 0 -0.0014961647235450296 0.017486976277310474 0 -0.0018112903129134566 0.017603716988524264 0 -0.0016874389419102354 0.017836364949924462 0 -0.0021000059521897878 0.017678123154352288 0 -0.0018112903129134566 0.017603716988524264 0 -0.0019173453948389352 0.017763040930717063 0 -0.0018112903129134566 0.017603716988524264 0 -0.0019173453948389352 0.017763040930717063 0 -0.0016874389419102354 0.017836364949924462 0 -0.0019008607958139305 0.018020651289504155 0 -0.0016346489580235288 0.018066522040866596 0 -0.0016874389419102354 0.017836364949924462 0 -0.0019173453948389352 0.017763040930717063 0 -0.0019008607958139305 0.018020651289504155 0 -0.0016874389419102354 0.017836364949924462 0 -0.0018202055582278026 0.020170502343605307 0 -0.0028079687840702632 0.017460184181545147 0 -0.0020390388243147601 0.01915607387726246 0 -0.0026067049260497257 0.01901476038109241 0 -0.0023955566063230548 0.01895169106216333 0 -0.0039545805294145878 0.016125634993833932 0 -0.0040164408476744311 0.016116001325179378 0 -0.0033815143552681855 0.015816249960327832 0 -0.0016346489580235288 0.018066522040866596 0 -0.0016874389419102354 0.017836364949924462 0 -0.0013967787938522131 0.017862033601561581 0 -0.0030190796056534042 0.017366002721044983 0 -0.0028079687840702632 0.017460184181545147 0 -0.0028079687840702632 0.017460184181545147 0 -0.002288888106423101 0.016729510422402678 0 -0.0039545805294145878 0.016125634993833932 0 -0.0038911577390944485 0.016296367569020882 0 -0.0036971897441774914 0.016312971186862646 0 -0.0038911577390944485 0.016296367569020882 0 -0.0040019089725864508 0.016312275231889311 0 -0.0038872521292005972 0.016413239712923265 0 -0.0038911577390944485 0.016296367569020882 0 -0.0038872521292005972 0.016413239712923265 0 -0.0036971897441774914 0.016312971186862646 0 -0.0039545805294145878 0.016125634993833932 0 -0.0038911577390944485 0.016296367569020882 0 -0.0040019089725864508 0.016312275231889311 0 -0.0040117928325561466 0.016118145092535296 0 -0.0040019089725864508 0.016312275231889311 0 -0.0042927114162175069 0.016380593281223634 0 -0.0028079687840702632 0.017460184181545147 0 -0.0023393242017711144 0.020472261867973379 0 -0.0039545805294145878 0.016125634993833932 0 -0.0040117928325561466 0.016118145092535296 0 -0.0040019089725864508 0.016312275231889311 0 -0.0028079687840702632 0.017460184181545147 0 -0.0027543599391136112 0.017994263098635017 0 -0.0039520194721454835 0.01652987081440406 0 -0.0042927114162175069 0.016380593281223634 0 -0.0039321288600078098 0.016725624785774464 0 -0.0040019089725864508 0.016312275231889311 0 -0.0039520194721454835 0.01652987081440406 0 -0.0038872521292005972 0.016413239712923265 0 -0.0040019089725864508 0.016312275231889311 0 -0.0039520194721454835 0.01652987081440406 0 -0.0042927114162175069 0.016380593281223634 0 -0.0039520194721454835 0.01652987081440406 0 -0.0037852151274501973 0.016519069242606398 0 -0.0038872521292005972 0.016413239712923265 0 -0.0039520194721454835 0.01652987081440406 0 -0.0037852151274501973 0.016519069242606398 0 -0.0037803172012426164 0.016675172228628951 0 -0.0037852151274501973 0.016519069242606398 0 -0.0038872521292005972 0.016413239712923265 0 -0.0036971897441774914 0.016312971186862646 0 -0.001503783058600346 0.023461246392013746 0 -0.0015731398223406063 0.023531507371996281 0 -0.0016470275630193533 0.023421663670857313 0 -0.0018202055582278026 0.020170502343605307 0 -0.0023393242017711144 0.020472261867973379 0 -0.0020390388243147601 0.01915607387726246 0 -0.0022647976230777528 0.018758688308536674 0 -0.0023955566063230548 0.01895169106216333 0 -0.002604396337079198 0.019013194468301187 0 -0.0022647976230777528 0.018758688308536674 0 -0.0023955566063230548 0.01895169106216333 0 -0.0017679728090409597 0.023765457215271717 0 -0.0023393242017711144 0.020472261867973379 0 -0.0014972781124813861 0.023306631303507866 0 -0.001503783058600346 0.023461246392013746 0 -0.0016470275630193533 0.023421663670857313 0 -0.0017240059506239489 0.023444687575563502 0 -0.0017876560319383796 0.023145259581900401 0 -0.0016725477220501134 0.023206573191622056 0 -0.0014972781124813861 0.023306631303507866 0 -0.0017240059506239489 0.023444687575563502 0 -0.0016725477220501134 0.023206573191622056 0 -0.0017093869421962013 0.023015019731170993 0 -0.0017876560319383796 0.023145259581900401 0 -0.0016725477220501134 0.023206573191622056 0 -0.0014972781124813861 0.023306631303507866 0 -0.0015654342124279794 0.023105484824533774 0 -0.0016725477220501134 0.023206573191622056 0 -0.0017093869421962013 0.023015019731170993 0 -0.0015654342124279794 0.023105484824533774 0 -0.0016725477220501134 0.023206573191622056 0 -0.0042927114162175069 0.016380593281223634 0 -0.0039321288600078098 0.016725624785774464 0 -0.0039249232889587548 0.017021552152938605 0 -0.0017240059506239489 0.023444687575563502 0 -0.0017876560319383796 0.023145259581900401 0 -0.0019506167009489849 0.023080124566504139 0 -0.0023393242017711144 0.020472261867973379 0 -0.0030637887539216096 0.019906405819924575 0 -0.003792875331984579 0.0167857128528183 0 -0.0037988734165659262 0.016978486393964105 0 -0.0035933390579786883 0.016652968322831207 0 -0.0039321288600078098 0.016725624785774464 0 -0.003792875331984579 0.0167857128528183 0 -0.0037803172012426164 0.016675172228628951 0 -0.0039321288600078098 0.016725624785774464 0 -0.003792875331984579 0.0167857128528183 0 -0.0038550056727003762 0.016889272946834621 0 -0.003792875331984579 0.0167857128528183 0 -0.0037803172012426164 0.016675172228628951 0 -0.0035933390579786883 0.016652968322831207 0 -0.0037852151274501973 0.016519069242606398 0 -0.0037803172012426164 0.016675172228628951 0 -0.0035933390579786883 0.016652968322831207 0 -0.0039520194721454835 0.01652987081440406 0 -0.0039321288600078098 0.016725624785774464 0 -0.0037803172012426164 0.016675172228628951 0 -0.0039249232889587548 0.017021552152938605 0 -0.0038550056727003762 0.016889272946834621 0 -0.0037988734165659262 0.016978486393964105 0 -0.0039321288600078098 0.016725624785774464 0 -0.0039249232889587548 0.017021552152938605 0 -0.0038550056727003762 0.016889272946834621 0 -0.003792875331984579 0.0167857128528183 0 -0.0038550056727003762 0.016889272946834621 0 -0.0037988734165659262 0.016978486393964105 0 -0.0034531000417883022 0.017143813884550912 0 -0.0037988734165659262 0.016978486393964105 0 -0.0034140531090581607 0.016680925948987641 0 -0.0037988734165659262 0.016978486393964105 0 -0.0035933390579786883 0.016652968322831207 0 -0.0031790003808236027 0.016700146841750495 0 -0.0037780384906992933 0.016965284494832814 0 -0.0032364346258281391 0.016644047487186096 0 -0.0034531000417883022 0.017143813884550912 0 -0.0029497678736978938 0.016968333117332094 0 -0.0034140531090581607 0.016680925948987641 0 -0.0029497678736978938 0.016968333117332094 0 -0.0034140531090581607 0.016680925948987641 0 -0.0029680925133992813 0.016366797838250357 0 -0.0032364346258281391 0.016644047487186096 0 -0.0030023321913725497 0.016665794792022438 0 -0.0031790003808236027 0.016700146841750495 0 -0.0030085940094363574 0.016114787389613704 0 -0.0025450504112015807 0.0163554324169429 0 -0.0031790003808236027 0.016700146841750495 0 -0.0030085940094363574 0.016114787389613704 0 -0.0033582325466360134 0.016316017103622068 0 -0.0033582325466360134 0.016316017103622068 0 -0.0036971897441774914 0.016312971186862646 0 -0.0033815143552681855 0.015816249960327832 0 -0.0035933390579786883 0.016652968322831207 0 -0.0033582325466360134 0.016316017103622068 0 -0.0036971897441774914 0.016312971186862646 0 -0.0037852151274501973 0.016519069242606398 0 -0.0035933390579786883 0.016652968322831207 0 -0.0036971897441774914 0.016312971186862646 0 -0.0035933390579786883 0.016652968322831207 0 -0.0031790003808236027 0.016700146841750495 0 -0.0033582325466360134 0.016316017103622068 0 -0.0029497678736978938 0.016968333117332094 0 -0.0023822433780233947 0.017059348558062411 0 -0.0025491484179627705 0.016562449133849844 0 -0.0029497678736978938 0.016968333117332094 0 -0.0025491484179627705 0.016562449133849844 0 -0.0029680925133992813 0.016366797838250357 0 -0.0030023321913725497 0.016665794792022438 0 -0.0016744785486851222 0.013179717181660749 0 -0.0025491484179627705 0.016562449133849844 0 -0.0029680925133992813 0.016366797838250357 0 -0.0024860245601985294 0.016053422465078553 0 -0.0025491484179627705 0.016562449133849844 0 -0.0024860245601985294 0.016053422465078553 0 -0.0019331345124938787 0.016350804881157806 0 -0.00027884574618424499 0.010131031743301945 0 -0.00054239332141501609 0.010935939426998654 0 -0.0010131645057324451 0.0097954318381020776 0 -0.0016744785486851222 0.013179717181660749 0 -0.0021180545462830963 0.012773332807225642 0 -0.00054239332141501609 0.010935939426998654 0 -0.0010131645057324451 0.0097954318381020776 0 -0.0019238464699488573 0.010138302093670927 0 -0.0025450504112015807 0.0163554324169429 0 -0.001903931528393153 0.015983418228212611 0 -0.0027040243186580303 0.015530626025444891 0 -0.0010304322493501611 0.009848538036058882 0 -0.001978613350363226 0.010219663182426576 0 -0.0016949000436308299 0.0088974926177197919 0 -0.0010304322493501611 0.009848538036058882 0 -0.0016949000436308299 0.0088974926177197919 0 -0.00068237795794218105 0.0090859159535983339 0 -0.00083105274839590513 0.009791189184857732 0 -0.0021180545462830963 0.012773332807225642 0 -0.00027884574618424499 0.010131031743301945 0 -0.0010131645057324451 0.0097954318381020776 0 -0.00010169900507921974 0.0094653213470762484 0 -0.00083105274839590513 0.009791189184857732 0 -0.00027104392933066922 0.0095370818360953191 0 -0.0010304322493501611 0.009848538036058882 0 -0.00010169900507921974 0.0094653213470762484 0 -0.00068237795794218105 0.0090859159535983339 0 -0.00010169900507921974 0.0094653213470762484 0 -0.00068237795794218105 0.0090859159535983339 0 2.4353337443023447e-05 0.0091719031610506142 0 -0.0039545805294145878 0.016125634993833932 0 -0.0036971897441774914 0.016312971186862646 0 -0.0033815143552681855 0.015816249960327832 0 -0.0036909182679837641 0.015996319185281237 0 -0.0025248066913164976 0.015523970370565521 0 -0.0028808543514901403 0.015316939430445112 0 -0.0028079687840702632 0.017460184181545147 0 -0.0031749532478905205 0.015793286474698215 0 -0.0025248066913164976 0.015523970370565521 0 -0.0028808543514901403 0.015316939430445112 0 -0.0020930254135910031 0.014675990649629532 0 -0.0030085940094363574 0.016114787389613704 0 -0.0033582325466360134 0.016316017103622068 0 -0.0033815143552681855 0.015816249960327832 0 -0.0031749532478905205 0.015793286474698215 0 -0.0021180545462830963 0.012773332807225642 0 -0.0030085940094363574 0.016114787389613704 0 -0.0025450504112015807 0.0163554324169429 0 -0.0027040243186580303 0.015530626025444891 0 -0.0030085940094363574 0.016114787389613704 0 -0.0033815143552681855 0.015816249960327832 0 -0.0027040243186580303 0.015530626025444891 0 -0.0014456349643977217 0.013806318810167197 0 -0.0015894612768715633 0.011344092883456926 0 -0.0025248066913164976 0.015523970370565521 0 -0.0020930254135910031 0.014675990649629532 0 -0.0013872865527196955 0.015087006572157197 0 -0.002756448140711455 0.0097732193960006729 0 -0.001978613350363226 0.010219663182426576 0 -0.0016949000436308299 0.0088974926177197919 0 -0.0014456349643977217 0.013806318810167197 0 -0.0021180545462830963 0.012773332807225642 0 -0.0014961647235450296 0.017486976277310474 0 -0.0013967787938522131 0.017862033601561581 0 -0.0011699468636071058 0.017658513303690088 0 -0.00093866819294443151 0.015581692079581566 0 -0.0014456349643977217 0.013806318810167197 0 -0.002288888106423101 0.016729510422402678 0 -0.0014456349643977217 0.013806318810167197 0 -0.00064124082961891724 0.013271533529613147 0 -0.000733969418915337 0.013393363787919298 0 -0.00079286177691826731 0.013280435567711147 0 -0.00064124082961891724 0.013271533529613147 0 -0.00078963649814777067 0.01317263331264556 0 -0.00079286177691826731 0.013280435567711147 0 -0.00060555454064252533 0.013394678007759236 0 -0.000733969418915337 0.013393363787919298 0 -0.0006707832021722041 0.013522656755098327 0 -0.00064124082961891724 0.013271533529613147 0 -0.00060555454064252533 0.013394678007759236 0 -0.000733969418915337 0.013393363787919298 0 -0.000733969418915337 0.013393363787919298 0 -0.00086835347346903631 0.013357436258510103 0 -0.00077582032462703899 0.013537726752623779 0 -0.000733969418915337 0.013393363787919298 0 -0.00086835347346903631 0.013357436258510103 0 -0.00079286177691826731 0.013280435567711147 0 -0.00078963649814777067 0.01317263331264556 0 -0.00079286177691826731 0.013280435567711147 0 -0.00089807852078744167 0.013236283833673807 0 -0.00086835347346903631 0.013357436258510103 0 -0.00079286177691826731 0.013280435567711147 0 -0.00089807852078744167 0.013236283833673807 0 -0.0015894612768715633 0.011344092883456926 0 0.00015019508411500497 0.0066768912969002153 0 -0.0016949000436308299 0.0088974926177197919 0 -0.00068237795794218105 0.0090859159535983339 0 -0.00063119339828240028 0.0080416098218569348 0 -0.00068237795794218105 0.0090859159535983339 0 -0.00063119339828240028 0.0080416098218569348 0 2.4353337443023447e-05 0.0091719031610506142 0 0.00015019508411500497 0.0066768912969002153 0 0.0010611378081289253 0.004843458544831235 0 0.0020497012955147122 0.00072491636345902973 0 0.0022124329442626835 0.00078248190491508472 0 0.0021287043782292942 0.0011070012636603269 0 0.0021669627002720761 0.00064057940824209904 0 0.0021335525836963156 0.00068429351227035059 0 0.0022445878264366853 0.00044870094675330548 0 0.0021669627002720761 0.00064057940824209904 0 0.0020497012955147122 0.00072491636345902973 0 0.0022124329442626835 0.00078248190491508472 0 0.0026650484836762329 0.0033147085427154038 0 0.00015019508411500497 0.0066768912969002153 0 -0.00086835347346903631 0.013357436258510103 0 -0.00089807852078744167 0.013236283833673807 0 -0.0010061537334811617 0.013273352994373808 0 0.00015019508411500497 0.0066768912969002153 0 0.00070158860290609306 0.0070585676849683086 0 -0.00086835347346903631 0.013357436258510103 0 -0.0010061537334811617 0.013273352994373808 0 -0.00092662023684390968 0.013463983779921944 0 0.0021335525836963156 0.00068429351227035059 0 0.002162015216314303 0.00045886986948032041 0 0.0022445878264366853 0.00044870094675330548 0 0.0021669627002720761 0.00064057940824209904 0 0.0022445878264366853 0.00044870094675330548 0 0.002284699011092428 0.00052332282542230917 0 0.0022445878264366853 0.00044870094675330548 0 0.0022395343353004142 0.00033160962142422389 0 0.0023793419750434866 0.00027334362612070704 0 0.002162015216314303 0.00045886986948032041 0 0.0022445878264366853 0.00044870094675330548 0 0.0022395343353004142 0.00033160962142422389 0 0.00070158860290609306 0.0070585676849683086 0 0.00068353289862954061 0.0069183435229107524 0 0.002162015216314303 0.00045886986948032041 0 0.0022395343353004142 0.00033160962142422389 0 0.002223167492634107 0.00032294651177457113 0 -0.00092662023684390968 0.013463983779921944 0 -0.00077582032462703899 0.013537726752623779 0 -0.00080849982165998849 0.013655679878632318 0 -0.00065993025759456979 0.01370132103929635 0 -0.0006707832021722041 0.013522656755098327 0 -0.00077582032462703899 0.013537726752623779 0 -0.00065993025759456979 0.01370132103929635 0 -0.00077582032462703899 0.013537726752623779 0 -0.00080849982165998849 0.013655679878632318 0 -0.000733969418915337 0.013393363787919298 0 -0.0006707832021722041 0.013522656755098327 0 -0.00077582032462703899 0.013537726752623779 0 -0.00086835347346903631 0.013357436258510103 0 -0.00092662023684390968 0.013463983779921944 0 -0.00077582032462703899 0.013537726752623779 0 0.0028902095944977318 0.00034579566757247932 0 0.0029638567920820509 0.00022380333647699051 0 0.0026025909465625567 0.00027407353213261299 0 0.0028902095944977318 0.00034579566757247932 0 0.0026025909465625567 0.00027407353213261299 0 0.0027266603948008939 0.00043791276455200601 0 0.0028902095944977318 0.00034579566757247932 0 0.0029638567920820509 0.00022380333647699051 0 0.0030097072114276427 0.00029394890491631163 0 0.0028902095944977318 0.00034579566757247932 0 0.0029523768615986943 0.0003582205806543618 0 0.0030097072114276427 0.00029394890491631163 0 0.0026413447942816139 0.00026782283485300235 0 0.0026584743947799501 0.00019315432263862888 0 0.0025952848114736918 0.0002175568762509205 0 0.0025952848114736918 0.0002175568762509205 0 0.0026025909465625567 0.00027407353213261299 0 0.0025152310826956114 0.00018674996956886744 0 0.0028508544008986367 0.00032982085984413544 0 0.0025993930386252447 0.00025376045311661097 0 0.0026413447942816139 0.00026782283485300235 0 0.0025952848114736918 0.0002175568762509205 0 0.0026025909465625567 0.00027407353213261299 0 0.0026025909465625567 0.00027407353213261299 0 0.0023793419750434866 0.00027334362612070704 0 0.0025152310826956114 0.00018674996956886744 0 0.0026025909465625567 0.00027407353213261299 0 0.0023793419750434866 0.00027334362612070704 0 0.0023937134578147163 0.00041429317245096316 0 0.0022445878264366853 0.00044870094675330548 0 0.0023937134578147163 0.00041429317245096316 0 0.002284699011092428 0.00052332282542230917 0 0.0022445878264366853 0.00044870094675330548 0 0.0023793419750434866 0.00027334362612070704 0 0.0023937134578147163 0.00041429317245096316 0 0.0023937134578147163 0.00041429317245096316 0 0.0025223660728069092 0.00045763714592361081 0 0.0023392745295177956 0.00060407283312425674 0 0.0023937134578147163 0.00041429317245096316 0 0.002284699011092428 0.00052332282542230917 0 0.0023392745295177956 0.00060407283312425674 0 0.0026025909465625567 0.00027407353213261299 0 0.0025223660728069092 0.00045763714592361081 0 0.0027266603948008939 0.00043791276455200601 0 0.0026025909465625567 0.00027407353213261299 0 0.0023937134578147163 0.00041429317245096316 0 0.0025223660728069092 0.00045763714592361081 0 0.0025223660728069092 0.00045763714592361081 0 0.0025238923024298175 0.00066461914880563456 0 0.0027266603948008939 0.00043791276455200601 0 0.0025223660728069092 0.00045763714592361081 0 0.0025238923024298175 0.00066461914880563456 0 0.0023392745295177956 0.00060407283312425674 0 0.0025238923024298175 0.00066461914880563456 0 0.0027666193584473218 0.00058903636092953791 0 0.0027266603948008939 0.00043791276455200601 0 0.0021669627002720761 0.00064057940824209904 0 0.002284699011092428 0.00052332282542230917 0 0.0023392745295177956 0.00060407283312425674 0 0.0025238923024298175 0.00066461914880563456 0 0.0023392745295177956 0.00060407283312425674 0 0.0023239741129147794 0.00083724561971618334 0 0.0023392745295177956 0.00060407283312425674 0 0.0022124329442626835 0.00078248190491508472 0 0.0023239741129147794 0.00083724561971618334 0 0.0021669627002720761 0.00064057940824209904 0 0.0023392745295177956 0.00060407283312425674 0 0.0022124329442626835 0.00078248190491508472 0 0.0023239741129147794 0.00083724561971618334 0 0.0021287043782292942 0.0011070012636603269 0 0.0024473900539164852 0.0010706585944802323 0 0.0022124329442626835 0.00078248190491508472 0 0.0023239741129147794 0.00083724561971618334 0 0.0021287043782292942 0.0011070012636603269 0 0.0025238923024298175 0.00066461914880563456 0 0.0023239741129147794 0.00083724561971618334 0 0.0024473900539164852 0.0010706585944802323 0 0.0025238923024298175 0.00066461914880563456 0 0.0024473900539164852 0.0010706585944802323 0 0.002797494696505135 0.00093166894958315871 0 0.0025238923024298175 0.00066461914880563456 0 0.002797494696505135 0.00093166894958315871 0 0.0027666193584473218 0.00058903636092953791 0 0.002797494696505135 0.00093166894958315871 0 0.00305098274442628 0.00038145908834387438 0 0.0035044001806235243 0.0012310773585239643 0 0.002797494696505135 0.00093166894958315871 0 0.0027666193584473218 0.00058903636092953791 0 0.00305098274442628 0.00038145908834387438 0 0.0027666193584473218 0.00058903636092953791 0 0.00305098274442628 0.00038145908834387438 0 0.0027266603948008939 0.00043791276455200601 0 0.0028902095944977318 0.00034579566757247932 0 0.00305098274442628 0.00038145908834387438 0 0.0027266603948008939 0.00043791276455200601 0 0.0029523768615986943 0.0003582205806543618 0 0.0029075095019580137 0.00020227512895434668 0 0.0027294903193721379 0.00019082674995065106 0 0.0029523768615986943 0.0003582205806543618 0 0.0030412663856714214 0.00034456957100189266 0 0.0030097072114276427 0.00029394890491631163 0 0.0029417248633539124 0.0003271312029671453 0 0.0029382942503466377 0.00026119691650695073 0 0.0028902095944977318 0.00034579566757247932 0 0.00305098274442628 0.00038145908834387438 0 0.0029523768615986943 0.0003582205806543618 0 0.00305098274442628 0.00038145908834387438 0 0.0029523768615986943 0.0003582205806543618 0 0.0029075095019580137 0.00020227512895434668 0 0.0030775380429571711 0.00036720048457410923 0 0.003250153823800307 0.00049060445570849238 0 0.00305098274442628 0.00038145908834387438 0 0.0029075095019580137 0.00020227512895434668 0 0.0029511896046184771 -0.0003477606896712915 0 0.0029075095019580137 0.00020227512895434668 0 0.0028323924895445399 -8.4509789159392565e-05 0 0.0029511896046184771 -0.0003477606896712915 0 0.0029075095019580137 0.00020227512895434668 0 0.0028323924895445399 -8.4509789159392565e-05 0 0.0027378794955224633 -1.624079177818695e-05 0 0.0028323924895445399 -8.4509789159392565e-05 0 0.0029511896046184771 -0.0003477606896712915 0 0.0027381264392602458 -0.00028137906418526719 0 0.0027337647670033524 -0.00045747819906672631 0 0.0029511896046184771 -0.0003477606896712915 0 0.0026706324809439414 -0.00050429075046540652 0 0.0035044001806235243 0.0012310773585239643 0 0.0030473340634157953 0.0016405079765221713 0 0.0034034217942754217 0.0020088450774958175 0 0.003250153823800307 0.00049060445570849238 0 0.0029599774642439249 0.00087074436445714373 0 0.0029511896046184771 -0.0003477606896712915 0 0.0027343107491505677 -0.00042594409436046848 0 0.0027381264392602458 -0.00028137906418526719 0 0.0027337647670033524 -0.00045747819906672631 0 0.0029511896046184771 -0.0003477606896712915 0 0.0027343107491505677 -0.00042594409436046848 0 0.002797494696505135 0.00093166894958315871 0 0.0035044001806235243 0.0012310773585239643 0 0.0030473340634157953 0.0016405079765221713 0 0.002797494696505135 0.00093166894958315871 0 0.0030473340634157953 0.0016405079765221713 0 0.0026120415862605452 0.0014385258005335147 0 0.0030473340634157953 0.0016405079765221713 0 0.0026120415862605452 0.0014385258005335147 0 0.0024304937767854005 0.0021062935560128833 0 0.0030473340634157953 0.0016405079765221713 0 0.0029862903287679724 0.0023303949866469629 0 0.0034034217942754217 0.0020088450774958175 0 0.0030473340634157953 0.0016405079765221713 0 0.0029862903287679724 0.0023303949866469629 0 0.0024304937767854005 0.0021062935560128833 0 0.0029862903287679724 0.0023303949866469629 0 0.0034034217942754217 0.0020088450774958175 0 0.0034317801137017513 0.0026237816124048186 0 0.0039425592564302451 0.0023107289696267298 0 0.0034034217942754217 0.0020088450774958175 0 0.0034317801137017513 0.0026237816124048186 0 0.0035044001806235243 0.0012310773585239643 0 0.0039425592564302451 0.0023107289696267298 0 0.0034034217942754217 0.0020088450774958175 0 0.0029511896046184771 -0.0003477606896712915 0 0.0026591066360473685 -0.00051999123916028785 0 0.0026706324809439414 -0.00050429075046540652 0 0.002641050854747 -0.00048172615563439022 0 0.0026706324809439414 -0.00050429075046540652 0 0.0026495217573229597 -0.00046349938733049182 0 0.0029599774642439249 0.00087074436445714373 0 0.0029829449134389204 0.00066119527463490244 0 0.0027337647670033524 -0.00045747819906672631 0 0.0026706324809439414 -0.00050429075046540652 0 0.0026774316048624801 -0.00048850540620505904 0 0.0021287043782292942 0.0011070012636603269 0 0.0024473900539164852 0.0010706585944802323 0 0.0022945712090426886 0.001584529021114477 0 0.0010611378081289253 0.004843458544831235 0 0.0011532616257076474 0.0057562412868792092 0 -0.00027884574618424499 0.010131031743301945 0 -0.00010169900507921974 0.0094653213470762484 0 0.00066286657450227628 0.010243273221098938 0 -0.00010169900507921974 0.0094653213470762484 0 2.4353337443023447e-05 0.0091719031610506142 0 0.00066286657450227628 0.010243273221098938 0 0.0033013233495894395 0.00088810334935267461 0 0.0011532616257076474 0.0057562412868792092 0 0.0024473900539164852 0.0010706585944802323 0 0.0026120415862605452 0.0014385258005335147 0 0.0022945712090426886 0.001584529021114477 0 0.0024473900539164852 0.0010706585944802323 0 0.002797494696505135 0.00093166894958315871 0 0.0026120415862605452 0.0014385258005335147 0 0.0024304937767854005 0.0021062935560128833 0 0.0016833370715255639 0.0019296443185089572 0 0.0022256652293705429 0.0028738952821633986 0 0.0011532616257076474 0.0057562412868792092 0 0.0011710613317222481 0.0057561399428078574 0 0.0026120415862605452 0.0014385258005335147 0 0.0024304937767854005 0.0021062935560128833 0 0.0016833370715255639 0.0019296443185089572 0 0.0029862903287679724 0.0023303949866469629 0 0.0024304937767854005 0.0021062935560128833 0 0.0022256652293705429 0.0028738952821633986 0 -0.0016744785486851222 0.013179717181660749 0 0.0011532616257076474 0.0057562412868792092 0 -0.00027884574618424499 0.010131031743301945 0 -0.00054239332141501609 0.010935939426998654 0 0.00066286657450227628 0.010243273221098938 0 -0.0011388537104060562 0.0093219080658084943 0 -0.00012987590494191963 0.0087420906142813126 0 -0.00011752492017392047 0.0099039644848606286 0 -0.0016744785486851222 0.013179717181660749 0 -0.0011019635849435982 0.01346038466955957 0 -0.00011752492017392047 0.0099039644848606286 0 0.00037803310682794428 0.009620606445563477 0 0.00088154833233705274 0.010482482815632058 0 0.0011710613317222481 0.0057561399428078574 0 0.00082177783232480759 0.010071966216113705 0 -0.00012987590494191963 0.0087420906142813126 0 -0.00011752492017392047 0.0099039644848606286 0 0.00037803310682794428 0.009620606445563477 0 -0.0017996274381335067 0.016967111832253533 0 -0.0019331345124938787 0.016350804881157806 0 -0.0013656525187361733 0.016640126433924284 0 -0.0011019635849435982 0.01346038466955957 0 0.00082177783232480759 0.010071966216113705 0 -0.0023822433780233947 0.017059348558062411 0 -0.0025491484179627705 0.016562449133849844 0 -0.0019331345124938787 0.016350804881157806 0 -0.0017996274381335067 0.016967111832253533 0 -0.0023822433780233947 0.017059348558062411 0 -0.0019331345124938787 0.016350804881157806 0 0.0029599774642439249 0.00087074436445714373 0 0.0031245016608393273 0.002341759565920204 0 0.0039425592564302451 0.0023107289696267298 0 0.0037577431840216929 0.0032880092784434573 0 0.0034317801137017513 0.0026237816124048186 0 0.0029599774642439249 0.00087074436445714373 0 0.002768867784498477 0.00078537841393775472 0 0.0026345885389009965 0.00059572604059600332 0 0.002230106827591857 0.0022086845620281773 0 0.0030426242565348032 0.0021317080441069381 0 0.0037577431840216929 0.0032880092784434573 0 0.0034317801137017513 0.0026237816124048186 0 0.0030053285966644906 0.0030767039762827409 0 0.0022256652293705429 0.0028738952821633986 0 0.0030053285966644906 0.0030767039762827409 0 0.0027342220156933873 0.0038503663822497163 0 0.0029862903287679724 0.0023303949866469629 0 0.0034317801137017513 0.0026237816124048186 0 0.0030053285966644906 0.0030767039762827409 0 0.0029862903287679724 0.0023303949866469629 0 0.0022256652293705429 0.0028738952821633986 0 0.0030053285966644906 0.0030767039762827409 0 0.0037577431840216929 0.0032880092784434573 0 0.0030053285966644906 0.0030767039762827409 0 0.0032933475661854751 0.0037587857689462896 0 0.0030053285966644906 0.0030767039762827409 0 0.0032933475661854751 0.0037587857689462896 0 0.0027342220156933873 0.0038503663822497163 0 -0.0012233646557825843 0.016866884913046894 0 -0.0017996274381335067 0.016967111832253533 0 -0.0013656525187361733 0.016640126433924284 0 -0.00041761070882094173 0.013387110686203378 0 0.00082177783232480759 0.010071966216113705 0 0.0008509831924027447 0.0093468000097415849 0 0.0011238278482212523 0.0093310516033801513 0 0.0012956291300322117 0.0096266951854298184 0 0.001739883237360869 0.0068069328854919054 0 0.00082177783232480759 0.010071966216113705 0 0.0034536806084076257 0.0042984397520328677 0 0.0032933475661854751 0.0037587857689462896 0 0.0027342220156933873 0.0038503663822497163 0 0.001739883237360869 0.0068069328854919054 0 0.0031245016608393273 0.002341759565920204 0 0.0017119555980336057 0.0038527971455977234 0 0.0027148230010598929 0.0030512176087526856 0 0.0034549031098158353 0.0036717350191721033 0 0.0017119555980336057 0.0038527971455977234 0 0.002230106827591857 0.0022086845620281773 0 0.0027148230010598929 0.0030512176087526856 0 0.001739883237360869 0.0068069328854919054 0 0.0026231480177314761 0.0019189441816449763 0 0.0034536806084076257 0.0042984397520328677 0 0.0037577431840216929 0.0032880092784434573 0 0.0032933475661854751 0.0037587857689462896 0 0.002230106827591857 0.0022086845620281773 0 0.0027148230010598929 0.0030512176087526856 0 0.0030426242565348032 0.0021317080441069381 0 0.0026231480177314761 0.0019189441816449763 0 0.002768867784498477 0.00078537841393775472 0 0.0027148230010598929 0.0030512176087526856 0 0.0034549031098158353 0.0036717350191721033 0 0.0030426242565348032 0.0021317080441069381 0 0.0025479400424902373 -2.5225569768914608e-05 0 0.0026222828320257296 -0.00017693287647244137 0 0.0025491280985704464 -0.00029399121375488831 0 0.0026244208626017037 -2.7392591410689232e-05 0 0.0026222828320257296 -0.00017693287647244137 0 0.002727753051965728 -0.00017246608549124361 0 0.0025479400424902373 -2.5225569768914608e-05 0 0.0026244208626017037 -2.7392591410689232e-05 0 0.0026222828320257296 -0.00017693287647244137 0 0.0026231480177314761 0.0019189441816449763 0 0.0026814692346008658 0.0013624371733345273 0 0.0026222828320257296 -0.00017693287647244137 0 0.0026630689357597785 -0.00034267014778261551 0 0.002727753051965728 -0.00017246608549124361 0 0.0025491280985704464 -0.00029399121375488831 0 0.0026630689357597785 -0.00034267014778261551 0 0.0026495217573229597 -0.00046349938733049182 0 0.002641050854747 -0.00048172615563439022 0 0.0025491280985704464 -0.00029399121375488831 0 0.0026495217573229597 -0.00046349938733049182 0 0.0026222828320257296 -0.00017693287647244137 0 0.0025491280985704464 -0.00029399121375488831 0 0.0026630689357597785 -0.00034267014778261551 0 0.0026630689357597785 -0.00034267014778261551 0 0.0026495217573229597 -0.00046349938733049182 0 0.0026632714062973933 -0.00047825918630839338 0 0.00279530732336142 -0.0003486826811690598 0 0.0028672106512186812 -0.00037187210960259131 0 0.0027323838486594779 -0.00044981122094551752 0 0.0026630689357597785 -0.00034267014778261551 0 0.00279530732336142 -0.0003486826811690598 0 0.0026632714062973933 -0.00047825918630839338 0 0.0026630689357597785 -0.00034267014778261551 0 0.00279530732336142 -0.0003486826811690598 0 0.002727753051965728 -0.00017246608549124361 0 0.00279530732336142 -0.0003486826811690598 0 0.002727753051965728 -0.00017246608549124361 0 0.0028741959813664147 -4.1786139664800061e-06 0 0.0026244208626017037 -2.7392591410689232e-05 0 0.002727753051965728 -0.00017246608549124361 0 0.002740824994403424 -1.9022808205964506e-05 0 0.002727753051965728 -0.00017246608549124361 0 0.002740824994403424 -1.9022808205964506e-05 0 0.0028741959813664147 -4.1786139664800061e-06 0 0.00279530732336142 -0.0003486826811690598 0 0.0028741959813664147 -4.1786139664800061e-06 0 0.0031418201118193732 -4.8908169743575871e-05 0 0.0028741994222989536 -0.00016581454243882129 0 0.0029553388026395178 -0.00065154788138133948 0 0.002432436948936364 -0.0035223829348732779 0 0.0025874787011678346 -0.0031717306274785671 0 0.002215924233810433 -0.0031451094247669392 0 0.0029553388026395178 -0.00065154788138133948 0 0.0027533021441783108 -0.0020609717097968129 0 0.0027931435924439959 -0.00189849761915291 0 0.0028960842791682304 -0.0018711218012710939 0 0.0028476020581847967 -0.0017510426570095732 0 0.0025426206160146726 -0.0029289148640538332 0 0.0027533021441783108 -0.0020609717097968129 0 0.0025874787011678346 -0.0031717306274785671 0 0.0024487016191698423 -0.0027194626320630605 0 0.002215924233810433 -0.0031451094247669392 0 0.00279530732336142 -0.0003486826811690598 0 0.0028851306903342343 -0.00027398095186942459 0 0.0028672106512186812 -0.00037187210960259131 0 0.0028851306903342343 -0.00027398095186942459 0 0.0029126357533785655 -0.00034488870412098131 0 0.0028672106512186812 -0.00037187210960259131 0 0.0028672106512186812 -0.00037187210960259131 0 0.0029648787798805761 -0.0004283434277196296 0 0.0027244875871740028 -0.00050502676256518049 0 0.0029126357533785655 -0.00034488870412098131 0 0.0028672106512186812 -0.00037187210960259131 0 0.0029648787798805761 -0.0004283434277196296 0 0.0028672106512186812 -0.00037187210960259131 0 0.0027244875871740028 -0.00050502676256518049 0 0.0027323838486594779 -0.00044981122094551752 0 0.0029648787798805761 -0.0004283434277196296 0 0.0027244875871740028 -0.00050502676256518049 0 0.0026512088693910981 -0.0009181838874447475 0 0.0027533021441783108 -0.0020609717097968129 0 0.0025155306791818494 -0.0031456480959219527 0 0.0026416749974403648 -0.0031636251257363569 0 0.0028259457485391094 -0.0026599044982872793 0 0.0024487016191698423 -0.0027194626320630605 0 0.0027533021441783108 -0.0020609717097968129 0 0.0028994629206620728 -0.0015160704628036832 0 0.0024487016191698423 -0.0027194626320630605 0 0.0025916844222243019 -0.0022257415253882284 0 0.0023391400706682841 -0.0024470510255889121 0 0.0028259457485391094 -0.0026599044982872793 0 0.0024487016191698423 -0.0027194626320630605 0 0.0025916844222243019 -0.0022257415253882284 0 0.0025916844222243019 -0.0022257415253882284 0 0.0023391400706682841 -0.0024470510255889121 0 0.0023632813870854844 -0.0021224932276544773 0 0.0028259457485391094 -0.0026599044982872793 0 0.0025916844222243019 -0.0022257415253882284 0 0.0028630930527537772 -0.0017770486240138231 0 0.0029648787798805761 -0.0004283434277196296 0 0.0026512088693910981 -0.0009181838874447475 0 0.0028630930527537772 -0.0017770486240138231 0 0.0026504195206880203 -0.00088734043868981356 0 0.0025762311158230625 -0.0010463141692367711 0 0.0028994629206620728 -0.0015160704628036832 0 0.0028400088239427328 -0.001814270173582895 0 0.0027244875871740028 -0.00050502676256518049 0 0.0026512088693910981 -0.0009181838874447475 0 0.0026210683671419365 -0.00064636300001150821 0 0.0026512088693910981 -0.0009181838874447475 0 0.002603562222866407 -0.00057545230922182312 0 0.0025599278911263923 -0.00044314390856810666 0 0.0026512088693910981 -0.0009181838874447475 0 0.002603562222866407 -0.00057545230922182312 0 0.0026210683671419365 -0.00064636300001150821 0 0.002603562222866407 -0.00057545230922182312 0 0.0026210683671419365 -0.00064636300001150821 0 0.0026307639384109695 -0.00054546591835645151 0 0.0026210683671419365 -0.00064636300001150821 0 0.0026307639384109695 -0.00054546591835645151 0 0.0026452132866134209 -0.00054260677152348199 0 0.0026307639384109695 -0.00054546591835645151 0 0.0026548836996922402 -0.00051271811646830517 0 0.0026452132866134209 -0.00054260677152348199 0 0.002603562222866407 -0.00057545230922182312 0 0.0026345008259558741 -0.00040148693393844264 0 0.0025599278911263923 -0.00044314390856810666 0 0.0026307639384109695 -0.00054546591835645151 0 0.0026345008259558741 -0.00040148693393844264 0 0.0026687806722491127 -0.00046112638883282555 0 0.002603562222866407 -0.00057545230922182312 0 0.0026307639384109695 -0.00054546591835645151 0 0.0026345008259558741 -0.00040148693393844264 0 0.0026345008259558741 -0.00040148693393844264 0 0.0026687806722491127 -0.00046112638883282555 0 0.0027381264392602458 -0.00028137906418526719 0 0.0026687806722491127 -0.00046112638883282555 0 0.0027343107491505677 -0.00042594409436046848 0 0.0027381264392602458 -0.00028137906418526719 0 0.0027337647670033524 -0.00045747819906672631 0 0.0027343107491505677 -0.00042594409436046848 0 0.0026759346728713941 -0.00049278748332938645 0 0.0027343107491505677 -0.00042594409436046848 0 0.0026786080281893565 -0.00047782167063552863 0 0.0026759346728713941 -0.00049278748332938645 0 0.0026687806722491127 -0.00046112638883282555 0 0.0026786080281893565 -0.00047782167063552863 0 0.0026548836996922402 -0.00051271811646830517 0 0.0026307639384109695 -0.00054546591835645151 0 0.0026687806722491127 -0.00046112638883282555 0 0.0026548836996922402 -0.00051271811646830517 0 0.0026687806722491127 -0.00046112638883282555 0 0.0027343107491505677 -0.00042594409436046848 0 0.0026786080281893565 -0.00047782167063552863 0 0.0026786080281893565 -0.00047782167063552863 0 0.0026548836996922402 -0.00051271811646830517 0 0.0026759346728713941 -0.00049278748332938645 0 0.0026548836996922402 -0.00051271811646830517 0 0.0026759346728713941 -0.00049278748332938645 0 0.0026632714062973933 -0.00047825918630839338 0 0.0026759346728713941 -0.00049278748332938645 0 0.0026774316048624801 -0.00048850540620505904 0 0.0026495217573229597 -0.00046349938733049182 0 0.0027337647670033524 -0.00045747819906672631 0 0.0026759346728713941 -0.00049278748332938645 0 0.0026774316048624801 -0.00048850540620505904 0 0.0026706324809439414 -0.00050429075046540652 0 0.0026774316048624801 -0.00048850540620505904 0 0.0026495217573229597 -0.00046349938733049182 0 0.0026759346728713941 -0.00049278748332938645 0 0.0026495217573229597 -0.00046349938733049182 0 0.0026632714062973933 -0.00047825918630839338 0 0.00279530732336142 -0.0003486826811690598 0 0.0026632714062973933 -0.00047825918630839338 0 0.0027323838486594779 -0.00044981122094551752 0 0.0027244875871740028 -0.00050502676256518049 0 0.0027323838486594779 -0.00044981122094551752 0 0.0026452132866134209 -0.00054260677152348199 0 0.0027244875871740028 -0.00050502676256518049 0 0.0026210683671419365 -0.00064636300001150821 0 0.0026452132866134209 -0.00054260677152348199 0 0.0026548836996922402 -0.00051271811646830517 0 0.0026632714062973933 -0.00047825918630839338 0 0.0026452132866134209 -0.00054260677152348199 0 0.0026632714062973933 -0.00047825918630839338 0 0.0027323838486594779 -0.00044981122094551752 0 0.0026452132866134209 -0.00054260677152348199 0 0.00080274881205124932 -0.003514590642604864 0 0.0014677637377560077 -0.0036744318163134415 0 0.0010567339192425822 -0.0032508524117651609 0 0.0013815592040265631 -0.0046188034170674061 0 0.0012401028914479726 -0.0046241158322597878 0 0.0012883433570199645 -0.0043666437019530919 0 0.0013815592040265631 -0.0046188034170674061 0 0.00080274881205124932 -0.003514590642604864 0 0.0014677637377560077 -0.0036744318163134415 0 0.0013679204875039718 -0.0045784855712387197 0 0.0010581863156757896 -0.0039533855753691258 0 0.0017770174335826033 -0.0043640098681584256 0 0.0014677637377560077 -0.0036744318163134415 0 0.0021128782548988949 -0.0039655947705070846 0 0.0013815592040265631 -0.0046188034170674061 0 0.0017770174335826033 -0.0043640098681584256 0 0.0014677637377560077 -0.0036744318163134415 0 0.0014677637377560077 -0.0036744318163134415 0 0.0021128782548988949 -0.0039655947705070846 0 0.0019156949074094565 -0.0030445308472397442 0 0.0019567155637911933 -0.0033117126746677258 0 0.002215924233810433 -0.0031451094247669392 0 0.0019156949074094565 -0.0030445308472397442 0 0.0020214975189103215 -0.0036395717431347389 0 0.0019437185676558744 -0.0030969585043221929 0 0.002169551071600378 -0.0035477446050133066 0 0.0019567155637911933 -0.0033117126746677258 0 0.002215924233810433 -0.0031451094247669392 0 0.001981644385049853 -0.003644048083707367 0 0.002169551071600378 -0.0035477446050133066 0 0.0019567155637911933 -0.0033117126746677258 0 0.0020088691512060858 -0.0041528499860254229 0 0.0020214975189103215 -0.0036395717431347389 0 0.002094196177273619 -0.0047505573295597734 0 0.0017770174335826033 -0.0043640098681584256 0 0.0021128782548988949 -0.0039655947705070846 0 0.002169551071600378 -0.0035477446050133066 0 0.002432436948936364 -0.0035223829348732779 0 0.002215924233810433 -0.0031451094247669392 0 0.0024487016191698423 -0.0027194626320630605 0 0.002215924233810433 -0.0031451094247669392 0 0.0021800962885781768 -0.0028492847616688089 0 0.0024487016191698423 -0.0027194626320630605 0 0.0021800962885781768 -0.0028492847616688089 0 0.0023391400706682841 -0.0024470510255889121 0 0.0023391400706682841 -0.0024470510255889121 0 0.0020546845606866145 -0.0025620473107120559 0 0.0023632813870854844 -0.0021224932276544773 0 0.0021800962885781768 -0.0028492847616688089 0 0.0023391400706682841 -0.0024470510255889121 0 0.0020546845606866145 -0.0025620473107120559 0 0.0020546845606866145 -0.0025620473107120559 0 0.0015870150918522047 -0.0026184556852254948 0 0.001829436132930523 -0.0023136294052344382 0 0.0020546845606866145 -0.0025620473107120559 0 0.0019156949074094565 -0.0030445308472397442 0 0.0015870150918522047 -0.0026184556852254948 0 0.0021800962885781768 -0.0028492847616688089 0 0.0020546845606866145 -0.0025620473107120559 0 0.0019156949074094565 -0.0030445308472397442 0 0.002215924233810433 -0.0031451094247669392 0 0.0021800962885781768 -0.0028492847616688089 0 0.0019156949074094565 -0.0030445308472397442 0 0.0014677637377560077 -0.0036744318163134415 0 0.0019156949074094565 -0.0030445308472397442 0 0.0013686228409508403 -0.0030301931686278196 0 0.0019156949074094565 -0.0030445308472397442 0 0.0015870150918522047 -0.0026184556852254948 0 0.0013686228409508403 -0.0030301931686278196 0 0.0015870150918522047 -0.0026184556852254948 0 0.0012703000077413024 -0.0027364660407545186 0 0.0012507773531181578 -0.0024937368986163934 0 0.0015870150918522047 -0.0026184556852254948 0 0.0012703000077413024 -0.0027364660407545186 0 0.0013686228409508403 -0.0030301931686278196 0 0.0012703000077413024 -0.0027364660407545186 0 0.0010649473189361272 -0.0026169486420500429 0 0.0012507773531181578 -0.0024937368986163934 0 0.0012703000077413024 -0.0027364660407545186 0 0.0010649473189361272 -0.0026169486420500429 0 0.0010462417685055321 -0.0029427483515987968 0 0.0010462417685055321 -0.0029427483515987968 0 0.0013686228409508403 -0.0030301931686278196 0 0.0010567339192425822 -0.0032508524117651609 0 0.0014677637377560077 -0.0036744318163134415 0 0.0013686228409508403 -0.0030301931686278196 0 0.0010567339192425822 -0.0032508524117651609 0 0.0012703000077413024 -0.0027364660407545186 0 0.0010462417685055321 -0.0029427483515987968 0 0.0013686228409508403 -0.0030301931686278196 0 0.0010808386184851546 -0.0021500398842575104 0 0.0012782200615241448 -0.0022012618638442205 0 0.0011922142960466466 -0.0020362424662332258 0 0.00090468030796342857 -0.0022396829398700245 0 0.0010808386184851546 -0.0021500398842575104 0 0.00098991868841568275 -0.0020712157242056472 0 0.0010808386184851546 -0.0021500398842575104 0 0.0010811339984113967 -0.0023410517136868134 0 0.0012782200615241448 -0.0022012618638442205 0 0.00090468030796342857 -0.0022396829398700245 0 0.0010808386184851546 -0.0021500398842575104 0 0.0010811339984113967 -0.0023410517136868134 0 0.0010649473189361272 -0.0026169486420500429 0 0.0010811339984113967 -0.0023410517136868134 0 0.0012507773531181578 -0.0024937368986163934 0 0.00086563225219682871 -0.0024487441208272784 0 0.0010649473189361272 -0.0026169486420500429 0 0.0010811339984113967 -0.0023410517136868134 0 0.0010811339984113967 -0.0023410517136868134 0 0.0012507773531181578 -0.0024937368986163934 0 0.0012782200615241448 -0.0022012618638442205 0 0.0015870150918522047 -0.0026184556852254948 0 0.0012782200615241448 -0.0022012618638442205 0 0.001829436132930523 -0.0023136294052344382 0 0.0015870150918522047 -0.0026184556852254948 0 0.0012507773531181578 -0.0024937368986163934 0 0.0012782200615241448 -0.0022012618638442205 0 0.0012782200615241448 -0.0022012618638442205 0 0.0015229967385962037 -0.0021615198495434475 0 0.0011922142960466466 -0.0020362424662332258 0 0.0015229967385962037 -0.0021615198495434475 0 0.0014560174725046424 -0.0019133077301174432 0 0.0011922142960466466 -0.0020362424662332258 0 0.0012782200615241448 -0.0022012618638442205 0 0.0020612805323213718 -0.0019314054786476662 0 0.001829436132930523 -0.0023136294052344382 0 0.0013070874508257417 -0.0021848879239997235 0 0.0018011970361649112 -0.0020366469598627514 0 0.0020612805323213718 -0.0019314054786476662 0 0.0023632813870854844 -0.0021224932276544773 0 0.0026570842483856108 -0.0018305697714311158 0 0.0020546845606866145 -0.0025620473107120559 0 0.001829436132930523 -0.0023136294052344382 0 0.0023632813870854844 -0.0021224932276544773 0 0.0020612805323213718 -0.0019314054786476662 0 0.001829436132930523 -0.0023136294052344382 0 0.0023632813870854844 -0.0021224932276544773 0 0.0018011970361649112 -0.0020366469598627514 0 0.002280886508774429 -0.0021128100509288394 0 0.0015229967385962037 -0.0021615198495434475 0 0.0017465449554259548 -0.0019200788521298296 0 0.0014560174725046424 -0.0019133077301174432 0 0.0015229967385962037 -0.0021615198495434475 0 0.0017465449554259548 -0.0019200788521298296 0 0.0019675691130700062 -0.0021195212725350098 0 0.0017465449554259548 -0.0019200788521298296 0 0.0015337740548935154 -0.0016663372491373875 0 0.0014560174725046424 -0.0019133077301174432 0 0.0017465449554259548 -0.0019200788521298296 0 0.0015337740548935154 -0.0016663372491373875 0 0.0018911765508037128 -0.0016541765201647314 0 0.0015337740548935154 -0.0016663372491373875 0 0.0016858879009538968 -0.0015709031502474796 0 0.001534125511890406 -0.001448637421404337 0 0.001546888922878864 -0.0016513151480547215 0 0.0017912988783024496 -0.0016152857737102649 0 0.0015337740548935154 -0.0016663372491373875 0 0.0013454217602593081 -0.0015604831142836521 0 0.0013295725740711203 -0.001776801919246095 0 0.0015337740548935154 -0.0016663372491373875 0 0.0013454217602593081 -0.0015604831142836521 0 0.001534125511890406 -0.001448637421404337 0 0.0015337740548935154 -0.0016663372491373875 0 0.0014560174725046424 -0.0019133077301174432 0 0.0013295725740711203 -0.001776801919246095 0 0.0011922142960466466 -0.0020362424662332258 0 0.0013295725740711203 -0.001776801919246095 0 0.0011210852854238891 -0.0017215140753149933 0 0.00122131947655248 -0.0022395875516557345 0 0.00099658281003001505 -0.0012565535026501774 0 0.0014560174725046424 -0.0019133077301174432 0 0.0011922142960466466 -0.0020362424662332258 0 0.0013295725740711203 -0.001776801919246095 0 0.0013454217602593081 -0.0015604831142836521 0 0.0013295725740711203 -0.001776801919246095 0 0.0012436413930253061 -0.0016688797046375125 0 0.0013295725740711203 -0.001776801919246095 0 0.0012436413930253061 -0.0016688797046375125 0 0.0011210852854238891 -0.0017215140753149933 0 0.0013454217602593081 -0.0015604831142836521 0 0.0012436413930253061 -0.0016688797046375125 0 0.0012219372933724975 -0.0015797333198816275 0 0.0012219372933724975 -0.0015797333198816275 0 0.0011210852854238891 -0.0017215140753149933 0 0.0011585733656909911 -0.0015845711240464642 0 0.0012436413930253061 -0.0016688797046375125 0 0.0012219372933724975 -0.0015797333198816275 0 0.0011210852854238891 -0.0017215140753149933 0 0.0011210852854238891 -0.0017215140753149933 0 0.0011236724097260608 -0.0015585703625671733 0 0.0011585733656909911 -0.0015845711240464642 0 0.00099658281003001505 -0.0012565535026501774 0 -0.00013451395311592571 -0.005536925086719784 0 0.0010738627861213532 -0.0020100119434080803 0 0.001002074422428599 -0.0020058758785905084 0 0.001028390367151466 -0.0019274974615668384 0 0.00091953489439904198 -0.002007553636920326 0 0.001002074422428599 -0.0020058758785905084 0 0.001028390367151466 -0.0019274974615668384 0 0.00091953489439904198 -0.002007553636920326 0 0.001002074422428599 -0.0020058758785905084 0 0.00098991868841568275 -0.0020712157242056472 0 0.0010808386184851546 -0.0021500398842575104 0 0.0011922142960466466 -0.0020362424662332258 0 0.00098991868841568275 -0.0020712157242056472 0 0.0011922142960466466 -0.0020362424662332258 0 0.0010738627861213532 -0.0020100119434080803 0 0.00098991868841568275 -0.0020712157242056472 0 0.0010738627861213532 -0.0020100119434080803 0 0.001002074422428599 -0.0020058758785905084 0 0.00098991868841568275 -0.0020712157242056472 0 0.0024804001487220271 9.203049262360876e-05 0 0.0025947859358766527 -5.5023560277626965e-05 0 0.0024214623066721739 -0.00027160387156690272 0 0.0024804001487220271 9.203049262360876e-05 0 0.0025947859358766527 -5.5023560277626965e-05 0 0.0027294903193721379 0.00019082674995065106 0 0.0026703832220477544 -0.0009652797618632102 0 0.0025762311158230625 -0.0010463141692367711 0 0.0026703832220477544 -0.0009652797618632102 0 0.0029382942503466377 0.00026119691650695073 0 0.0029075095019580137 0.00020227512895434668 0 0.0027294903193721379 0.00019082674995065106 0 0.0027378794955224633 -1.624079177818695e-05 0 0.0025947859358766527 -5.5023560277626965e-05 0 0.0027294903193721379 0.00019082674995065106 0 0.0027378794955224633 -1.624079177818695e-05 0 0.0025947859358766527 -5.5023560277626965e-05 0 0.0026577907743155953 -0.00018743639434618608 0 0.0027378794955224633 -1.624079177818695e-05 0 0.0026577907743155953 -0.00018743639434618608 0 0.0027378794955224633 -1.624079177818695e-05 0 0.0027381264392602458 -0.00028137906418526719 0 0.0028323924895445399 -8.4509789159392565e-05 0 0.0027378794955224633 -1.624079177818695e-05 0 0.0027381264392602458 -0.00028137906418526719 0 0.0026345008259558741 -0.00040148693393844264 0 0.0026577907743155953 -0.00018743639434618608 0 0.0027381264392602458 -0.00028137906418526719 0 0.0026345008259558741 -0.00040148693393844264 0 0.0025811165011569558 -0.0002656743773946988 0 0.0025599278911263923 -0.00044314390856810666 0 0.0026512088693910981 -0.0009181838874447475 0 0.0025599278911263923 -0.00044314390856810666 0 0.0024214623066721739 -0.00027160387156690272 0 0.0027763012073194174 -0.0018997773749360352 0 0.00266826570911437 -0.0019539534671336712 0 0.0027447507394770488 -0.0019209155882844936 0 0.0026345008259558741 -0.00040148693393844264 0 0.0026577907743155953 -0.00018743639434618608 0 0.0025811165011569558 -0.0002656743773946988 0 0.0025947859358766527 -5.5023560277626965e-05 0 0.0025811165011569558 -0.0002656743773946988 0 0.0024214623066721739 -0.00027160387156690272 0 0.0025947859358766527 -5.5023560277626965e-05 0 0.0026577907743155953 -0.00018743639434618608 0 0.0025811165011569558 -0.0002656743773946988 0 0.0025811165011569558 -0.0002656743773946988 0 0.0025599278911263923 -0.00044314390856810666 0 0.0024214623066721739 -0.00027160387156690272 0 0.0025916844222243019 -0.0022257415253882284 0 0.0028630930527537772 -0.0017770486240138231 0 0.0026968141677325913 -0.0019515947162718091 0 0.0026512088693910981 -0.0009181838874447475 0 0.00266826570911437 -0.0019539534671336712 0 0.0028630930527537772 -0.0017770486240138231 0 0.0027447507394770488 -0.0019209155882844936 0 0.0026968141677325913 -0.0019515947162718091 0 0.0026570842483856108 -0.0018305697714311158 0 0.0028630930527537772 -0.0017770486240138231 0 0.0027447507394770488 -0.0019209155882844936 0 0.0026968141677325913 -0.0019515947162718091 0 0.00266826570911437 -0.0019539534671336712 0 0.0028630930527537772 -0.0017770486240138231 0 0.0027447507394770488 -0.0019209155882844936 0 0.0023632813870854844 -0.0021224932276544773 0 0.0026968141677325913 -0.0019515947162718091 0 0.0026570842483856108 -0.0018305697714311158 0 0.0025916844222243019 -0.0022257415253882284 0 0.0023632813870854844 -0.0021224932276544773 0 0.0026968141677325913 -0.0019515947162718091 0 0.0017465449554259548 -0.0019200788521298296 0 0.0019675691130700062 -0.0021195212725350098 0 0.0021863503350352587 -0.0019279043719639269 0 0.0026703832220477544 -0.0009652797618632102 0 0.002280886508774429 -0.0021128100509288394 0 0.0027763012073194174 -0.0018997773749360352 0 0.0027447507394770488 -0.0019209155882844936 0 0.0026570842483856108 -0.0018305697714311158 0 0.0024458770918400134 -0.0020544583184883823 0 0.0019675691130700062 -0.0021195212725350098 0 0.0021863503350352587 -0.0019279043719639269 0 0.0021863503350352587 -0.0019279043719639269 0 0.0018911765508037128 -0.0016541765201647314 0 0.0022404477562194178 -0.0016430775877245103 0 0.0024458770918400134 -0.0020544583184883823 0 0.0021863503350352587 -0.0019279043719639269 0 0.0022404477562194178 -0.0016430775877245103 0 0.0017465449554259548 -0.0019200788521298296 0 0.0021863503350352587 -0.0019279043719639269 0 0.0018911765508037128 -0.0016541765201647314 0 0.0016858879009538968 -0.0015709031502474796 0 0.0018214739581456903 -0.0012987848712347286 0 0.0016744581973895856 -0.001314661171058585 0 0.0016858879009538968 -0.0015709031502474796 0 0.0016744581973895856 -0.001314661171058585 0 0.001534125511890406 -0.001448637421404337 0 0.0018904728467049343 -0.0015490579138626773 0 0.0020406750063856251 -0.0013457481146960783 0 0.0018214739581456903 -0.0012987848712347286 0 0.0017912988783024496 -0.0016152857737102649 0 0.002021907343276431 -0.0016515878894045708 0 0.0016858879009538968 -0.0015709031502474796 0 0.0018904728467049343 -0.0015490579138626773 0 0.0018214739581456903 -0.0012987848712347286 0 0.0020406750063856251 -0.0013457481146960783 0 0.0022501945387643093 -0.0016027127597845446 0 0.0024839971881494209 -0.0011574427807686789 0 0.0018904728467049343 -0.0015490579138626773 0 0.0020406750063856251 -0.0013457481146960783 0 0.0022501945387643093 -0.0016027127597845446 0 0.002021907343276431 -0.0016515878894045708 0 0.0026882425716745636 -0.00065625476259444017 0 0.0026703832220477544 -0.0009652797618632102 0 0.0026882425716745636 -0.00065625476259444017 0 0.0024458770918400134 -0.0020544583184883823 0 0.0022404477562194178 -0.0016430775877245103 0 0.0025968665257602246 -0.0016357705455053533 0 0.0029638567920820509 0.00022380333647699051 0 0.0030097072114276427 0.00029394890491631163 0 0.0030787668294839552 0.00023431144113476298 0 0.0031108193565055138 0.00034156297456378265 0 0.0030412663856714214 0.00034456957100189266 0 0.0030787668294839552 0.00023431144113476298 0 0.0030412663856714214 0.00034456957100189266 0 0.0030097072114276427 0.00029394890491631163 0 0.0030787668294839552 0.00023431144113476298 0 0.0026584743947799501 0.00019315432263862888 0 0.0027918510862150023 0.00026985155606482465 0 0.002759507022188763 0.00014359331872423068 0 0.0026413447942816139 0.00026782283485300235 0 0.0026584743947799501 0.00019315432263862888 0 0.0027918510862150023 0.00026985155606482465 0 0.0026882425716745636 -0.00065625476259444017 0 0.002594984020061242 -0.00050127253640744459 0 0.0028508544008986367 0.00032982085984413544 0 0.0026882425716745636 -0.00065625476259444017 0 0.0024839971881494209 -0.0011574427807686789 0 0.0024203297028010939 -0.00058239793502077946 0 0.0019967851389744947 -0.0010346274679527343 0 0.002759507022188763 0.00014359331872423068 0 0.0026393195148301206 7.458057404660598e-05 0 0.002672750732938268 -0.00013272589023214157 0 0.002594984020061242 -0.00050127253640744459 0 0.0026806721423108014 -0.00017744270917516752 0 0.0024839971881494209 -0.0011574427807686789 0 0.0024203297028010939 -0.00058239793502077946 0 0.002672750732938268 -0.00013272589023214157 0 0.0024203297028010939 -0.00058239793502077946 0 0.0019967851389744947 -0.0010346274679527343 0 0.0025207778586009734 -3.1639757138986239e-05 0 0.0020159968352017011 -0.00097218905913882701 0 0.0023172131403088442 -0.00049290722767629362 0 0.0024203297028010939 -0.00058239793502077946 0 0.0025207778586009734 -3.1639757138986239e-05 0 0.002672750732938268 -0.00013272589023214157 0 0.0019732294772685454 -0.00095204859624807656 0 0.0019967851389744947 -0.0010346274679527343 0 0.0021143887621647675 -0.00090751318279873143 0 0.0020406750063856251 -0.0013457481146960783 0 0.0024839971881494209 -0.0011574427807686789 0 0.0019967851389744947 -0.0010346274679527343 0 0.0020406750063856251 -0.0013457481146960783 0 0.0019967851389744947 -0.0010346274679527343 0 0.0018214739581456903 -0.0012987848712347286 0 0.0019967851389744947 -0.0010346274679527343 0 0.0018214739581456903 -0.0012987848712347286 0 0.0017825749357032049 -0.0010621236154789708 0 0.0018214739581456903 -0.0012987848712347286 0 0.0016744581973895856 -0.001314661171058585 0 0.0017825749357032049 -0.0010621236154789708 0 0.0017328937081927023 -0.0010636588669856381 0 0.0014354785228177403 -0.0012316893872339136 0 0.0016744581973895856 -0.001314661171058585 0 0.0017825749357032049 -0.0010621236154789708 0 0.0015475807051523211 -0.0011891673426301041 0 0.0016690396548281459 -0.0010768538467586771 0 0.0015178119650122097 -0.00097472589834982158 0 0.0013566744907236373 -0.0011941509953981052 0 0.0019732294772685454 -0.00095204859624807656 0 0.0019967851389744947 -0.0010346274679527343 0 0.0017825749357032049 -0.0010621236154789708 0 0.0019555143133556047 -0.00097500327308660943 0 0.0017328937081927023 -0.0010636588669856381 0 0.0019732294772685454 -0.00095204859624807656 0 0.0016690396548281459 -0.0010768538467586771 0 0.0018141026174851008 -0.00083726189386936498 0 0.0016690396548281459 -0.0010768538467586771 0 0.0018141026174851008 -0.00083726189386936498 0 0.0016676291705477388 -0.00084163949129344997 0 0.0016690396548281459 -0.0010768538467586771 0 0.0015178119650122097 -0.00097472589834982158 0 0.0016676291705477388 -0.00084163949129344997 0 0.0015178119650122097 -0.00097472589834982158 0 0.0016676291705477388 -0.00084163949129344997 0 0.0015374229884502961 -0.00077947256812651309 0 0.0015374229884502961 -0.00077947256812651309 0 0.0013238416842597082 -0.00068515379258267341 0 0.0016099469604511456 -0.00060628852339373045 0 0.0016676291705477388 -0.00084163949129344997 0 0.0015374229884502961 -0.00077947256812651309 0 0.0016830919285807792 -0.00068418276238746791 0 0.0015374229884502961 -0.00077947256812651309 0 0.0016830919285807792 -0.00068418276238746791 0 0.0016099469604511456 -0.00060628852339373045 0 0.0016830919285807792 -0.00068418276238746791 0 0.0017161106191878599 -0.00058323125107363055 0 0.0016099469604511456 -0.00060628852339373045 0 0.0018141026174851008 -0.00083726189386936498 0 0.0018484753757482867 -0.00069723359597095207 0 0.0019129452839785584 -0.00074162705315669911 0 0.0018141026174851008 -0.00083726189386936498 0 0.0018484753757482867 -0.00069723359597095207 0 0.0017723720739987586 -0.00070259793223214847 0 0.0018141026174851008 -0.00083726189386936498 0 0.0016676291705477388 -0.00084163949129344997 0 0.0017723720739987586 -0.00070259793223214847 0 0.0016676291705477388 -0.00084163949129344997 0 0.0017723720739987586 -0.00070259793223214847 0 0.0016830919285807792 -0.00068418276238746791 0 0.0017723720739987586 -0.00070259793223214847 0 0.0016830919285807792 -0.00068418276238746791 0 0.0017663282093532122 -0.00061469840307924522 0 0.0016830919285807792 -0.00068418276238746791 0 0.0017663282093532122 -0.00061469840307924522 0 0.0017161106191878599 -0.00058323125107363055 0 0.0018484753757482867 -0.00069723359597095207 0 0.0017723720739987586 -0.00070259793223214847 0 0.0018350305263555849 -0.00059044418886960905 0 0.0017723720739987586 -0.00070259793223214847 0 0.0017663282093532122 -0.00061469840307924522 0 0.0018350305263555849 -0.00059044418886960905 0 0.0019084914359766333 -0.00061377659926464042 0 0.0019892215992367134 -0.00050776447263391948 0 0.0019076829365649846 -0.00051900790482170805 0 0.0018350305263555849 -0.00059044418886960905 0 0.0019084914359766333 -0.00061377659926464042 0 0.0019076829365649846 -0.00051900790482170805 0 0.0018484753757482867 -0.00069723359597095207 0 0.0018350305263555849 -0.00059044418886960905 0 0.0019084914359766333 -0.00061377659926464042 0 0.0019084914359766333 -0.00061377659926464042 0 0.0019129452839785584 -0.00074162705315669911 0 0.0019762220225496233 -0.00066692504200988728 0 0.0018484753757482867 -0.00069723359597095207 0 0.0019084914359766333 -0.00061377659926464042 0 0.0019129452839785584 -0.00074162705315669911 0 0.0019129452839785584 -0.00074162705315669911 0 0.0019762220225496233 -0.00066692504200988728 0 0.0020085046575048482 -0.00079967818839940259 0 0.0019762220225496233 -0.00066692504200988728 0 0.0020780311766847408 -0.00066123425328079122 0 0.0020085046575048482 -0.00079967818839940259 0 0.0019084914359766333 -0.00061377659926464042 0 0.0019762220225496233 -0.00066692504200988728 0 0.0019892215992367134 -0.00050776447263391948 0 0.0021066488807668579 -0.00050351269696353508 0 0.0020780311766847408 -0.00066123425328079122 0 0.0022996910698093159 -0.00058874698146902055 0 0.0019762220225496233 -0.00066692504200988728 0 0.0021066488807668579 -0.00050351269696353508 0 0.0020780311766847408 -0.00066123425328079122 0 0.0020780311766847408 -0.00066123425328079122 0 0.0021141430019573585 -0.00075276430019271244 0 0.0022996910698093159 -0.00058874698146902055 0 0.0019762220225496233 -0.00066692504200988728 0 0.0021066488807668579 -0.00050351269696353508 0 0.0019892215992367134 -0.00050776447263391948 0 0.0021141430019573585 -0.00075276430019271244 0 0.0021143887621647675 -0.00090751318279873143 0 0.0020085046575048482 -0.00079967818839940259 0 0.0021141430019573585 -0.00075276430019271244 0 0.0021143887621647675 -0.00090751318279873143 0 0.0022996910698093159 -0.00058874698146902055 0 0.0020780311766847408 -0.00066123425328079122 0 0.0021141430019573585 -0.00075276430019271244 0 0.0020085046575048482 -0.00079967818839940259 0 0.0019732294772685454 -0.00095204859624807656 0 0.0019323128664396065 -0.00084354105073835997 0 0.0020085046575048482 -0.00079967818839940259 0 0.0019732294772685454 -0.00095204859624807656 0 0.0021143887621647675 -0.00090751318279873143 0 0.0020085046575048482 -0.00079967818839940259 0 0.0019732294772685454 -0.00095204859624807656 0 0.0018141026174851008 -0.00083726189386936498 0 0.0019323128664396065 -0.00084354105073835997 0 0.0018141026174851008 -0.00083726189386936498 0 0.0019129452839785584 -0.00074162705315669911 0 0.0019323128664396065 -0.00084354105073835997 0 0.0019129452839785584 -0.00074162705315669911 0 0.0019323128664396065 -0.00084354105073835997 0 0.0020085046575048482 -0.00079967818839940259 0 0.00068468788501765228 -0.0014146232922064603 0 0.00086904974718754956 -0.0011742177951607749 0 0.00064086002997736839 -0.0012307106822763833 0 0.0010391010889799926 -0.0093576273689433276 0 0.0019593348361774347 -0.0096326621846161333 0 0.0017921154822773107 -0.0089102688119521746 0 0.00083222126276468302 -0.0060202797681355828 0 0.0025296998491422702 -0.0089586427054621567 0 -0.00018008143139571381 -0.012182418370746793 0 -0.00031379950163960574 -0.012244559048964872 0 -0.00037482360622790174 -0.011985141689507187 0 0.0010984083119840217 -0.0014510630323052618 0 0.0011236724097260608 -0.0015585703625671733 0 0.0011679995664260338 -0.0014705285367119158 0 0.00083222126276468302 -0.0060202797681355828 0 -0.00013451395311592571 -0.005536925086719784 0 0.0011236724097260608 -0.0015585703625671733 0 0.0011897461309706074 -0.0015129235783117572 0 0.0011585733656909911 -0.0015845711240464642 0 0.0011236724097260608 -0.0015585703625671733 0 0.0011679995664260338 -0.0014705285367119158 0 0.0011897461309706074 -0.0015129235783117572 0 0.0011679995664260338 -0.0014705285367119158 0 0.0011897461309706074 -0.0015129235783117572 0 0.0012542542393719467 -0.0014627997301935539 0 0.0012219372933724975 -0.0015797333198816275 0 0.0011897461309706074 -0.0015129235783117572 0 0.0011585733656909911 -0.0015845711240464642 0 0.0012219372933724975 -0.0015797333198816275 0 0.0011897461309706074 -0.0015129235783117572 0 0.0012542542393719467 -0.0014627997301935539 0 0.0013454217602593081 -0.0015604831142836521 0 0.0012219372933724975 -0.0015797333198816275 0 0.0012542542393719467 -0.0014627997301935539 0 0.0010984083119840217 -0.0014510630323052618 0 0.0011679995664260338 -0.0014705285367119158 0 0.0013017774026090683 -0.0013084376025766396 0 0.00068468788501765228 -0.0014146232922064603 0 0.001026934909287553 -0.0013070393623561649 0 0.00086904974718754956 -0.0011742177951607749 0 0.00083222126276468302 -0.0060202797681355828 0 0.0012234323030678128 -0.00087915234140653056 0 0.0011679995664260338 -0.0014705285367119158 0 0.0012542542393719467 -0.0014627997301935539 0 0.0013017774026090683 -0.0013084376025766396 0 0.001026934909287553 -0.0013070393623561649 0 0.0013566744907236373 -0.0011941509953981052 0 0.0012837608692788621 -0.00097528991005674714 0 0.0013017774026090683 -0.0013084376025766396 0 0.0013844484273049019 -0.0014212987282337546 0 0.0015475807051523211 -0.0011891673426301041 0 0.0012234323030678128 -0.00087915234140653056 0 0.0014354785228177403 -0.0012316893872339136 0 0.0012542542393719467 -0.0014627997301935539 0 0.0013017774026090683 -0.0013084376025766396 0 0.0013844484273049019 -0.0014212987282337546 0 0.0013454217602593081 -0.0015604831142836521 0 0.0013844484273049019 -0.0014212987282337546 0 0.001534125511890406 -0.001448637421404337 0 0.0013454217602593081 -0.0015604831142836521 0 0.0012542542393719467 -0.0014627997301935539 0 0.0013844484273049019 -0.0014212987282337546 0 0.0013844484273049019 -0.0014212987282337546 0 0.001534125511890406 -0.001448637421404337 0 0.0015475807051523211 -0.0011891673426301041 0 0.0016744581973895856 -0.001314661171058585 0 0.001534125511890406 -0.001448637421404337 0 0.0015475807051523211 -0.0011891673426301041 0 0.0015178119650122097 -0.00097472589834982158 0 0.0013566744907236373 -0.0011941509953981052 0 0.0012837608692788621 -0.00097528991005674714 0 0.0015178119650122097 -0.00097472589834982158 0 0.0015374229884502961 -0.00077947256812651309 0 0.0012837608692788621 -0.00097528991005674714 0 0.0015374229884502961 -0.00077947256812651309 0 0.0012837608692788621 -0.00097528991005674714 0 0.0013238416842597082 -0.00068515379258267341 0 0.0027082041986639916 -0.0061773535269685322 0 0.0021821723234429621 -0.0060202486279473701 0 0.0038278970240309012 -0.011600528296566083 0 0.0034433512089327243 -0.011790125709578134 0 0.0035394616633165595 -0.011613773508074491 0 0.0012837608692788621 -0.00097528991005674714 0 0.0013238416842597082 -0.00068515379258267341 0 0.00098742760437515119 -0.00094965100026089995 0 0.001026934909287553 -0.0013070393623561649 0 0.0012837608692788621 -0.00097528991005674714 0 0.00098742760437515119 -0.00094965100026089995 0 0.00086904974718754956 -0.0011742177951607749 0 0.00098742760437515119 -0.00094965100026089995 0 0.00064086002997736839 -0.0012307106822763833 0 0.0034433512089327243 -0.011790125709578134 0 0.0033580228075602162 -0.011760305054189991 0 0.003279283396406481 -0.011802741894851585 0 0.0021821723234429621 -0.0060202486279473701 0 0.0025296998491422702 -0.0089586427054621567 0 0.001026934909287553 -0.0013070393623561649 0 0.00086904974718754956 -0.0011742177951607749 0 0.00098742760437515119 -0.00094965100026089995 0 0.0034433512089327243 -0.011790125709578134 0 0.0034058351888877434 -0.011708545436984612 0 0.0035394616633165595 -0.011613773508074491 0 0.0034058351888877434 -0.011708545436984612 0 0.0033580228075602162 -0.011760305054189991 0 0.0033253193666919301 -0.011732873127791416 0 0.0034058351888877434 -0.011708545436984612 0 0.0033253193666919301 -0.011732873127791416 0 0.0034003882390075601 -0.011615557469120952 0 0.0034433512089327243 -0.011790125709578134 0 0.0034058351888877434 -0.011708545436984612 0 0.0033580228075602162 -0.011760305054189991 0 0.00309191739857613 -0.011928092303689641 0 0.0030851145730786912 -0.011902159869604577 0 0.0033253193666919301 -0.011732873127791416 0 0.0032807239249879887 -0.011735488057919486 0 0.0033125981705406926 -0.011755440275535036 0 0.003279283396406481 -0.011802741894851585 0 0.0033580228075602162 -0.011760305054189991 0 0.0033125981705406926 -0.011755440275535036 0 0.0033253193666919301 -0.011732873127791416 0 0.0030590227759910945 -0.01269753383255141 0 0.003380452155678385 -0.011757271783888759 0 0.0032807239249879887 -0.011735488057919486 0 0.0033125981705406926 -0.011755440275535036 0 0.0033253193666919301 -0.011732873127791416 0 0.0030526115018577739 -0.011796283069163608 0 0.0030851145730786912 -0.011902159869604577 0 0.0033253193666919301 -0.011732873127791416 0 0.0033580228075602162 -0.011760305054189991 0 0.0033125981705406926 -0.011755440275535036 0 0.003279283396406481 -0.011802741894851585 0 0.0030590227759910945 -0.01269753383255141 0 0.0025296998491422702 -0.0089586427054621567 0 0.0031090754082225228 -0.011430862674731802 0 0.0032542481434327634 -0.01122365382670561 0 0.002960982888655568 -0.011087547539331027 0 0.0027950284742705128 -0.011461840825934308 0 0.0031090754082225228 -0.011430862674731802 0 0.002960982888655568 -0.011087547539331027 0 0.0031090754082225228 -0.011430862674731802 0 0.0033585715916734766 -0.011428202525204238 0 0.0032542481434327634 -0.01122365382670561 0 0.0028421956737034303 -0.011784411888035638 0 0.0029891708418901767 -0.011566148704848208 0 0.0031961702740924331 -0.011584385303036848 0 0.0028421956737034303 -0.011784411888035638 0 0.0031961702740924331 -0.011584385303036848 0 0.0034003882390075601 -0.011615557469120952 0 0.0030526115018577739 -0.011796283069163608 0 0.0033253193666919301 -0.011732873127791416 0 0.0034003882390075601 -0.011615557469120952 0 0.0027950284742705128 -0.011461840825934308 0 0.0031090754082225228 -0.011430862674731802 0 0.0029891708418901767 -0.011566148704848208 0 0.0029490610017031777 -0.011784462760700531 0 0.003379061574287797 -0.011644779661385975 0 0.0031090754082225228 -0.011430862674731802 0 0.0031961702740924331 -0.011584385303036848 0 0.0033585715916734766 -0.011428202525204238 0 0.0031090754082225228 -0.011430862674731802 0 0.0029891708418901767 -0.011566148704848208 0 0.0031961702740924331 -0.011584385303036848 0 0.0031961702740924331 -0.011584385303036848 0 0.0034003882390075601 -0.011615557469120952 0 0.0033585715916734766 -0.011428202525204238 0 0.0034003882390075601 -0.011615557469120952 0 0.0036371857929835042 -0.011444463907680615 0 0.0035394616633165595 -0.011613773508074491 0 0.0034003882390075601 -0.011615557469120952 0 0.0033585715916734766 -0.011428202525204238 0 0.0036371857929835042 -0.011444463907680615 0 0.0034058351888877434 -0.011708545436984612 0 0.0034003882390075601 -0.011615557469120952 0 0.0035394616633165595 -0.011613773508074491 0 0.0033585715916734766 -0.011428202525204238 0 0.0034649503016466574 -0.011251814468137555 0 0.0036371857929835042 -0.011444463907680615 0 0.0033585715916734766 -0.011428202525204238 0 0.0032542481434327634 -0.01122365382670561 0 0.0034649503016466574 -0.011251814468137555 0 0.0034649503016466574 -0.011251814468137555 0 0.0036371857929835042 -0.011444463907680615 0 0.0036564840023307361 -0.011102633765908703 0 0.0036371857929835042 -0.011444463907680615 0 0.003880857463323431 -0.01114125323085057 0 0.0036564840023307361 -0.011102633765908703 0 0.0038278970240309012 -0.011600528296566083 0 0.0036371857929835042 -0.011444463907680615 0 0.0035394616633165595 -0.011613773508074491 0 0.0038278970240309012 -0.011600528296566083 0 0.0039364514736179553 -0.011346772288258793 0 0.004185126506128325 -0.011343984428069364 0 0.0038278970240309012 -0.011600528296566083 0 0.0036371857929835042 -0.011444463907680615 0 0.0039364514736179553 -0.011346772288258793 0 0.0036371857929835042 -0.011444463907680615 0 0.0039364514736179553 -0.011346772288258793 0 0.003880857463323431 -0.01114125323085057 0 0.0039364514736179553 -0.011346772288258793 0 0.003880857463323431 -0.01114125323085057 0 0.0040980582459304851 -0.011142384894157552 0 0.003880857463323431 -0.01114125323085057 0 0.0038726798340042502 -0.010803079719478009 0 0.0041073736797338735 -0.010905316687031333 0 0.003880857463323431 -0.01114125323085057 0 0.0038726798340042502 -0.010803079719478009 0 0.0036564840023307361 -0.011102633765908703 0 0.0028893232136058804 -0.010996836113442043 0 0.0034459721290780159 -0.011423564830758057 0 0.0027089288937717521 -0.011452564125660035 0 0.0034459721290780159 -0.011423564830758057 0 0.0027089288937717521 -0.011452564125660035 0 0.0025188224647279909 -0.012046431466950322 0 0.0036478905237468089 -0.011111607523247241 0 0.0029773268090198066 -0.011492055080458799 0 0.0038726798340042502 -0.010803079719478009 0 0.0036564840023307361 -0.011102633765908703 0 0.0034561530830994718 -0.010932019347150938 0 0.0032542481434327634 -0.01122365382670561 0 0.0034649503016466574 -0.011251814468137555 0 0.0034561530830994718 -0.010932019347150938 0 0.0034649503016466574 -0.011251814468137555 0 0.0036564840023307361 -0.011102633765908703 0 0.0034561530830994718 -0.010932019347150938 0 0.0025188224647279909 -0.012046431466950322 0 0.0022739013942174309 -0.011476576057528689 0 0.0018547057024707416 -0.01198729699713881 0 0.0027089288937717521 -0.011452564125660035 0 0.0025188224647279909 -0.012046431466950322 0 0.0022739013942174309 -0.011476576057528689 0 0.0023900850127170858 -0.011158616856991444 0 0.0027089288937717521 -0.011452564125660035 0 0.0022739013942174309 -0.011476576057528689 0 0.001413804872020336 -0.011695045829002295 0 0.0022739013942174309 -0.011476576057528689 0 0.0018547057024707416 -0.01198729699713881 0 0.0013762464185019193 -0.011977587620394199 0 0.0021498478276501271 -0.011365478907349855 0 0.0029773268090198066 -0.011492055080458799 0 0.0023346558911987139 -0.011829444276631212 0 0.0025188224647279909 -0.012046431466950322 0 0.0018547057024707416 -0.01198729699713881 0 0.0017253744411658666 -0.012564732375248418 0 0.0032542481434327634 -0.01122365382670561 0 0.0034561530830994718 -0.010932019347150938 0 0.002960982888655568 -0.011087547539331027 0 0.0019179606329980203 -0.00026510207258680736 0 0.0020676368129324534 -0.00019605054407172365 0 0.0019533571811506385 -0.0004004561369380033 0 0.0019179606329980203 -0.00026510207258680736 0 0.0019533571811506385 -0.0004004561369380033 0 0.0018642143120253525 -0.00038456368292896369 0 0.0020676368129324534 -0.00019605054407172365 0 0.002082514909108284 -0.00035071754993561089 0 0.0022282703019898082 -0.00025201505631370101 0 0.0020676368129324534 -0.00019605054407172365 0 0.002082514909108284 -0.00035071754993561089 0 0.0019533571811506385 -0.0004004561369380033 0 0.0021066488807668579 -0.00050351269696353508 0 0.002082514909108284 -0.00035071754993561089 0 0.0022282703019898082 -0.00025201505631370101 0 0.0021066488807668579 -0.00050351269696353508 0 0.002082514909108284 -0.00035071754993561089 0 0.0019892215992367134 -0.00050776447263391948 0 0.0019892215992367134 -0.00050776447263391948 0 0.0019533571811506385 -0.0004004561369380033 0 0.0019076829365649846 -0.00051900790482170805 0 0.002082514909108284 -0.00035071754993561089 0 0.0019892215992367134 -0.00050776447263391948 0 0.0019533571811506385 -0.0004004561369380033 0 0.0019533571811506385 -0.0004004561369380033 0 0.0018642143120253525 -0.00038456368292896369 0 0.0018433227253952338 -0.00048460453726940867 0 0.0019533571811506385 -0.0004004561369380033 0 0.0019076829365649846 -0.00051900790482170805 0 0.0018433227253952338 -0.00048460453726940867 0 0.0018350305263555849 -0.00059044418886960905 0 0.0019076829365649846 -0.00051900790482170805 0 0.0018433227253952338 -0.00048460453726940867 0 0.0018350305263555849 -0.00059044418886960905 0 0.0018433227253952338 -0.00048460453726940867 0 0.001785928887713666 -0.00053396537647928456 0 0.0018433227253952338 -0.00048460453726940867 0 0.001785928887713666 -0.00053396537647928456 0 0.0017787352300532096 -0.00045347906643452846 0 0.0017663282093532122 -0.00061469840307924522 0 0.0018350305263555849 -0.00059044418886960905 0 0.001785928887713666 -0.00053396537647928456 0 0.001785928887713666 -0.00053396537647928456 0 0.0017161106191878599 -0.00058323125107363055 0 0.0017425930423666 -0.00052638052352126064 0 0.0017161106191878599 -0.00058323125107363055 0 0.0017052305073357616 -0.00053021614934822066 0 0.0016099469604511456 -0.00060628852339373045 0 0.0017663282093532122 -0.00061469840307924522 0 0.001785928887713666 -0.00053396537647928456 0 0.0017161106191878599 -0.00058323125107363055 0 0.0017161106191878599 -0.00058323125107363055 0 0.0017052305073357616 -0.00053021614934822066 0 0.0017425930423666 -0.00052638052352126064 0 0.0017052305073357616 -0.00053021614934822066 0 0.0016909552083248511 -0.00049889733855299878 0 0.0016545199141108802 -0.00052232418359233394 0 0.0017052305073357616 -0.00053021614934822066 0 0.0017425930423666 -0.00052638052352126064 0 0.0017259561303812276 -0.00049062765385657651 0 0.001785928887713666 -0.00053396537647928456 0 0.0017425930423666 -0.00052638052352126064 0 0.0017787352300532096 -0.00045347906643452846 0 0.0017323242981729943 -0.00042276707401600849 0 0.0017787352300532096 -0.00045347906643452846 0 0.0017986651939559868 -0.00034962100175966418 0 0.0017259561303812276 -0.00049062765385657651 0 0.0017241735667672359 -0.00045744732047245937 0 0.0017787352300532096 -0.00045347906643452846 0 0.0017425930423666 -0.00052638052352126064 0 0.0017259561303812276 -0.00049062765385657651 0 0.0017787352300532096 -0.00045347906643452846 0 0.0017052305073357616 -0.00053021614934822066 0 0.0017259561303812276 -0.00049062765385657651 0 0.0016909552083248511 -0.00049889733855299878 0 0.0017259561303812276 -0.00049062765385657651 0 0.0016909552083248511 -0.00049889733855299878 0 0.0016920713473049108 -0.00047065677637381508 0 0.0017259561303812276 -0.00049062765385657651 0 0.0017241735667672359 -0.00045744732047245937 0 0.0016920713473049108 -0.00047065677637381508 0 0.0016909552083248511 -0.00049889733855299878 0 0.0016920713473049108 -0.00047065677637381508 0 0.0016708916736466067 -0.00048334851098650071 0 0.0016981401188855582 -0.00044783489518408705 0 0.0017323242981729943 -0.00042276707401600849 0 0.0016532882940755978 -0.00044317541132309464 0 0.0016920713473049108 -0.00047065677637381508 0 0.0016981401188855582 -0.00044783489518408705 0 0.001671342643947257 -0.00045611662938588077 0 0.0017241735667672359 -0.00045744732047245937 0 0.0016981401188855582 -0.00044783489518408705 0 0.0017323242981729943 -0.00042276707401600849 0 0.0017241735667672359 -0.00045744732047245937 0 0.0016920713473049108 -0.00047065677637381508 0 0.0016981401188855582 -0.00044783489518408705 0 0.0017241735667672359 -0.00045744732047245937 0 0.0017323242981729943 -0.00042276707401600849 0 0.0017787352300532096 -0.00045347906643452846 0 0.0018642143120253525 -0.00038456368292896369 0 0.0017787352300532096 -0.00045347906643452846 0 0.0017986651939559868 -0.00034962100175966418 0 0.0018642143120253525 -0.00038456368292896369 0 0.0018433227253952338 -0.00048460453726940867 0 0.0017787352300532096 -0.00045347906643452846 0 0.0027082041986639916 -0.0061773535269685322 0 0.0021859740854050548 -0.0057947224734613096 0 0.0013238416842597082 -0.00068515379258267341 0 0.0016099469604511456 -0.00060628852339373045 0 0.0016532882940755978 -0.00044317541132309464 0 0.0016099469604511456 -0.00060628852339373045 0 0.0016545199141108802 -0.00052232418359233394 0 0.0016532882940755978 -0.00044317541132309464 0 0.0017052305073357616 -0.00053021614934822066 0 0.0016099469604511456 -0.00060628852339373045 0 0.0016545199141108802 -0.00052232418359233394 0 0.0016545199141108802 -0.00052232418359233394 0 0.0016708916736466067 -0.00048334851098650071 0 0.0016532882940755978 -0.00044317541132309464 0 0.0016909552083248511 -0.00049889733855299878 0 0.0016545199141108802 -0.00052232418359233394 0 0.0016708916736466067 -0.00048334851098650071 0 0.0016920713473049108 -0.00047065677637381508 0 0.0016708916736466067 -0.00048334851098650071 0 0.001671342643947257 -0.00045611662938588077 0 0.0016981401188855582 -0.00044783489518408705 0 0.001671342643947257 -0.00045611662938588077 0 0.0016532882940755978 -0.00044317541132309464 0 0.0016708916736466067 -0.00048334851098650071 0 0.001671342643947257 -0.00045611662938588077 0 0.0016532882940755978 -0.00044317541132309464 0 0.0039364514736179553 -0.011346772288258793 0 0.004185126506128325 -0.011343984428069364 0 0.0040980582459304851 -0.011142384894157552 0 0.004185126506128325 -0.011343984428069364 0 0.0040980582459304851 -0.011142384894157552 0 0.0042962976799579798 -0.011001191822646467 0 0.0019179606329980203 -0.00026510207258680736 0 0.0017986651939559868 -0.00034962100175966418 0 0.0017916807341279695 -0.00017249357303773412 0 0.0021859740854050548 -0.0057947224734613096 0 0.0031627308378023447 -0.0054629936807393331 0 0.0016532882940755978 -0.00044317541132309464 0 0.0017986651939559868 -0.00034962100175966418 0 0.0017916807341279695 -0.00017249357303773412 0 0.0019179606329980203 -0.00026510207258680736 0 0.0018642143120253525 -0.00038456368292896369 0 0.0017986651939559868 -0.00034962100175966418 0 0.0017323242981729943 -0.00042276707401600849 0 0.0016532882940755978 -0.00044317541132309464 0 0.0017986651939559868 -0.00034962100175966418 0 0.003880857463323431 -0.01114125323085057 0 0.0040980582459304851 -0.011142384894157552 0 0.0041073736797338735 -0.010905316687031333 0 0.0040980582459304851 -0.011142384894157552 0 0.0042962976799579798 -0.011001191822646467 0 0.0041073736797338735 -0.010905316687031333 0 0.0042330544101209589 -0.010735041251607137 0 0.0038726798340042502 -0.010803079719478009 0 0.0041073736797338735 -0.010905316687031333 0 0.0042330544101209589 -0.010735041251607137 0 0.0042962976799579798 -0.011001191822646467 0 0.0041073736797338735 -0.010905316687031333 0 0.004192194103275964 -0.010776539218548034 0 0.0036478905237468089 -0.011111607523247241 0 0.0018974107379757309 2.8085966786889422e-05 0 0.0017916807341279695 -0.00017249357303773412 0 0.0019583388908471239 -7.7316909931816815e-05 0 0.0044942711985028428 -0.010705472673667952 0 0.0042330544101209589 -0.010735041251607137 0 0.0042962976799579798 -0.011001191822646467 0 0.0031393851266028634 -0.00595054288345424 0 0.0031627308378023447 -0.0054629936807393331 0 0.0020235792927464679 8.2382865879051766e-05 0 0.0019583388908471239 -7.7316909931816815e-05 0 0.0020856899424922604 -1.2360630523067804e-05 0 0.0020235792927464679 8.2382865879051766e-05 0 0.0018974107379757309 2.8085966786889422e-05 0 0.0019583388908471239 -7.7316909931816815e-05 0 0.0019179606329980203 -0.00026510207258680736 0 0.0020676368129324534 -0.00019605054407172365 0 0.0019583388908471239 -7.7316909931816815e-05 0 0.0019179606329980203 -0.00026510207258680736 0 0.0017916807341279695 -0.00017249357303773412 0 0.0019583388908471239 -7.7316909931816815e-05 0 0.0020676368129324534 -0.00019605054407172365 0 0.0020856899424922604 -1.2360630523067804e-05 0 0.0022353225185321466 -9.7159393851529158e-05 0 0.0020676368129324534 -0.00019605054407172365 0 0.0019583388908471239 -7.7316909931816815e-05 0 0.0020856899424922604 -1.2360630523067804e-05 0 0.0021331176498203949 0.00017019456935268371 0 0.0020856899424922604 -1.2360630523067804e-05 0 0.0022141479882702209 3.2583803516913341e-05 0 0.0020856899424922604 -1.2360630523067804e-05 0 0.0022141479882702209 3.2583803516913341e-05 0 0.0022353225185321466 -9.7159393851529158e-05 0 0.0022882352180920379 0.00011779575081999662 0 0.0022141479882702209 3.2583803516913341e-05 0 0.0023410665904009076 -2.1837559550436646e-05 0 0.0022141479882702209 3.2583803516913341e-05 0 0.0022353225185321466 -9.7159393851529158e-05 0 0.0023410665904009076 -2.1837559550436646e-05 0 0.0022353225185321466 -9.7159393851529158e-05 0 0.0024138770697176132 -0.00015624260014690628 0 0.0022282703019898082 -0.00025201505631370101 0 0.0020676368129324534 -0.00019605054407172365 0 0.0022353225185321466 -9.7159393851529158e-05 0 0.0022282703019898082 -0.00025201505631370101 0 0.0022353225185321466 -9.7159393851529158e-05 0 0.0024138770697176132 -0.00015624260014690628 0 0.0023410665904009076 -2.1837559550436646e-05 0 0.0021066488807668579 -0.00050351269696353508 0 0.0022282703019898082 -0.00025201505631370101 0 0.0022996910698093159 -0.00058874698146902055 0 0.0024138770697176132 -0.00015624260014690628 0 0.0022282703019898082 -0.00025201505631370101 0 0.0022996910698093159 -0.00058874698146902055 0 0.0023068367020298987 4.9858560878452152e-05 0 0.0023603501305130858 -3.9139581582034951e-05 0 0.0023697361376215538 4.4831134879538594e-05 0 0.0024138770697176132 -0.00015624260014690628 0 0.0023603501305130858 -3.9139581582034951e-05 0 0.0023697361376215538 4.4831134879538594e-05 0 0.0023603501305130858 -3.9139581582034951e-05 0 0.0023245784116864205 1.7339082337034571e-05 0 0.0023410665904009076 -2.1837559550436646e-05 0 0.0024138770697176132 -0.00015624260014690628 0 0.0023603501305130858 -3.9139581582034951e-05 0 0.0023410665904009076 -2.1837559550436646e-05 0 0.0023068367020298987 4.9858560878452152e-05 0 0.0023603501305130858 -3.9139581582034951e-05 0 0.0023245784116864205 1.7339082337034571e-05 0 0.0023245784116864205 1.7339082337034571e-05 0 0.0023410665904009076 -2.1837559550436646e-05 0 0.0023068251241024455 1.6758453126857137e-05 0 0.0023245784116864205 1.7339082337034571e-05 0 0.0023068251241024455 1.6758453126857137e-05 0 0.0022727669632271932 5.3709279211875161e-05 0 0.0027426902910733142 -0.0004971747372817855 0 0.00028179105708651676 0.0026468567577003373 0 0.00098788326085656438 0.0045118253468985842 0 0.00028179105708651676 0.0026468567577003373 0 0.0022882352180920379 0.00011779575081999662 0 0.0023410665904009076 -2.1837559550436646e-05 0 0.0023934226856688386 7.571293095772078e-05 0 -0.00084898403058428175 0.0086164199881419209 0 -0.00044101545003448549 0.0086721545380637581 0 -0.001412016580845062 0.0087709934661383809 0 -0.0018198769195996401 0.0084225830092625464 0 -0.00084898403058428175 0.0086164199881419209 0 -0.001412016580845062 0.0087709934661383809 0 -0.00081976994814739971 0.0077574870572153379 0 0.00028179105708651676 0.0026468567577003373 0 -0.0013167874246132801 0.0039610065876043198 0 -0.0023796664494587817 0.0031218892904234068 0 -0.00085656418551212832 0.0023649352748882453 0 -0.0013167874246132801 0.0039610065876043198 0 0.00011979781217119426 0.0029353394605593497 0 -0.00085656418551212832 0.0023649352748882453 0 0.00028179105708651676 0.0026468567577003373 0 0.00071619352272330947 0.0011445293818660089 0 0.0009926456441312658 0.0039636904286118697 0 -0.0013167874246132801 0.0039610065876043198 0 0.00011979781217119426 0.0029353394605593497 0 0.0009926456441312658 0.0039636904286118697 0 0.00011979781217119426 0.0029353394605593497 0 0.001115897744380271 0.0028219083405728695 0 0.00011979781217119426 0.0029353394605593497 0 0.00062968992480365164 0.0015271765801727322 0 -0.00085656418551212832 0.0023649352748882453 0 0.0022352012609190117 0.0001828360143632148 0 0.0022727669632271932 5.3709279211875161e-05 0 0.0022641807246489717 0.00010341918156176075 0 0.0014763610621395516 0.00084609311018724964 0 0.00071619352272330947 0.0011445293818660089 0 0.00011979781217119426 0.0029353394605593497 0 0.00062968992480365164 0.0015271765801727322 0 0.001115897744380271 0.0028219083405728695 0 0.0023245784116864205 1.7339082337034571e-05 0 0.0022727669632271932 5.3709279211875161e-05 0 0.0022641807246489717 0.00010341918156176075 0 0.0017377671021988604 0.0035259714211486877 0 0.0023414581198246899 0.0020588707410500234 0 0.0038693890785669134 0.0022793932135587794 0 0.0019030787764342618 0.0035378997902473295 0 0.0029614047108118772 0.002621684153010386 0 0.0025077524757068973 0.0039413132337369873 0 0.0026841570681968956 0.0035373351306741095 0 0.0026239746345060951 0.0033988510547469566 0 0.0025077524757068973 0.0039413132337369873 0 0.0017377671021988604 0.0035259714211486877 0 0.0026239746345060951 0.0033988510547469566 0 0.0025077524757068973 0.0039413132337369873 0 0.0009926456441312658 0.0039636904286118697 0 0.0017377671021988604 0.0035259714211486877 0 0.0017377671021988604 0.0035259714211486877 0 0.001115897744380271 0.0028219083405728695 0 0.0023414581198246899 0.0020588707410500234 0 0.0009926456441312658 0.0039636904286118697 0 0.0017377671021988604 0.0035259714211486877 0 0.001115897744380271 0.0028219083405728695 0 0.0014763610621395516 0.00084609311018724964 0 0.0022983572971213731 0.00047994473066062586 0 0.00062968992480365164 0.0015271765801727322 0 0.001115897744380271 0.0028219083405728695 0 0.0023414581198246899 0.0020588707410500234 0 0.00062968992480365164 0.0015271765801727322 0 0.0023414581198246899 0.0020588707410500234 0 0.0023543989301197249 0.0004683345772312604 0 0.002759149650230715 0.0017798809257755679 0 0.0028532258205020097 0.0021386266594349266 0 0.0025005550061396368 0.0015215894877223038 0 0.0029614047108118772 0.002621684153010386 0 0.0025381117469084535 0.00085017159936227665 0 0.0023414581198246899 0.0020588707410500234 0 0.0038693890785669134 0.0022793932135587794 0 0.0023543989301197249 0.0004683345772312604 0 0.0038693890785669134 0.0022793932135587794 0 0.00245889667615428 0.00021837181798558817 0 0.0023543989301197249 0.0004683345772312604 0 0.002759149650230715 0.0017798809257755679 0 0.0028599540102605568 0.0019510463808548823 0 0.0028532258205020097 0.0021386266594349266 0 0.002759149650230715 0.0017798809257755679 0 0.0028955158426958432 0.0017868808583112084 0 0.0028686236719164338 0.0018734035510340147 0 0.002759149650230715 0.0017798809257755679 0 0.0028686236719164338 0.0018734035510340147 0 0.0028599540102605568 0.0019510463808548823 0 0.0029610252983483967 0.0019158575904987265 0 0.0028686236719164338 0.0018734035510340147 0 0.0028599540102605568 0.0019510463808548823 0 0.0029610252983483967 0.0019158575904987265 0 0.0028599540102605568 0.0019510463808548823 0 0.0028532258205020097 0.0021386266594349266 0 0.0030137052959855202 0.0029042289702966434 0 0.0029614047108118772 0.002621684153010386 0 0.0029245916148892864 0.0016376195713995189 0 0.0029231883768533564 0.0013206839964213046 0 0.0027467211057417293 0.0014989209775017696 0 0.0029231883768533564 0.0013206839964213046 0 0.0027467211057417293 0.0014989209775017696 0 0.0026281351386135336 0.0011199791453349916 0 0.0029245916148892864 0.0016376195713995189 0 0.002759149650230715 0.0017798809257755679 0 0.0027467211057417293 0.0014989209775017696 0 0.0029245916148892864 0.0016376195713995189 0 0.002759149650230715 0.0017798809257755679 0 0.0028955158426958432 0.0017868808583112084 0 0.002759149650230715 0.0017798809257755679 0 0.0027467211057417293 0.0014989209775017696 0 0.0025005550061396368 0.0015215894877223038 0 0.0027467211057417293 0.0014989209775017696 0 0.0025005550061396368 0.0015215894877223038 0 0.0026281351386135336 0.0011199791453349916 0 0.0022352012609190117 0.0001828360143632148 0 0.0023543989301197249 0.0004683345772312604 0 0.0022404370789656297 0.00018475731848299301 0 0.00245889667615428 0.00021837181798558817 0 0.0023543989301197249 0.0004683345772312604 0 0.0022404370789656297 0.00018475731848299301 0 0.0025005550061396368 0.0015215894877223038 0 0.0022471004746017135 0.00087003200414008126 0 0.0026281351386135336 0.0011199791453349916 0 0.00245889667615428 0.00021837181798558817 0 0.0022404370789656297 0.00018475731848299301 0 0.0022182549659124965 0.00011375793786223646 0 0.0022471004746017135 0.00087003200414008126 0 0.0026281351386135336 0.0011199791453349916 0 0.0025600096422899814 0.00067239168814638975 0 0.0025381117469084535 0.00085017159936227665 0 0.002248261552869888 0.00050843456544654179 0 0.0026281351386135336 0.0011199791453349916 0 0.0028515084492263293 0.00094263582605801435 0 0.0025600096422899814 0.00067239168814638975 0 0.0029231883768533564 0.0013206839964213046 0 0.0026281351386135336 0.0011199791453349916 0 0.0028515084492263293 0.00094263582605801435 0 0.0023068367020298987 4.9858560878452152e-05 0 0.0023245784116864205 1.7339082337034571e-05 0 0.0022641807246489717 0.00010341918156176075 0 0.0022352012609190117 0.0001828360143632148 0 0.0022404370789656297 0.00018475731848299301 0 0.0022641807246489717 0.00010341918156176075 0 0.0022404370789656297 0.00018475731848299301 0 0.0022641807246489717 0.00010341918156176075 0 0.002248228311818156 0.00010754560083668356 0 0.0022404370789656297 0.00018475731848299301 0 0.0022182549659124965 0.00011375793786223646 0 0.002248228311818156 0.00010754560083668356 0 0.0023068367020298987 4.9858560878452152e-05 0 0.0022641807246489717 0.00010341918156176075 0 0.002248228311818156 0.00010754560083668356 0 0.0023068367020298987 4.9858560878452152e-05 0 0.002248228311818156 0.00010754560083668356 0 0.0022969376298758708 0.00013163389501676475 0 0.002248228311818156 0.00010754560083668356 0 0.0022969376298758708 0.00013163389501676475 0 0.0022060161138121427 0.00029325026639493546 0 0.0022182549659124965 0.00011375793786223646 0 0.002248228311818156 0.00010754560083668356 0 0.0022060161138121427 0.00029325026639493546 0 0.0022471004746017135 0.00087003200414008126 0 0.0022060161138121427 0.00029325026639493546 0 0.0023131975901892346 0.00033825489212343162 0 0.002248261552869888 0.00050843456544654179 0 0.002206504905649853 0.00032614096687676999 0 0.0022060161138121427 0.00029325026639493546 0 0.0023131975901892346 0.00033825489212343162 0 0.0022456298839346064 0.00027603155119829305 0 0.0022060161138121427 0.00029325026639493546 0 0.002306580123107103 0.00019112396291455012 0 0.0022456298839346064 0.00027603155119829305 0 0.0022969376298758708 0.00013163389501676475 0 0.0022060161138121427 0.00029325026639493546 0 0.002306580123107103 0.00019112396291455012 0 0.0028871159905893345 0.00056681638106347834 0 0.0028515084492263293 0.00094263582605801435 0 0.0025600096422899814 0.00067239168814638975 0 0.0022471004746017135 0.00087003200414008126 0 0.0025600096422899814 0.00067239168814638975 0 0.0023131975901892346 0.00033825489212343162 0 0.0025600096422899814 0.00067239168814638975 0 0.0023131975901892346 0.00033825489212343162 0 0.0025253354263552277 0.00032145677531285116 0 0.0023131975901892346 0.00033825489212343162 0 0.0025253354263552277 0.00032145677531285116 0 0.0022839489974788318 0.00033959498223539879 0 0.0014496603950974669 0.0059902046676914029 0 0.00091084499591057662 0.0074037923015333063 0 0.0028871159905893345 0.00056681638106347834 0 0.0025600096422899814 0.00067239168814638975 0 0.0025253354263552277 0.00032145677531285116 0 0.002895736384561851 0.0012214139807819281 0 0.002448607556879992 0.00076950551573249618 0 0.0024510572646878176 0.00042404295241516428 0 0.0014496603950974669 0.0059902046676914029 0 0.002240848881138549 0.00022827374879735382 0 -0.00060201809656307997 0.013827954423269445 0 -0.00060027990086485602 0.013792588659941814 0 -0.00067659548045146463 0.01378975252194258 0 0.0024510572646878176 0.00042404295241516428 0 0.0022839489974788318 0.00033959498223539879 0 0.002223167492634107 0.00032294651177457113 0 0.002448607556879992 0.00076950551573249618 0 0.0024510572646878176 0.00042404295241516428 0 0.0022839489974788318 0.00033959498223539879 0 0.002240848881138549 0.00022827374879735382 0 0.0024300192770951253 0.00047947753183666668 0 0.00091084499591057662 0.0074037923015333063 0 0.00068353289862954061 0.0069183435229107524 0 0.0022839489974788318 0.00033959498223539879 0 0.002223167492634107 0.00032294651177457113 0 0.0022411852278785864 0.00029637848301576999 0 -0.00060201809656307997 0.013827954423269445 0 -0.00065993025759456979 0.01370132103929635 0 -0.00067659548045146463 0.01378975252194258 0 -0.00065993025759456979 0.01370132103929635 0 -0.00067659548045146463 0.01378975252194258 0 -0.00080849982165998849 0.013655679878632318 0 0.002306580123107103 0.00019112396291455012 0 0.0022456298839346064 0.00027603155119829305 0 0.0022901656493110336 0.00025314029846558201 0 0.0022456298839346064 0.00027603155119829305 0 0.0022411852278785864 0.00029637848301576999 0 0.0022901656493110336 0.00025314029846558201 0 0.0023131975901892346 0.00033825489212343162 0 0.0022839489974788318 0.00033959498223539879 0 0.0022456298839346064 0.00027603155119829305 0 0.0022839489974788318 0.00033959498223539879 0 0.0022456298839346064 0.00027603155119829305 0 0.0022411852278785864 0.00029637848301576999 0 0.0022395343353004142 0.00033160962142422389 0 0.002223167492634107 0.00032294651177457113 0 0.0022411852278785864 0.00029637848301576999 0 0.0022395343353004142 0.00033160962142422389 0 0.0022411852278785864 0.00029637848301576999 0 0.0022901656493110336 0.00025314029846558201 0 0.0022395343353004142 0.00033160962142422389 0 0.0023793419750434866 0.00027334362612070704 0 0.0022901656493110336 0.00025314029846558201 0 0.0023793419750434866 0.00027334362612070704 0 0.0022901656493110336 0.00025314029846558201 0 0.0024096703769160028 0.00014380980394586946 0 0.002306580123107103 0.00019112396291455012 0 0.0022901656493110336 0.00025314029846558201 0 0.0024096703769160028 0.00014380980394586946 0 0.0024096703769160028 0.00014380980394586946 0 0.0025152310826956114 0.00018674996956886744 0 0.0025301393601418389 6.3330142101787224e-05 0 0.0023793419750434866 0.00027334362612070704 0 0.0024096703769160028 0.00014380980394586946 0 0.0025152310826956114 0.00018674996956886744 0 0.0025152310826956114 0.00018674996956886744 0 0.0025780913291910614 0.00012025444683717359 0 0.0025301393601418389 6.3330142101787224e-05 0 0.0025952848114736918 0.0002175568762509205 0 0.0025152310826956114 0.00018674996956886744 0 0.0025780913291910614 0.00012025444683717359 0 0.0026584743947799501 0.00019315432263862888 0 0.002759507022188763 0.00014359331872423068 0 0.0026393195148301206 7.458057404660598e-05 0 0.0026584743947799501 0.00019315432263862888 0 0.0025952848114736918 0.0002175568762509205 0 0.0025780913291910614 0.00012025444683717359 0 0.0026584743947799501 0.00019315432263862888 0 0.0025780913291910614 0.00012025444683717359 0 0.0026393195148301206 7.458057404660598e-05 0 0.0026393195148301206 7.458057404660598e-05 0 0.0025986532693784256 6.62849642397471e-06 0 0.002672750732938268 -0.00013272589023214157 0 0.0025780913291910614 0.00012025444683717359 0 0.0026393195148301206 7.458057404660598e-05 0 0.0025986532693784256 6.62849642397471e-06 0 0.0025986532693784256 6.62849642397471e-06 0 0.0025301393601418389 6.3330142101787224e-05 0 0.0026074863369166764 -2.110542242004847e-05 0 0.0025986532693784256 6.62849642397471e-06 0 0.002672750732938268 -0.00013272589023214157 0 0.0026074863369166764 -2.110542242004847e-05 0 0.0025780913291910614 0.00012025444683717359 0 0.0025986532693784256 6.62849642397471e-06 0 0.0025301393601418389 6.3330142101787224e-05 0 0.0025301393601418389 6.3330142101787224e-05 0 0.0026074863369166764 -2.110542242004847e-05 0 0.0024822072011535675 1.6543984411719547e-05 0 0.0026074863369166764 -2.110542242004847e-05 0 0.0025934346413439449 -1.7285099753983453e-05 0 0.0024822072011535675 1.6543984411719547e-05 0 0.0025207778586009734 -3.1639757138986239e-05 0 0.002672750732938268 -0.00013272589023214157 0 0.0026074863369166764 -2.110542242004847e-05 0 0.0025207778586009734 -3.1639757138986239e-05 0 0.0026074863369166764 -2.110542242004847e-05 0 0.0025934346413439449 -1.7285099753983453e-05 0 0.0023172131403088442 -0.00049290722767629362 0 0.0024315710159913506 -0.00029780376148613838 0 0.0024253893928090184 -0.00018244405179667177 0 0.0024315710159913506 -0.00029780376148613838 0 0.0024138770697176132 -0.00015624260014690628 0 0.0025934346413439449 -1.7285099753983453e-05 0 0.0024822072011535675 1.6543984411719547e-05 0 0.0024138770697176132 -0.00015624260014690628 0 0.0024822072011535675 1.6543984411719547e-05 0 0.0023697361376215538 4.4831134879538594e-05 0 0.0022969376298758708 0.00013163389501676475 0 0.002306580123107103 0.00019112396291455012 0 0.0023697361376215538 4.4831134879538594e-05 0 0.0023068367020298987 4.9858560878452152e-05 0 0.0022969376298758708 0.00013163389501676475 0 0.0023697361376215538 4.4831134879538594e-05 0 0.002306580123107103 0.00019112396291455012 0 0.0024096703769160028 0.00014380980394586946 0 0.0023697361376215538 4.4831134879538594e-05 0 0.0024096703769160028 0.00014380980394586946 0 0.0025301393601418389 6.3330142101787224e-05 0 0.0024822072011535675 1.6543984411719547e-05 0 0.0024096703769160028 0.00014380980394586946 0 0.0024822072011535675 1.6543984411719547e-05 0 0.0023697361376215538 4.4831134879538594e-05 0 
</DataArray>
</PointData>
<CellData Scalars="region_id,cross_section_updated," Vectors="" Tensors="stress,">
<DataArray type="Float64" Name="region_id" format="ascii">
5 5 5 5 5 5 5 6 5 5 6 5 5 5 6 5 6 5 5 5 6 5 5 5 6 5 5 5 5 5 6 5 5 5 5 5 5 5 5 5 6 5 5 5 5 5 5 5 5 5 5 5 5 5 6 5 5 5 5 6 5 5 5 5 5 5 5 5 5 5 5 5 5 5 5 5 5 5 5 5 5 6 5 5 5 5 6 6 5 5 5 6 5 5 5 5 5 5 5 6 5 5 5 5 5 5 5 5 5 5 5 5 5 5 6 5 5 5 5 5 5 5 5 5 5 5 5 5 5 5 5 5 5 5 5 5 5 5 5 5 5 5 5 5 5 5 5 5 5 5 5 5 5 5 5 5 5 5 5 5 5 6 5 5 5 5 5 5 5 5 5 5 5 5 5 5 5 5 5 5 5 5 5 5 6 5 5 5 5 6 6 5 5 5 5 6 5 6 5 5 5 5 5 5 5 5 5 5 5 5 5 5 5 5 5 5 5 5 5 5 5 5 5 5 5 5 5 5 5 5 5 5 5 5 5 5 5 5 5 5 5 5 5 6 5 5 5 5 5 5 5 6 5 5 5 5 5 5 5 5 5 6 5 5 6 5 5 6 5 5 5 5 5 5 5 6 6 5 6 5 5 6 5 5 5 5 6 5 5 5 6 5 5 5 5 5 5 5 5 5 6 5 6 5 6 6 5 5 5 5 5 5 5 6 5 6 6 5 5 6 5 5 6 5 5 5 5 5 5 5 5 5 5 6 5 5 6 5 5 5 5 5 5 5 5 5 5 6 5 5 6 5 5 5 5 5 5 5 5 5 6 5 5 5 5 5 5 6 5 5 5 5 5 6 5 5 5 5 6 5 5 6 5 5 5 6 5 5 5 6 5 6 5 5 5 5 6 5 6 6 5 6 5 5 5 5 6 5 5 5 5 5 5 5 5 5 5 5 5 5 5 5 5 5 5 5 5 5 5 5 6 5 5 6 5 5 5 5 5 5 5 5 5 5 5 5 5 5 5 5 5 5 5 5 5 5 6 5 6 5 5 6 5 6 5 5 6 5 6 5 6 5 5 5 5 5 6 5 5 6 6 5 5 5 5 6 6 5 5 5 6 5 5 5 5 5 5 5 5 5 5 5 6 6 5 5 5 5 5 5 5 5 5 5 5 5 5 5 5 5 5 5 5 5 5 5 6 5 5 5 5 5 5 5 5 5 5 5 5 5 5 5 5 5 5 5 5 5 5 5 5 5 5 5 5 5 5 5 5 5 5 5 5 5 5 5 5 6 5 5 6 5 5 6 5 5 5 5 5 5 5 5 5 6 5 5 5 6 6 5 6 6 5 5 5 5 5 5 5 5 5 5 5 5 5 5 5 5 5 5 5 5 5 5 5 5 5 5 5 5 5 5 5 5 6 5 5 5 6 5 5 5 5 5 6 5 5 5 6 5 5 6 5 5 5 5 5 6 5 5 5 6 5 6 5 5 6 5 5 6 5 5 5 5 6 5 5 6 5 6 5 5 5 5 6 5 5 5 5 5 5 5 5 5 6 5 5 6 5 6 5 6 5 6 5 6 5 6 5 5 6 6 6 5 6 5 6 5 6 6 5 5 5 5 5 5 5 5 5 6 5 5 5 6 5 5 5 6 5 5 5 5 5 5 6 5 5 5 5 5 5 5 5 6 5 5 6 6 5 5 5 6 6 5 5 6 5 6 5 5 5 5 5 5 5 5 5 5 5 5 5 5 5 5 5 5 5 5 5 5 5 5 5 5 6 5 5 5 5 5 5 6 5 5 5 5 5 5 5 5 6 5 5 6 5 5 5 5 5 5 5 5 5 5 5 5 5 6 5 5 5 5 6 5 5 5 5 5 5 5 5 6 5 5 6 5 5 5 6 5 5 5 5 5 5 5 6 5 5 6 6 5 5 5 5 5 5 5 6 6 5 6 5 5 5 5 6 5 5 5 5 5 5 5 6 5 5 5 5 5 5 5 5 5 5 5 5 5 5 6 5 5 6 5 5 5 5 5 5 5 5 5 5 5 5 5 5 5 5 5 5 5 5 6 5 5 5 5 5 5 5 5 5 6 5 5 5 6 5 5 6 5 5 5 5 5 5 6 5 5 5 5 5 6 6 5 5 5 5 5 5 5 5 5 5 5 5 5 5 5 5 5 5 5 5 5 5 5 5 5 5 6 5 5 5 5 6 6 5 6 5 5 5 5 5 5 5 5 5 5 6 5 5 5 5 5 5 6 5 5 5 6 5 6 5 5 5 5 5 5 5 5 5 5 5 5 5 5 5 5 5 5 5 5 5 5 5 5 5 6 5 5 5 6 5 5 5 5 5 5 5 6 5 5 5 5 5 5 5 5 5 5 5 5 6 5 5 5 6 6 5 5 5 5 6 5 5 5 5 5 5 6 5 6 5 5 5 5 6 5 5 5 5 5 6 6 5 5 5 5 5 5 5 5 5 5 5 5 5 5 5 5 6 5 5 6 5 6 5 5 5 5 5 5 5 5 5 6 5 5 5 5 5 5 6 5 5 5 5 5 5 5 5 5 5 5 5 5 5 5 5 6 5 5 5 5 5 5 5 5 5 5 5 5 5 5 5 5 5 5 6 5 5 5 5 5 5 5 5 5 5 5 5 5 5 5 5 5 5 5 5 5 5 5 5 5 5 5 5 5 5 5 5 5 5 5 5 6 6 5 5 5 5 5 5 5 6 5 5 5 5 5 5 5 5 5 5 5 5 5 5 6 5 5 5 6 5 5 5 5 5 5 5 5 5 5 5 5 5 6 5 5 5 6 6 5 5 5 5 6 6 5 5 5 6 5 5 6 5 5 6 5 5 5 5 5 5 5 6 5 5 5 5 5 5 6 6 5 6 6 5 5 5 5 6 5 5 6 6 5 6 6 5 5 5 6 5 6 5 5 5 6 5 6 5 5 6 5 5 5 6 5 5 6 6 6 5 5 6 6 5 5 5 5 5 5 5 6 6 5 5 5 5 5 5 5 5 5 5 6 5 5 6 6 5 5 5 5 5 5 5 5 5 5 5 5 5 5 5 5 6 5 5 6 5 6 5 6 6 6 5 5 5 5 5 6 5 6 5 6 5 6 6 5 5 6 5 6 5 5 5 5 5 5 6 5 6 5 5 6 5 6 5 5 5 6 5 5 6 5 5 6 6 5 5 6 6 5 5 5 5 6 5 5 5 5 5 5 5 5 5 6 6 6 6 5 5 6 6 5 6 6 5 6 5 5 5 6 6 6 5 5 5 5 6 5 5 6 5 5 5 6 5 6 5 5 5 5 5 5 6 5 5 5 5 6 5 6 5 5 5 5 5 6 5 5 5 5 5 5 6 5 5 5 6 5 5 5 5 6 6 5 6 5 5 5 6 5 6 5 5 5 5 5 5 5 5 6 5 5 6 6 5 5 5 6 5 5 5 6 6 5 5 6 5 6 6 5 5 5 6 5 6 5 6 5 5 5 5 6 6 5 6 5 5 5 5 6 5 5 6 5 6 5 6 6 6 5 5 6 5 6 5 6 6 6 5 5 6 5 5 5 6 5 5 6 5 5 5 5 5 5 6 5 5 5 5 6 6 5 5 5 5 5 5 6 5 5 6 5 6 5 5 6 6 5 5 6 6 5 5 6 5 5 5 5 5 5 5 5 5 5 5 5 5 5 5 5 6 6 5 5 5 5 5 6 5 5 5 5 5 5 5 6 6 5 6 5 5 5 5 5 6 5 5 6 6 5 6 5 5 6 5 5 5 5 5 5 5 6 5 5 5 5 5 5 5 5 5 5 5 5 5 5 5 6 5 5 5 6 5 5 6 5 5 6 6 5 5 6 6 5 5 5 5 5 5 5 5 5 5 6 6 5 6 5 5 6 6 5 5 6 5 6 6 5 5 6 5 5 5 5 5 5 5 6 5 5 5 5 5 5 5 5 5 5 5 5 5 5 5 5 5 5 5 5 5 5 5 5 5 5 5 5 5 5 5 5 5 5 6 5 5 6 5 5 5 5 6 5 5 5 5 6 5 5 5 5 5 5 5 6 5 5 5 5 5 5 5 5 5 5 5 5 5 5 5 5 5 5 6 5 6 5 5 6 5 5 5 5 5 5 5 5 6 5 5 5 5 5 6 5 5 5 5 5 5 5 5 5 5 5 5 5 5 5 5 5 5 5 5 5 5 5 5 5 5 5 5 6 5 5 5 5 6 5 5 5 5 5 6 5 5 5 5 5 5 5 5 5 5 5 6 6 5 5 5 5 5 5 5 5 5 6 5 5 5 5 5 5 6 5 5 6 5 5 5 5 5 5 5 5 5 5 5 5 5 6 5 5 5 6 5 5 6 5 6 5 5 5 5 5 5 5 5 5 5 5 5 5 5 5 5 5 5 5 5 5 5 5 6 5 5 5 5 5 5 5 5 5 5 5 6 5 6 5 5 5 6 5 6 5 5 5 6 5 5 5 5 5 5 5 5 5 5 5 5 5 5 5 5 5 6 5 5 5 5 5 5 5 5 5 6 5 5 5 5 5 5 6 5 5 5 5 5 5 5 5 5 5 6 5 5 5 5 5 5 5 6 5 5 6 5 6 5 5 5 6 6 5 5 5 5 5 5 6 5 5 5 5 5 5 5 5 6 5 6 6 5 5 5 5 5 5 5 5 5 6 5 5 5 5 6 5 5 5 5 5 6 5 5 5 5 5 5 5 5 6 5 6 5 5 5 5 5 5 6 5 5 5 5 5 6 5 5 5 5 6 5 5 5 5 6 5 5 5 5 5 5 5 6 5 5 5 5 5 5 5 5 5 5 5 5 5 5 5 5 6 5 5 6 6 5 5 5 5 5 5 6 5 5 5 6 5 5 6 5 5 5 5 5 5 5 6 5 5 5 5 5 5 5 5 5 6 5 5 5 5 5 5 5 5 5 5 5 5 6 5 5 5 6 5 5 5 5 5 6 5 6 5 5 5 6 5 5 6 5 5 5 5 5 6 5 5 5 6 5 5 6 5 5 5 5 6 5 5 6 5 5 5 6 6 5 5 5 5 5 5 6 6 5 5 5 5 5 5 5 5 5 5 5 5 5 5 5 5 5 5 5 5 5 5 5 5 5 5 5 5 5 5 5 5 5 6 5 5 5 5 5 6 5 5 5 5 6 6 5 5 6 6 5 5 5 5 6 5 6 5 5 6 6 5 6 5 5 5 5 5 5 6 5 5 6 5 5 5 5 5 5 5 5 5 6 5 5 6 5 6 6 6 5 5 5 6 5 6 5 5 5 5 6 5 5 5 6 5 6 5 5 5 6 5 5 6 5 5 5 5 5 5 5 5 5 5 5 5 5 6 5 6 5 5 5 5 6 5 5 5 5 6 5 5 5 5 5 5 5 5 5 5 5 6 5 5 5 5 5 5 6 5 5 5 5 5 5 5 5 6 6 5 5 5 5 5 5 5 5 5 5 5 5 5 6 5 5 6 5 6 5 5 6 5 5 6 5 5 5 5 5 5 5 5 5 6 5 5 5 5 5 5 5 5 5 5 5 5 5 6 5 5 5 5 5 5 5 5 5 5 5 5 5 5 5 5 5 5 5 5 5 5 5 5 5 5 5 5 5 5 5 5 5 5 5 5 5 5 5 5 5 5 5 5 5 5 5 5 5 5 5 5 5 5 5 5 5 5 5 5 5 5 5 5 5 5 5 5 5 5 5 5 5 5 5 5 5 5 5 5 5 5 5 5 5 5 5 6 5 5 6 5 5 5 5 5 5 5 5 5 5 5 5 5 5 5 5 5 5 6 5 5 5 5 6 5 5 5 5 5 5 5 5 5 5 5 5 5 5 5 5 5 5 5 5 5 5 5 5 5 6 5 5 5 5 5 6 5 5 5 5 6 5 5 5 5 5 5 5 5 5 5 5 5 5 5 5 5 5 6 5 5 5 5 6 6 5 5 5 5 6 6 5 5 5 5 5 5 5 5 5 5 5 5 5 5 5 5 6 5 5 5 5 5 5 5 5 6 5 5 5 5 6 5 5 5 5 5 5 5 5 5 5 5 6 5 5 5 6 5 5 5 6 5 5 5 6 5 5 5 5 5 6 6 5 5 5 5 5 5 5 5 5 5 5 5 5 5 5 5 5 5 5 5 5 5 5 5 5 5 5 5 5 5 6 5 5 5 5 5 6 5 5 6 5 5 5 5 5 5 5 5 6 5 5 6 5 5 5 5 5 5 6 5 5 5 5 6 5 6 5 5 5 5 6 5 5 5 5 5 5 6 6 5 6 5 5 5 5 6 5 5 5 5 5 5 6 5 5 5 5 6 5 5 5 5 5 5 5 6 5 5 5 5 5 5 5 6 5 5 5 5 5 5 5 5 5 5 5 5 5 5 5 5 5 5 5 5 5 5 5 5 5 5 5 5 5 5 5 6 5 5 6 5 6 5 5 5 5 5 5 6 5 5 5 5 6 5 5 5 6 5 5 5 6 5 5 5 6 5 6 5 5 5 5 6 5 5 5 5 5 5 5 5 5 6 5 6 5 5 5 5 5 5 5 5 5 5 5 5 5 6 5 5 5 5 6 5 6 5 6 6 5 5 5 5 5 5 5 5 6 5 6 6 5 5 5 5 5 5 5 5 5 5 5 5 5 5 6 5 5 5 5 5 5 6 5 5 5 5 5 6 5 5 6 5 5 6 6 5 6 5 5 5 5 6 5 5 5 5 5 6 6 5 5 5 6 6 6 5 6 5 6 5 5 5 5 6 5 5 5 5 5 5 5 6 5 5 5 5 5 5 5 5 5 5 5 5 5 5 5 5 6 6 5 5 5 5 5 5 5 5 5 5 5 5 5 5 5 5 5 5 5 5 5 5 5 5 5 5 5 5 5 5 5 5 6 5 5 5 5 5 5 6 5 5 5 5 5 5 5 5 5 5 5 5 5 5 5 5 5 5 5 5 5 5 5 5 5 5 6 5 5 5 5 5 6 5 6 5 5 5 5 5 5 6 5 5 5 5 5 5 6 5 5 6 5 5 6 5 5 6 5 5 5 5 5 6 5 5 5 6 5 5 5 5 5 5 6 5 6 5 5 6 5 6 5 5 6 5 5 5 5 5 5 5 5 5 5 6 5 5 5 5 5 5 5 5 5 6 5 5 5 5 5 5 5 6 5 5 5 5 6 5 5 5 6 5 5 5 5 5 5 5 5 5 5 5 5 5 6 5 5 6 5 5 6 5 5 6 5 5 5 5 6 5 5 5 5 6 5 5 5 5 5 5 5 5 5 5 5 5 5 5 6 5 5 5 5 5 5 5 5 5 5 5 5 5 5 5 6 5 6 5 5 5 5 5 5 5 5 6 5 5 5 5 6 5 5 5 5 5 5 5 5 5 5 5 5 5 5 5 5 5 5 5 5 5 5 5 5 5 6 5 5 5 5 5 5 5 6 5 5 5 5 5 5 5 5 5 6 5 5 5 5 5 5 5 5 5 5 5 5 5 5 5 5 5 5 5 5 5 5 6 5 5 5 5 5 5 5 5 5 5 5 5 5 6 5 5 5 5 6 5 5 5 5 6 5 5 5 5 5 6 5 6 5 6 5 5 6 5 5 6 5 5 6 5 5 5 5 5 5 6 5 5 5 5 5 5 6 5 5 5 5 6 5 6 5 5 5 5 5 5 5 5 6 5 6 5 5 5 5 5 5 5 5 5 5 5 5 5 5 5 5 6 5 5 6 6 5 6 5 5 6 5 5 5 5 5 5 5 5 5 6 5 5 6 5 6 5 6 5 5 6 5 5 5 6 5 5 5 5 5 5 6 6 5 5 5 5 5 5 5 5 6 5 5 6 6 5 5 6 5 5 5 5 5 5 5 5 6 5 5 6 5 5 6 5 5 5 5 5 5 5 5 5 5 6 5 5 5 5 5 5 5 5 5 5 5 5 5 5 5 5 5 6 5 5 5 5 5 5 5 6 5 5 6 5 5 6 5 5 5 6 5 5 5 5 5 5 5 5 5 5 5 5 5 5 5 6 5 5 6 5 5 5 5 5 5 5 5 5 6 5 5 5 5 5 5 5 5 5 5 5 5 5 5 5 5 5 5 6 5 5 5 5 5 5 6 5 5 6 5 5 5 5 5 5 5 5 6 5 5 5 5 5 5 5 5 5 5 5 6 5 5 5 6 5 5 5 5 5 5 5 5 5 5 5 5 5 5 5 5 5 5 5 6 5 6 5 5 6 5 5 5 6 5 5 5 5 5 5 5 5 5 5 5 5 5 5 5 5 5 5 5 6 5 5 6 5 5 5 5 6 5 5 5 5 5 5 5 5 5 5 5 5 5 6 5 5 5 5 6 5 5 5 6 5 5 5 5 5 5 5 5 5 5 5 5 5 5 5 5 5 5 5 5 5 5 5 5 5 5 5 5 5 5 5 5 5 5 5 5 5 5 5 5 5 5 5 5 5 5 5 5 5 5 5 5 5 5 5 5 5 5 5 5 5 5 5 5 5 5 5 5 5 5 5 5 5 5 5 5 5 5 5 5 5 5 5 5 5 6 5 5 5 5 5 5 5 5 5 6 5 5 5 5 5 5 5 5 5 5 5 5 6 5 5 5 5 5 5 5 6 5 6 5 5 5 5 5 6 5 5 5 5 5 6 5 5 5 5 5 5 5 5 5 5 5 5 5 5 5 5 5 5 5 5 5 5 5 5 6 5 5 5 5 5 5 5 6 5 6 5 6 5 5 6 5 5 5 6 6 5 5 5 6 5 5 5 6 5 5 5 6 5 5 5 5 5 5 5 5 5 6 5 5 6 5 5 5 6 5 6 5 5 5 5 5 5 5 5 5 5 5 6 5 6 5 5 5 5 6 5 5 5 5 5 5 6 5 5 6 5 5 5 5 5 5 5 6 6 5 6 5 5 5 5 6 5 5 5 5 5 5 5 5 5 5 5 6 5 5 5 5 5 5 5 5 5 5 5 5 5 5 5 5 5 5 5 5 5 5 5 5 5 5 5 5 5 6 6 5 5 5 6 6 5 5 5 5 5 6 6 5 5 6 5 5 5 6 5 6 5 5 5 5 5 5 5 5 5 5 5 5 5 5 5 5 6 5 6 5 6 5 5 5 5 5 5 5 5 5 5 5 5 5 5 6 5 5 5 5 6 5 5 6 5 5 5 5 5 5 5 6 5 5 5 5 5 6 5 5 5 6 5 5 5 5 5 5 5 6 5 5 6 5 5 5 5 5 5 5 5 5 5 5 5 5 5 5 5 5 5 5 5 5 6 5 5 5 5 5 5 5 5 6 5 5 5 5 5 5 5 5 5 5 5 5 6 5 5 6 5 5 5 5 6 6 5 5 5 5 5 5 5 5 5 5 5 5 5 5 5 5 5 5 5 5 5 5 5 5 5 5 5 5 5 5 5 6 5 5 6 5 5 5 5 6 5 5 5 5 5 5 5 5 5 5 5 5 5 5 5 5 5 5 5 5 5 5 5 5 5 5 5 5 5 5 5 5 5 5 5 5 5 5 5 5 5 5 5 5 6 5 5 5 5 5 5 5 6 5 5 5 5 5 6 6 5 6 5 5 6 5 5 5 5 5 5 5 5 5 5 6 5 5 5 5 5 5 5 5 5 5 5 5 5 5 5 5 5 5 5 6 5 5 6 5 5 6 6 5 5 5 6 5 5 5 5 5 5 6 5 5 5 6 5 5 5 5 5 5 5 5 5 5 5 6 5 5 5 6 5 5 5 6 5 5 5 5 5 5 6 5 5 5 5 5 5 5 5 5 5 5 5 5 5 5 5 5 5 5 5 5 5 5 5 5 5 5 5 5 5 5 5 6 6 5 5 5 5 5 5 5 6 5 5 5 5 5 5 6 5 5 5 5 5 5 5 5 5 5 5 5 5 5 5 5 5 5 5 5 5 6 5 5 6 5 5 5 5 6 5 5 5 5 5 5 5 5 6 5 5 6 5 5 5 5 5 5 6 5 5 5 5 5 5 5 5 5 5 5 5 5 5 5 5 5 5 5 5 5 5 5 6 5 5 5 5 5 5 5 5 5 5 5 5 5 5 5 6 5 5 6 5 5 5 5 5 5 5 5 5 5 5 5 5 5 5 5 5 6 5 5 5 5 5 5 5 5 5 5 5 5 5 5 5 5 5 5 5 5 6 5 5 5 5 5 5 5 5 5 6 5 5 5 5 5 5 5 5 5 5 5 5 5 6 5 5 6 5 6 5 5 6 5 5 5 5 5 5 5 6 5 5 5 5 5 5 5 5 6 5 5 5 5 5 5 5 5 5 5 5 5 5 5 5 5 5 5 5 5 6 5 5 5 5 6 5 5 6 5 5 5 5 5 5 5 5 5 5 5 5 5 5 5 5 5 6 5 5 5 5 5 5 5 6 5 5 5 5 5 5 5 5 5 5 5 5 5 5 5 5 5 5 6 5 5 5 5 5 6 5 6 5 6 5 6 6 6 6 5 5 6 5 6 5 5 5 5 5 5 5 5 6 6 6 6 5 5 5 5 5 5 5 5 5 5 5 5 6 5 5 5 5 5 5 6 5 5 5 5 5 5 5 5 5 5 5 5 5 5 5 5 5 5 5 5 5 5 5 5 5 5 5 5 5 5 5 5 5 5 5 5 5 5 5 5 5 5 5 5 5 5 6 5 5 6 5 5 5 5 5 5 5 5 5 5 5 5 5 5 5 5 5 5 5 5 5 6 5 5 5 5 5 5 5 5 5 5 5 5 5 5 5 5 5 5 6 6 5 6 5 5 6 5 5 5 5 5 5 5 5 6 5 5 5 5 5 5 5 5 5 5 5 5 5 5 5 5 5 5 5 5 5 5 5 5 5 5 5 5 5 5 5 5 5 5 5 6 5 5 5 5 5 5 5 5 5 6 5 5 5 5 5 6 5 5 5 5 5 5 5 6 5 5 5 5 5 5 5 6 5 5 5 5 5 5 6 5 5 6 5 5 5 5 5 5 5 5 5 5 5 5 5 5 5 5 5 5 5 5 5 6 5 6 5 5 6 5 5 5 5 5 5 5 5 5 5 5 5 5 5 5 5 5 5 5 5 6 5 5 5 5 6 5 5 5 5 5 5 5 5 5 5 5 5 5 5 5 5 5 5 5 5 5 5 5 5 5 5 5 5 5 5 5 5 5 5 5 5 5 5 5 5 5 5 5 5 5 5 5 5 5 5 5 5 5 5 5 5 6 5 5 5 5 5 5 5 5 5 5 5 5 5 5 6 6 5 5 5 5 6 5 5 6 5 5 6 5 5 5 5 5 5 5 5 5 5 6 5 5 5 5 5 5 5 6 5 6 6 5 5 5 5 6 5 6 5 5 5 6 5 5 5 5 5 5 5 5 5 6 5 5 6 5 6 5 6 5 6 5 5 5 6 6 5 5 5 5 6 5 6 5 5 5 5 6 5 5 5 5 5 5 5 5 5 5 5 5 5 5 5 5 6 5 5 5 5 5 6 5 5 5 6 6 6 5 5 6 5 5 6 5 5 6 5 5 5 5 5 5 6 5 5 5 6 6 5 6 5 5 5 5 6 5 5 5 5 5 5 6 6 5 5 6 5 5 6 5 5 5 5 5 6 5 5 5 5 5 5 5 5 5 5 5 5 6 5 5 5 5 5 5 5 5 5 5 6 5 6 5 6 5 5 6 5 5 6 6 6 5 6 5 5 6 5 6 5 6 5 5 5 5 5 5 5 5 5 5 5 5 5 5 5 6 5 5 6 5 5 5 6 6 5 5 6 6 6 5 5 5 5 5 6 5 5 6 5 5 6 5 5 5 5 6 5 5 5 5 5 5 5 5 5 5 5 5 5 5 5 5 5 6 5 6 5 5 5 5 5 5 5 5 5 5 5 6 5 5 5 6 5 5 5 5 5 5 5 5 5 5 5 5 5 5 5 6 5 5 5 5 5 5 5 5 6 5 6 5 5 5 5 5 5 5 5 5 5 6 5 5 5 5 5 5 5 5 6 5 5 5 5 6 5 5 5 5 5 5 6 5 5 5 5 5 5 5 5 5 5 5 5 5 5 5 5 5 5 5 5 5 5 5 5 5 5 5 5 5 5 5 5 5 5 5 6 5 5 5 5 5 5 5 5 6 5 5 5 5 6 5 6 5 5 5 5 5 5 5 5 5 6 5 5 5 5 6 5 5 5 5 5 5 5 5 5 5 5 5 5 5 6 5 5 5 6 6 5 5 5 5 5 5 5 6 6 5 5 5 5 6 6 5 6 5 5 5 6 5 5 5 6 6 5 5 6 6 5 5 5 5 5 5 5 5 5 5 6 5 5 5 5 6 5 5 5 6 5 5 5 5 5 6 6 6 6 5 5 5 5 5 5 5 5 5 5 5 5 6 5 6 5 5 5 5 5 5 5 5 5 5 6 5 5 6 5 5 5 5 5 5 5 5 5 5 5 5 5 5 5 5 5 5 5 5 5 5 5 5 5 5 5 5 6 6 5 5 5 5 5 5 6 5 5 5 5 6 5 5 5 5 5 6 5 5 5 5 5 6 5 6 5 5 5 6 5 5 6 5 6 5 6 5 6 5 5 6 5 5 6 5 6 5 5 6 6 5 5 5 5 6 5 5 5 5 5 5 5 6 5 5 5 5 5 5 5 5 5 5 5 6 5 5 5 6 5 5 5 5 5 6 5 5 6 5 5 5 5 5 6 5 5 5 5 5 5 5 5 5 6 5 5 5 5 6 5 5 5 5 5 5 5 5 5 5 5 5 5 5 5 5 5 5 5 5 5 5 5 5 5 5 5 5 5 5 6 5 5 5 5 5 5 5 5 5 5 5 6 5 5 5 5 5 5 5 5 5 5 5 5 5 5 5 6 6 5 5 5 6 5 5 5 5 5 5 5 5 5 5 5 5 5 5 5 5 5 5 5 5 5 5 6 5 5 5 5 5 5 5 5 5 5 5 5 5 5 5 5 5 6 6 5 5 5 5 5 6 5 6 5 5 5 6 5 6 5 5 5 5 5 5 5 5 5 5 5 5 6 5 5 5 6 5 5 5 5 5 5 5 5 5 5 5 5 5 5 5 5 5 6 5 5 5 5 5 6 5 5 5 5 5 5 5 5 5 5 5 5 5 6 5 5 5 5 5 5 5 5 5 5 5 5 5 5 5 5 5 5 5 5 5 6 5 5 5 5 5 6 5 6 5 5 5 5 5 5 5 5 5 5 5 5 5 5 5 5 5 5 5 6 5 5 5 5 5 6 5 5 5 6 5 5 5 5 5 5 5 5 5 5 5 5 6 5 6 5 5 5 5 5 6 5 5 5 5 5 6 5 5 5 5 5 5 5 5 5 5 5 5 5 5 5 5 5 6 5 5 5 5 5 6 5 5 5 5 5 5 5 5 5 5 5 5 5 5 6 5 6 6 5 5 5 5 6 5 5 5 5 5 5 6 5 5 6 5 5 5 5 5 5 5 6 5 5 5 5 5 5 5 5 6 5 5 6 5 6 5 5 5 5 5 5 5 5 5 5 5 5 5 5 5 5 5 5 5 5 5 6 5 6 5 5 5 5 5 5 5 5 5 5 5 5 5 5 5 5 5 5 5 5 6 5 5 6 5 5 5 5 5 5 5 5 5 6 5 5 6 5 5 5 6 5 5 5 5 5 5 5 5 5 5 5 5 5 5 5 5 5 5 5 6 5 5 5 5 5 5 5 5 5 5 5 5 5 5 5 5 5 5 6 5 5 5 5 6 5 5 5 5 6 5 5 5 5 5 5 5 5 5 5 5 5 5 5 5 5 5 5 5 5 5 5 5 5 5 5 5 5 5 5 5 5 5 5 5 5 6 5 5 5 5 5 5 5 5 5 6 5 5 5 6 5 5 6 5 5 5 5 5 5 5 6 5 6 5 5 5 6 6 5 5 5 5 5 5 6 5 5 6 5 5 5 5 5 5 5 6 5 5 5 5 5 6 5 5 5 5 5 5 5 5 5 5 5 5 5 6 5 5 5 5 5 5 5 6 5 6 5 5 5 6 5 5 5 5 5 5 5 6 5 5 5 5 5 5 6 5 5 5 6 5 5 5 5 5 5 5 5 5 5 5 5 5 5 5 5 5 6 5 5 5 5 5 5 5 5 5 5 5 5 6 5 6 5 5 5 5 6 5 6 5 5 5 5 5 5 5 6 5 5 5 5 5 5 5 5 5 6 5 6 5 6 5 6 5 5 6 5 6 6 5 6 5 6 5 5 5 6 5 6 5 6 6 5 5 5 5 5 5 5 5 5 5 6 5 5 5 6 5 5 5 6 5 5 5 6 5 5 5 5 6 6 5 5 5 5 6 5 5 5 5 6 5 5 5 5 5 6 5 5 6 5 5 5 5 6 5 6 5 6 5 5 5 5 5 5 5 5 5 5 5 5 5 5 5 5 5 5 5 5 5 5 5 5 5 5 5 5 5 5 5 5 5 5 5 6 5 5 5 5 5 5 5 5 5 5 5 5 5 5 5 5 5 6 5 5 5 5 5 5 6 5 5 5 5 5 5 5 6 5 5 5 6 6 6 5 5 5 5 5 6 5 5 6 6 5 5 5 5 5 5 5 5 5 5 6 5 5 5 5 5 5 5 5 5 5 5 5 5 5 5 5 5 5 5 6 5 5 5 6 6 5 5 5 6 5 5 5 5 5 5 6 5 6 5 5 5 6 5 6 5 5 5 5 5 5 5 5 5 5 5 5 5 6 5 5 6 5 5 5 5 5 6 5 5 5 5 5 5 5 5 5 5 5 5 5 5 5 6 6 5 5 5 5 6 5 5 5 5 5 5 5 5 5 5 5 5 5 5 6 5 6 5 5 5 5 5 5 5 5 5 5 5 6 5 5 5 5 5 6 6 5 5 5 5 5 5 5 5 6 5 6 5 5 5 5 5 5 5 5 5 6 5 5 5 5 5 5 5 5 5 5 5 5 5 6 5 6 5 5 5 5 5 5 5 5 6 5 5 5 5 5 5 5 5 5 5 5 5 5 5 6 5 5 5 5 5 5 5 5 6 6 5 5 5 5 5 5 5 5 6 5 5 5 6 5 5 5 5 5 6 5 5 5 5 5 5 5 5 5 5 5 5 5 5 5 5 6 5 5 6 5 5 6 5 5 5 5 5 5 5 5 5 5 5 5 5 5 6 5 5 5 5 5 6 5 5 6 5 5 5 5 5 5 5 5 5 5 5 5 5 5 5 5 5 5 5 5 5 5 5 5 5 5 5 5 5 5 5 6 5 5 5 5 6 5 5 5 5 5 5 6 6 5 5 5 5 5 5 5 5 6 5 6 5 5 5 6 5 5 5 5 5 5 5 5 5 5 5 5 5 5 5 5 5 5 5 5 5 5 5 5 5 5 5 5 5 6 5 5 5 5 5 5 5 5 5 5 5 5 5 5 5 5 5 5 5 5 5 5 5 6 5 6 5 5 5 5 6 5 5 5 5 6 5 5 5 5 5 5 5 5 5 5 5 5 5 6 5 5 5 5 5 5 5 5 5 5 5 5 6 5 5 5 5 6 5 5 5 6 5 5 5 5 5 5 5 5 5 5 6 5 5 5 5 5 6 5 5 5 5 5 5 5 5 5 5 5 6 5 5 5 6 5 5 5 5 5 5 5 6 5 5 5 5 5 6 5 5 5 5 5 5 5 5 5 6 5 5 6 5 5 6 5 6 6 5 5 5 5 5 5 5 5 5 5 5 5 5 5 5 5 5 5 5 5 5 5 5 5 5 5 5 5 5 5 5 5 5 5 5 5 5 5 5 5 5 5 5 5 5 6 5 5 5 5 6 5 5 5 5 5 5 5 5 5 6 5 5 6 6 5 5 5 5 6 5 5 5 6 5 5 6 5 5 5 6 5 5 5 5 6 5 6 5 5 5 5 5 6 6 5 5 5 5 5 5 5 5 5 5 5 5 5 5 5 5 5 5 5 5 5 5 5 6 5 5 5 5 5 5 5 5 5 5 5 5 6 5 5 5 5 5 6 6 5 5 5 5 5 5 5 5 5 5 6 5 5 5 5 5 5 5 5 5 6 6 5 5 5 5 5 5 6 6 5 5 5 6 5 6 6 5 6 5 6 5 5 5 5 5 5 5 5 5 5 6 5 5 5 5 6 5 6 5 5 5 5 5 5 5 5 5 5 5 5 6 5 5 5 5 5 5 5 5 5 5 5 5 5 6 5 5 6 5 5 5 5 5 5 5 6 5 5 5 5 5 5 5 5 5 5 5 5 5 5 6 5 5 5 5 6 5 6 5 6 5 5 5 5 6 5 5 5 5 5 5 5 5 5 5 5 5 5 5 5 6 5 6 5 5 5 5 5 5 5 6 5 5 5 5 5 5 5 5 5 5 5 5 5 5 5 5 5 5 5 5 5 5 5 5 5 5 5 5 5 5 5 6 6 5 5 6 5 5 5 5 5 5 5 6 5 5 5 5 5 5 5 5 5 5 5 5 5 6 5 5 5 6 6 5 5 5 5 5 5 5 5 5 5 5 5 5 5 5 5 6 5 5 6 5 5 6 5 5 5 5 5 6 5 5 5 5 6 5 5 6 5 5 5 5 5 6 5 5 5 5 5 5 6 5 5 5 5 5 5 5 5 5 5 5 5 5 5 5 5 5 5 5 5 5 5 5 6 5 5 5 5 5 5 6 5 5 5 5 5 5 5 6 5 5 5 6 5 5 5 5 5 5 5 5 5 5 5 5 5 5 5 5 5 5 5 6 5 6 5 5 5 6 5 6 5 5 5 6 5 5 5 5 5 5 5 5 5 5 5 5 6 5 5 5 5 5 5 5 5 6 5 5 5 5 5 5 5 5 5 5 5 5 5 5 5 6 5 5 5 5 6 5 5 5 6 5 5 5 5 5 5 5 5 5 5 5 5 5 5 5 5 5 5 5 5 5 5 6 5 5 5 5 5 5 5 5 5 5 5 5 5 5 6 5 5 5 5 5 5 5 5 5 5 5 5 5 5 5 5 5 5 5 5 5 5 5 5 6 5 5 5 5 5 6 5 5 5 5 5 5 5 5 5 5 5 6 5 5 5 5 6 5 5 5 5 6 6 5 5 6 5 5 5 6 5 5 6 5 5 5 5 5 5 5 5 5 5 5 5 5 5 5 5 5 5 5 5 5 5 5 5 5 5 5 5 5 5 5 6 5 5 5 5 5 5 5 6 5 5 5 5 5 6 5 5 5 6 5 5 5 5 5 5 6 5 6 5 5 6 5 5 5 6 5 6 5 6 5 5 6 5 5 5 5 5 5 5 6 5 5 6 5 6 6 5 6 5 5 6 5 6 5 5 5 6 5 5 5 5 5 5 5 5 5 5 5 5 5 5 5 5 5 5 6 5 5 5 5 5 5 5 5 5 5 5 6 6 5 5 5 5 6 5 5 6 5 5 5 6 5 5 5 5 5 5 5 6 5 5 5 5 6 5 5 5 5 5 5 5 5 6 5 5 6 5 5 6 5 5 5 6 5 5 5 5 5 5 5 5 5 5 5 5 5 5 5 5 5 5 5 5 5 6 5 5 6 5 5 5 5 6 5 5 5 5 5 5 5 5 5 5 5 5 5 5 6 5 6 5 5 5 5 5 5 6 5 5 5 5 5 6 6 5 5 5 5 5 5 5 5 5 5 5 5 5 5 5 5 5 5 5 5 5 5 5 5 5 5 5 5 6 5 5 5 6 5 5 5 5 5 5 5 5 5 6 5 5 5 5 5 5 5 6 5 5 5 5 6 5 5 5 5 6 5 5 5 5 5 5 6 5 5 5 6 5 5 5 5 5 5 5 5 6 5 5 5 5 5 5 5 5 5 5 5 5 5 5 5 5 5 6 5 6 6 5 5 6 5 6 5 5 5 5 5 5 6 5 5 5 5 5 5 5 6 5 5 5 5 5 5 5 5 5 5 5 5 5 5 5 5 5 5 5 5 5 5 5 5 5 6 5 6 5 5 5 5 5 5 5 5 5 5 5 5 5 5 5 5 6 5 6 6 5 5 5 5 5 5 5 5 5 5 5 5 5 5 5 5 5 6 5 6 6 5 5 5 5 5 6 6 5 5 5 5 5 6 6 5 6 5 6 6 6 5 6 5 5 5 6 5 5 6 5 6 5 6 5 5 5 5 5 5 5 6 5 5 6 6 5 6 5 5 5 6 5 6 5 5 5 5 5 6 6 6 5 5 5 5 6 5 5 5 6 5 6 6 5 5 5 5 5 5 5 5 5 5 6 5 6 5 6 5 5 5 5 5 5 5 5 5 5 5 5 5 5 5 5 5 6 5 5 5 5 5 6 5 5 5 5 5 5 5 5 5 5 5 5 5 6 6 5 5 5 5 5 5 5 5 5 5 5 5 5 5 5 5 5 5 5 5 5 5 5 5 5 5 5 5 5 5 5 5 5 6 5 5 5 5 6 5 6 5 6 5 5 5 5 5 5 6 5 6 5 5 5 6 5 6 5 5 5 5 5 5 5 5 5 5 5 5 5 5 6 5 6 5 5 5 6 5 5 6 5 6 5 5 5 5 5 5 5 5 5 5 5 5 5 5 5 5 5 5 5 5 5 5 5 5 5 5 5 6 5 5 5 5 6 5 5 5 5 5 5 5 5 6 5 5 5 6 5 5 5 5 6 5 5 5 5 5 5 5 5 5 5 5 5 5 5 5 5 5 6 5 6 5 6 5 6 6 6 5 5 5 5 6 5 6 5 5 6 5 6 5 5 5 6 5 5 5 6 5 5 5 5 5 5 5 5 5 5 5 6 5 5 5 5 5 5 5 5 5 5 5 5 5 5 5 5 5 5 5 5 5 5 5 5 5 5 5 5 6 5 5 6 5 5 5 5 5 5 6 5 6 5 5 6 6 5 5 5 5 5 5 5 5 5 5 6 6 5 5 5 5 5 5 5 5 5 5 5 5 5 5 5 6 6 5 5 6 5 5 5 5 5 5 5 6 5 5 6 5 5 5 5 6 5 5 6 5 5 6 5 5 5 5 6 5 6 5 5 5 5 5 5 5 5 6 5 5 6 5 5 5 5 5 6 5 5 5 5 5 5 6 5 6 6 6 5 6 5 5 5 6 5 5 5 5 5 5 5 6 5 5 5 5 5 5 5 5 5 5 5 5 5 5 6 5 5 5 6 5 5 5 5 5 5 5 5 5 5 6 6 5 5 5 5 5 5 5 6 5 5 5 5 6 5 5 5 5 5 5 5 5 5 5 5 5 5 5 5 5 5 5 5 5 5 6 5 5 5 5 5 5 5 5 6 5 5 5 6 5 5 5 6 5 6 5 5 5 5 5 5 5 5 5 5 5 5 5 5 5 5 5 5 5 5 5 5 5 5 5 5 5 5 5 5 5 5 5 5 5 5 5 5 5 5 5 5 5 5 5 5 5 5 5 5 5 5 5 5 5 5 5 5 5 5 5 5 5 5 5 5 5 5 5 5 5 5 5 5 5 5 5 5 5 5 5 5 5 6 5 5 5 5 5 5 5 5 6 5 5 5 5 6 5 5 5 5 5 6 5 5 6 5 5 5 5 6 5 5 5 5 5 5 5 6 5 5 5 6 5 5 5 5 5 5 5 5 5 5 5 6 5 6 5 5 5 5 5 5 5 5 5 5 5 5 5 6 5 6 5 5 6 5 5 5 5 5 5 5 6 6 5 5 6 5 5 5 5 5 5 5 5 5 5 5 5 5 5 6 5 5 6 5 5 6 5 5 5 5 6 5 6 5 5 5 5 6 5 5 6 5 5 5 5 6 5 5 5 5 5 6 5 5 6 5 5 5 5 5 5 6 5 5 6 5 6 5 5 5 5 5 5 5 5 5 5 5 5 5 5 5 5 5 5 5 6 5 5 5 6 5 6 5 5 5 5 6 6 5 6 5 6 5 5 5 5 5 6 5 6 6 5 5 5 6 5 6 5 5 5 5 5 5 5 5 5 5 5 5 5 5 5 5 5 5 5 5 5 5 5 5 5 5 5 5 5 5 6 5 5 5 6 6 5 5 6 5 5 6 5 5 5 5 6 6 5 5 6 5 5 5 6 5 5 6 5 5 5 5 5 5 5 5 5 5 5 5 5 5 5 5 5 5 5 5 5 5 6 5 5 6 5 5 5 5 5 5 5 6 5 5 5 5 5 5 5 5 5 5 5 5 5 6 6 5 5 5 5 5 5 5 5 5 5 5 6 5 5 5 5 5 5 6 5 5 5 5 5 5 5 6 5 5 5 5 5 6 5 5 5 5 6 5 5 5 5 5 5 6 5 5 5 5 5 6 5 5 5 6 5 6 5 5 6 5 5 6 5 5 5 5 6 5 5 6 5 5 5 5 5 5 5 6 5 5 5 5 5 5 5 5 5 6 5 5 5 5 5 5 5 5 5 5 5 5 5 5 6 5 5 6 6 5 5 5 5 5 5 6 5 5 6 6 5 5 5 5 5 5 5 5 5 5 5 6 5 5 5 6 5 5 5 5 5 6 5 5 5 5 5 5 5 6 5 5 5 6 5 5 5 6 5 5 5 5 5 6 5 5 5 6 5 5 5 5 5 5 6 5 6 5 5 5 5 5 6 5 5 5 5 5 5 5 5 5 5 6 5 5 6 5 6 5 5 6 5 5 5 5 5 5 5 5 5 5 5 5 5 5 5 5 5 5 5 5 5 5 5 6 5 5 5 5 6 5 5 5 6 5 5 5 5 5 5 5 5 5 5 5 5 5 6 5 5 5 5 6 5 6 5 5 5 5 5 5 5 5 5 5 5 5 5 5 5 5 6 5 5 5 5 5 5 5 5 6 5 5 5 5 6 5 5 5 5 5 5 5 6 5 5 5 5 5 5 5 5 5 5 6 5 5 5 6 5 5 5 5 5 5 5 5 5 5 5 6 5 5 5 6 6 5 5 5 5 6 5 5 5 5 5 5 6 5 5 5 5 5 5 6 5 5 5 5 5 5 5 5 5 5 5 5 5 6 5 6 5 5 6 5 5 5 5 5 5 5 6 5 5 6 5 6 5 6 6 5 6 5 6 5 5 5 5 5 5 5 5 5 5 5 5 6 5 5 6 5 5 5 5 5 6 5 5 6 6 6 5 5 5 5 6 5 5 5 5 5 5 5 5 6 5 6 5 5 5 5 5 5 5 5 6 5 6 5 5 6 6 5 5 5 6 5 5 5 5 5 6 5 5 5 6 5 6 5 6 5 5 5 5 5 5 5 5 5 5 5 5 5 5 5 5 5 5 5 5 5 5 5 5 6 5 5 5 6 5 5 5 5 5 5 5 6 5 5 5 5 5 5 5 6 5 5 5 6 5 5 6 6 5 5 5 5 5 5 5 5 5 5 5 5 5 5 5 5 6 6 5 5 5 5 5 5 5 5 5 5 6 5 5 6 5 5 5 5 5 6 5 6 5 5 6 5 5 5 6 5 5 6 5 5 5 5 6 5 6 5 5 5 5 5 5 5 5 5 5 5 5 5 5 5 6 5 5 5 5 5 6 5 5 5 5 5 6 5 5 6 5 5 5 5 5 5 5 6 5 5 5 5 6 5 5 5 5 5 5 5 5 5 5 5 5 5 5 5 5 5 5 5 5 6 6 5 5 5 6 5 5 6 5 5 5 5 6 5 5 6 5 5 5 5 5 5 5 5 5 5 5 5 5 5 6 5 5 5 5 5 6 5 5 5 5 6 5 5 5 5 5 5 5 5 5 6 5 5 5 6 5 5 5 5 5 5 6 5 5 5 5 5 5 5 6 5 5 5 6 5 5 5 5 5 5 5 5 5 5 5 5 5 5 6 5 5 5 5 5 5 5 5 5 6 5 5 5 5 5 6 5 6 5 5 5 5 5 5 5 5 5 5 5 6 5 5 5 5 5 6 6 5 5 5 5 6 5 5 6 5 5 5 5 6 5 5 5 6 5 5 5 5 5 5 6 6 5 5 6 5 5 6 5 5 5 6 6 5 5 5 5 5 5 5 5 5 6 5 5 5 6 5 5 5 5 5 5 5 5 6 5 5 6 5 5 6 5 5 5 5 5 5 5 5 5 5 5 5 5 5 5 5 5 5 6 5 5 6 5 5 5 5 6 5 5 5 5 6 5 5 5 5 5 5 6 5 5 6 5 5 5 5 5 5 5 5 5 5 5 5 5 5 5 5 5 5 5 5 5 6 5 5 5 5 5 5 5 5 6 5 5 6 6 5 5 6 5 6 5 6 6 5 5 5 5 5 5 5 5 5 5 5 5 6 5 5 5 6 6 5 5 5 5 5 6 5 6 5 5 5 5 5 5 5 6 5 5 6 5 5 5 5 5 5 5 5 6 5 5 5 5 5 5 5 5 5 5 5 6 5 5 6 5 5 5 5 5 5 5 5 6 5 5 5 6 5 5 5 5 6 5 6 5 5 5 5 6 5 5 6 5 5 6 5 5 6 5 6 6 5 5 5 5 5 5 5 5 6 5 5 6 5 5 5 6 5 6 5 5 5 5 5 6 5 5 5 5 5 5 5 5 5 5 5 5 6 5 5 5 5 5 5 5 5 5 5 5 5 5 5 5 5 5 5 5 5 5 5 5 5 5 5 5 6 5 5 6 5 5 5 5 5 5 6 5 5 5 5 5 5 5 5 5 5 5 5 6 5 5 6 5 5 6 5 5 5 6 5 5 6 5 5 6 5 6 5 5 6 5 5 6 5 6 5 5 5 5 5 5 5 5 6 5 6 5 6 5 5 6 5 5 6 5 5 5 5 6 5 5 5 5 5 5 5 5 5 5 5 5 6 5 6 5 6 5 5 5 5 5 5 5 6 5 6 5 5 5 5 5 6 6 5 5 5 5 5 5 5 5 5 5 5 5 5 5 5 5 5 5 5 5 5 5 5 5 5 5 5 5 5 5 6 5 5 5 5 6 5 5 6 5 5 5 5 5 5 5 5 5 5 5 5 5 5 5 5 5 5 5 5 5 5 5 5 5 5 5 5 5 5 5 6 5 5 5 6 5 5 5 5 5 6 5 5 5 5 6 5 5 5 5 5 5 5 6 5 5 5 5 5 5 5 5 6 6 5 5 5 5 5 5 5 5 5 5 5 5 5 5 5 5 5 5 5 5 5 6 5 5 5 5 5 5 5 5 6 5 5 5 6 6 5 5 5 5 5 5 6 6 5 5 6 5 5 6 5 5 5 5 5 5 6 5 5 5 6 5 5 5 5 5 5 5 5 5 5 5 5 5 5 5 5 5 5 5 5 5 5 5 5 5 5 5 5 5 5 5 5 5 5 5 5 5 5 6 5 5 6 5 5 5 5 5 5 5 5 6 5 5 5 6 5 5 5 5 5 5 5 5 6 5 5 5 5 5 6 5 5 5 5 5 5 5 5 6 5 5 5 6 5 5 5 5 5 5 5 6 5 5 5 5 5 5 5 5 5 5 5 5 5 5 5 5 5 5 5 6 5 5 5 5 5 5 5 6 6 5 5 5 5 5 5 5 5 5 5 5 5 5 5 5 5 5 5 5 5 5 5 5 5 5 5 5 5 5 5 5 5 5 5 5 5 5 6 5 5 5 5 5 5 5 5 5 5 5 6 5 5 5 5 5 5 5 6 5 5 6 5 5 5 5 5 5 5 5 5 5 5 5 5 5 5 5 5 5 5 5 5 5 6 6 5 5 5 6 5 5 6 5 5 5 5 6 5 5 5 6 5 5 5 5 5 6 5 5 5 6 5 5 5 5 5 5 5 6 5 5 5 5 5 5 5 5 5 5 5 6 5 5 5 5 5 5 5 5 5 5 5 6 5 5 5 5 5 5 5 6 5 5 6 5 5 5 6 6 5 5 5 5 5 5 5 5 5 5 5 5 5 5 5 5 5 5 5 5 5 5 5 5 5 5 5 5 6 6 5 5 5 5 5 5 5 
</DataArray>
<DataArray type="Float64" Name="stress" NumberOfComponents="9" format="ascii">
-21.818649954447483 754.70195035005236 0 754.70195035005236 -2486.5871555862968 0 0 0 0 -0.6794547272052508 -13.831631552100589 0 -13.831631552100589 -529.74035145220114 0 0 0 0 -149.56551512615721 311.40921270784474 0 311.40921270784474 143.02123412572837 0 0 0 0 -170.7515336620115 64.049385126858851 0 64.049385126858851 106.64753999964887 0 0 0 0 -76.638839337541555 -209.83195837449603 0 -209.83195837449603 -118.59628315753071 0 0 0 0 31.940141690140877 -7.9703377345954323 0 -7.9703377345954323 -263.85320161995332 0 0 0 0 36.304431926109018 12.002908789574576 0 12.002908789574576 -365.2386204665363 0 0 0 0 0.46229449987283755 -0.60145799425082203 0 -0.60145799425082203 -0.58399565771438944 0 0 0 0 -86.544571806820812 -24.053955781590048 0 -24.053955781590048 31.688637087230745 0 0 0 0 55.210944489788915 -6.0535233294176578 0 -6.0535233294176578 -210.88685208368406 0 0 0 0 2.5017539232926089 -1.4861512017844376 0 -1.4861512017844376 -0.12994271636300425 0 0 0 0 4.7711870890348678 -79.657074965856737 0 -79.657074965856737 -181.35563094741156 0 0 0 0 4.3268472747754458 -84.635113906020706 0 -84.635113906020706 74.814078439636432 0 0 0 0 45.210282224488992 -31.267885743116494 0 -31.267885743116494 -101.15561005854397 0 0 0 0 5.8670745883871254 0.87798605469369306 0 0.87798605469369306 -5.8339600408259358 0 0 0 0 66.904643222860045 7.9539623242908419 0 7.9539623242908419 -39.943304306412756 0 0 0 0 -4.3967910791736058 10.97239440711985 0 10.97239440711985 -17.765453949061907 0 0 0 0 -436.75008952361787 -526.38730853487891 0 -526.38730853487891 -833.86891681572888 0 0 0 0 164.73190330074181 0.50537365921627497 0 0.50537365921627497 -356.59014570583531 0 0 0 0 198.90188299079091 138.21526463480768 0 138.21526463480768 -21.222090708815813 0 0 0 0 -1.8424495161290169 3.2968029309421496 0 3.2968029309421496 -7.8276359146580603 0 0 0 0 -467.89001116773426 -457.40879863002192 0 -457.40879863002192 -847.21168415305146 0 0 0 0 -367.32959551423323 -974.96071957187087 0 -974.96071957187087 -2490.9953665863195 0 0 0 0 -144.95342371146955 -1067.0473300457488 0 -1067.0473300457488 -2497.6837288941388 0 0 0 0 1.6863992391106841 -0.79380650258272567 0 -0.79380650258272567 -5.9885462312079198 0 0 0 0 635.0778409513191 -173.8966804748452 0 -173.8966804748452 -2499.4134684128221 0 0 0 0 48.485121533911908 -535.18450583032791 0 -535.18450583032791 -1074.7948609453742 0 0 0 0 556.66856252219384 60.318206261537853 0 60.318206261537853 -1501.2841498425114 0 0 0 0 315.38035722072505 -87.533834217778349 0 -87.533834217778349 -889.07397260167636 0 0 0 0 288.8535573262551 242.27773916568549 0 242.27773916568549 -1493.3312385521808 0 0 0 0 1.6120378313734618 0.034997867476349143 0 0.034997867476349143 -3.9433689876701408 0 0 0 0 -473.45449137286442 -894.37075640461308 0 -894.37075640461308 -819.06482877334201 0 0 0 0 353.22891491813607 306.32015004798814 0 306.32015004798814 -1017.2603793515436 0 0 0 0 -513.98831190794556 1244.6049879824805 0 1244.6049879824805 -2304.9420172594109 0 0 0 0 -123.25946778925254 517.78008553654399 0 517.78008553654399 -963.31280756686465 0 0 0 0 -41.047192109682172 643.95085081690922 0 643.95085081690922 -1560.5460332844668 0 0 0 0 499.79065245082484 342.71478792913331 0 342.71478792913331 -2500.1435367978775 0 0 0 0 -87.780290365246628 313.88524613450863 0 313.88524613450863 -1041.6941976690468 0 0 0 0 177.06681735019714 74.241547639912824 0 74.241547639912824 -981.84018244752951 0 0 0 0 -84.351422644303298 396.87118032760191 0 396.87118032760191 -725.75605961390829 0 0 0 0 -1.1391282936283817 9.9891259530507597 0 9.9891259530507597 18.524320179020492 0 0 0 0 -105.66395330730758 189.16515578210146 0 189.16515578210146 -94.135913346442976 0 0 0 0 -27.334487193992516 146.58227946076295 0 146.58227946076295 -131.08746071910718 0 0 0 0 20.409977429112132 94.7809123161569 0 94.7809123161569 -63.10817287703685 0 0 0 0 -23.091136223611102 142.80789899516094 0 142.80789899516094 -41.804538011230761 0 0 0 0 -9.0750838967081791 170.69982819467259 0 170.69982819467259 -99.790878387226257 0 0 0 0 23.728371616209529 59.983755623210527 0 59.983755623210527 -110.28610526603006 0 0 0 0 -77.807948234711489 111.06258976420213 0 111.06258976420213 -128.20014321540657 0 0 0 0 -71.008873108759701 114.65215930132399 0 114.65215930132399 -104.26623437914532 0 0 0 0 -134.4993484722072 99.540112666174537 0 99.540112666174537 -71.953101513208821 0 0 0 0 -22.745351785543789 143.41268629702972 0 143.41268629702972 -109.20279755064985 0 0 0 0 -77.096174943097139 121.84414726044633 0 121.84414726044633 -64.399226207460742 0 0 0 0 -42.496473488477022 102.3574298160529 0 102.3574298160529 -68.334185848991183 0 0 0 0 -58.67289551606018 131.80109094332147 0 131.80109094332147 -64.900684255931992 0 0 0 0 2.2510585468569815 4.3394014413304376 0 4.3394014413304376 -0.9673458483093782 0 0 0 0 -224.07628363131721 122.55630048231978 0 122.55630048231978 -55.403365891834255 0 0 0 0 -163.18591012801107 117.98418794026657 0 117.98418794026657 -39.332567510660738 0 0 0 0 -157.52558157558201 154.63500444516831 0 154.63500444516831 -84.857058017398231 0 0 0 0 -151.20992763688832 100.37272308042157 0 100.37272308042157 -106.62757093759137 0 0 0 0 -3.4221332911640179 8.8152278340290025 0 8.8152278340290025 6.8085346140094956 0 0 0 0 30.56102550470996 -24.979526503688248 0 -24.979526503688248 -253.0465329892686 0 0 0 0 -211.16676759138699 142.51735434434522 0 142.51735434434522 -74.128532094255206 0 0 0 0 -252.93248033295512 125.57477249071235 0 125.57477249071235 -80.754277589992853 0 0 0 0 -174.51150176163975 167.6850984823177 0 167.6850984823177 -173.15682263250346 0 0 0 0 -77.261929822845673 87.062183945359266 0 87.062183945359266 -275.54749103309587 0 0 0 0 -170.16674619568312 144.23823966650525 0 144.23823966650525 -315.48550627869554 0 0 0 0 -167.11297053954468 119.35181715691579 0 119.35181715691579 -163.09869180206078 0 0 0 0 -36.376199172005272 51.677072015969316 0 51.677072015969316 -165.87893611367326 0 0 0 0 -76.443853469427268 60.028873086252133 0 60.028873086252133 -161.17113746870018 0 0 0 0 -129.31359441967436 127.42118908428529 0 127.42118908428529 -93.160233595495811 0 0 0 0 -143.52291951306563 111.59883973633987 0 111.59883973633987 -83.920853109419113 0 0 0 0 25.882635863490123 26.832454219271312 0 26.832454219271312 -73.354609058020287 0 0 0 0 -76.594339925405848 109.17641562480276 0 109.17641562480276 12.167249026562786 0 0 0 0 -1.0464681760377061 138.19489058970066 0 138.19489058970066 -58.594837356038624 0 0 0 0 -76.950709772706887 89.721369862862048 0 89.721369862862048 -72.933801315106393 0 0 0 0 -130.56129396364508 136.10325285831641 0 136.10325285831641 -46.313412204122869 0 0 0 0 -34.204265308491387 35.213555458863993 0 35.213555458863993 -69.769249881603173 0 0 0 0 73.870245754990265 -34.80082521327131 0 -34.80082521327131 -150.48780360857199 0 0 0 0 47.784212888321349 163.69213664944618 0 163.69213664944618 105.63206564987195 0 0 0 0 47.726377979348854 -41.428067814704264 0 -41.428067814704264 94.953735629154835 0 0 0 0 -17.080677632059178 -58.170145416632295 0 -58.170145416632295 -1132.9024837156321 0 0 0 0 -6.7700105543306677 17.709616571960353 0 17.709616571960353 -20.780018152189768 0 0 0 0 -0.38648080921805672 10.357329303391452 0 10.357329303391452 -8.8620067052124796 0 0 0 0 -131.87482672654266 -191.2942390090775 0 -191.2942390090775 -97.433090891761822 0 0 0 0 -0.54171921525744438 7.8142432201275369 0 7.8142432201275369 -10.467804261534184 0 0 0 0 48.191261646418297 220.8736761566106 0 220.8736761566106 -648.98161738011186 0 0 0 0 -1.5900527254417556 11.416550635978524 0 11.416550635978524 -5.0291108789707266 0 0 0 0 -0.23669001792649591 6.257734380764532 0 6.257734380764532 -6.7628600993538726 0 0 0 0 10.091360436823757 76.837063400365878 0 76.837063400365878 41.059189918385528 0 0 0 0 -227.12203754554019 254.59291393573221 0 254.59291393573221 -289.2252980110934 0 0 0 0 -380.03155452687906 209.4704323229962 0 209.4704323229962 -100.57059859978472 0 0 0 0 0.073247246781117131 -0.11784380680856543 0 -0.11784380680856543 -1.1756898007531902 0 0 0 0 -292.97072751224198 170.62966157338815 0 170.62966157338815 -277.43754302430898 0 0 0 0 8.5980492941564979 -14.688591324571462 0 -14.688591324571462 -111.717803622887 0 0 0 0 20.146196928288539 -96.717956472006335 0 -96.717956472006335 -68.976523531477142 0 0 0 0 20.189258840098681 -111.12257793045865 0 -111.12257793045865 -523.2990660659998 0 0 0 0 -117.03275328364231 -58.277534772678337 0 -58.277534772678337 -114.49644693719938 0 0 0 0 -123.96778438645183 175.82697834813735 0 175.82697834813735 -665.5033609584716 0 0 0 0 -170.95519628685184 295.92142473432614 0 295.92142473432614 -594.46648448539781 0 0 0 0 -0.3974757058156026 -1.0681497907684872 0 -1.0681497907684872 -3.6462146168172751 0 0 0 0 -190.49083616242348 205.47914026813669 0 205.47914026813669 -400.78456291550538 0 0 0 0 -205.43691545412844 226.90073929107893 0 226.90073929107893 -325.88462217577035 0 0 0 0 -61.268398841821579 39.047972467080399 0 39.047972467080399 -470.38473381173389 0 0 0 0 -50.237624206462243 50.423448040208314 0 50.423448040208314 -736.14120471370552 0 0 0 0 -103.11312167996161 64.983038041224063 0 64.983038041224063 -446.7703492839355 0 0 0 0 -61.449720498825798 -72.148728545711492 0 -72.148728545711492 -474.29113568853245 0 0 0 0 -126.40035480931246 -24.347051703232864 0 -24.347051703232864 -394.9131237314723 0 0 0 0 -80.831981792327269 -43.088494323725172 0 -43.088494323725172 -299.98052047514648 0 0 0 0 -65.307246255912787 -117.18219349443098 0 -117.18219349443098 -289.74587874650388 0 0 0 0 -113.13603926448781 -97.231805991068541 0 -97.231805991068541 -169.08453465897765 0 0 0 0 -78.008092513613008 -119.31389173073694 0 -119.31389173073694 -353.76680413319264 0 0 0 0 32.57518386054187 -94.738459304546268 0 -94.738459304546268 -274.61812483167159 0 0 0 0 -125.99843950558932 -106.787944830372 0 -106.787944830372 -189.33677547435218 0 0 0 0 -42.158881486341812 -144.34186745744228 0 -144.34186745744228 -235.7165246069635 0 0 0 0 0.077694172278550577 0.99297563209337625 0 0.99297563209337625 -2.5993966594032543 0 0 0 0 -83.303822267529199 120.38691505851602 0 120.38691505851602 -611.17149941972457 0 0 0 0 -23.360918634830803 33.536971046878534 0 33.536971046878534 -553.40950982828508 0 0 0 0 -66.021526676877357 -62.920064279220242 0 -62.920064279220242 -458.25230160812498 0 0 0 0 -123.833962213665 -116.7398644779023 0 -116.7398644779023 -583.48373698176874 0 0 0 0 -257.06732549766565 -0.073250530083896592 0 -0.073250530083896592 -469.19848754440318 0 0 0 0 85.811213875627914 -26.51515750265753 0 -26.51515750265753 -209.8877432092122 0 0 0 0 103.22850277624821 -66.713938399785548 0 -66.713938399785548 -239.45259933381021 0 0 0 0 109.11302878474135 -57.934282689755491 0 -57.934282689755491 -174.73735170652799 0 0 0 0 91.64446235238961 15.51140909170681 0 15.51140909170681 -114.06307613264653 0 0 0 0 10.703478791569069 5.4957107383816037 0 5.4957107383816037 -175.94979212923499 0 0 0 0 35.38863803836864 -16.814818774793821 0 -16.814818774793821 -265.11777188771521 0 0 0 0 65.583949537545777 -57.178255631413776 0 -57.178255631413776 -216.01102009858005 0 0 0 0 -34.975172476150192 19.768822811674909 0 19.768822811674909 -292.19930696801748 0 0 0 0 10.986999282670993 5.7018456515233993 0 5.7018456515233993 -244.32197669960442 0 0 0 0 -19.853115445471076 -18.855193138093455 0 -18.855193138093455 -220.80438172521826 0 0 0 0 -37.151188745484887 10.19700209290022 0 10.19700209290022 -318.7083356276562 0 0 0 0 -137.85175892163977 95.256315216611256 0 95.256315216611256 -265.36749602443888 0 0 0 0 -117.98241700792744 122.28360979296849 0 122.28360979296849 -305.49947727531253 0 0 0 0 -57.090089908357186 -7.7811512454209151 0 -7.7811512454209151 -293.231142106466 0 0 0 0 -88.293085964872716 51.720987601373054 0 51.720987601373054 -361.78510970986099 0 0 0 0 -55.361750963905934 0.4986959170200862 0 0.4986959170200862 -266.45578766749531 0 0 0 0 -42.284656867900367 -47.815236466278293 0 -47.815236466278293 -247.26109854367678 0 0 0 0 -38.091793083590801 -65.389478002660326 0 -65.389478002660326 -360.97957492434938 0 0 0 0 -73.390628958845014 -87.93067637742206 0 -87.93067637742206 -159.02027946106682 0 0 0 0 -28.951620992235576 -94.805462826654548 0 -94.805462826654548 -253.5061469305947 0 0 0 0 -3.5765291563171786 -46.336538202456723 0 -46.336538202456723 -172.65897445507289 0 0 0 0 11.083064798126998 -63.849376460697385 0 -63.849376460697385 -240.90857099302229 0 0 0 0 12.403139796506252 -46.398800739058061 0 -46.398800739058061 -310.75491290484206 0 0 0 0 65.194452072701552 -44.248386067600222 0 -44.248386067600222 -245.72196035375237 0 0 0 0 9.5382839156695809 -73.472176675859373 0 -73.472176675859373 -221.37676876332989 0 0 0 0 58.684827432844713 -40.546310763740621 0 -40.546310763740621 -228.77962458659749 0 0 0 0 83.88859444055106 -38.70659905593493 0 -38.70659905593493 -234.79922099626856 0 0 0 0 65.327344181424422 -51.731314449576189 0 -51.731314449576189 -243.5952226708323 0 0 0 0 59.138189979968502 -19.121058260061545 0 -19.121058260061545 -188.8685539066355 0 0 0 0 62.005543304533717 26.837109481028165 0 26.837109481028165 -177.45146649662638 0 0 0 0 51.195969827751213 -21.244037719465268 0 -21.244037719465268 -161.22246091556735 0 0 0 0 -29.760011908010483 -59.794112758667325 0 -59.794112758667325 -132.47755094534659 0 0 0 0 9.3787890484164791 34.280040047906368 0 34.280040047906368 -16.408109295764007 0 0 0 0 -32.841222331681891 -41.607349528352188 0 -41.607349528352188 -52.804284775309497 0 0 0 0 -54.562378957768317 -87.89288976491116 0 -87.89288976491116 -159.29774867219385 0 0 0 0 -58.044514792333644 -99.799603069659497 0 -99.799603069659497 -135.81199587064839 0 0 0 0 30.72822337086177 -31.603992905329505 0 -31.603992905329505 -125.56476593462048 0 0 0 0 -72.511489613235653 -72.166107767530775 0 -72.166107767530775 29.502404605704214 0 0 0 0 -73.605873671375548 -105.90141441317246 0 -105.90141441317246 -48.46541914770205 0 0 0 0 -71.661066482539212 -82.092778057884971 0 -82.092778057884971 -48.506716708507156 0 0 0 0 17.311528440350457 -79.895059228387254 0 -79.895059228387254 -33.227548965383903 0 0 0 0 -0.96115473450665379 -1.0462421410705076 0 -1.0462421410705076 -0.45405683428356269 0 0 0 0 14.923092934982378 21.564093817622052 0 21.564093817622052 -132.92190622340422 0 0 0 0 -37.411082301672991 -7.3826472465570987 0 -7.3826472465570987 19.104152928048279 0 0 0 0 -23.519520893904883 22.728689428891812 0 22.728689428891812 -77.098544974141987 0 0 0 0 -28.655991031646295 37.315796403156128 0 37.315796403156128 38.57892620081293 0 0 0 0 -78.087247416031715 -25.113278765704308 0 -25.113278765704308 25.505914453795413 0 0 0 0 -48.206243177608485 74.494124799006386 0 74.494124799006386 153.77188289422884 0 0 0 0 -90.256056786598435 -86.056078493129462 0 -86.056078493129462 127.56874912179774 0 0 0 0 -75.288843859136136 -114.32535581640695 0 -114.32535581640695 -188.84351777588745 0 0 0 0 -77.868454704750974 -128.02759820085521 0 -128.02759820085521 1.2461567003047094 0 0 0 0 -93.54588608083364 -54.967004396385164 0 -54.967004396385164 -150.1568875239027 0 0 0 0 -77.080488812435078 -102.40959099719475 0 -102.40959099719475 -168.38815505217281 0 0 0 0 -120.26507132026401 -88.208784975082381 0 -88.208784975082381 -26.526637477145414 0 0 0 0 -99.77385445803327 -94.637418211641489 0 -94.637418211641489 -57.957485198232462 0 0 0 0 -60.564073126824724 -86.278608668741072 0 -86.278608668741072 -62.859923300969967 0 0 0 0 -44.47649037349936 -41.895891972744721 0 -41.895891972744721 -44.475066980074189 0 0 0 0 -93.425594185822263 -66.936312196092331 0 -66.936312196092331 -17.627238262837636 0 0 0 0 -7.3934197929788752 -21.08578146644868 0 -21.08578146644868 -26.318189452274964 0 0 0 0 -29.361371352349181 -21.236752290191362 0 -21.236752290191362 3.9550266469013877 0 0 0 0 -15.574955126871089 48.317212178859336 0 48.317212178859336 91.678652291251638 0 0 0 0 -53.600559795249751 -77.9363133638617 0 -77.9363133638617 -80.130971750229946 0 0 0 0 51.692070285558884 40.750384034399758 0 40.750384034399758 -107.96908182960578 0 0 0 0 6.331452690663923 79.629738770963741 0 79.629738770963741 20.25699528512996 0 0 0 0 -3.5116788697299577 -0.89341838130732754 0 -0.89341838130732754 -6.1054244858541438 0 0 0 0 45.597893049679556 6.3151790706033353 0 6.3151790706033353 26.504411794230691 0 0 0 0 20.815445106290696 -68.171703192541827 0 -68.171703192541827 -24.537661193608074 0 0 0 0 92.400906584357088 72.387890957528725 0 72.387890957528725 12.354341127756925 0 0 0 0 3.6191761251537002 38.538644160689728 0 38.538644160689728 19.214257921994431 0 0 0 0 -15.101702790376699 -7.6549499242840398 0 -7.6549499242840398 -0.65511611892604549 0 0 0 0 -3.2373502063270085 -1.4235903324339549 0 -1.4235903324339549 0.12744530279229593 0 0 0 0 -38.126639495281779 -9.5302965622904594 0 -9.5302965622904594 5.1100050654185907 0 0 0 0 53.118826192546464 -34.219766814192553 0 -34.219766814192553 -17.030648674044642 0 0 0 0 58.182180741647869 6.4323297696391819 0 6.4323297696391819 -13.12750020918611 0 0 0 0 50.918913446286297 -45.379759322531754 0 -45.379759322531754 35.079854740481096 0 0 0 0 -1.2664438602663046 -3.5897670188388702 0 -3.5897670188388702 -2.0610246021681604 0 0 0 0 -152.05338694953588 78.818242837383877 0 78.818242837383877 51.357664209817813 0 0 0 0 0.11030770877124113 0.82899862562662463 0 0.82899862562662463 -0.31159939131299552 0 0 0 0 -89.59886625851874 144.88165904163543 0 144.88165904163543 -191.6860485397774 0 0 0 0 10.266350256313046 -35.735094306677638 0 -35.735094306677638 30.571050421785912 0 0 0 0 -20.135163796835741 37.53071756736972 0 37.53071756736972 -49.531725494540296 0 0 0 0 0.17965343999154015 88.346691641701909 0 88.346691641701909 -208.30685493591591 0 0 0 0 -84.921158433954133 93.88291516447498 0 93.88291516447498 -17.298164388361329 0 0 0 0 7.8522543339970383 37.765374210437585 0 37.765374210437585 -125.27357499083155 0 0 0 0 25.601107012327162 64.070053843337519 0 64.070053843337519 -231.80362543440424 0 0 0 0 -12.051109101205213 82.072222887858516 0 82.072222887858516 -94.178799392795554 0 0 0 0 -11.238013879509907 32.921002371716895 0 32.921002371716895 -62.199415956580197 0 0 0 0 6.4390536269071106 46.414402377260558 0 46.414402377260558 -101.4116445267282 0 0 0 0 -0.51478853500942989 58.559385947077317 0 58.559385947077317 -95.09107432422752 0 0 0 0 4.0213608215019914 11.594125734532099 0 11.594125734532099 -75.585214957463904 0 0 0 0 0.45429873831363921 -3.2127199605747592 0 -3.2127199605747592 -15.278509563671832 0 0 0 0 73.255514254263389 -4.3443415707079112 0 -4.3443415707079112 -26.676373898430029 0 0 0 0 -1.9016419633791202 0.61377939024532679 0 0.61377939024532679 -8.8648598153959028 0 0 0 0 15.021606240688072 39.884621718243579 0 39.884621718243579 -61.999057304972666 0 0 0 0 27.169193568714405 -39.488217827973131 0 -39.488217827973131 0.33577263436927751 0 0 0 0 7.7313095682121684 13.876186368353956 0 13.876186368353956 10.635213288056548 0 0 0 0 -17.841934663693181 13.229594529657334 0 13.229594529657334 -36.959687298618519 0 0 0 0 -2.053533419433947 1.5916647024023405 0 1.5916647024023405 -97.461312802195607 0 0 0 0 -6.2186265610280094 19.986992650588945 0 19.986992650588945 -91.440047051342844 0 0 0 0 0.00076630562413934275 -5.7146638936428644 0 -5.7146638936428644 -159.99627852824051 0 0 0 0 13.092850241301065 51.496660900560528 0 51.496660900560528 -175.97429195159202 0 0 0 0 25.208083094309629 13.278318062988546 0 13.278318062988546 -219.04774511342112 0 0 0 0 30.958803298540584 17.196457240497693 0 17.196457240497693 -243.32829913240857 0 0 0 0 0.016258302441925075 -31.374790692997834 0 -31.374790692997834 -290.94140487894038 0 0 0 0 55.081397931481831 -50.171482649195241 0 -50.171482649195241 -307.27600959463234 0 0 0 0 59.394727071777893 -48.724782041574144 0 -48.724782041574144 -428.48326193660614 0 0 0 0 -67.080082265922215 -92.511669470528432 0 -92.511669470528432 -231.31641700918408 0 0 0 0 -27.79590981015528 -108.24934159453187 0 -108.24934159453187 -446.09772455769416 0 0 0 0 -242.86166627123214 -29.240564229301526 0 -29.240564229301526 -448.04771065520345 0 0 0 0 11.831077313145471 -70.32026209648393 0 -70.32026209648393 -644.56311636287137 0 0 0 0 22.100396076140441 -20.1602135378198 0 -20.1602135378198 -400.94586599680042 0 0 0 0 -156.79909283459193 136.06480736294179 0 136.06480736294179 -307.22778460255358 0 0 0 0 2.9682308911829125 100.62001396872984 0 100.62001396872984 -351.6858308284427 0 0 0 0 -7.0017630112540701 62.910086969524855 0 62.910086969524855 -407.8975346882944 0 0 0 0 -82.159947876189221 210.55209006964287 0 210.55209006964287 -561.76099618141598 0 0 0 0 -18.612247620103176 126.24511556520883 0 126.24511556520883 -366.24015266861534 0 0 0 0 -22.086977848836476 125.53043874421564 0 125.53043874421564 -217.66024276718963 0 0 0 0 29.290075401243257 71.571254593291087 0 71.571254593291087 -337.13196519932535 0 0 0 0 27.148383246452568 90.931187182446592 0 90.931187182446592 -240.77743963382454 0 0 0 0 49.308546519346358 2.8724904500068078 0 2.8724904500068078 -332.53506163689599 0 0 0 0 56.718305616515636 21.168222170395893 0 21.168222170395893 -298.99523537444475 0 0 0 0 60.625757173835041 33.270114299390116 0 33.270114299390116 -446.06253915928392 0 0 0 0 -68.469566724132903 47.83658928697696 0 47.83658928697696 -226.04133574963998 0 0 0 0 -0.40661861399183263 0.62433345005359797 0 0.62433345005359797 -1.272315930786668 0 0 0 0 13.403903753965039 -100.91085473266594 0 -100.91085473266594 -426.13246893588075 0 0 0 0 238.02556798988928 68.660384849310503 0 68.660384849310503 -399.49510207342973 0 0 0 0 -39.045481037310083 0.21613389484627987 0 0.21613389484627987 -99.960149469472526 0 0 0 0 -72.9936648761622 61.79197612598 0 61.79197612598 -200.23907329798203 0 0 0 0 -64.376530585517912 -36.597914966827375 0 -36.597914966827375 -153.18871894470612 0 0 0 0 -29.997357175726364 -166.99185573764544 0 -166.99185573764544 -812.11727238768071 0 0 0 0 -22.450355787110993 -73.962998925220745 0 -73.962998925220745 -141.87817956567301 0 0 0 0 -1.2879279383134532 0.7365194224711189 0 0.7365194224711189 -0.83786165608065488 0 0 0 0 -40.330874556808752 -18.653201786769387 0 -18.653201786769387 -139.79885366422241 0 0 0 0 19.8382993467402 -332.62342325440477 0 -332.62342325440477 -776.00284838104562 0 0 0 0 -102.2020464618214 142.22501474084129 0 142.22501474084129 -338.84165810738159 0 0 0 0 186.06177706854538 74.288149698371853 0 74.288149698371853 -1478.2930333879567 0 0 0 0 505.45468947280921 -110.76278153164094 0 -110.76278153164094 -1548.6399902312078 0 0 0 0 146.32138405721361 -601.88848616409996 0 -601.88848616409996 -1470.9790106986475 0 0 0 0 467.24922463913123 -418.71097193086007 0 -418.71097193086007 -2499.5871321106097 0 0 0 0 -275.30970263755836 -382.02699886170376 0 -382.02699886170376 -739.4099912470756 0 0 0 0 -34.21761615245201 -667.28723483769136 0 -667.28723483769136 -1432.3698425461207 0 0 0 0 -0.3013754060393925 -2.6410755011420477 0 -2.6410755011420477 -6.423349983645025 0 0 0 0 -45.295882736921783 -1046.12601690672 0 -1046.12601690672 -2496.3796828142586 0 0 0 0 -1295.25693433277 -1403.6914045607809 0 -1403.6914045607809 -1249.7835000186933 0 0 0 0 -1.8870454178210254 -0.64499583269973471 0 -0.64499583269973471 -11.143589823291109 0 0 0 0 20.33813548365805 -1.4018509758161599 0 -1.4018509758161599 -66.259684999953606 0 0 0 0 22.929087316045639 -7.504938454270814 0 -7.504938454270814 -86.021298792218658 0 0 0 0 0.04661637430901644 6.0803485415612712 0 6.0803485415612712 -44.740280215832598 0 0 0 0 59.867119270738158 23.817952372057334 0 23.817952372057334 -60.270066139797564 0 0 0 0 -25.299561119785494 -86.774100480652123 0 -86.774100480652123 -82.788761425530538 0 0 0 0 85.408142691716705 -22.355228399403131 0 -22.355228399403131 -51.931482433166821 0 0 0 0 77.763383603101488 4.6278127099867561 0 4.6278127099867561 -95.672747822198289 0 0 0 0 61.632947191180278 27.375793622468336 0 27.375793622468336 -106.22729376372081 0 0 0 0 -40.883052188855402 -34.566078755295166 0 -34.566078755295166 -52.699339996463095 0 0 0 0 5.6667453587502337 12.375249697946856 0 12.375249697946856 -63.667318349209381 0 0 0 0 1.2962476953492899 4.4699959699194114 0 4.4699959699194114 -55.678854728811061 0 0 0 0 0.30685138009418278 0.59025629648807154 0 0.59025629648807154 -17.175345479782905 0 0 0 0 -8.6370456480239 3.7705958055303199 0 3.7705958055303199 -62.542454163725779 0 0 0 0 -0.38605018966850224 4.1568198246153543 0 4.1568198246153543 -8.68683075259041 0 0 0 0 1.4372819893565065 4.0888980780327984 0 4.0888980780327984 -76.775726074407885 0 0 0 0 -8.1200953571378705 -0.7425425884903234 0 -0.7425425884903234 -87.388909077150856 0 0 0 0 -8.2770218216081552 4.1423180520362166 0 4.1423180520362166 -13.403340770537776 0 0 0 0 -43.895314689470943 20.704095300807239 0 20.704095300807239 -27.687781720789644 0 0 0 0 -3.1387311598339238 -11.040963611678308 0 -11.040963611678308 -5.2153500428466941 0 0 0 0 0.30618857719366588 -7.4427515100178425 0 -7.4427515100178425 -44.934064179957659 0 0 0 0 72.122931033449845 46.146373762119765 0 46.146373762119765 -28.346005184328533 0 0 0 0 -3.7569877162076879 4.2570218626491254 0 4.2570218626491254 -14.296439550392336 0 0 0 0 378.52276168044642 -399.03105738454906 0 -399.03105738454906 -2498.673301769235 0 0 0 0 -383.40653494142799 478.02078697148136 0 478.02078697148136 -631.9654498157106 0 0 0 0 234.94783186904496 -102.56793074024608 0 -102.56793074024608 -2879.9115197530191 0 0 0 0 -2.3378704924474141 2.9106690868343748 0 2.9106690868343748 -3.4534475516220624 0 0 0 0 -79.276782208665026 233.81774088858583 0 233.81774088858583 110.67362818955371 0 0 0 0 -141.26368095580654 -91.67463389140903 0 -91.67463389140903 -38.952267279710213 0 0 0 0 83.228993830250261 -66.373402495714799 0 -66.373402495714799 -196.9293570608861 0 0 0 0 -123.6019383620261 52.157258147736002 0 52.157258147736002 88.455194930334983 0 0 0 0 -166.78733920600177 -316.69111899175186 0 -316.69111899175186 -204.013707784914 0 0 0 0 404.74544705143768 -168.35263529808799 0 -168.35263529808799 -2425.4614746942607 0 0 0 0 -182.11725854057551 541.14982281054836 0 541.14982281054836 -2496.9909453808505 0 0 0 0 -137.41429716088606 557.82900033958867 0 557.82900033958867 -1258.2852727712889 0 0 0 0 150.46441366248155 -16.034308743681322 0 -16.034308743681322 -1192.7077468377647 0 0 0 0 -2.6745182602370012 13.643284867478975 0 13.643284867478975 19.374051311566802 0 0 0 0 -1216.7201072467328 2401.811001643393 0 2401.811001643393 -2496.1040707461789 0 0 0 0 -2.9596802636808808 12.120049129125185 0 12.120049129125185 -46.981888249265211 0 0 0 0 -8.9716740562643018 7.861441856395686 0 7.861441856395686 -2486.5461342460976 0 0 0 0 -7.4883313069234241 20.21585978623893 0 20.21585978623893 9.9450171859866145 0 0 0 0 -4.8726275403262722 15.965787007416694 0 15.965787007416694 -25.785636958801547 0 0 0 0 -1082.4726509842933 -1236.8828721907921 0 -1236.8828721907921 718.13864634372294 0 0 0 0 19.77502839466365 85.34230165489862 0 85.34230165489862 -78.101207552186679 0 0 0 0 -61.894089009433173 55.437147690444363 0 55.437147690444363 -50.501204085318022 0 0 0 0 66.748477619089954 -5.7391154162833118 0 -5.7391154162833118 -95.649971213395474 0 0 0 0 89.787702825665292 16.520673759870988 0 16.520673759870988 -82.295706032287853 0 0 0 0 147.96468532244126 -25.20613943508215 0 -25.20613943508215 -44.235812489256205 0 0 0 0 218.3187908277223 100.97067393578618 0 100.97067393578618 -103.96262399550324 0 0 0 0 1.3799418181387964 -2.334096836524111 0 -2.334096836524111 -9.1234705339466302 0 0 0 0 55.625633017927129 95.416989265671873 0 95.416989265671873 9.9470812442123133 0 0 0 0 -3.2347628422954027 14.389253127919694 0 14.389253127919694 -53.307966291234948 0 0 0 0 3.1232997058171827 19.004935736101288 0 19.004935736101288 -38.921991182294533 0 0 0 0 46.867957121834024 66.732990036431147 0 66.732990036431147 54.801123935278156 0 0 0 0 -26.830180025485731 71.850068967285551 0 71.850068967285551 288.94509519347048 0 0 0 0 -0.19198739260684983 5.8102941398900256 0 5.8102941398900256 5.4543612228910092 0 0 0 0 76.000757140697488 72.021146394439711 0 72.021146394439711 -10.477205687871901 0 0 0 0 99.766286909123437 124.40827314641501 0 124.40827314641501 90.023786619523889 0 0 0 0 2.0728133077084152 0.39390509625125958 0 0.39390509625125958 -11.411142280609551 0 0 0 0 55.935107549272971 97.109004365411238 0 97.109004365411238 116.80727852891141 0 0 0 0 217.41191751506017 102.89591994562943 0 102.89591994562943 -46.8867098512128 0 0 0 0 215.62586345026443 -45.188966760906624 0 -45.188966760906624 -92.149185320595279 0 0 0 0 94.323883839910195 -68.205507185601164 0 -68.205507185601164 -193.0084356293446 0 0 0 0 100.89969643204495 -22.714605469154776 0 -22.714605469154776 -248.4304761770909 0 0 0 0 125.57115629453301 -0.10799007407331374 0 -0.10799007407331374 -162.32587891526418 0 0 0 0 66.60079592458888 -16.252140328776932 0 -16.252140328776932 -91.825675293395761 0 0 0 0 74.093368330419025 -86.884173923393973 0 -86.884173923393973 -305.14012573148648 0 0 0 0 184.30494608657932 51.185497714694066 0 51.185497714694066 -388.94145175567246 0 0 0 0 71.658492298757835 61.138772337479622 0 61.138772337479622 0.34477195728686638 0 0 0 0 1.0012719207009955 -1.7881400285873568 0 -1.7881400285873568 -0.57790497376933558 0 0 0 0 -7.2033232840308301 -80.06131084288063 0 -80.06131084288063 -53.973538548347278 0 0 0 0 46.733853011968421 -60.03159417472034 0 -60.03159417472034 -264.75430986611173 0 0 0 0 -3.8457148540025412 -3.0680567122179667 0 -3.0680567122179667 -3.3474199286330304 0 0 0 0 43.102323994014114 76.455319157787017 0 76.455319157787017 -504.62081970086729 0 0 0 0 -26.885051141870917 407.6962378183307 0 407.6962378183307 -579.44306969441823 0 0 0 0 -198.44898716270882 292.7032815130442 0 292.7032815130442 -440.24552112660058 0 0 0 0 -97.73592798897198 93.737369132752065 0 93.737369132752065 -253.22452187132876 0 0 0 0 101.73615243548875 -13.30260676733451 0 -13.30260676733451 -352.3807147253392 0 0 0 0 108.86154609846403 -32.310083476979344 0 -32.310083476979344 -259.46099170885282 0 0 0 0 90.742735048120437 -34.443869323615218 0 -34.443869323615218 -259.32095552828105 0 0 0 0 47.576694047126693 16.65527196637413 0 16.65527196637413 -251.29608273229678 0 0 0 0 89.240570943934927 -25.257503098458983 0 -25.257503098458983 -273.81090246111125 0 0 0 0 18.58408966275033 -0.45912976244289894 0 -0.45912976244289894 -39.294198726074683 0 0 0 0 -2.6228505162622175 -2.267597382329555 0 -2.267597382329555 -3.9163430715900631 0 0 0 0 8.6633095275549294 6.8474563763556944 0 6.8474563763556944 -190.05117521637294 0 0 0 0 31.762566850281019 -1.0892219751476659 0 -1.0892219751476659 -189.9284552296449 0 0 0 0 -6.8615645109618715 -9.6444224194971611 0 -9.6444224194971611 -13.461442992630367 0 0 0 0 58.641685776457052 -230.26577595109484 0 -230.26577595109484 121.05232936017819 0 0 0 0 181.23909948458004 -51.41714804872754 0 -51.41714804872754 18.172394133140187 0 0 0 0 -51.32128886311375 -188.48369257609374 0 -188.48369257609374 -182.22615633383975 0 0 0 0 98.572277543783457 -163.88804309992338 0 -163.88804309992338 34.16432636305035 0 0 0 0 -48.166528433070198 -139.03003674918727 0 -139.03003674918727 71.401060439675348 0 0 0 0 23.044404607571323 -17.468778681550248 0 -17.468778681550248 103.01538254258048 0 0 0 0 -50.996000926415547 -98.57837739885872 0 -98.57837739885872 200.3785760148894 0 0 0 0 -70.689653637087758 2.85692479273348 0 2.85692479273348 30.774875186441932 0 0 0 0 -135.92772149680468 -102.85659941298945 0 -102.85659941298945 63.931698885528021 0 0 0 0 -5.3666503687943568 -2.6307651088368118 0 -2.6307651088368118 0.26592359992119441 0 0 0 0 -5.0565251526254542 5.122573044620367 0 5.122573044620367 -116.73140414816169 0 0 0 0 14.527172461027476 -65.642096932355344 0 -65.642096932355344 80.874696827246225 0 0 0 0 16.353791260259356 -50.311861205317655 0 -50.311861205317655 -52.616114954667864 0 0 0 0 -62.753250630529465 -153.72888828932628 0 -153.72888828932628 2.0532729366095737 0 0 0 0 -95.957612287545999 -181.21317364968854 0 -181.21317364968854 -149.37584505158156 0 0 0 0 118.02551362810503 -184.65015821271663 0 -184.65015821271663 -211.81913170083135 0 0 0 0 -1.9704823914125784 0.63040006754441436 0 0.63040006754441436 -1.4684856482548128 0 0 0 0 -67.92300829841497 -127.69346159993438 0 -127.69346159993438 -230.82816445230128 0 0 0 0 176.26826272763174 -91.999959939930704 0 -91.999959939930704 -1223.3381266001961 0 0 0 0 52.377320505735497 481.19876318514434 0 481.19876318514434 -231.17001894032819 0 0 0 0 -150.54655392219775 -287.39920211001299 0 -287.39920211001299 -143.47997544013197 0 0 0 0 -216.83079081358369 -173.83739640376007 0 -173.83739640376007 233.83790332374338 0 0 0 0 6.5804379752988726 20.560476579021355 0 20.560476579021355 -37.037894633678121 0 0 0 0 -4.4224328783341207 3.383761753593717 0 3.383761753593717 -62.834581574294134 0 0 0 0 -4.6282032833948836 1.6505600774059985 0 1.6505600774059985 -54.133003893322893 0 0 0 0 45.283748492443522 2.079126146476483 0 2.079126146476483 -55.083452712220605 0 0 0 0 10.738541978355897 56.986830672329233 0 56.986830672329233 -53.736284075912181 0 0 0 0 -0.55553965867056543 3.3065730403251301 0 3.3065730403251301 -53.638304346237774 0 0 0 0 -24.212928569520273 -150.67972475533861 0 -150.67972475533861 85.625253610161963 0 0 0 0 12.334346791445299 43.911373550068674 0 43.911373550068674 -44.924178050699993 0 0 0 0 -1.0054484067692366 1.361674052812063 0 1.361674052812063 -12.541268442101114 0 0 0 0 20.888194222679886 52.230285533023562 0 52.230285533023562 -51.858228056706139 0 0 0 0 6.0566235508205182 2.8972534194981563 0 2.8972534194981563 -56.951879502754309 0 0 0 0 7.1795743195536943 2.7655806966795353 0 2.7655806966795353 -57.05173818142066 0 0 0 0 10.876716510735756 15.92830466673297 0 15.92830466673297 -36.94896353252328 0 0 0 0 173.61930824614501 -14.196600637221309 0 -14.196600637221309 -53.405700144350703 0 0 0 0 -12.674762915277711 46.482658785433159 0 46.482658785433159 -115.57924877266487 0 0 0 0 -28.2766100020349 26.829358479710208 0 26.829358479710208 -58.881656616722466 0 0 0 0 -10.612235942629594 -6.0453601753166026 0 -6.0453601753166026 -13.008404612266332 0 0 0 0 -5.4745894269796054 11.476941654242182 0 11.476941654242182 -99.521658709221811 0 0 0 0 0.87567110686296556 8.3156687077477862 0 8.3156687077477862 -79.047827570186541 0 0 0 0 12.391001071619229 20.440852465580974 0 20.440852465580974 -96.084055985553277 0 0 0 0 -0.23154148777518913 -0.26616843284864444 0 -0.26616843284864444 -78.616980700433487 0 0 0 0 161.37329778604021 169.12497560977863 0 169.12497560977863 -73.788768425220042 0 0 0 0 107.16034411737633 42.81980391101024 0 42.81980391101024 -9.8820627919631079 0 0 0 0 1.3274687583938647 14.424588434742331 0 14.424588434742331 -46.8907812905708 0 0 0 0 13.646775183249616 8.927627961988037 0 8.927627961988037 -39.846394345237059 0 0 0 0 -4.896780102851352 3.2271881960223538 0 3.2271881960223538 -43.155766907211841 0 0 0 0 7.4202215483876852 15.344132823328877 0 15.344132823328877 -54.288256413931393 0 0 0 0 427.97465229167227 114.79600711456442 0 114.79600711456442 -291.07580360896827 0 0 0 0 -1.044480924269223 1.9673978826814604 0 1.9673978826814604 -3.403853016860154 0 0 0 0 -360.1612118568778 48.973379070715964 0 48.973379070715964 71.392495028245321 0 0 0 0 -104.67397902208631 287.96448378085915 0 287.96448378085915 -74.29828416458804 0 0 0 0 -112.04836986654971 -177.02439762778431 0 -177.02439762778431 -249.78770866924606 0 0 0 0 11.228577538690843 21.065430661621576 0 21.065430661621576 -44.961934648716124 0 0 0 0 0.049487491410530993 2.3300797511908975 0 2.3300797511908975 -11.966639289335347 0 0 0 0 -37.121924149073948 33.394669183730002 0 33.394669183730002 -21.290629369428643 0 0 0 0 6.4319878482810964 -3.0556113557067874 0 -3.0556113557067874 -53.351415785604786 0 0 0 0 -13.60063828434636 -16.497729361548409 0 -16.497729361548409 -38.438147985070827 0 0 0 0 11.196797224948909 -69.423283274370988 0 -69.423283274370988 -194.28399691105733 0 0 0 0 30.447813716300061 -28.621975510310222 0 -28.621975510310222 -113.04860159622331 0 0 0 0 -34.258305037667924 -51.335971783559216 0 -51.335971783559216 -48.548721354758072 0 0 0 0 64.267847229523795 22.653583403480297 0 22.653583403480297 -212.97278912537604 0 0 0 0 45.989786703386471 18.198713344441785 0 18.198713344441785 -124.90084186126478 0 0 0 0 34.210411758051123 55.47462072280905 0 55.47462072280905 -66.799757051659981 0 0 0 0 42.459919758419346 31.123549342555634 0 31.123549342555634 -128.05360426956031 0 0 0 0 11.693560949622679 60.550703345084912 0 60.550703345084912 -67.061336066457443 0 0 0 0 10.183428325748537 30.598188025382115 0 30.598188025382115 0.84615947428392246 0 0 0 0 -9.4788476259345771 69.515431256048032 0 69.515431256048032 52.902025182607758 0 0 0 0 -10.559744438431608 135.36848212606856 0 135.36848212606856 -81.373368787841173 0 0 0 0 63.850164935191742 47.802882649728417 0 47.802882649728417 -150.57806923222233 0 0 0 0 40.009181619601804 61.274671527919054 0 61.274671527919054 -157.73891470910166 0 0 0 0 78.231118607190183 17.285067172964773 0 17.285067172964773 -415.56362622910456 0 0 0 0 -109.68905508240891 -343.4443072105787 0 -343.4443072105787 -323.95711754118565 0 0 0 0 -7.6373568284188877 196.1851340551475 0 196.1851340551475 -113.9467337123715 0 0 0 0 -45.237522050761868 120.72032829726777 0 120.72032829726777 132.03979147424252 0 0 0 0 28.204497322853683 37.932066726785706 0 37.932066726785706 -129.13554097335145 0 0 0 0 1.0847964912405104 45.273152386705988 0 45.273152386705988 -44.827183066270663 0 0 0 0 -42.29599215958018 85.019002102890227 0 85.019002102890227 -78.850511552831449 0 0 0 0 -4.5424816335885687 -4.3993384965844982 0 -4.3993384965844982 -2.2561925089274553 0 0 0 0 2.5306549015531346 -76.07233944676409 0 -76.07233944676409 135.34204351325752 0 0 0 0 -63.198137458858611 -8.5396951919574349 0 -8.5396951919574349 -11.806606175930938 0 0 0 0 -0.41843917916783363 -0.25578127255921146 0 -0.25578127255921146 -1.0156044006794076 0 0 0 0 52.766773638068344 -64.045577820199469 0 -64.045577820199469 63.833035486692097 0 0 0 0 60.403077544482585 -45.341922696614347 0 -45.341922696614347 51.753542348043993 0 0 0 0 44.88228723604152 -32.08598342660116 0 -32.08598342660116 52.095448511769064 0 0 0 0 21.77858688629567 -38.776315389914089 0 -38.776315389914089 62.749495658048545 0 0 0 0 33.47063990096558 -28.54761809734191 0 -28.54761809734191 51.28826999431476 0 0 0 0 16.343179431376484 -26.441031755734002 0 -26.441031755734002 58.590594689347199 0 0 0 0 20.060869916879028 -30.407977023889543 0 -30.407977023889543 56.289554698974825 0 0 0 0 9.4746879461081335 -16.427183896201313 0 -16.427183896201313 55.377786585711874 0 0 0 0 15.30850236581 -14.664027406590321 0 -14.664027406590321 54.248849738505669 0 0 0 0 36.963362853984563 -60.727458625973668 0 -60.727458625973668 79.103528359890333 0 0 0 0 0.65922392617721925 -34.019777170324232 0 -34.019777170324232 91.173946866372717 0 0 0 0 -11.783343535794756 -18.667061667365488 0 -18.667061667365488 74.374038158857729 0 0 0 0 -0.60155831066185783 -17.207308330893284 0 -17.207308330893284 68.908357586347847 0 0 0 0 -2.7601927282903489 -15.052550899388734 0 -15.052550899388734 67.528144102201622 0 0 0 0 1.1974929558138001 2.082019480461895 0 2.082019480461895 38.768682106776396 0 0 0 0 5.5477373503981653 24.183873155619949 0 24.183873155619949 -0.16245845582307084 0 0 0 0 4.011503036904287 18.471836867611273 0 18.471836867611273 23.86654853442451 0 0 0 0 -20.224964387217824 23.363831955786736 0 23.363831955786736 70.863111659607966 0 0 0 0 -60.750039385263335 26.089283828187035 0 26.089283828187035 199.45118822205404 0 0 0 0 -18.573090698284432 36.869857464043889 0 36.869857464043889 39.784373833652353 0 0 0 0 -30.506947347951609 -47.906489232940658 0 -47.906489232940658 176.80767674518574 0 0 0 0 -48.967684290842044 25.072507325203333 0 25.072507325203333 -12.42559894819351 0 0 0 0 -10.493996184778972 11.482235308814261 0 11.482235308814261 -19.615030916448347 0 0 0 0 -117.41269020799427 74.144502430943248 0 74.144502430943248 -16.070678548436263 0 0 0 0 -2.7887745766476049 0.60017683323833992 0 0.60017683323833992 -1.2329100666375439 0 0 0 0 2.9296305758643939 2.9689906093299214 0 2.9689906093299214 -51.655965906771598 0 0 0 0 -16.095656011311576 3.0569501085410593 0 3.0569501085410593 -29.011265057255514 0 0 0 0 -4.4515599843498217 3.8249942327698569 0 3.8249942327698569 -25.398580669619179 0 0 0 0 -4.1314156530768287 4.8156128159334912 0 4.8156128159334912 -34.031939320333549 0 0 0 0 -4.355129423013552 8.8022709576081457 0 8.8022709576081457 -29.229080270251885 0 0 0 0 107.90497224565678 60.600499351062354 0 60.600499351062354 -37.552373255282873 0 0 0 0 145.41321975553916 22.596895044771372 0 22.596895044771372 -128.56358280561108 0 0 0 0 1.0214385860779331 7.9103638414558315 0 7.9103638414558315 -35.962729244701379 0 0 0 0 101.13488146567113 -107.08940657797211 0 -107.08940657797211 20.77850425100587 0 0 0 0 7.3641381989346311 -5.5745625978572093 0 -5.5745625978572093 -12.59806325449798 0 0 0 0 0.062251925531654706 1.0820217944637989 0 1.0820217944637989 -47.311250300168467 0 0 0 0 2.6807179070754259 4.8880586737727114 0 4.8880586737727114 -20.077450515135965 0 0 0 0 24.841576240746235 39.945228999025858 0 39.945228999025858 -40.526066859754792 0 0 0 0 -15.574962453380749 -2.6443296175239084 0 -2.6443296175239084 -37.295831832270778 0 0 0 0 4.7569677056085311 7.490836776467404 0 7.490836776467404 -41.509192584067932 0 0 0 0 -6.3742552630371847 6.0012108942100895 0 6.0012108942100895 -29.707523008700264 0 0 0 0 -7.4525358273407392 -3.1644227887536545 0 -3.1644227887536545 -32.730575377594505 0 0 0 0 -1.1687205553230404 -1.8276922778503994 0 -1.8276922778503994 -31.434083495050857 0 0 0 0 -13.872959790635377 -6.0057037716615014 0 -6.0057037716615014 -28.359584397363506 0 0 0 0 8.5366469011539152 -4.7632213618107926 0 -4.7632213618107926 -89.749721629312262 0 0 0 0 0.050299055750687813 4.8447109346310029 0 4.8447109346310029 -70.486231218279272 0 0 0 0 -5.727471794415969 -13.816674463452017 0 -13.816674463452017 -25.702608090249967 0 0 0 0 6.9104065673202513 -13.973352104672813 0 -13.973352104672813 -79.532830031348567 0 0 0 0 6.9967773688036576 -8.0918298054037052 0 -8.0918298054037052 -106.51883264542994 0 0 0 0 -12.209484909281059 -8.7698578076215199 0 -8.7698578076215199 -40.432196379530069 0 0 0 0 -19.310995679873031 -44.00476576460278 0 -44.00476576460278 -51.352500930592214 0 0 0 0 -10.809128353265287 -1.6702727911954725 0 -1.6702727911954725 -7.8463150304714162 0 0 0 0 -8.7792054853938488 -16.091189090447998 0 -16.091189090447998 -11.856833651428431 0 0 0 0 -26.728700453591046 -1.1149158591761079 0 -1.1149158591761079 17.298536063601205 0 0 0 0 -23.477033585892968 -5.045730172227195 0 -5.045730172227195 14.195284089906636 0 0 0 0 -13.531105501952879 17.76094551965798 0 17.76094551965798 6.7092846670711879 0 0 0 0 -11.7678152267213 2.616128432753186 0 2.616128432753186 -2.2534001219218567 0 0 0 0 -14.518262387484071 -6.3121345430508882 0 -6.3121345430508882 -28.502735407157161 0 0 0 0 -8.2887422311641785 10.495547337257449 0 10.495547337257449 2.1427632168069977 0 0 0 0 -30.591753564553073 4.3554451073505334 0 4.3554451073505334 9.6400439704302698 0 0 0 0 -37.924561221415843 40.629377159424621 0 40.629377159424621 -26.691464540694142 0 0 0 0 -69.014606603212087 4.3965176206511387 0 4.3965176206511387 13.127037330952589 0 0 0 0 -31.819836666243646 -24.271376642693212 0 -24.271376642693212 14.359951247018444 0 0 0 0 -21.141681310603161 -12.606558110913227 0 -12.606558110913227 26.81717600664706 0 0 0 0 -48.461477386245861 -7.2458340470438998 0 -7.2458340470438998 28.014687861505081 0 0 0 0 -33.873869503242531 -27.585646193590946 0 -27.585646193590946 41.995198201650055 0 0 0 0 -15.897056361008254 -17.718389180536178 0 -17.718389180536178 22.302441801775785 0 0 0 0 -37.059722515830572 13.452341774557681 0 13.452341774557681 -68.080814342814847 0 0 0 0 0.37506024371218238 -4.1310321195625477 0 -4.1310321195625477 -9.578757845625276 0 0 0 0 -18.47187145675797 -19.734204728068519 0 -19.734204728068519 -12.76910046854227 0 0 0 0 -48.031841911112281 131.56796644872793 0 131.56796644872793 -289.63380843182676 0 0 0 0 123.02433312702397 -141.95147262047249 0 -141.95147262047249 -283.59901197261547 0 0 0 0 -407.5236525431751 -75.197306885398575 0 -75.197306885398575 34.815714352371288 0 0 0 0 5.6529574405913081 -43.223524892146088 0 -43.223524892146088 -29.601029120214662 0 0 0 0 -35.519045741515583 -100.87904248494124 0 -100.87904248494124 -5.9612044501845958 0 0 0 0 -131.52888284256005 50.458100291136361 0 50.458100291136361 -6.248563341141562 0 0 0 0 -54.01183759610899 101.17862486318518 0 101.17862486318518 -71.589792905637296 0 0 0 0 -78.199961499420169 47.074164067445963 0 47.074164067445963 -28.9632523041073 0 0 0 0 -302.13939960758353 216.34156907261968 0 216.34156907261968 -156.24044615103048 0 0 0 0 59.626248098259566 -36.608278424660966 0 -36.608278424660966 -140.59642537654145 0 0 0 0 7.6221434443255021 -30.804973838275146 0 -30.804973838275146 -98.913092445814982 0 0 0 0 86.88499789449088 -110.65885035748943 0 -110.65885035748943 -198.09821458660008 0 0 0 0 23.547953146190594 29.115836116434366 0 29.115836116434366 -438.31434434302355 0 0 0 0 183.41320658895509 -117.43956289423977 0 -117.43956289423977 -33.298409218870802 0 0 0 0 76.945360430594747 -138.61062903330458 0 -138.61062903330458 -51.534074866474839 0 0 0 0 67.265635566061974 -11.092771979667305 0 -11.092771979667305 -63.983525584443669 0 0 0 0 135.23135149405516 -98.553446083144081 0 -98.553446083144081 29.841607141192071 0 0 0 0 63.643612360117913 56.877600703381177 0 56.877600703381177 -18.456890867069887 0 0 0 0 35.597865707145502 24.482249439046427 0 24.482249439046427 -32.97492818509636 0 0 0 0 8.274356834891023 -13.551264455290948 0 -13.551264455290948 -37.778342840465484 0 0 0 0 -19.872687820852661 62.84337359320125 0 62.84337359320125 -34.626456966839669 0 0 0 0 -51.996674138324124 31.243114579086978 0 31.243114579086978 -12.723947306854825 0 0 0 0 -12.787086702250328 -17.813601633277827 0 -17.813601633277827 -12.59224080482565 0 0 0 0 -19.59936509488881 -60.141394700927378 0 -60.141394700927378 30.802471380135103 0 0 0 0 -5.8470960161394032 -31.468496404409962 0 -31.468496404409962 5.9603713364576834 0 0 0 0 8.0058192136605157 -55.286167670947179 0 -55.286167670947179 -42.215335428511025 0 0 0 0 -20.395276014858609 -36.500193150125597 0 -36.500193150125597 -48.658393089943274 0 0 0 0 14.570198227811488 -79.002075942125884 0 -79.002075942125884 -98.320917278178968 0 0 0 0 64.130607381462141 -26.92004043567249 0 -26.92004043567249 -48.56692301894509 0 0 0 0 23.172300115105827 -29.143062847626425 0 -29.143062847626425 -95.19653198407832 0 0 0 0 61.446741639437278 -27.631241492441404 0 -27.631241492441404 -149.44162778959799 0 0 0 0 32.009329201662695 -8.9738640382420272 0 -8.9738640382420272 -116.53654552203807 0 0 0 0 9.7281019633619508 -4.8070872341158974 0 -4.8070872341158974 -198.12333762950584 0 0 0 0 25.870297290163762 11.850885555297282 0 11.850885555297282 -183.1484035699541 0 0 0 0 1.6269507613678797 -69.784743492704365 0 -69.784743492704365 -169.78084617200511 0 0 0 0 -28.512775591982063 -39.399184275487642 0 -39.399184275487642 -129.23917044890004 0 0 0 0 9.7397263574875979 20.019137952964229 0 20.019137952964229 -338.45611480600928 0 0 0 0 -89.488404370428725 -122.05450049352839 0 -122.05450049352839 -238.6315809218795 0 0 0 0 -232.94003404525529 -209.00394984011655 0 -209.00394984011655 -359.74416971130631 0 0 0 0 -137.05064564851273 -56.847151032682632 0 -56.847151032682632 -118.47401464079303 0 0 0 0 -73.675473997155507 -43.247234370664017 0 -43.247234370664017 -115.64769733788853 0 0 0 0 -164.9331386654012 -56.220327978837304 0 -56.220327978837304 -18.121228787612381 0 0 0 0 -74.891950244965301 -90.721640377792937 0 -90.721640377792937 -101.85918333895279 0 0 0 0 -74.455688833314525 -18.214122577257513 0 -18.214122577257513 14.663811799803398 0 0 0 0 -36.762028247437229 -68.506041928565537 0 -68.506041928565537 -35.263039699471847 0 0 0 0 -53.742090099229245 -5.5953900398362748 0 -5.5953900398362748 -0.96569678315427154 0 0 0 0 15.189884987589823 47.531092985397756 0 47.531092985397756 -90.398559262794151 0 0 0 0 15.189546888589575 71.912285083366442 0 71.912285083366442 -9.1490643496945268 0 0 0 0 -128.59088502897521 61.339090646075419 0 61.339090646075419 28.480440243612975 0 0 0 0 -95.435011526568815 -8.4998022112486069 0 -8.4998022112486069 -72.002147851286281 0 0 0 0 -367.63250434283623 69.995853131908007 0 69.995853131908007 -85.72162648007361 0 0 0 0 -81.722643683811384 122.97098115758854 0 122.97098115758854 -358.76043172068603 0 0 0 0 -56.182935246062868 175.77357405985458 0 175.77357405985458 -85.188153065129882 0 0 0 0 -25.173192205664236 20.82654864725373 0 20.82654864725373 -178.82981224343166 0 0 0 0 -11.296228254134348 81.326007080795534 0 81.326007080795534 -0.52937929259860539 0 0 0 0 127.78033846470271 34.647096560234786 0 34.647096560234786 -94.182017398394237 0 0 0 0 80.481022468797164 125.40896761149634 0 125.40896761149634 -112.39135862642433 0 0 0 0 -9.6713304053555476 85.623715355101012 0 85.623715355101012 -41.973601430050621 0 0 0 0 10.485144518561583 50.67822062156938 0 50.67822062156938 -146.5141756827652 0 0 0 0 -14.720415185368438 60.247498106778949 0 60.247498106778949 -93.939651031556423 0 0 0 0 -27.283444774151576 91.032669462339982 0 91.032669462339982 5.6706131839709997 0 0 0 0 -11.931220124464744 130.70302155844547 0 130.70302155844547 -72.251313916473009 0 0 0 0 -17.589141468672096 122.83507638247465 0 122.83507638247465 -13.860696823408944 0 0 0 0 0.97673968713474224 1.2050312994608277 0 1.2050312994608277 -0.34128839537335409 0 0 0 0 -141.11362693219598 35.681354464562901 0 35.681354464562901 -60.970099588797893 0 0 0 0 37.458876661274644 32.425370767326967 0 32.425370767326967 -74.972557858316577 0 0 0 0 -4.0017993628171835 18.836651929988992 0 18.836651929988992 -44.365638454118098 0 0 0 0 67.000218449865969 -3.7669595447271149 0 -3.7669595447271149 -38.947100965233403 0 0 0 0 62.380002810832593 114.49196801464132 0 114.49196801464132 -148.0034040997125 0 0 0 0 1.5663899953798364 6.5257799273335593 0 6.5257799273335593 -10.10559433744195 0 0 0 0 -11.496374276960523 101.09828998495504 0 101.09828998495504 -181.55182431308276 0 0 0 0 30.906769287524895 -9.5843719745753333 0 -9.5843719745753333 -18.97808199992869 0 0 0 0 26.398880619467434 -13.369006390872528 0 -13.369006390872528 -17.900929256771633 0 0 0 0 17.704712710782459 -16.688582847556972 0 -16.688582847556972 -17.71477107895771 0 0 0 0 26.855231976096491 -16.370290749895503 0 -16.370290749895503 -19.677950356097426 0 0 0 0 27.451117200138896 -14.702059724972059 0 -14.702059724972059 -20.117865737352986 0 0 0 0 36.515837495038966 -13.918684824981028 0 -13.918684824981028 -21.11473492832738 0 0 0 0 34.707492436579329 -9.4215687198411615 0 -9.4215687198411615 -20.643298138835235 0 0 0 0 34.060050510577383 -10.221118995526922 0 -10.221118995526922 -21.357632352563087 0 0 0 0 1.0631337363252495 -5.6453846171046855 0 -5.6453846171046855 -13.11290907287065 0 0 0 0 -1.6638211058671004 -11.262046915959218 0 -11.262046915959218 -7.7941334340757749 0 0 0 0 51.193232596859161 38.21694201236096 0 38.21694201236096 -38.302277599141235 0 0 0 0 -5.1438307218516002 -6.7989612466626568 0 -6.7989612466626568 -8.4601442062703427 0 0 0 0 -1.0088011349665211 -7.1561264263341542 0 -7.1561264263341542 -6.8058766794737835 0 0 0 0 2.2606548243326214 -5.2882492631223954 0 -5.2882492631223954 -12.758959957697186 0 0 0 0 3.0347145020386961 -2.7020332179527031 0 -2.7020332179527031 -14.912620143135427 0 0 0 0 0.96045260050954417 -2.789254486562065 0 -2.789254486562065 -17.052853165917895 0 0 0 0 1.4234084695936637 -3.5503283655314775 0 -3.5503283655314775 -11.199499058185125 0 0 0 0 15.157438987708247 -15.701877126255567 0 -15.701877126255567 -18.249720554085798 0 0 0 0 0.30125187213968729 -15.764349873369611 0 -15.764349873369611 -16.292613424753654 0 0 0 0 -3.9245717911180691 -6.6438321458699647 0 -6.6438321458699647 -26.378825805324595 0 0 0 0 0.98534604710221174 -15.243734940930153 0 -15.243734940930153 -13.580162937301793 0 0 0 0 26.13794313598806 -9.4372093718666292 0 -9.4372093718666292 -16.316467938842834 0 0 0 0 26.978758754350622 -10.600117980829964 0 -10.600117980829964 -19.131664365799224 0 0 0 0 21.01600583147102 -13.105081116154906 0 -13.105081116154906 -17.586325288826629 0 0 0 0 13.661293738609782 -9.4462870598363224 0 -9.4462870598363224 -12.204129036046652 0 0 0 0 19.734503960318616 -10.026801523888935 0 -10.026801523888935 -12.728265516721876 0 0 0 0 14.027976747098283 -6.5283356935542542 0 -6.5283356935542542 -10.084933990850914 0 0 0 0 -0.00061905467821921425 -13.206442623992189 0 -13.206442623992189 -13.89372773708601 0 0 0 0 7.8918656466458756 -7.519651239621453 0 -7.519651239621453 -9.8119818310660776 0 0 0 0 11.6040780216317 -14.684376535704359 0 -14.684376535704359 -14.862497093476122 0 0 0 0 17.312332629534993 -13.591615059536707 0 -13.591615059536707 -16.944559315714287 0 0 0 0 17.785323205937175 -18.853809096770419 0 -18.853809096770419 -22.407688407794922 0 0 0 0 5.7016443695163517 -15.974875438965682 0 -15.974875438965682 -16.859548414264282 0 0 0 0 7.1576649221312323 -14.270026533071359 0 -14.270026533071359 -21.909376001000055 0 0 0 0 7.890568802996496 -11.51363383036005 0 -11.51363383036005 -23.794647159767919 0 0 0 0 -8.028153930447731 -3.8745303124223938 0 -3.8745303124223938 -25.022117968394014 0 0 0 0 -0.017725916963191361 -11.292643895289075 0 -11.292643895289075 -54.512065515144059 0 0 0 0 10.478495213943177 -11.07609444148693 0 -11.07609444148693 -45.953649351231434 0 0 0 0 0.46300293105334944 -20.14060503681867 0 -20.14060503681867 -25.753297903560451 0 0 0 0 4.9190988801071143 -10.526341518088884 0 -10.526341518088884 -16.996049441077048 0 0 0 0 64.856483805989228 -14.982360968315334 0 -14.982360968315334 -25.89245392716839 0 0 0 0 28.193026683800468 -19.843410566445527 0 -19.843410566445527 -19.429993293146254 0 0 0 0 20.824006267072065 -26.349104892309697 0 -26.349104892309697 -24.314093373523065 0 0 0 0 28.151096122771492 -19.037610349543684 0 -19.037610349543684 -24.551207573676948 0 0 0 0 28.953127593775093 -22.862228587327991 0 -22.862228587327991 -25.380274845225358 0 0 0 0 30.427135543786719 -21.617700442940986 0 -21.617700442940986 -28.558598892064765 0 0 0 0 39.100171668759288 -17.757054164307192 0 -17.757054164307192 -28.414862209901912 0 0 0 0 26.862892220936686 -16.393632529085153 0 -16.393632529085153 -21.528510422591353 0 0 0 0 18.719991724264119 -17.340282324781583 0 -17.340282324781583 -21.518023987999186 0 0 0 0 -0.82817521099154656 -10.343484609496487 0 -10.343484609496487 -22.282496476231785 0 0 0 0 -38.234178545901159 -3.1695868970382435 0 -3.1695868970382435 -10.618907888434478 0 0 0 0 30.375263486430455 -26.552646332853328 0 -26.552646332853328 -27.8648921676795 0 0 0 0 50.469283222012564 -39.498677412710094 0 -39.498677412710094 -66.568236178980442 0 0 0 0 -1.4252134715242202 -4.5118511912565893 0 -4.5118511912565893 -4.2510295984455695 0 0 0 0 56.533602208151137 -5.2527950622024946 0 -5.2527950622024946 -24.511245865593082 0 0 0 0 31.640819769105178 -24.113638773047569 0 -24.113638773047569 -23.432131582754664 0 0 0 0 -1.3135172782813243 -30.10590922490519 0 -30.10590922490519 -16.970086634639301 0 0 0 0 37.921321335498305 -6.6996637743595784 0 -6.6996637743595784 -16.564183371985564 0 0 0 0 -30.448344331737644 -36.763721503339184 0 -36.763721503339184 -6.2873519065469736 0 0 0 0 -3.5403250253898535 -11.500962523300482 0 -11.500962523300482 -18.13347669264013 0 0 0 0 47.841176603724762 -19.692388858675258 0 -19.692388858675258 -26.594124538052711 0 0 0 0 -24.692484969215002 -10.605687928662519 0 -10.605687928662519 -9.7142209721932886 0 0 0 0 -53.212168169950019 -28.553517910619121 0 -28.553517910619121 2.5475174232706195 0 0 0 0 -4.1446311074753712 -3.8693480185734757 0 -3.8693480185734757 -2.9849555906123442 0 0 0 0 -16.459148526289027 -11.775080130049901 0 -11.775080130049901 -4.5049939837481361 0 0 0 0 -16.266568724609897 -7.4722912757642916 0 -7.4722912757642916 -14.409978696021426 0 0 0 0 -13.326576997335568 -5.333572144423016 0 -5.333572144423016 2.672182935423038 0 0 0 0 -8.3169675163223928 -3.8691205200066179 0 -3.8691205200066179 -19.562643827404827 0 0 0 0 -7.9405541426253876 0.14448946179982158 0 0.14448946179982158 -42.706876058102353 0 0 0 0 -4.7074925252924231 -10.833352072420894 0 -10.833352072420894 -13.545173175079981 0 0 0 0 -15.494751063235526 28.184204232878983 0 28.184204232878983 -87.319504678154772 0 0 0 0 -3.1775031492670678 -14.073695815510291 0 -14.073695815510291 -13.786289223993663 0 0 0 0 -0.06726959155171941 -0.23384792531470566 0 -0.23384792531470566 -0.75100190824826996 0 0 0 0 -137.58052746730982 -80.129096666376427 0 -80.129096666376427 -26.996930431836518 0 0 0 0 -38.004146776256675 10.71311248181155 0 10.71311248181155 -6.3445443244982016 0 0 0 0 -26.747409174236964 17.907071366942546 0 17.907071366942546 -22.669872038735775 0 0 0 0 -11.973931375120239 -18.416733211979533 0 -18.416733211979533 -22.38726252851319 0 0 0 0 222.28147984118914 -56.289252159134776 0 -56.289252159134776 1.4809791490406496 0 0 0 0 -1.1412059725176142 -4.9326955281168097 0 -4.9326955281168097 -8.6804034999262214 0 0 0 0 38.215851532757142 -57.571455699107901 0 -57.571455699107901 -77.864407150382704 0 0 0 0 2.7135429826257678 -15.124586127945804 0 -15.124586127945804 -20.799270614321358 0 0 0 0 -9.4282040020099878 -9.5539263577599911 0 -9.5539263577599911 -2.4875100232508842 0 0 0 0 -135.92638732981641 -74.087233949934671 0 -74.087233949934671 87.842111766629387 0 0 0 0 3.832128469071904 -38.483287298571668 0 -38.483287298571668 13.845676438353735 0 0 0 0 -13.644204421230775 -14.493182577532643 0 -14.493182577532643 -14.173998570471241 0 0 0 0 36.160078843749943 -99.450426245479321 0 -99.450426245479321 77.79350310024347 0 0 0 0 26.130694759556718 -55.850340053464606 0 -55.850340053464606 13.456030285000452 0 0 0 0 163.34743894109033 -36.293134636405739 0 -36.293134636405739 -42.079420727619436 0 0 0 0 44.448561781714488 -22.386169558620168 0 -22.386169558620168 -59.667852940925513 0 0 0 0 -13.943771855922769 -16.098436802721785 0 -16.098436802721785 -18.647970790479633 0 0 0 0 30.571104453052612 -52.254465839863769 0 -52.254465839863769 -17.122338003406185 0 0 0 0 5.8496611915610401 -40.226594792401329 0 -40.226594792401329 -14.591873749159276 0 0 0 0 -1.2425265217827111 -13.915679524646862 0 -13.915679524646862 -11.574984491806049 0 0 0 0 15.011388090395485 -14.28216710079505 0 -14.28216710079505 -49.153949462368473 0 0 0 0 -6.9593989097872999 -15.574066839741391 0 -15.574066839741391 -11.75053834753637 0 0 0 0 -3.0107997137802158 27.513534382458602 0 27.513534382458602 -78.671880583768143 0 0 0 0 21.009758841739313 -34.742201830085833 0 -34.742201830085833 -11.309225091346889 0 0 0 0 -4.081717726633542 -7.6267788277400541 0 -7.6267788277400541 -35.629342873231508 0 0 0 0 -90.196486266780539 -25.408310699267531 0 -25.408310699267531 20.869464507210068 0 0 0 0 -1.0944202208234186 -1.5585887512248426 0 -1.5585887512248426 0.16084699025373084 0 0 0 0 11.958305327194012 -3.1303867096430622 0 -3.1303867096430622 0.58068658060801681 0 0 0 0 -3.0985612753629539 32.382317182775296 0 32.382317182775296 -61.699943928557332 0 0 0 0 2.8880791208403593 -54.402121496606469 0 -54.402121496606469 -133.89096790869371 0 0 0 0 -68.323138192517945 -109.24477227317402 0 -109.24477227317402 -146.24482082179748 0 0 0 0 -76.47257281046177 -62.617371123775229 0 -62.617371123775229 -15.036477185523836 0 0 0 0 32.659722371072348 -53.712193391511391 0 -53.712193391511391 -31.342734438019761 0 0 0 0 -12.342302208680849 -59.197283530796994 0 -59.197283530796994 -89.843612560036945 0 0 0 0 19.51086290692183 -18.101430788563448 0 -18.101430788563448 -41.607411622491782 0 0 0 0 -50.158644821008238 -26.053253410529578 0 -26.053253410529578 28.840136269529467 0 0 0 0 -14.083308395670297 -18.69834630668278 0 -18.69834630668278 -20.105217012493767 0 0 0 0 -37.452080376474441 -51.391211886417295 0 -51.391211886417295 19.329496158386974 0 0 0 0 11.130292998725054 -35.532837141960044 0 -35.532837141960044 -23.925126650516177 0 0 0 0 6.3402328667880568 -10.405439721346227 0 -10.405439721346227 -19.855304849484455 0 0 0 0 -4.4065012136506994 -6.7573868579856935 0 -6.7573868579856935 -8.4453114282659953 0 0 0 0 -6.7129265933549931 -13.039484342412209 0 -13.039484342412209 -13.084746082386317 0 0 0 0 -6.6614868812821442 10.88786843631533 0 10.88786843631533 -20.906888135679765 0 0 0 0 -0.59921674392642643 -4.8264416321146086 0 -4.8264416321146086 -7.2480407712110093 0 0 0 0 -3.7184985665962813 32.926104607257002 0 32.926104607257002 27.868683651700849 0 0 0 0 2.239129742108366 -2.7616765008612969 0 -2.7616765008612969 -8.8042786476628692 0 0 0 0 8.4202371771643811 -6.35314035898773 0 -6.35314035898773 -15.264580528863007 0 0 0 0 3.058909674154993 -7.7192289915057231 0 -7.7192289915057231 -20.536643520046994 0 0 0 0 8.5120574922475498 -3.8844173610559665 0 -3.8844173610559665 -11.70352696464397 0 0 0 0 6.9230557826656973 -3.8528275844788809 0 -3.8528275844788809 -18.610175185837221 0 0 0 0 -12.848511989591088 0.261867593810166 0 0.261867593810166 -25.05195993752568 0 0 0 0 27.435989745845291 -5.5427850419073366 0 -5.5427850419073366 -11.255193209799472 0 0 0 0 12.133365004742956 4.511203329148799 0 4.511203329148799 -24.359501021938144 0 0 0 0 -3.2130676036317869 -17.393856674433891 0 -17.393856674433891 -16.129842531423407 0 0 0 0 -0.37739683655711787 -10.112906891521497 0 -10.112906891521497 -24.151583990491361 0 0 0 0 8.6509605465580535 -11.310994590217888 0 -11.310994590217888 -19.763388821535045 0 0 0 0 5.9528992926888122 2.0096043317032724 0 2.0096043317032724 -8.0738925286793517 0 0 0 0 20.145635896125896 -7.1393692925776122 0 -7.1393692925776122 -36.958971712912899 0 0 0 0 6.984423146884998 -1.4978764224720216 0 -1.4978764224720216 -23.580074787198413 0 0 0 0 8.4246945331551615 -8.7022327058220981 0 -8.7022327058220981 -50.143539354321547 0 0 0 0 18.477897876024791 7.7097036365613008 0 7.7097036365613008 -33.436467735488918 0 0 0 0 -4.6230670932422768 -20.023599353810397 0 -20.023599353810397 -26.672034387170484 0 0 0 0 3.0096575628240316 -11.87848284942811 0 -11.87848284942811 -38.302658067710581 0 0 0 0 1.1886004288364802 -16.637443378707758 0 -16.637443378707758 -37.441817322949646 0 0 0 0 4.7531670335392846 -8.5423771650021081 0 -8.5423771650021081 -32.003864911996061 0 0 0 0 0.76723892820518813 -15.086797331612615 0 -15.086797331612615 -31.221479021303821 0 0 0 0 -0.89750950476900471 -47.512528121403193 0 -47.512528121403193 -102.73194949430763 0 0 0 0 -14.222358161070588 -28.398352252766927 0 -28.398352252766927 -65.822967637195688 0 0 0 0 16.260310448404198 -13.632068104925565 0 -13.632068104925565 -89.148237631692609 0 0 0 0 0.59416475969464955 -30.127320186980796 0 -30.127320186980796 -74.5971838521873 0 0 0 0 26.985919409578514 -8.0169007956683345 0 -8.0169007956683345 -39.282343183815101 0 0 0 0 14.668255123687317 2.2828266996406796 0 2.2828266996406796 -63.71765105749418 0 0 0 0 -22.142089474049158 51.409728571361484 0 51.409728571361484 -10.131913720077137 0 0 0 0 39.2086073513305 59.667219411675433 0 59.667219411675433 -30.011021526879631 0 0 0 0 1.5134158608689177 -14.947282980643649 0 -14.947282980643649 -30.792441088688065 0 0 0 0 1.5874417436361661 -1.9163995434273886 0 -1.9163995434273886 -6.9008115039180922 0 0 0 0 4.444772416163687 -8.0602369781045127 0 -8.0602369781045127 -33.349396337334838 0 0 0 0 -4.0840282181652583 -17.64725754148094 0 -17.64725754148094 -98.839190474450788 0 0 0 0 -21.496447322761014 -100.93390567487222 0 -100.93390567487222 -149.0015528900185 0 0 0 0 0.5217015209337319 0.16206480644871135 0 0.16206480644871135 0.28515619153637317 0 0 0 0 54.286639918850142 13.728553563375044 0 13.728553563375044 -15.325767236710817 0 0 0 0 59.858467856352036 -29.188676938334538 0 -29.188676938334538 -123.62449983537135 0 0 0 0 56.978130136772506 17.751688966922302 0 17.751688966922302 -90.012165983949671 0 0 0 0 26.919700892442052 -23.84906644052262 0 -23.84906644052262 -79.586454381933436 0 0 0 0 11.389655824205015 50.795666757763684 0 50.795666757763684 -48.882099187132553 0 0 0 0 16.880824897174875 34.484506349239382 0 34.484506349239382 -5.5777387557609472 0 0 0 0 13.237776901885134 4.8025290837919385 0 4.8025290837919385 -67.768196037964458 0 0 0 0 141.57774545154393 100.51032559978194 0 100.51032559978194 -27.828617043393024 0 0 0 0 19.187845114191646 84.831978874426568 0 84.831978874426568 29.511848360074509 0 0 0 0 -51.336780293508554 -5.0075502370273171 0 -5.0075502370273171 -15.364729647088097 0 0 0 0 19.395793153934015 26.688150718917882 0 26.688150718917882 -17.429809071822092 0 0 0 0 -55.167812080718249 51.456388923870691 0 51.456388923870691 18.527524015851668 0 0 0 0 84.559875706052651 -36.582281994291407 0 -36.582281994291407 -37.623766709791198 0 0 0 0 -103.78129140082763 11.441680257958069 0 11.441680257958069 23.807147461557179 0 0 0 0 -113.02127360801452 41.266508153803443 0 41.266508153803443 19.101848492689896 0 0 0 0 0.08123193518765548 -1.4153889271170073 0 -1.4153889271170073 -15.181847331904237 0 0 0 0 51.485117967808733 -9.682215448399802 0 -9.682215448399802 -33.465359015102877 0 0 0 0 -30.658838440129756 161.69174735112392 0 161.69174735112392 -68.736533704082831 0 0 0 0 0.00058500832548366577 0.13787095219239731 0 0.13787095219239731 -1.7250625991989068 0 0 0 0 0.59227954464686861 0.33253665215396033 0 0.33253665215396033 -5.4633050815751005 0 0 0 0 35.418038135898541 12.309060475839942 0 12.309060475839942 -8.44198037336173 0 0 0 0 -27.002626650850345 49.467539608442166 0 49.467539608442166 -9.1673725254313467 0 0 0 0 26.335525382701242 7.4564474696271645 0 7.4564474696271645 -29.516972763754893 0 0 0 0 4.8872133287482349 3.8215868578915604 0 3.8215868578915604 -5.5032573803261471 0 0 0 0 1.5633136898766129 0.65059117141733225 0 0.65059117141733225 -14.497791468079356 0 0 0 0 26.390890947468797 -15.516170807979506 0 -15.516170807979506 -4.7258827861078316 0 0 0 0 28.103404438391223 15.746816249025869 0 15.746816249025869 -1.8042645485111279 0 0 0 0 0.58551089844377135 0.079096256713000912 0 0.079096256713000912 -2.7515136349764191 0 0 0 0 22.079629181263943 -8.947227034419484 0 -8.947227034419484 -15.591176325535343 0 0 0 0 0.21587457491748607 -2.2817029202900549 0 -2.2817029202900549 -13.902265222192824 0 0 0 0 14.484610387838796 -6.9621066775371219 0 -6.9621066775371219 -7.7915232988452772 0 0 0 0 19.097535017106964 2.927549781752532 0 2.927549781752532 -30.503232947026845 0 0 0 0 3.1082180208004502 7.9054043620853918 0 7.9054043620853918 -14.766029816921218 0 0 0 0 -4.8374720689107562 -4.1131699453981128 0 -4.1131699453981128 -16.364561655082071 0 0 0 0 -8.4494134564665728 2.9029138089390472 0 2.9029138089390472 -29.860543618240627 0 0 0 0 0.016711176210146495 -3.5447462068215074 0 -3.5447462068215074 -1.0577519432627014 0 0 0 0 33.581503931741565 -3.0192286496021552 0 -3.0192286496021552 -11.812597341591754 0 0 0 0 21.370511690088051 -4.8394594039705225 0 -4.8394594039705225 -10.69177012743603 0 0 0 0 15.341667897721706 9.4102080055272381 0 9.4102080055272381 7.2248776290362002 0 0 0 0 -0.0072388023680412458 5.1831786546572403 0 5.1831786546572403 5.6138899967845646 0 0 0 0 11.524350007159724 0.84203614385842229 0 0.84203614385842229 0.61450658626563381 0 0 0 0 10.933298786238055 0.90093726447594236 0 0.90093726447594236 -10.342919238595641 0 0 0 0 25.357314143114603 -3.3131809012120357 0 -3.3131809012120357 0.72951332370575983 0 0 0 0 21.640850625143301 14.130837811346282 0 14.130837811346282 -8.1965810746332863 0 0 0 0 9.1481821153144764 2.3978443050364149 0 2.3978443050364149 0.42610588049865328 0 0 0 0 0.032527795652762301 12.534979327920155 0 12.534979327920155 -18.852758586479467 0 0 0 0 -28.710195435100463 6.3291061079944484 0 6.3291061079944484 -44.217630582087168 0 0 0 0 23.491866415203969 9.5189084961966728 0 9.5189084961966728 -44.048141097402549 0 0 0 0 16.568255829634023 35.456655581961058 0 35.456655581961058 -82.081493051940924 0 0 0 0 -19.0777724216031 44.538839927608024 0 44.538839927608024 5.9805045105313184 0 0 0 0 -0.10976095531243001 10.778611691639526 0 10.778611691639526 -69.5749109676035 0 0 0 0 -95.519653231584869 -7.2027084448600363 0 -7.2027084448600363 9.0576444618054666 0 0 0 0 -72.429691451779036 32.301111854969349 0 32.301111854969349 -13.385662231135939 0 0 0 0 13.192402034278473 80.826119303514133 0 80.826119303514133 -58.869022583257902 0 0 0 0 -111.05942954225031 -87.799572115589399 0 -87.799572115589399 91.750466392240924 0 0 0 0 209.14457805076501 -89.02652706939989 0 -89.02652706939989 -31.63534766464727 0 0 0 0 0.016985245662173132 -2.107142422988602 0 -2.107142422988602 -14.9110686355898 0 0 0 0 93.949407098956016 54.159727388760075 0 54.159727388760075 -32.047011394708534 0 0 0 0 -34.886902715549553 -71.560969771862801 0 -71.560969771862801 13.006011588906404 0 0 0 0 -184.94287659661529 -74.121320980440942 0 -74.121320980440942 100.94501335020323 0 0 0 0 -411.23069447764027 214.66950836778415 0 214.66950836778415 20.635025015857536 0 0 0 0 -63.626171580492752 212.41787008230858 0 212.41787008230858 -1002.2305174012799 0 0 0 0 -30.152537312175667 -266.75135382929875 0 -266.75135382929875 -232.28741756818636 0 0 0 0 -0.059179983490341592 -0.80045850820254216 0 -0.80045850820254216 -7.1349410436599499 0 0 0 0 -46.597361389585672 -115.61728136512102 0 -115.61728136512102 -198.27295592333394 0 0 0 0 -59.838239512629059 10.108094302522659 0 10.108094302522659 38.021465243895364 0 0 0 0 107.88604340498384 -108.42538417183459 0 -108.42538417183459 -847.19417091016658 0 0 0 0 0.12461408585134405 -11.02729725041354 0 -11.02729725041354 -280.45244098178046 0 0 0 0 104.46975306922104 -96.553439103881828 0 -96.553439103881828 -534.05648017537897 0 0 0 0 90.045199194182473 185.0688991904608 0 185.0688991904608 -429.93120542427641 0 0 0 0 -82.991637656254497 109.23588647468569 0 109.23588647468569 -98.667433642534888 0 0 0 0 0.059615758705055727 57.845577926174883 0 57.845577926174883 -293.93039261331069 0 0 0 0 -2.8888939419635258 -6.374534522329391 0 -6.374534522329391 -12.811046259034583 0 0 0 0 -52.797889949408315 -9.2163923435400648 0 -9.2163923435400648 -12.63964615081386 0 0 0 0 90.549371976781217 194.1240735965082 0 194.1240735965082 -887.75774164585164 0 0 0 0 -1.0725028512454917 -2.5720428062587217 0 -2.5720428062587217 -6.4929553019976538 0 0 0 0 -154.43471842094377 127.05271801765048 0 127.05271801765048 -1065.7867940316937 0 0 0 0 -289.79198876117317 566.34917366116133 0 566.34917366116133 -244.83756605173403 0 0 0 0 -81.140082197173285 -159.16899660015088 0 -159.16899660015088 3.429154912562808 0 0 0 0 -54.878605879555906 -250.74451682632298 0 -250.74451682632298 -503.21851602489187 0 0 0 0 18.229320320060651 66.68880483207613 0 66.68880483207613 -37.456790657683086 0 0 0 0 -58.662432784407883 25.253993626181909 0 25.253993626181909 -6.0317083691479638 0 0 0 0 -55.102630873317516 -4.9209964859969659 0 -4.9209964859969659 -14.354578152648173 0 0 0 0 119.41022464760078 -48.163312268008667 0 -48.163312268008667 -35.319473086412472 0 0 0 0 -16.422079348257625 -26.294402257670299 0 -26.294402257670299 -6.252153099339921 0 0 0 0 -4.7125274344680292 48.748550915406668 0 48.748550915406668 -37.664063864722266 0 0 0 0 -15.638021896974806 42.998050642607268 0 42.998050642607268 -7.7573333101890967 0 0 0 0 -8.6385334831479668 40.481789560581092 0 40.481789560581092 -36.582653512959951 0 0 0 0 -29.458319853081548 17.688115441480477 0 17.688115441480477 -47.250765220116591 0 0 0 0 1.7351297855827692 0.56710952542043458 0 0.56710952542043458 -12.491494498968706 0 0 0 0 5.7447209601587019 -6.249820012570126 0 -6.249820012570126 -39.966768045793287 0 0 0 0 4.1283524178232369 2.4846719079214381 0 2.4846719079214381 -13.573915794768254 0 0 0 0 1.5856725321041836 6.6612507590616588 0 6.6612507590616588 -17.805165011421195 0 0 0 0 10.747303343182807 9.140030956670671 0 9.140030956670671 -95.175121252279496 0 0 0 0 0.33224583027130383 -0.36118252097305259 0 -0.36118252097305259 -0.48767347198199218 0 0 0 0 -46.014320269256359 47.956309569322912 0 47.956309569322912 -18.616134107985999 0 0 0 0 9.4742337455256802 -14.070757097568276 0 -14.070757097568276 -35.060245100306929 0 0 0 0 10.461646724917159 42.892535843282531 0 42.892535843282531 -64.276707349810749 0 0 0 0 45.635454061161624 -19.759706770468256 0 -19.759706770468256 -23.828453879337758 0 0 0 0 53.726645819086912 -1.6282411077045253 0 -1.6282411077045253 -45.819645910960389 0 0 0 0 48.142332294334892 13.37633106627618 0 13.37633106627618 -47.719342876259816 0 0 0 0 11.356438718390109 33.322611469782714 0 33.322611469782714 -46.01705847275116 0 0 0 0 -5.6627611858055316 0.68656332154205302 0 0.68656332154205302 -20.738008105545305 0 0 0 0 -2.1860341572736779 -6.5734575887961171 0 -6.5734575887961171 -14.925948121753407 0 0 0 0 -0.16110646447826765 -0.8666378225243534 0 -0.8666378225243534 -27.612877502650008 0 0 0 0 -37.484274511784825 -82.802817521525867 0 -82.802817521525867 -151.87813983912929 0 0 0 0 -1.6189272209092622 0.68376120094744408 0 0.68376120094744408 -0.53498005162208528 0 0 0 0 14.926584727938121 -20.361721746136027 0 -20.361721746136027 -90.966566807313939 0 0 0 0 2.1355534035787969 11.307280006461951 0 11.307280006461951 -3.3965130368742393 0 0 0 0 -6.1403623200765196 -36.688519315321173 0 -36.688519315321173 -88.660828624460009 0 0 0 0 -2.7379822657950905 3.3662779870555539 0 3.3662779870555539 -1.650225622437091 0 0 0 0 8.130057185100668 3.0299298773898045 0 3.0299298773898045 -0.6365087293961551 0 0 0 0 -28.015737031937007 21.035094636004942 0 21.035094636004942 7.8341730948413897 0 0 0 0 11.544680306653845 5.839004287343414 0 5.839004287343414 -0.79280336573719978 0 0 0 0 -1.3914233284657769 8.4501734071354804 0 8.4501734071354804 0.5702701678237645 0 0 0 0 2.8593250867915003 22.106492119084578 0 22.106492119084578 -10.791729447406397 0 0 0 0 13.298444771951836 28.814755157480249 0 28.814755157480249 -9.8660823851960231 0 0 0 0 32.255308806023095 13.644190086677554 0 13.644190086677554 -26.509686229874205 0 0 0 0 1.3231402669663406 -0.42155947816980799 0 -0.42155947816980799 -17.446134164807233 0 0 0 0 17.534720932043342 29.842138183914358 0 29.842138183914358 -43.09017410116212 0 0 0 0 10.598747696303292 -4.0235337137655733 0 -4.0235337137655733 -54.131114154239185 0 0 0 0 3.3167065269909246 -2.8643047128274404 0 -2.8643047128274404 -31.73378394724881 0 0 0 0 2.4304096684930561 -7.6102350979555844 0 -7.6102350979555844 -1.7887827995397743 0 0 0 0 85.510518823310406 -4.4707788014748076 0 -4.4707788014748076 -49.483797214328661 0 0 0 0 -15.996148920474411 -3.3904634848076967 0 -3.3904634848076967 -14.572143390221754 0 0 0 0 43.600672699471488 46.499449873517733 0 46.499449873517733 -107.98039040407821 0 0 0 0 -21.993847600722397 61.444840960250076 0 61.444840960250076 -39.45217655300803 0 0 0 0 -132.71564248020599 -16.987644093656854 0 -16.987644093656854 25.816534768833662 0 0 0 0 -21.491228136671623 -135.19626210775095 0 -135.19626210775095 -337.53544295494066 0 0 0 0 89.566709492863879 -73.079245692708355 0 -73.079245692708355 -91.390846809662435 0 0 0 0 2.1999523505255953 -16.573192745647134 0 -16.573192745647134 -3.7217410992950981 0 0 0 0 0.078039140978882759 -0.050647867317323403 0 -0.050647867317323403 -5.2906086007657702 0 0 0 0 -8.0182004727947742 -15.713836872517277 0 -15.713836872517277 -46.145605457597412 0 0 0 0 3.4656375048655397 -9.0274724201751866 0 -9.0274724201751866 -30.095264978908773 0 0 0 0 35.823928633673745 -196.80916995715233 0 -196.80916995715233 -593.15667096690777 0 0 0 0 -76.121487005134668 -47.220684605359565 0 -47.220684605359565 -30.547182988729219 0 0 0 0 101.74252850937478 -23.48746119176576 0 -23.48746119176576 -635.28607928508427 0 0 0 0 -132.04317916043055 -289.85285916325665 0 -289.85285916325665 -482.93653727105993 0 0 0 0 -1.2830837906870132 -3.7134073999667265 0 -3.7134073999667265 1.8921443298544034 0 0 0 0 0.99521766015732283 24.343545349685883 0 24.343545349685883 -542.4369791182371 0 0 0 0 60.408099590314862 -74.558592364970536 0 -74.558592364970536 -382.7794225927064 0 0 0 0 115.03529894151342 -4.5250487927114591 0 -4.5250487927114591 -388.39098074160574 0 0 0 0 152.55398623718213 -15.275057122547878 0 -15.275057122547878 -456.6495724773049 0 0 0 0 21.840315991149069 -102.73942287371756 0 -102.73942287371756 -478.89631033884507 0 0 0 0 68.059046701398302 13.758808187732939 0 13.758808187732939 -152.40638973121369 0 0 0 0 -18.810882539331601 -5.9568101960649074 0 -5.9568101960649074 -46.527481005803565 0 0 0 0 -4.4693588258690262 -15.52905853476814 0 -15.52905853476814 0.87548353417232327 0 0 0 0 132.0260998555857 73.807311223652505 0 73.807311223652505 -410.74888370307599 0 0 0 0 69.683481525745691 32.07972645695736 0 32.07972645695736 -438.47793170908699 0 0 0 0 232.55224923961555 32.253102556365775 0 32.253102556365775 -453.59721401357092 0 0 0 0 193.53242215662243 118.48244139529197 0 118.48244139529197 -447.41925613487547 0 0 0 0 86.370824864137717 68.889366924318892 0 68.889366924318892 -23.655266459638369 0 0 0 0 309.52580255010997 40.85081916528361 0 40.85081916528361 -417.72844422668277 0 0 0 0 267.88973784587233 -89.941715717548504 0 -89.941715717548504 -223.74711796814518 0 0 0 0 150.91863942825938 -38.02562897480675 0 -38.02562897480675 -50.634232928976417 0 0 0 0 259.24162115858365 -13.981535170292773 0 -13.981535170292773 -388.3033980071632 0 0 0 0 135.8632400398576 10.179050831269706 0 10.179050831269706 -428.25589330107323 0 0 0 0 127.24580081930023 -31.205405624772538 0 -31.205405624772538 -276.37682541555841 0 0 0 0 143.55793699579857 36.068735340209969 0 36.068735340209969 -212.59435851989838 0 0 0 0 237.85851479497276 92.29027799432879 0 92.29027799432879 -173.58785432630975 0 0 0 0 29.934559454383475 66.583951082073327 0 66.583951082073327 -116.04136466107593 0 0 0 0 16.630892838157614 7.2333610894321936 0 7.2333610894321936 -72.850105711809363 0 0 0 0 280.07395883296351 232.72445528808748 0 232.72445528808748 -61.092975129938395 0 0 0 0 346.9431720691029 141.09437014743889 0 141.09437014743889 -22.645689167740784 0 0 0 0 8.8859012899841545 -1.2481359469455526 0 -1.2481359469455526 -16.131573045258804 0 0 0 0 95.890345774093134 -139.58519625583358 0 -139.58519625583358 -818.76076907542301 0 0 0 0 -128.79888296780791 328.95005755138118 0 328.95005755138118 -712.58440019311456 0 0 0 0 -116.88518804635714 -108.71394057195357 0 -108.71394057195357 -376.41953856639157 0 0 0 0 42.321976330769985 92.477178239358182 0 92.477178239358182 -252.73864047587995 0 0 0 0 20.660842010393026 1.3961980306194164 0 1.3961980306194164 -440.13205292526982 0 0 0 0 -68.422827900654283 131.79102359899116 0 131.79102359899116 -170.37702514528064 0 0 0 0 20.03902013440586 114.73677072337159 0 114.73677072337159 -167.71937378126677 0 0 0 0 -76.610817555039134 87.66206541631891 0 87.66206541631891 -199.59035441731976 0 0 0 0 -140.91577561028066 159.52686116799305 0 159.52686116799305 -168.24470063332046 0 0 0 0 -55.466635171503185 44.067929796463432 0 44.067929796463432 -13.500005325462553 0 0 0 0 -125.76206243196089 71.226293020583398 0 71.226293020583398 32.380161932414921 0 0 0 0 -93.382170775426744 4.595871394398273 0 4.595871394398273 44.218635745493884 0 0 0 0 -269.94219046075148 70.675070189310645 0 70.675070189310645 31.759154039129498 0 0 0 0 20.438289830970689 39.74705985629771 0 39.74705985629771 18.07904121825959 0 0 0 0 -7.876013004342667 71.877875185349694 0 71.877875185349694 11.656269069222617 0 0 0 0 -69.447086712752707 23.119165679483558 0 23.119165679483558 11.576443806561656 0 0 0 0 60.031633039180633 76.180198698990353 0 76.180198698990353 -61.315191671121283 0 0 0 0 34.746485458130962 61.239694591746229 0 61.239694591746229 15.019651395610708 0 0 0 0 189.21124610277377 181.9559385346929 0 181.9559385346929 -1.0549286286113784 0 0 0 0 92.194792204995792 39.835776721278307 0 39.835776721278307 -85.800407674776579 0 0 0 0 12.642572136424825 5.9492369898031399 0 5.9492369898031399 -71.469137054324278 0 0 0 0 55.685250401405028 8.5577677150831732 0 8.5577677150831732 -68.935985767988313 0 0 0 0 50.789339210202343 28.566073171181415 0 28.566073171181415 -144.64109864434431 0 0 0 0 45.412236639384673 45.521264593374326 0 45.521264593374326 -86.892916057237017 0 0 0 0 0.19591841101100727 46.696425227772124 0 46.696425227772124 -74.683070653860341 0 0 0 0 -1.8111393196790004 65.675836679977238 0 65.675836679977238 -157.42326078253973 0 0 0 0 -22.676569980052591 71.344903081735538 0 71.344903081735538 -156.76584516458752 0 0 0 0 -49.419951967831366 85.401059593794344 0 85.401059593794344 -227.08165979601836 0 0 0 0 -44.390748071791677 54.988178884777881 0 54.988178884777881 -147.40648004391551 0 0 0 0 -40.269180735741429 80.765593264342897 0 80.765593264342897 -495.3963511421689 0 0 0 0 -3.080160434628656 -2.4352972121928431 0 -2.4352972121928431 -2.2370951341900991 0 0 0 0 -527.96190675040634 -37.273720513810986 0 -37.273720513810986 727.92550667573232 0 0 0 0 -1032.1287548948894 2197.5756972634117 0 2197.5756972634117 548.50321799165613 0 0 0 0 -4.3923623177670379 246.52485289279139 0 246.52485289279139 -967.54149916365714 0 0 0 0 -2.5513669878943617 6.4930960610812107 0 6.4930960610812107 -17.46711209016317 0 0 0 0 -144.18029486392288 -300.80721506863938 0 -300.80721506863938 -520.38746522265865 0 0 0 0 652.23809280679598 64.037535794283031 0 64.037535794283031 -2861.1713259818571 0 0 0 0 9.500508981184316 0.44396221871813424 0 0.44396221871813424 -1.3925529772515972 0 0 0 0 -17.696299705105957 54.813267742194512 0 54.813267742194512 -147.51001165040361 0 0 0 0 62.343409364862964 -177.40565360238543 0 -177.40565360238543 -7.4221441726913326 0 0 0 0 -412.2389479534022 147.68541138986802 0 147.68541138986802 49.850819740036968 0 0 0 0 -13.091115541366889 100.00735724882179 0 100.00735724882179 -5.0456729673896916 0 0 0 0 -79.139205615714786 225.85145893416757 0 225.85145893416757 -81.289816629177949 0 0 0 0 39.168110559009619 6.47654743527346 0 6.47654743527346 -139.22716684917032 0 0 0 0 -5.8525837059936006 16.04158669189092 0 16.04158669189092 -52.501801833932461 0 0 0 0 71.103812829027447 122.47763079725519 0 122.47763079725519 -152.6871612115865 0 0 0 0 -42.444068120554221 223.71745418635692 0 223.71745418635692 -81.77030104430014 0 0 0 0 -180.29072568538885 356.06349645278169 0 356.06349645278169 -139.61945615145669 0 0 0 0 -28.389727958116055 88.886010490779881 0 88.886010490779881 -71.136039766317481 0 0 0 0 -332.46468198063889 40.360434530506609 0 40.360434530506609 40.77351237579569 0 0 0 0 -1.5194327817798889 23.377461387159265 0 23.377461387159265 -32.644149467368607 0 0 0 0 34.198530339656934 20.17680202500933 0 20.17680202500933 -3.3390078997087045 0 0 0 0 23.707946782290946 58.856448054921202 0 58.856448054921202 -59.196958829848882 0 0 0 0 11.538011830487449 224.73734875329319 0 224.73734875329319 -201.64267188329177 0 0 0 0 109.33824623137275 -7.9412554447881121 0 -7.9412554447881121 -52.098038567735784 0 0 0 0 143.24220834364047 -44.050579125033437 0 -44.050579125033437 -143.0814705435223 0 0 0 0 -42.742225129137751 -106.91700333159497 0 -106.91700333159497 -77.272291197274171 0 0 0 0 -27.092634796465973 -99.773896099060039 0 -99.773896099060039 -164.21009641252385 0 0 0 0 -45.524938075333012 -140.46702910689419 0 -140.46702910689419 -245.63900623602967 0 0 0 0 -129.75451265950051 -180.42754789542596 0 -180.42754789542596 -263.11990952435099 0 0 0 0 -310.31786348546348 -83.28447276188308 0 -83.28447276188308 -140.95155341231293 0 0 0 0 -14.176251109718578 35.842606206693745 0 35.842606206693745 -131.22183979837791 0 0 0 0 -115.09751485121024 -73.934947612715405 0 -73.934947612715405 -250.47547355376446 0 0 0 0 -30.323734433756727 -150.29014787872075 0 -150.29014787872075 -230.46549954992679 0 0 0 0 -108.04811955544028 -81.075211617604509 0 -81.075211617604509 -99.710912239006575 0 0 0 0 -5.2502861966561909 14.015994404898947 0 14.015994404898947 -59.336207302003459 0 0 0 0 24.026701877565756 -43.36656641794616 0 -43.36656641794616 -242.16001927139587 0 0 0 0 -2.7742262855726949 -37.028768199726983 0 -37.028768199726983 -227.47447711702989 0 0 0 0 -51.085521467223316 -167.97633500232769 0 -167.97633500232769 -244.00864384525994 0 0 0 0 -20.055970080748921 -211.47938286287899 0 -211.47938286287899 -183.1636325466684 0 0 0 0 5.6218068338098419 -35.614270330464933 0 -35.614270330464933 -206.84808582934784 0 0 0 0 12.350278993395023 11.535197830438847 0 11.535197830438847 -518.87027508623851 0 0 0 0 -291.74238180243924 -120.07768334434331 0 -120.07768334434331 -276.03098409562881 0 0 0 0 -97.78146605568304 -242.44646957107034 0 -242.44646957107034 -17.739166252420546 0 0 0 0 -13.509510246030231 -273.05533641017792 0 -273.05533641017792 -390.92943645954074 0 0 0 0 21.300048163076212 -37.170037452438919 0 -37.170037452438919 -269.05629792587933 0 0 0 0 30.950509330088153 15.808870115875834 0 15.808870115875834 -253.62977585074623 0 0 0 0 -100.06634127774259 40.76904721783194 0 40.76904721783194 -9.6952692217419099 0 0 0 0 1.4586028821217329 32.801192693601656 0 32.801192693601656 -0.41568056350411808 0 0 0 0 19.870736503310809 44.166253062513988 0 44.166253062513988 -80.962270314666966 0 0 0 0 51.707763396407245 57.191680092213574 0 57.191680092213574 -113.59659707369792 0 0 0 0 43.542794717706784 -4.7929023983197112 0 -4.7929023983197112 21.829383819225768 0 0 0 0 16.893223505405331 43.4990208598756 0 43.4990208598756 -76.910211453021475 0 0 0 0 14.809524314864101 32.799365370600995 0 32.799365370600995 -14.526010996186965 0 0 0 0 5.6292141952039545 4.7974048361403412 0 4.7974048361403412 -6.6962714850162115 0 0 0 0 53.211907002221324 94.134353287150589 0 94.134353287150589 -81.209817913228107 0 0 0 0 -0.8713068385496654 0.54113791840831382 0 0.54113791840831382 -2.8499977924597033 0 0 0 0 -184.36533767278354 -220.08398635990307 0 -220.08398635990307 -156.07105839950964 0 0 0 0 -127.18672405869529 -121.53266473953408 0 -121.53266473953408 -109.42910829266475 0 0 0 0 54.608372431752855 16.8847847889283 0 16.8847847889283 -315.7317288248305 0 0 0 0 7.9753087862850407 -32.861052082811511 0 -32.861052082811511 1.9378894399269484 0 0 0 0 -45.041934199291973 -3.9292026074181194 0 -3.9292026074181194 119.98219215659287 0 0 0 0 17.856035701077872 2.8246042480573124 0 2.8246042480573124 -82.362922847176378 0 0 0 0 24.691617271050518 -46.972991862176059 0 -46.972991862176059 -336.85183061048883 0 0 0 0 14.775892826981817 13.077701569563942 0 13.077701569563942 -79.983125998071955 0 0 0 0 -106.45863355552956 -9.3582928669093235 0 -9.3582928669093235 -70.81862760202057 0 0 0 0 26.218119831728018 19.600807139075187 0 19.600807139075187 -69.867309577137348 0 0 0 0 4.7742512632020073 -18.342262794497827 0 -18.342262794497827 2.2091554902781194 0 0 0 0 -346.88471901693021 591.67867168860312 0 591.67867168860312 -483.89222983319632 0 0 0 0 18.253251661381682 -20.311243391523021 0 -20.311243391523021 -79.521886467822014 0 0 0 0 -2473.0826014984159 -267.85352600513579 0 -267.85352600513579 -232.0391766860339 0 0 0 0 848.63651648322468 -2128.8792839975649 0 -2128.8792839975649 -1654.8191243651672 0 0 0 0 117.34651945689643 93.241246233857964 0 93.241246233857964 -431.91914925401215 0 0 0 0 -508.85921039361443 80.798062461468362 0 80.798062461468362 46.045822047948604 0 0 0 0 -5.564325329330166 6.1739727542808751 0 6.1739727542808751 -11.057104352719051 0 0 0 0 118.74362990679856 285.7445478906011 0 285.7445478906011 -290.44198268523178 0 0 0 0 152.60483004178013 35.462711266751285 0 35.462711266751285 -83.90882602018246 0 0 0 0 213.620433690543 152.31813683199289 0 152.31813683199289 -233.87516252898422 0 0 0 0 2.7905599539713215 28.582099504812376 0 28.582099504812376 -84.005396000504533 0 0 0 0 119.56474377785412 -5.7766552630155275 0 -5.7766552630155275 -133.16145749943826 0 0 0 0 33.482710332561155 -16.479272438884436 0 -16.479272438884436 -10.848054187003878 0 0 0 0 3.0621611925539582 -26.82629256922155 0 -26.82629256922155 -56.821919334001677 0 0 0 0 26.729780337037347 -25.49222378736556 0 -25.49222378736556 -82.745094532918301 0 0 0 0 33.086670056743969 -34.564072569119162 0 -34.564072569119162 -85.375579385012315 0 0 0 0 -10.875731136077775 -38.466114463939448 0 -38.466114463939448 -54.770875200116279 0 0 0 0 7.748080112884395 -27.45626242146318 0 -27.45626242146318 -65.591006322487374 0 0 0 0 3.2723878521579195 -69.181980051423125 0 -69.181980051423125 -124.82281516838702 0 0 0 0 69.314839557689538 -19.061317456456891 0 -19.061317456456891 -145.33285772929958 0 0 0 0 69.437951053739653 -4.1147279148935922 0 -4.1147279148935922 -113.5578688421665 0 0 0 0 73.797242839327737 -45.413802693867183 0 -45.413802693867183 -265.84573069769249 0 0 0 0 55.404934055133936 -5.5424140400027682 0 -5.5424140400027682 -104.93980027268117 0 0 0 0 33.06714148598985 -28.215790238838963 0 -28.215790238838963 -106.85006600893394 0 0 0 0 54.398387000903199 -1.456479062237122 0 -1.456479062237122 -91.436269978017663 0 0 0 0 38.321252847993946 0.75612675578304334 0 0.75612675578304334 -74.368227343549052 0 0 0 0 38.16561247449863 -0.43457927528652363 0 -0.43457927528652363 -79.886561617808184 0 0 0 0 19.452754953434578 -6.2453890753531596 0 -6.2453890753531596 -61.933072065236047 0 0 0 0 19.6002463252089 -11.602657153540349 0 -11.602657153540349 -83.761229245803406 0 0 0 0 26.445487920515774 -20.713341975867138 0 -20.713341975867138 -88.586261080956319 0 0 0 0 38.380763526508304 -18.243912614223518 0 -18.243912614223518 -88.64924948879343 0 0 0 0 5.8027115579448036 -7.956477370862558 0 -7.956477370862558 -83.899210713490902 0 0 0 0 8.1877701088038748 -13.90001469334311 0 -13.90001469334311 -81.421192282065022 0 0 0 0 20.177147278415561 -9.18390227186228 0 -9.18390227186228 -81.201822652059491 0 0 0 0 -2.7277438611968137 -15.966814423474716 0 -15.966814423474716 -55.491303101058293 0 0 0 0 0.50301980212270792 -17.784423605931806 0 -17.784423605931806 -78.442148897775041 0 0 0 0 18.44806698988674 -3.4914417233867425 0 -3.4914417233867425 -67.058614332985599 0 0 0 0 -18.415757835527529 -18.346063950571988 0 -18.346063950571988 -62.610037287289742 0 0 0 0 0.096083548541366692 -0.41297220773469689 0 -0.41297220773469689 -1.9428538618487465 0 0 0 0 10.105134568886626 -3.8854225976610905 0 -3.8854225976610905 -29.177368733311596 0 0 0 0 -6.3281828882118134 -15.031665572612837 0 -15.031665572612837 -12.456755507002526 0 0 0 0 -4.8559661484014214 -3.5016970716824289 0 -3.5016970716824289 -62.249898107605986 0 0 0 0 0.82987328533832505 -0.081810798539507346 0 -0.081810798539507346 -2.5218250645786924 0 0 0 0 -5.5913585391254514 25.198345601191249 0 25.198345601191249 -35.928696134851634 0 0 0 0 9.0106781315014928 24.944700021929748 0 24.944700021929748 -80.245165686981636 0 0 0 0 16.669600229495416 -30.890226428997266 0 -30.890226428997266 -150.43234718340682 0 0 0 0 14.718045558424109 -11.2322221346476 0 -11.2322221346476 -109.58489160033787 0 0 0 0 18.352327269787338 0.17987229464415577 0 0.17987229464415577 -34.355998571816599 0 0 0 0 20.127899955165276 7.3125774771651777 0 7.3125774771651777 -12.074161930402624 0 0 0 0 12.563105046468081 7.1291000687633641 0 7.1291000687633641 -23.367560543498257 0 0 0 0 3.386510688155131 4.7614622547519474 0 4.7614622547519474 -6.1585132129069819 0 0 0 0 21.392806065549394 -2.3531063040209119 0 -2.3531063040209119 -61.18733798172434 0 0 0 0 16.953201088904279 5.0034225791896461 0 5.0034225791896461 -42.502212531668192 0 0 0 0 29.274696260577002 13.457634931597568 0 13.457634931597568 -31.785339385431143 0 0 0 0 37.05939901747206 7.8554455147532281 0 7.8554455147532281 -74.551221095268602 0 0 0 0 50.569567052362117 32.621911828427983 0 32.621911828427983 -34.438441166246776 0 0 0 0 63.350310473962509 16.249793268201756 0 16.249793268201756 -95.535599611062935 0 0 0 0 69.614186009327796 44.050652074041864 0 44.050652074041864 -34.330840600217925 0 0 0 0 70.917143245305397 33.291760598316614 0 33.291760598316614 -29.861581757279055 0 0 0 0 83.522317920915157 23.35021352385229 0 23.35021352385229 -145.40107772409829 0 0 0 0 59.415805093012523 79.566320473350061 0 79.566320473350061 4.1980021161944023 0 0 0 0 106.56759765742379 15.689690388482632 0 15.689690388482632 -148.06473193792044 0 0 0 0 10.758371999975225 192.17123441630974 0 192.17123441630974 236.95256060259271 0 0 0 0 1.5522151551465928 1.3889452769930131 0 1.3889452769930131 -0.33012696602691705 0 0 0 0 -19.220587525672727 21.857422426110134 0 21.857422426110134 -95.923255669600621 0 0 0 0 50.910615819162331 4.6051289131573867 0 4.6051289131573867 93.200837595308258 0 0 0 0 -22.589972418046614 -34.808674432428234 0 -34.808674432428234 32.701810568425572 0 0 0 0 -3.2527301841727674 3.8777653124971891 0 3.8777653124971891 -2.7595124179649417 0 0 0 0 5.9692383092384347 0.98255219395348092 0 0.98255219395348092 -3.2652575064082328 0 0 0 0 35.036579375282145 46.747640474644868 0 46.747640474644868 24.770727168914163 0 0 0 0 45.390293860413749 17.268761889383313 0 17.268761889383313 -27.732608310470823 0 0 0 0 -36.251256147151082 -147.02687817134938 0 -147.02687817134938 -323.58746952994261 0 0 0 0 40.422092673209676 0.25173313522827812 0 0.25173313522827812 -133.78695205389522 0 0 0 0 -1.9842915644614041 0.93576498535128394 0 0.93576498535128394 -0.70169174264245271 0 0 0 0 -43.566661208990922 83.39165792462336 0 83.39165792462336 -51.287858955925913 0 0 0 0 -48.786405875084256 79.932323550674482 0 79.932323550674482 9.386561463252292 0 0 0 0 11.422598695906743 139.28164655226828 0 139.28164655226828 -262.57608385670756 0 0 0 0 -180.63031725144663 2.7012519676009106 0 2.7012519676009106 -20.373710126834339 0 0 0 0 46.704460974292999 -44.115204649020598 0 -44.115204649020598 -40.901798582737683 0 0 0 0 33.301595416360556 92.475430512273306 0 92.475430512273306 -46.164171153192001 0 0 0 0 -6.3854791947288341 4.9981728228893587 0 4.9981728228893587 -2.7658105008171532 0 0 0 0 21.052194680128366 -1.696099060922279 0 -1.696099060922279 -110.78878685753079 0 0 0 0 -4.315891784034096 3.4363366129383905 0 3.4363366129383905 -1.9682929803682327 0 0 0 0 29.1669596834288 -2.5969148323247282 0 -2.5969148323247282 -156.72455090956646 0 0 0 0 26.835440829874329 0.29736353892076295 0 0.29736353892076295 -120.93675661925226 0 0 0 0 -62.722167349354322 128.12913315417791 0 128.12913315417791 -175.14575325877377 0 0 0 0 210.09411360845866 -181.57749469131613 0 -181.57749469131613 -321.22451769503823 0 0 0 0 -0.11700809295633618 1.2650162272267664 0 1.2650162272267664 -2.2562094035253892 0 0 0 0 38.595792067856564 69.092915430454013 0 69.092915430454013 -362.30481298207178 0 0 0 0 -13.383437054223577 -27.562387488131208 0 -27.562387488131208 -3.6807823832496069 0 0 0 0 -17.993553704972328 47.22675346516553 0 47.22675346516553 -213.52891479058349 0 0 0 0 90.328926133644018 265.08037407244774 0 265.08037407244774 66.347185689388425 0 0 0 0 -137.48242656812454 311.51237275717722 0 311.51237275717722 534.22985262994916 0 0 0 0 -2.0376143707985737 0.94734681868078496 0 0.94734681868078496 0.2467688376294177 0 0 0 0 -0.57634257216423457 0.12882133362853665 0 0.12882133362853665 0.18812607087902933 0 0 0 0 -66.603937369169216 -58.828728849610343 0 -58.828728849610343 -311.27223533337383 0 0 0 0 26.270635417581161 40.868797334769624 0 40.868797334769624 -213.86581645808474 0 0 0 0 -172.64149705743671 -4.0104318840058113 0 -4.0104318840058113 18.926411742912023 0 0 0 0 55.344613622240558 -17.30908879369963 0 -17.30908879369963 -579.21872473337862 0 0 0 0 11.34701324748039 25.787226573418593 0 25.787226573418593 -117.70686887103511 0 0 0 0 143.20902915490069 225.65411840516026 0 225.65411840516026 0.28525748123138328 0 0 0 0 95.404444449428411 -85.647510559880175 0 -85.647510559880175 35.581495931750396 0 0 0 0 5.9972697844812046 78.122441389605228 0 78.122441389605228 -266.6538608898336 0 0 0 0 8.4974594846014497 -15.506001025652949 0 -15.506001025652949 -271.62775352560857 0 0 0 0 -36.419763262998913 -14.600300337078806 0 -14.600300337078806 -13.149101017619159 0 0 0 0 23.010302454957127 -21.48526829867842 0 -21.48526829867842 -93.365652791268076 0 0 0 0 45.780148981575394 84.088861041231212 0 84.088861041231212 -401.66473951015359 0 0 0 0 -72.03082157307108 180.56672319269273 0 180.56672319269273 -132.1663573099504 0 0 0 0 117.04121887010251 -7.7048169564477575 0 -7.7048169564477575 -34.48830558591726 0 0 0 0 -29.827718009853015 42.96106537077867 0 42.96106537077867 207.62172032095259 0 0 0 0 27.700615113338017 0.65893109880926204 0 0.65893109880926204 4.602605273554218 0 0 0 0 -1.1254573186358954 3.4137238912751471 0 3.4137238912751471 -3.1478085427582982 0 0 0 0 44.47820817606771 24.66180826821801 0 24.66180826821801 15.694080318577107 0 0 0 0 99.948658758048282 65.043188743733936 0 65.043188743733936 20.321338400266541 0 0 0 0 -0.90010805174110597 3.4542622288717375 0 3.4542622288717375 -4.2345987411824524 0 0 0 0 4.0492941951056309 -5.1167636311874958 0 -5.1167636311874958 11.292354766825156 0 0 0 0 -2.1091488841931341 2.0261800416479474 0 2.0261800416479474 -2.3456757203440475 0 0 0 0 181.29212040801576 11.0367204599861 0 11.0367204599861 -295.3802230998408 0 0 0 0 -52.748278779059547 153.6853158188751 0 153.6853158188751 -188.51154567463527 0 0 0 0 7.8079278955328846 313.37891149400275 0 313.37891149400275 -572.32710806149407 0 0 0 0 57.189005062840806 179.02893096202388 0 179.02893096202388 -424.76304046445875 0 0 0 0 -14.868767993333222 44.051658214122654 0 44.051658214122654 67.550681851629633 0 0 0 0 83.070107213559822 52.35373403340418 0 52.35373403340418 26.258996615419164 0 0 0 0 0.83434385179964465 -17.80883633279791 0 -17.80883633279791 8.4490922866098117 0 0 0 0 34.811692521459918 -26.762955561454874 0 -26.762955561454874 -12.296642438745039 0 0 0 0 42.070760345587587 15.653548783047881 0 15.653548783047881 35.414707020412607 0 0 0 0 -2.417776574660893 0.8256951233970824 0 0.8256951233970824 -0.57506777817218335 0 0 0 0 -25.23820039440352 59.592119205997733 0 59.592119205997733 126.68105371191996 0 0 0 0 24.255903567524911 28.705847396529862 0 28.705847396529862 -638.62879760013311 0 0 0 0 25.33197067908668 -26.022506050194352 0 -26.022506050194352 -5.0033920225032489 0 0 0 0 35.640934507490329 -0.54482896831905236 0 -0.54482896831905236 -11.861127675361786 0 0 0 0 -49.428286752707322 26.194046814835019 0 26.194046814835019 175.69898283424118 0 0 0 0 11.884028530561409 19.222980418031511 0 19.222980418031511 -203.35518213497926 0 0 0 0 -5.5633144660962843 3.4427891928914534 0 3.4427891928914534 -1.8812088850716862 0 0 0 0 -6.6327918248258584 -1.0190365370635845 0 -1.0190365370635845 -222.2476055355437 0 0 0 0 9.9716632936656424 83.64785965190822 0 83.64785965190822 -259.1241551532803 0 0 0 0 -20.589259575261622 50.648357453821518 0 50.648357453821518 -220.03248062654893 0 0 0 0 36.092454793383467 52.971972714269214 0 52.971972714269214 -231.82792977936333 0 0 0 0 -23.597746211061349 64.462019152662833 0 64.462019152662833 -191.40796036527536 0 0 0 0 -27.779943113486183 84.275027199410943 0 84.275027199410943 -228.43547497878899 0 0 0 0 -28.862334507209198 86.49721050952212 0 86.49721050952212 -208.89808168181116 0 0 0 0 -76.542627037229977 103.77994631735055 0 103.77994631735055 -175.90837437334994 0 0 0 0 -7.6891447466350655 -19.425135621551817 0 -19.425135621551817 -376.10290859357337 0 0 0 0 -75.537199478095317 152.28094294902257 0 152.28094294902257 -298.907510119574 0 0 0 0 -118.16710403579691 202.64953670781688 0 202.64953670781688 -400.59781922624097 0 0 0 0 -83.705926701463 79.59514923574352 0 79.59514923574352 -212.23021446428902 0 0 0 0 -89.707131081553598 108.16527247017802 0 108.16527247017802 -194.47628370454186 0 0 0 0 -76.76867770215722 56.545780582833686 0 56.545780582833686 -122.71955860195158 0 0 0 0 -100.69607637738295 63.091472180736673 0 63.091472180736673 -88.494314187235432 0 0 0 0 -74.314530302550338 34.536022466694703 0 34.536022466694703 -112.47519234373613 0 0 0 0 -8.7566184933386744 -21.03318744008741 0 -21.03318744008741 -47.844711328789174 0 0 0 0 -46.790492374889254 83.756104419509938 0 83.756104419509938 -110.93394506268669 0 0 0 0 -23.485913396406431 -30.677004645833222 0 -30.677004645833222 -139.86959043029128 0 0 0 0 61.8970945411711 -20.604436035842809 0 -20.604436035842809 -74.818025227330509 0 0 0 0 -48.731818463155832 54.263672135944944 0 54.263672135944944 -214.35823824019462 0 0 0 0 -87.844283297287802 19.460988276898206 0 19.460988276898206 27.883435084979283 0 0 0 0 -172.21496016836727 103.53718678112455 0 103.53718678112455 -194.97006060487183 0 0 0 0 -170.44363889712258 62.454960324146668 0 62.454960324146668 -17.010477404022822 0 0 0 0 -119.15762158248072 85.310885035749379 0 85.310885035749379 -375.9380114072992 0 0 0 0 42.268154665987936 80.063071765858695 0 80.063071765858695 -139.51235005733906 0 0 0 0 8.9467647631686305 51.832707160374412 0 51.832707160374412 -19.116456838855811 0 0 0 0 34.196685979471113 82.984421985951485 0 82.984421985951485 -164.25784785981523 0 0 0 0 -8.7466301600107386 59.637902790105727 0 59.637902790105727 139.45068238025124 0 0 0 0 48.69856789886785 53.456268815858493 0 53.456268815858493 -19.30495062659611 0 0 0 0 23.103913018086132 24.978058105847595 0 24.978058105847595 -6.7764077045321756 0 0 0 0 12.867099970633149 94.833427058705638 0 94.833427058705638 75.79115786512557 0 0 0 0 71.925213973534483 31.020039422073751 0 31.020039422073751 -27.329072979218836 0 0 0 0 5.8981471235761092 55.41423342066264 0 55.41423342066264 -33.06013356490439 0 0 0 0 -90.427877093971574 156.08418463107591 0 156.08418463107591 147.45297187324468 0 0 0 0 -7.0650952569895997 5.01237421570886 0 5.01237421570886 -2.6238031409550615 0 0 0 0 11.951500940662299 5.9351061382658372 0 5.9351061382658372 -115.52715029955289 0 0 0 0 36.891721998989851 45.509603651193174 0 45.509603651193174 -105.83810342394281 0 0 0 0 31.772277511986431 37.040333336582989 0 37.040333336582989 -108.86957745725158 0 0 0 0 51.688520378173962 40.810084885329616 0 40.810084885329616 -232.13518297483097 0 0 0 0 49.753746532053128 70.403662415585131 0 70.403662415585131 -201.49711824251426 0 0 0 0 43.223711902498962 31.221108999379794 0 31.221108999379794 -211.96669154854317 0 0 0 0 47.572596935386628 63.665571242599981 0 63.665571242599981 -215.70832058931956 0 0 0 0 34.051882146939761 47.12972324427119 0 47.12972324427119 -233.94193031264876 0 0 0 0 53.894900680560113 44.987330101743282 0 44.987330101743282 -237.60084812061541 0 0 0 0 43.585953113978121 55.707326736785035 0 55.707326736785035 -243.46101673669182 0 0 0 0 54.543812843359319 38.77627112276241 0 38.77627112276241 -271.29731735420501 0 0 0 0 1.564642359360505 43.046500892123731 0 43.046500892123731 -237.68057958975214 0 0 0 0 50.120601440965856 46.058806128708966 0 46.058806128708966 -300.81272936389723 0 0 0 0 29.561433872428552 45.021312025612133 0 45.021312025612133 -155.33515095616349 0 0 0 0 46.42199718062966 70.12726020523769 0 70.12726020523769 -237.13109924170567 0 0 0 0 7.6668859429046847 18.839804741688567 0 18.839804741688567 -191.34109803030151 0 0 0 0 30.693851276484253 25.250190903898329 0 25.250190903898329 -333.8992173550505 0 0 0 0 -48.319295872653129 -5.6601167147819069 0 -5.6601167147819069 -321.75400251167594 0 0 0 0 -3.0971156754874869 -44.628037298782147 0 -44.628037298782147 -336.10633770959976 0 0 0 0 13.892248185365929 10.642709467236273 0 10.642709467236273 -384.28333366330844 0 0 0 0 76.62709487184452 -82.388731782251853 0 -82.388731782251853 -655.67474227673483 0 0 0 0 46.761641269158417 -90.131909231597092 0 -90.131909231597092 -341.49392122670542 0 0 0 0 -27.989676752969615 80.806279626469404 0 80.806279626469404 -188.04460502506117 0 0 0 0 -6.4968535549994044 59.715276324506704 0 59.715276324506704 -238.70693839325395 0 0 0 0 -22.041994644440138 28.615499877525508 0 28.615499877525508 -51.400808468337345 0 0 0 0 -109.48972303210371 42.97178731567692 0 42.97178731567692 -31.867555750774045 0 0 0 0 -12.855397910880583 61.311048408097122 0 61.311048408097122 -182.43795199701526 0 0 0 0 -54.107221161916868 30.953891610242863 0 30.953891610242863 66.614429962210124 0 0 0 0 -8.8661716444105529 -2.3100966087018833 0 -2.3100966087018833 -15.945281484644511 0 0 0 0 28.972738850222072 17.00335033905867 0 17.00335033905867 48.053539297798125 0 0 0 0 -6.1520691993445098 88.935896847622644 0 88.935896847622644 -27.552813641474131 0 0 0 0 -40.665971018408527 -6.5204284211431514 0 -6.5204284211431514 -25.57787940884009 0 0 0 0 -54.540989969236534 -5.01705972527634 0 -5.01705972527634 -23.96618877014771 0 0 0 0 -68.922551367037045 -32.099389640948175 0 -32.099389640948175 -66.695698845149309 0 0 0 0 -45.4567281087227 -26.462103555910289 0 -26.462103555910289 -64.990135832944361 0 0 0 0 -9.8201360920207037 -32.178773248808284 0 -32.178773248808284 -67.305792352359276 0 0 0 0 -0.55680799427832128 2.5881799282451023 0 2.5881799282451023 -18.238012708253905 0 0 0 0 -0.43604556390471072 1.1673536264228463 0 1.1673536264228463 -6.6458879767696146 0 0 0 0 -79.044375740870123 -47.323141154385667 0 -47.323141154385667 -77.364911024604226 0 0 0 0 -96.09527328437008 -208.20752047690803 0 -208.20752047690803 -642.17584548804734 0 0 0 0 -44.893223556227895 179.86374181109022 0 179.86374181109022 -539.59796193827788 0 0 0 0 -277.66894697015573 179.63813948196184 0 179.63813948196184 -107.47059096726662 0 0 0 0 66.377495133147477 194.70501834180322 0 194.70501834180322 -662.35084493219074 0 0 0 0 25.038095043599242 50.531832122807828 0 50.531832122807828 -672.1007099658018 0 0 0 0 28.220915577148276 117.45569317884656 0 117.45569317884656 -69.479899971095165 0 0 0 0 0.10040007386220795 1.0743142738949985 0 1.0743142738949985 -3.397838343375156 0 0 0 0 -236.71688791270935 82.618306710886827 0 82.618306710886827 -838.81069346584263 0 0 0 0 83.75192023286175 -358.8729711202941 0 -358.8729711202941 -656.6662870223663 0 0 0 0 32.356627936577866 -86.474393980126479 0 -86.474393980126479 -105.11085064233339 0 0 0 0 -7.4959212430233038 -103.1689778804066 0 -103.1689778804066 -94.195288589189659 0 0 0 0 0.11440975567730673 26.247034788091696 0 26.247034788091696 -320.25369895936456 0 0 0 0 31.855925406129963 -80.73677989735711 0 -80.73677989735711 -174.32024465642462 0 0 0 0 33.854527200544787 -59.920279001940798 0 -59.920279001940798 -390.06800534012291 0 0 0 0 104.75689771404637 -19.750897231213457 0 -19.750897231213457 -367.31052438619372 0 0 0 0 78.482726320291334 169.72533007177117 0 169.72533007177117 -1006.0480766415858 0 0 0 0 -1.0497094580378956 59.749051850882097 0 59.749051850882097 51.445009085378842 0 0 0 0 -83.578389470995688 -208.40824836156753 0 -208.40824836156753 92.486112401820719 0 0 0 0 -0.051078648549865428 7.3857949511220795 0 7.3857949511220795 -96.394707830379048 0 0 0 0 -10.279900924553885 -30.49146927759648 0 -30.49146927759648 0.309937618629192 0 0 0 0 36.545991948540632 -50.038763158681832 0 -50.038763158681832 -106.08204367026337 0 0 0 0 -0.37772632765907499 1.9218941845398518 0 1.9218941845398518 -4.4326748626905044 0 0 0 0 -0.14872074569052529 -49.573783553976682 0 -49.573783553976682 -104.87573196898666 0 0 0 0 31.582142690699584 -40.704612783549237 0 -40.704612783549237 -205.96435608204047 0 0 0 0 -62.41474022814009 -87.239017189240258 0 -87.239017189240258 -127.19870326911041 0 0 0 0 -0.028390151105353596 0.47588426439251919 0 0.47588426439251919 -1.8979457091911343 0 0 0 0 -93.611758206985186 -181.06257326126797 0 -181.06257326126797 -246.57728334045532 0 0 0 0 0.0019984316106839597 13.990526844139822 0 13.990526844139822 13.665765734752313 0 0 0 0 -63.022524738774223 -84.634617569779948 0 -84.634617569779948 -74.169576569940546 0 0 0 0 -15.632891933029214 -70.028265305038076 0 -70.028265305038076 -75.001372852391796 0 0 0 0 -15.848297472326749 -76.963755062548444 0 -76.963755062548444 -98.041727932359208 0 0 0 0 2.2554220758430574 -69.780700987219461 0 -69.780700987219461 -95.608560165557719 0 0 0 0 2.5803683988449393 -53.155777385039983 0 -53.155777385039983 -125.40988942106196 0 0 0 0 52.160281806086573 11.902435682568466 0 11.902435682568466 -87.455876087944489 0 0 0 0 -16.298170786573223 -19.456949677809462 0 -19.456949677809462 -33.109014193360053 0 0 0 0 2.4145935733299666 -44.265103326957615 0 -44.265103326957615 -87.984229466042962 0 0 0 0 -6.4516633378239021 10.330973395978617 0 10.330973395978617 -35.891787359068985 0 0 0 0 -6.1843420955563779 14.810656931789481 0 14.810656931789481 -66.928855087549891 0 0 0 0 -9.8585169177193848 89.783792655689467 0 89.783792655689467 -79.296663588924275 0 0 0 0 -0.13649397499179194 0.60552875575727683 0 0.60552875575727683 0.5352824097632265 0 0 0 0 7.425043169478613 -12.694781177007826 0 -12.694781177007826 -0.57087764846073696 0 0 0 0 24.629397802248263 -3.8688348395662615 0 -3.8688348395662615 -60.785123166017001 0 0 0 0 2.3043489317265085 -0.12955498628798523 0 -0.12955498628798523 -17.358822610360221 0 0 0 0 1.2820985445103883 3.7199804679160025 0 3.7199804679160025 -1.6212674865094101 0 0 0 0 0.68883127507473896 1.7858315909606404 0 1.7858315909606404 -1.9823924778408468 0 0 0 0 -13.908472403015139 35.522496669269458 0 35.522496669269458 -37.321050677222956 0 0 0 0 -3.2411082645635361 10.359190003029653 0 10.359190003029653 -12.076340140396496 0 0 0 0 4.9625175301291335 7.0303138302215302 0 7.0303138302215302 -25.567021274371655 0 0 0 0 2.9910349088715975 13.128546015694155 0 13.128546015694155 -37.088530362321762 0 0 0 0 1.0980675508477229 8.4070003852670823 0 8.4070003852670823 -9.3750583601820097 0 0 0 0 1.269325761943171 2.4365966761057791 0 2.4365966761057791 -6.1253100929963722 0 0 0 0 3.6441084568391489 15.480942428359413 0 15.480942428359413 -38.581127122855833 0 0 0 0 -1.1700507345873561 105.57579169241217 0 105.57579169241217 68.386690948784235 0 0 0 0 54.540311610097717 17.307483230739308 0 17.307483230739308 -296.35803742793996 0 0 0 0 -0.051574606006275503 0.14940777220355983 0 0.14940777220355983 -0.42017340254977853 0 0 0 0 -79.47558114794424 61.167146386382228 0 61.167146386382228 -33.566592336996109 0 0 0 0 42.363323581288199 9.5573351461298444 0 9.5573351461298444 -0.95073493794188835 0 0 0 0 0.80935492092346306 0.95803239487540282 0 0.95803239487540282 -0.54141139243938596 0 0 0 0 1.8439980562239846 0.71950458463834366 0 0.71950458463834366 -5.7599721071310341 0 0 0 0 0.31546810642186518 0.06498665755498223 0 0.06498665755498223 -1.5547812706281547 0 0 0 0 0.26560808527185986 0.18070297523178169 0 0.18070297523178169 0.048416575047284027 0 0 0 0 -0.0087551033885667241 -4.151385615736622 0 -4.151385615736622 -14.31066176648892 0 0 0 0 4.5518505965614331 3.2794293790357187 0 3.2794293790357187 -27.481537668747478 0 0 0 0 5.091087503224287 0.8653992312902119 0 0.8653992312902119 -17.381347172980895 0 0 0 0 4.8966856753964052 1.5237498373098788 0 1.5237498373098788 -15.061178510172681 0 0 0 0 1.4988194036272451 -2.371773019862303 0 -2.371773019862303 -14.983518811655813 0 0 0 0 3.2706285025793136 2.383447182157397 0 2.383447182157397 -15.918036727467552 0 0 0 0 5.1446761897502498 1.2458816607631888 0 1.2458816607631888 -17.274172814592021 0 0 0 0 4.468465423346303 6.2392993273334838 0 6.2392993273334838 -9.5729253777004857 0 0 0 0 1.251291633865776 16.073786780991213 0 16.073786780991213 -5.6038643861174933 0 0 0 0 22.282303284874502 4.0663021725686121 0 4.0663021725686121 -17.8138854962599 0 0 0 0 17.738295049676537 -2.0405647388433863 0 -2.0405647388433863 -14.220097990590148 0 0 0 0 12.210697492439976 12.154843079340935 0 12.154843079340935 -22.729735399814672 0 0 0 0 0.0022958153239667559 -0.57789192619384266 0 -0.57789192619384266 -9.8951252428814769 0 0 0 0 0.54464843194891621 10.872202953061787 0 10.872202953061787 -13.146674898227502 0 0 0 0 3.8446280150831673 5.1283492749864763 0 5.1283492749864763 -10.349564462780563 0 0 0 0 -0.42453419806882953 -2.070756676774991 0 -2.070756676774991 -5.7740089358742495 0 0 0 0 -0.43163418255458552 14.17355900091934 0 14.17355900091934 -24.307466546240903 0 0 0 0 0.44447369620607596 1.6079559082458132 0 1.6079559082458132 -2.3155698098953224 0 0 0 0 1.3222475024911395 2.7798048437696536 0 2.7798048437696536 -6.2337956937629997 0 0 0 0 1.2326192006118504 6.7675411774325767 0 6.7675411774325767 -15.622951591169112 0 0 0 0 2.1331827643899715 5.7058655372238718 0 5.7058655372238718 -13.984239851994062 0 0 0 0 2.4163088762919074 7.2449822869239142 0 7.2449822869239142 -18.109432021781686 0 0 0 0 3.1549573513369751 5.3750566831586184 0 5.3750566831586184 -15.902052592668042 0 0 0 0 2.6918721447780625 2.9315404364320159 0 2.9315404364320159 -7.8289193182842496 0 0 0 0 -2.2964703707089029 7.798018444183981 0 7.798018444183981 -13.650909117946867 0 0 0 0 2.9219363730418877 6.2180396268231561 0 6.2180396268231561 -6.9745267412799876 0 0 0 0 2.251950091789757 5.7596278026816776 0 5.7596278026816776 -5.4477615005966982 0 0 0 0 0.16977295939497239 6.3067485649408042 0 6.3067485649408042 -4.4112554754404272 0 0 0 0 2.7092837357033659 4.2609247588261496 0 4.2609247588261496 -8.5729801638517529 0 0 0 0 3.7488308952462219 5.2833066222279115 0 5.2833066222279115 -8.4128448835645315 0 0 0 0 2.9245059647281013 2.0988312512146976 0 2.0988312512146976 -8.5467846075321177 0 0 0 0 4.1934964598293618 5.6188121075683739 0 5.6188121075683739 -8.1658421905558498 0 0 0 0 2.9684677165024596 5.0779052193829557 0 5.0779052193829557 -7.6412577764567686 0 0 0 0 3.0656716254325147 4.8156736891978653 0 4.8156736891978653 -7.4010314633924281 0 0 0 0 2.252450454638359 2.717740085984218 0 2.717740085984218 -5.8708165343680747 0 0 0 0 5.281151778161302 4.9151115418062545 0 4.9151115418062545 8.6847589291428449 0 0 0 0 3.0306471442906115 0.9817303348884252 0 0.9817303348884252 -3.4518031476921607 0 0 0 0 3.3756622948607742 4.8918408159734099 0 4.8918408159734099 -7.9373518656502711 0 0 0 0 2.4707333235630813 16.10849156722179 0 16.10849156722179 -12.405064554564888 0 0 0 0 3.5316882285167139 4.6345308236777782 0 4.6345308236777782 -7.7213846507293056 0 0 0 0 2.5819241914484383 4.7623561508414127 0 4.7623561508414127 -0.72782480401465932 0 0 0 0 -33.631507367510949 18.971799936727621 0 18.971799936727621 -12.373350356021547 0 0 0 0 1.0124418825492709 3.8739038646340589 0 3.8739038646340589 -8.2521196682525044 0 0 0 0 4.5412887085171292 2.9369061392826552 0 2.9369061392826552 -13.147507652829518 0 0 0 0 4.2328478065721811 12.135603686663671 0 12.135603686663671 -10.620053192302294 0 0 0 0 -0.58199854788312821 5.0622432726304449 0 5.0622432726304449 -13.542240115588555 0 0 0 0 5.957380276936874 12.96218685288477 0 12.96218685288477 -11.949717893599882 0 0 0 0 -0.42618491953294324 3.4855054629733786 0 3.4855054629733786 -17.503582926445233 0 0 0 0 0.99162053203986034 4.9643347922610701 0 4.9643347922610701 -9.330753434158396 0 0 0 0 0.96730954531342284 6.5021117627473508 0 6.5021117627473508 -9.5678303508624083 0 0 0 0 1.0213394571462118 3.1061159534201579 0 3.1061159534201579 -7.2697099967626855 0 0 0 0 -0.15205032548669806 7.3150270402911701 0 7.3150270402911701 -15.908489760287921 0 0 0 0 2.452042007234823 3.4047649407537932 0 3.4047649407537932 -11.960192601958482 0 0 0 0 -0.95626009946176449 4.6451356493600429 0 4.6451356493600429 -8.2889970378833198 0 0 0 0 0.92201812956641105 3.7866321593346584 0 3.7866321593346584 -9.5743376002914999 0 0 0 0 1.3595576281936701 5.2796517080460035 0 5.2796517080460035 -13.936888660897239 0 0 0 0 -0.43029984952437417 3.519589959680161 0 3.519589959680161 -19.970976690892712 0 0 0 0 0.66600606319658695 5.1149788662348783 0 5.1149788662348783 -4.7264665310259204 0 0 0 0 1.2183956227139814 0.22289754393251826 0 0.22289754393251826 -4.9265871701163775 0 0 0 0 -3.5482343764015241 7.2005152421697858 0 7.2005152421697858 -3.135503096949833 0 0 0 0 2.1704072225378717 11.579785631200139 0 11.579785631200139 -12.834356769541046 0 0 0 0 -6.8049692280825411 22.389167154040479 0 22.389167154040479 2.110327721471549 0 0 0 0 32.609967654563661 17.01805609389703 0 17.01805609389703 2.368769568442076 0 0 0 0 24.586582313512622 -10.990822078179917 0 -10.990822078179917 0.99966973972914275 0 0 0 0 -10.149879786144538 -10.784686890488956 0 -10.784686890488956 13.689404466698761 0 0 0 0 -2.0520412417131979 13.53910607794387 0 13.53910607794387 18.03056003418169 0 0 0 0 0.62051052092768255 -0.41926751970288478 0 -0.41926751970288478 -0.54102664802876177 0 0 0 0 6.9444837486350792 4.3127537607824706 0 4.3127537607824706 0.40356641680840255 0 0 0 0 -5.8819560071897286 19.30062762030866 0 19.30062762030866 -5.3484775834040192 0 0 0 0 -13.990527141618259 17.304899381415453 0 17.304899381415453 10.823735295853112 0 0 0 0 2.2224640137071674 5.1738053860935906 0 5.1738053860935906 -0.92906296504952479 0 0 0 0 -20.088572029852457 8.265892170733423 0 8.265892170733423 11.888994682696648 0 0 0 0 -1.9440635032258342 5.9528470376098994 0 5.9528470376098994 -1.2234724449954228 0 0 0 0 5.1592783660228463 44.115420699219612 0 44.115420699219612 -77.652374352110201 0 0 0 0 -6.8307176023474767 48.235368978283077 0 48.235368978283077 -98.707081468317483 0 0 0 0 0.013549491049047901 13.276584137849568 0 13.276584137849568 -92.620955735841562 0 0 0 0 -15.23424656429961 38.374600159462716 0 38.374600159462716 -3.803453782282304 0 0 0 0 -0.7091686253019418 4.3189880797181104 0 4.3189880797181104 -19.599634087338927 0 0 0 0 0.39119108613682263 0.21909338599368766 0 0.21909338599368766 -0.403634226558367 0 0 0 0 8.0443143978113767 -12.747585080083809 0 -12.747585080083809 -10.673153930656554 0 0 0 0 30.754243790610644 19.013935249415226 0 19.013935249415226 -31.562946002173703 0 0 0 0 5.554405299447648 2.8474589677637852 0 2.8474589677637852 0.20070108253349872 0 0 0 0 -1.8881632954881433 0.79864770334158663 0 0.79864770334158663 -0.45246267448034416 0 0 0 0 49.604220616970792 -101.90608121329933 0 -101.90608121329933 -452.96973713064654 0 0 0 0 -37.541266616407029 148.12000266303949 0 148.12000266303949 224.4998106085277 0 0 0 0 -13.146224287123914 190.0593568383556 0 190.0593568383556 -347.71839932636067 0 0 0 0 10.834348377948572 13.461823176818143 0 13.461823176818143 -169.10475183330709 0 0 0 0 16.271850023109891 53.600697490766834 0 53.600697490766834 -197.67304818000412 0 0 0 0 -60.164614912411821 -42.756095902390371 0 -42.756095902390371 -166.33511907052161 0 0 0 0 79.164056876812879 86.523656705085159 0 86.523656705085159 71.44600334338611 0 0 0 0 20.479637096731267 118.60374951017729 0 118.60374951017729 165.68660843385442 0 0 0 0 -16.236888405649552 13.043897392777581 0 13.043897392777581 176.43960329149559 0 0 0 0 4.0595198359535516 44.011725149019185 0 44.011725149019185 51.247762593207881 0 0 0 0 -37.294091005771406 31.68929594768997 0 31.68929594768997 25.469110994054063 0 0 0 0 -45.326660405540679 56.210065657760424 0 56.210065657760424 99.342820138699608 0 0 0 0 -36.833641172712305 59.42396023600304 0 59.42396023600304 -24.450569966938929 0 0 0 0 16.573166050591226 9.8054362361253879 0 9.8054362361253879 -41.971055802816409 0 0 0 0 -38.697456582189773 9.8151103574846275 0 9.8151103574846275 -33.657610510766972 0 0 0 0 7.2944617429297978 17.420279934463906 0 17.420279934463906 -41.084238504074165 0 0 0 0 0.22040863819973056 4.3036175095461786 0 4.3036175095461786 -27.76986059007379 0 0 0 0 1.9663402919315445 4.6472305939241778 0 4.6472305939241778 -8.9629915477125905 0 0 0 0 46.704965872022512 44.836006932047894 0 44.836006932047894 -3.6778435484156944 0 0 0 0 4.1797508871856692 1.0612872028859925 0 1.0612872028859925 -8.256180028257404 0 0 0 0 -3.2682526972985215 11.202213379117893 0 11.202213379117893 -11.96155682351673 0 0 0 0 4.5904832324005813 7.5628563763414594 0 7.5628563763414594 -17.304608124812631 0 0 0 0 5.6781019550235214 3.4667339419538621 0 3.4667339419538621 -10.623496891639661 0 0 0 0 2.0208100920429395 4.9800004837774168 0 4.9800004837774168 -20.06445399397154 0 0 0 0 3.0623046240019987 8.4814474916342135 0 8.4814474916342135 -20.735010201099925 0 0 0 0 4.6798881101220928 -0.66600627194598871 0 -0.66600627194598871 -9.1252794049379418 0 0 0 0 -4.2965594188253817 -115.88469983056711 0 -115.88469983056711 -116.2656907047276 0 0 0 0 -8.8486126767484166 124.42320872712298 0 124.42320872712298 -52.88183175476297 0 0 0 0 45.451762196968843 78.989759028929257 0 78.989759028929257 -98.152291361046082 0 0 0 0 3.5071294664157904 160.61715140528759 0 160.61715140528759 34.552539591080858 0 0 0 0 -19.248459911692407 21.680996274676886 0 21.680996274676886 -92.197376860395934 0 0 0 0 1.2086075095547812 15.378072446505499 0 15.378072446505499 -31.644308452006388 0 0 0 0 21.182180338806575 3.7137647706822463 0 3.7137647706822463 -33.151327834576477 0 0 0 0 -2.6888520539220764 0.35745067323475599 0 0.35745067323475599 -21.345993220504017 0 0 0 0 -7.1481579035316827 15.11874888370312 0 15.11874888370312 -40.616146797761758 0 0 0 0 -20.182479575682429 -0.16322723129593442 0 -0.16322723129593442 -14.900764868678756 0 0 0 0 27.676629750836582 -4.018627704535902 0 -4.018627704535902 -25.141010321123758 0 0 0 0 3.605871363207676 19.977829676276116 0 19.977829676276116 -51.506740392961163 0 0 0 0 -10.594988494275768 -0.78856504095562485 0 -0.78856504095562485 -5.7606627303770228 0 0 0 0 -11.169172964362588 1.685450727602074 0 1.685450727602074 -20.078648114495991 0 0 0 0 -47.501561364631925 23.91658365971557 0 23.91658365971557 -40.625969879258264 0 0 0 0 -19.193883833958424 1.9536725273288091 0 1.9536725273288091 -4.3213958968270081 0 0 0 0 -2.0973264180720435 -14.001004181449844 0 -14.001004181449844 -7.4450780624006256 0 0 0 0 -4.2946106709281011 -0.030581267858080352 0 -0.030581267858080352 -2.0137221279328434 0 0 0 0 -4.2351644865757407 35.307299688842249 0 35.307299688842249 -158.01130798307167 0 0 0 0 -21.457814003588283 67.405868514400026 0 67.405868514400026 -125.85132337969389 0 0 0 0 -22.045516022626543 90.436851883634517 0 90.436851883634517 -165.47818286731672 0 0 0 0 -7.4449448050909268 25.519457360575871 0 25.519457360575871 -108.99860434599759 0 0 0 0 -22.977888680950855 -12.59635541949865 0 -12.59635541949865 -213.51194900361043 0 0 0 0 -12.656032697277624 -15.456991252361604 0 -15.456991252361604 -241.77860961623264 0 0 0 0 -2.1110462991794172 -0.85546439843799682 0 -0.85546439843799682 -0.89837781149282847 0 0 0 0 -84.771426806511954 61.388352764450701 0 61.388352764450701 -42.831043588867033 0 0 0 0 -8.1250578046413295 -2.4681914312298048 0 -2.4681914312298048 -2.7143709216049299 0 0 0 0 -11.329055570997298 -1.7028641670440265 0 -1.7028641670440265 -16.711941231515084 0 0 0 0 -6.8306023526492936 -5.0612750854870683 0 -5.0612750854870683 -5.8976943906454835 0 0 0 0 -7.7615077074955465 -1.4262113564171255 0 -1.4262113564171255 -7.5629739271932612 0 0 0 0 -49.5464246810443 -18.509688097871276 0 -18.509688097871276 9.1987248446348531 0 0 0 0 -14.936464612886116 -4.1866757097862397 0 -4.1866757097862397 -2.0947239953301029 0 0 0 0 14.468674563806417 14.310406591270294 0 14.310406591270294 14.35986493577002 0 0 0 0 -15.317588291645734 -3.0533301463542557 0 -3.0533301463542557 6.7076824018367915 0 0 0 0 -2.7974948006503837 -3.1846864254853244 0 -3.1846864254853244 -231.59184955358614 0 0 0 0 -2.5640225586263554 1.332149640832391 0 1.332149640832391 0.86631924267796734 0 0 0 0 19.30287170824522 4.0033189014902746 0 4.0033189014902746 0.081024513441207091 0 0 0 0 34.037355353740281 -88.770419387424425 0 -88.770419387424425 -195.62377752855173 0 0 0 0 1.8365180295981887 -2.2843612111186573 0 -2.2843612111186573 -50.792671643857744 0 0 0 0 30.043138949404238 -9.0538337437610608 0 -9.0538337437610608 -49.473056063467084 0 0 0 0 30.492767094013288 -7.4189605399278662 0 -7.4189605399278662 -46.531319574965892 0 0 0 0 9.6084072696080991 -14.14353985021576 0 -14.14353985021576 -33.000749480655116 0 0 0 0 5.0129198275709967 6.9240901033484192 0 6.9240901033484192 -27.993762625978661 0 0 0 0 10.491367971950694 5.2942300659105967 0 5.2942300659105967 -24.117958459501097 0 0 0 0 20.588941366579093 -10.848403130366933 0 -10.848403130366933 -41.88764815806644 0 0 0 0 1.3221795174198494 2.1896880479782439 0 2.1896880479782439 -31.928434526297323 0 0 0 0 1.6905092742340244 3.3760327504955399 0 3.3760327504955399 -5.1801705938869844 0 0 0 0 31.333898225460871 12.407864127856556 0 12.407864127856556 -0.94435198621431482 0 0 0 0 8.6779097899780027 26.342532406721148 0 26.342532406721148 -39.057676683845784 0 0 0 0 -23.938607913162286 -13.113622961700457 0 -13.113622961700457 -68.319937869877322 0 0 0 0 3.1465430825799103 4.9659398129078909 0 4.9659398129078909 -65.996921293379273 0 0 0 0 5.635415593908812 6.6110306603673976 0 6.6110306603673976 -43.294345739414268 0 0 0 0 11.526304743760932 10.711523661404499 0 10.711523661404499 -83.362750156302354 0 0 0 0 -2.4136148294205668 -6.5252956662880024 0 -6.5252956662880024 -86.205579370362102 0 0 0 0 15.284127617252704 20.254039773126351 0 20.254039773126351 -59.955406276916619 0 0 0 0 16.49535018724157 13.347209628889686 0 13.347209628889686 -100.78173575960682 0 0 0 0 -3.136436462000745 -18.605009951470947 0 -18.605009951470947 -109.23720549274003 0 0 0 0 -2.6619325460533219 44.854709179635393 0 44.854709179635393 -119.89163839621324 0 0 0 0 24.666001111897913 -1.8230463352592778 0 -1.8230463352592778 12.565090286635495 0 0 0 0 5.7414373778804659 0.35312218643230153 0 0.35312218643230153 -47.432928343536332 0 0 0 0 -4.4401832068590465 24.89542206787155 0 24.89542206787155 -72.334138663063641 0 0 0 0 3.8597938634802036 9.3916574002071371 0 9.3916574002071371 -29.821010746363239 0 0 0 0 4.1334744497250204 12.718321723250767 0 12.718321723250767 -39.344245280409915 0 0 0 0 13.034539741307714 2.1853344660487455 0 2.1853344660487455 -46.98234120482536 0 0 0 0 1.8043728007520743 -2.2497772381421699 0 -2.2497772381421699 -0.44833417662084685 0 0 0 0 3.788203295201356 1.5627730581036303 0 1.5627730581036303 -47.062492617333191 0 0 0 0 4.2079543847479499 18.828142627549823 0 18.828142627549823 -69.459580645925598 0 0 0 0 9.8914484850683237 8.3276330945791841 0 8.3276330945791841 -24.214231909515917 0 0 0 0 0.41474151331424242 -0.3082661684783119 0 -0.3082661684783119 -6.4301240530343904 0 0 0 0 -61.440054439141136 -48.410216068354202 0 -48.410216068354202 -45.160095799721603 0 0 0 0 3.5125836136286477 -3.8433875473718331 0 -3.8433875473718331 -17.923520181953222 0 0 0 0 -2.3712349228752228 3.5355504043095749 0 3.5355504043095749 -35.143921574783896 0 0 0 0 -8.1388569786540756 4.1340719052459463 0 4.1340719052459463 -23.71222905147448 0 0 0 0 3.2853991423962228 18.525644587801992 0 18.525644587801992 -88.94288024258951 0 0 0 0 22.671887434102246 -0.58453830974031007 0 -0.58453830974031007 -24.872414837169345 0 0 0 0 3.2874131882526854 7.1634188847674523 0 7.1634188847674523 -73.624960909954098 0 0 0 0 3.0996815063649592 5.6651209676874714 0 5.6651209676874714 -49.769083356783085 0 0 0 0 7.6499486673443906 3.328408779949477 0 3.328408779949477 -22.597675069257079 0 0 0 0 1.8868988822302537 8.2411270808299051 0 8.2411270808299051 -31.003564261048602 0 0 0 0 4.2321501357590687 7.4196400678423444 0 7.4196400678423444 -34.57194079797776 0 0 0 0 6.3777085640076621 -0.75237358771119034 0 -0.75237358771119034 -11.67284391740759 0 0 0 0 23.993987989197649 -25.900744192731509 0 -25.900744192731509 -68.546181574874936 0 0 0 0 53.835135935529252 -8.1489260210364591 0 -8.1489260210364591 -60.313296843363787 0 0 0 0 27.900642933970403 -36.592372328489546 0 -36.592372328489546 -67.966046453700983 0 0 0 0 5.151843735612367 18.977503846755297 0 18.977503846755297 -70.18248461028044 0 0 0 0 73.647522413534034 -39.488818325799002 0 -39.488818325799002 -37.600705818749702 0 0 0 0 106.60855453005775 31.215117044823273 0 31.215117044823273 -125.75977769209385 0 0 0 0 14.395701519477395 -3.9487893388407009 0 -3.9487893388407009 -46.761253783387232 0 0 0 0 28.709598454794445 -19.699069280002732 0 -19.699069280002732 -111.14391021705524 0 0 0 0 60.14139494158951 -32.825398084025437 0 -32.825398084025437 -159.6159360773454 0 0 0 0 52.118436248044873 136.43467836224409 0 136.43467836224409 -429.94774694860098 0 0 0 0 0.69479003151703256 7.2007284271681229 0 7.2007284271681229 -64.152494043948465 0 0 0 0 -70.207991774416143 -90.342844777027494 0 -90.342844777027494 -117.04737293714425 0 0 0 0 2.212094844440748 0.49230907856190242 0 0.49230907856190242 -4.5174116928707662 0 0 0 0 -27.462368559011338 -85.05826188730498 0 -85.05826188730498 -186.54171116099315 0 0 0 0 50.918011715349621 9.4227393468063383 0 9.4227393468063383 -313.24315970608586 0 0 0 0 31.579026086095382 -46.627957822398457 0 -46.627957822398457 45.05123007482689 0 0 0 0 -384.74483223137122 199.58643725289585 0 199.58643725289585 286.63633757320349 0 0 0 0 -52.303618248326075 158.14860464478261 0 158.14860464478261 -260.70600244726666 0 0 0 0 -34.032170275937688 85.970151029514454 0 85.970151029514454 19.994152855353605 0 0 0 0 3.7172968409022209 7.404189882133057 0 7.404189882133057 -37.54702515029895 0 0 0 0 16.533095176689244 60.99587660321049 0 60.99587660321049 25.482526879054603 0 0 0 0 -26.047060608755771 -17.148321356822635 0 -17.148321356822635 -28.036434165231185 0 0 0 0 21.007621489122357 22.231514905046424 0 22.231514905046424 -27.881929376984772 0 0 0 0 39.779031165244305 -44.235680347022026 0 -44.235680347022026 -41.715398476489781 0 0 0 0 15.199409835370918 17.979217865799072 0 17.979217865799072 -54.828457164540659 0 0 0 0 -68.80295688323713 65.178833723127696 0 65.178833723127696 -80.314134262728658 0 0 0 0 9.6180552606266794 5.3741182321997485 0 5.3741182321997485 -30.931866686951587 0 0 0 0 31.328827214023477 38.851335909623231 0 38.851335909623231 -60.16449440040742 0 0 0 0 -26.715210830574506 34.36711631537537 0 34.36711631537537 -68.070199212398165 0 0 0 0 -55.128960818035921 31.311200388545718 0 31.311200388545718 -60.398897334411444 0 0 0 0 -51.096714420575154 63.174279674393979 0 63.174279674393979 -90.877193501766357 0 0 0 0 -65.976776461302507 80.530546152228908 0 80.530546152228908 -78.737035911832209 0 0 0 0 23.307091455095549 1.6081942283208264 0 1.6081942283208264 -56.792973565012375 0 0 0 0 -63.697188761121652 71.405829212166282 0 71.405829212166282 -64.920987934763843 0 0 0 0 -44.415824876792612 49.933526754562578 0 49.933526754562578 -69.50777952964151 0 0 0 0 -64.682356264735063 40.273084697956449 0 40.273084697956449 -40.973179159366737 0 0 0 0 -99.440148510915606 45.473098965975623 0 45.473098965975623 -10.374039072932533 0 0 0 0 -16.190432233182946 -32.866195029826486 0 -32.866195029826486 16.576639360340778 0 0 0 0 -35.661269178897783 -1.9332481015998155 0 -1.9332481015998155 -15.456037988828456 0 0 0 0 -0.37714793914833988 2.4567273465451365 0 2.4567273465451365 -12.041360761680544 0 0 0 0 -31.065157475434489 -16.245296569354025 0 -16.245296569354025 0.47518746534296952 0 0 0 0 -10.450350601164246 2.2586831497342246 0 2.2586831497342246 -24.708494582257117 0 0 0 0 -3.6034234436751831 9.8339955916521049 0 9.8339955916521049 -42.200703399508825 0 0 0 0 0.32124472926587799 0.10624463916555671 0 0.10624463916555671 -23.059687200233135 0 0 0 0 -25.944036373053677 15.405107819861541 0 15.405107819861541 -19.962280239935325 0 0 0 0 -23.899036810169491 0.87387475732271014 0 0.87387475732271014 -28.689188974475201 0 0 0 0 -21.97787763096494 14.448040810644272 0 14.448040810644272 -51.67628239526573 0 0 0 0 -3.8901106434213943 -6.5115352221637295 0 -6.5115352221637295 -12.942447372490392 0 0 0 0 -0.72807172509602225 -8.4646868427036512 0 -8.4646868427036512 -3.9887362599264553 0 0 0 0 -0.46881075508792058 -3.3756370055789695 0 -3.3756370055789695 -12.523360320972127 0 0 0 0 29.974208734163767 -39.000631819664704 0 -39.000631819664704 -13.719380682841802 0 0 0 0 0.50410441030854258 -2.4613782646330198 0 -2.4613782646330198 -4.4640153322257925 0 0 0 0 -3.3349711044556898 -2.4118436073083558 0 -2.4118436073083558 -46.903250751704036 0 0 0 0 -3.6870554196757439 -3.2878672575488963 0 -3.2878672575488963 -37.615401435141393 0 0 0 0 -11.385426495231513 -6.800959513529051 0 -6.800959513529051 -26.911007189968871 0 0 0 0 0.45373207526905901 -3.6442837351337936 0 -3.6442837351337936 -25.619002689326727 0 0 0 0 -8.3184585589879134 -2.0495113770557509 0 -2.0495113770557509 -40.86839394405979 0 0 0 0 2.0209875603685958 -0.44038731118604435 0 -0.44038731118604435 -6.4455714198358418 0 0 0 0 -4.0638841293402947 0.86402571893086133 0 0.86402571893086133 -43.686101259483621 0 0 0 0 -3.6311974514474059 1.4371445275737642 0 1.4371445275737642 -49.132250645132444 0 0 0 0 -2.5684379243230069 -2.161160444376037 0 -2.161160444376037 -49.921769582844718 0 0 0 0 -2.7189339338001446 2.8371725401993899 0 2.8371725401993899 -55.290275523556602 0 0 0 0 -5.4271259669740175 2.5382842769836316 0 2.5382842769836316 -44.015651450430596 0 0 0 0 -1.0363292837046174 1.0628375447568033 0 1.0628375447568033 -46.561386387202447 0 0 0 0 -10.324386099191543 4.6751106906604036 0 4.6751106906604036 -47.404845572700651 0 0 0 0 -6.62499509875488 -5.5740984177273276 0 -5.5740984177273276 -45.87509892362641 0 0 0 0 -2.0443479532729825 -1.2080188588567644 0 -1.2080188588567644 -9.0585579754972123 0 0 0 0 -4.7564277844714979 0.96679049440388098 0 0.96679049440388098 -42.814483644964639 0 0 0 0 -1.0870114373792603 7.3354884428918012 0 7.3354884428918012 -57.255734481973377 0 0 0 0 3.027885630592678 -6.7979478409593694 0 -6.7979478409593694 -17.209544386948163 0 0 0 0 -4.8721150707814616 -1.7625699113215845 0 -1.7625699113215845 -10.029494182263738 0 0 0 0 -6.4771905222933128 6.2836770686103591 0 6.2836770686103591 -46.771246554353638 0 0 0 0 4.1016462816551211 0.41007004348739429 0 0.41007004348739429 -58.900644170503256 0 0 0 0 -5.4307274795792182 3.2729855139232313 0 3.2729855139232313 -42.491569755951332 0 0 0 0 -1.0806909689214805 -6.4472650954869657 0 -6.4472650954869657 -12.494298971185756 0 0 0 0 -7.2339402685684036 -5.0596117903819504 0 -5.0596117903819504 -20.239271570485471 0 0 0 0 -6.0425710447771053 -3.156495254577294 0 -3.156495254577294 -15.821739176268238 0 0 0 0 -0.2408780310270231 8.2583616518277267 0 8.2583616518277267 -45.161687574526695 0 0 0 0 4.257222518010817 -3.9322471227898657 0 -3.9322471227898657 -19.689527316930075 0 0 0 0 0.23473741235039824 -5.4863743947114623 0 -5.4863743947114623 -14.928861425306001 0 0 0 0 -1.7237971816575737 1.0431108968841727 0 1.0431108968841727 -27.628395268144232 0 0 0 0 -2.6238608354051394 -3.8229724010907375 0 -3.8229724010907375 -23.342290002839036 0 0 0 0 2.432588336075689 -7.0761374567335338 0 -7.0761374567335338 -14.572249425302115 0 0 0 0 -7.234206797902516 4.3304511671722139 0 4.3304511671722139 -18.740020425891998 0 0 0 0 -7.9246213719360341 4.2838028591160136 0 4.2838028591160136 -9.6679333008061956 0 0 0 0 -3.5918881476177305 -5.6542502895415225 0 -5.6542502895415225 -11.374803225923378 0 0 0 0 -63.976592075821827 -5.4089490324367944 0 -5.4089490324367944 30.255713095278679 0 0 0 0 -30.319808028696571 0.11453031476639808 0 0.11453031476639808 -12.894306248834255 0 0 0 0 -3.9412533855029324 -1.1463789172654515 0 -1.1463789172654515 -29.656364454272421 0 0 0 0 -6.1704201494606288 -2.2167029316422138 0 -2.2167029316422138 -10.95670379216938 0 0 0 0 1.6090389311502804 -3.4641261834085526 0 -3.4641261834085526 -12.655210228760097 0 0 0 0 -0.35679590021307561 -0.10576064122749429 0 -0.10576064122749429 -21.425791470464432 0 0 0 0 -13.193486033036606 -7.6739029343916627 0 -7.6739029343916627 -33.785481125432852 0 0 0 0 0.025092015456123384 11.376422733254785 0 11.376422733254785 -45.25426009008325 0 0 0 0 34.522270320804978 52.722483818502226 0 52.722483818502226 63.673116289626705 0 0 0 0 -3.1667895770060568 -5.2403255391204766 0 -5.2403255391204766 -37.170264254719314 0 0 0 0 2.3884902905920171 -6.6488488117345241 0 -6.6488488117345241 -15.255949305978902 0 0 0 0 -89.016636750318867 -76.133611991316684 0 -76.133611991316684 -212.42958175554668 0 0 0 0 -2.17161251037545 -5.3817696249703992 0 -5.3817696249703992 -24.912700482962499 0 0 0 0 -2.8368347982944715 -4.6321653569125729 0 -4.6321653569125729 -17.282868485542885 0 0 0 0 -87.771211416928054 -17.14418345002332 0 -17.14418345002332 30.596005456116472 0 0 0 0 -1.04471363345165 0.45222708037807102 0 0.45222708037807102 -0.39795610875276388 0 0 0 0 -55.424720476008588 -42.061943477930527 0 -42.061943477930527 -36.58331540110612 0 0 0 0 133.31046781385521 -28.143578738312499 0 -28.143578738312499 -350.91649444579298 0 0 0 0 -4.2561348126619123 11.8215000528171 0 11.8215000528171 4.7139961163120461 0 0 0 0 -33.468324490308078 44.005029240547401 0 44.005029240547401 -52.027009113618988 0 0 0 0 -5.4762431729528416 -10.492284332688229 0 -10.492284332688229 -14.412637867349771 0 0 0 0 12.870388150611689 -35.066501335933026 0 -35.066501335933026 -16.805935918055184 0 0 0 0 -46.090889518673066 18.06904507710351 0 18.06904507710351 -23.036201327707204 0 0 0 0 -3.9774852318263445 -7.9394403491992556 0 -7.9394403491992556 -15.607056535286308 0 0 0 0 1.4485525647469331 164.53904213941132 0 164.53904213941132 62.160221064437792 0 0 0 0 0.73882314682559524 -2.0822655569444875 0 -2.0822655569444875 -12.344144409123867 0 0 0 0 0.89129401068930747 -5.1490677783094725 0 -5.1490677783094725 -29.248043472638528 0 0 0 0 -1.4125755272595519 0.1489165622656996 0 0.1489165622656996 -19.773056968882329 0 0 0 0 -3.9562815232722883 -11.165798561134583 0 -11.165798561134583 -33.486821752901477 0 0 0 0 -1.9645108147756893 -3.8395382337134922 0 -3.8395382337134922 -18.131943588402333 0 0 0 0 -5.3172468435973315 -4.6572818248375825 0 -4.6572818248375825 -17.951675733122102 0 0 0 0 0.71425552127232095 -4.4811785960271777 0 -4.4811785960271777 -25.389963111600082 0 0 0 0 -1.8599170909532852 -8.1204612026195733 0 -8.1204612026195733 -24.100889426639515 0 0 0 0 -2.0153056882307965 -3.1626702891460923 0 -3.1626702891460923 -16.003522221573803 0 0 0 0 -2.93691101188098 -2.1729664305091809 0 -2.1729664305091809 -18.466305723204798 0 0 0 0 -3.2961844894889509 -2.4593442685309128 0 -2.4593442685309128 -16.322276900486031 0 0 0 0 -7.0932980295978272 -6.1380672865280594 0 -6.1380672865280594 -10.533967193651886 0 0 0 0 -0.39722983633951969 -6.2264746799349959 0 -6.2264746799349959 -17.09081455883338 0 0 0 0 -0.98596392814594935 -2.8662417758920427 0 -2.8662417758920427 -21.597801981570399 0 0 0 0 -0.65519698834907558 -3.5393978117954816 0 -3.5393978117954816 -13.970135252224281 0 0 0 0 -3.7942437891324516 -7.1838949648299604 0 -7.1838949648299604 -29.26926771597573 0 0 0 0 -3.5296559330836041 -7.3959817351490855 0 -7.3959817351490855 -17.857700532208938 0 0 0 0 -3.5344978644207004 -9.5291401540234801 0 -9.5291401540234801 -32.192059370039715 0 0 0 0 -5.4728549482388189 -9.3932529052108293 0 -9.3932529052108293 -27.79918837110381 0 0 0 0 1.5100131306389812 -5.7682513566214766 0 -5.7682513566214766 -9.859864148984343 0 0 0 0 -4.2979128141709992 -6.7744674038572628 0 -6.7744674038572628 -19.694831629776587 0 0 0 0 -8.366962960226374 -6.2999462249854332 0 -6.2999462249854332 -34.480393336287307 0 0 0 0 -3.3613759451545775 -9.2433507562964223 0 -9.2433507562964223 -51.160812447306853 0 0 0 0 -0.078118726924756743 0.63983520136449989 0 0.63983520136449989 -0.62040898148289791 0 0 0 0 -8.4118495356669882 -13.315944444169872 0 -13.315944444169872 -40.175320711507084 0 0 0 0 -16.345387083907553 -13.018701672535826 0 -13.018701672535826 -14.449416988187295 0 0 0 0 -2.9833568509711768 -6.6625989849999314 0 -6.6625989849999314 -40.401424391864566 0 0 0 0 -9.84915511509098 -13.105069899199407 0 -13.105069899199407 -30.326800894930784 0 0 0 0 -8.4657999073097017 -12.916728243224497 0 -12.916728243224497 -31.710229680324119 0 0 0 0 -8.472824084750755 -9.4047132655668975 0 -9.4047132655668975 -25.988401848360013 0 0 0 0 -5.6563002249005763 -4.1038284395192761 0 -4.1038284395192761 -15.73627369527231 0 0 0 0 -9.4962122826727864 -10.334136458304783 0 -10.334136458304783 -25.896100077497977 0 0 0 0 -6.0297804407164222 -17.556207969566458 0 -17.556207969566458 -28.187836473101925 0 0 0 0 -2.0187741853442276 -0.79140925078172586 0 -0.79140925078172586 -38.55203911481658 0 0 0 0 6.005633436707285 -6.6922017715332913 0 -6.6922017715332913 -36.129335592268035 0 0 0 0 -3.7472443252529115 -1.9999396207281439 0 -1.9999396207281439 -18.60636887279815 0 0 0 0 -6.4160263691898471 -2.4596345978784946 0 -2.4596345978784946 -13.747996255838579 0 0 0 0 -3.4921808711314952 -2.2019080219388343 0 -2.2019080219388343 -13.244699031725759 0 0 0 0 -0.81880690616526408 -3.2233710465188778 0 -3.2233710465188778 -11.077519803735413 0 0 0 0 -7.0741747644606221 -10.569047697281576 0 -10.569047697281576 -27.848401455235944 0 0 0 0 -10.615253069116079 -5.2541736747616596 0 -5.2541736747616596 -25.357916803341709 0 0 0 0 -11.068278567197922 -13.937267974738916 0 -13.937267974738916 -17.670470286865111 0 0 0 0 -2.709088242299913 -7.8606605085711863 0 -7.8606605085711863 -15.356335228573698 0 0 0 0 -4.182439498084527 -6.1165521084695484 0 -6.1165521084695484 -19.779402292331561 0 0 0 0 -17.046949950137787 -12.046039837739954 0 -12.046039837739954 -30.16819462831495 0 0 0 0 -7.5925601515768903 -5.8542119911362533 0 -5.8542119911362533 -17.99307507688718 0 0 0 0 0.29821654619028237 -1.2879833471975441 0 -1.2879833471975441 -6.6323716906090606 0 0 0 0 -12.838007562136681 8.4116741399384409 0 8.4116741399384409 -24.878417326794079 0 0 0 0 -7.8048405861881243 0.30204224456355178 0 0.30204224456355178 -3.2839795278289605 0 0 0 0 -0.36124340550168199 -1.7885516905607801 0 -1.7885516905607801 -18.225911244782765 0 0 0 0 -2.763528633831811 -1.8956655558858984 0 -1.8956655558858984 -25.459555758476199 0 0 0 0 -3.0650787832461077 -0.18886900905842552 0 -0.18886900905842552 -14.52432618760742 0 0 0 0 -2.8555407233701686 -2.0553476257116099 0 -2.0553476257116099 -12.405505581057781 0 0 0 0 -4.0801423117991362 -1.3636820530773548 0 -1.3636820530773548 -22.883510418049354 0 0 0 0 -4.7928185889395536 3.3408351690663949 0 3.3408351690663949 -23.621499912642321 0 0 0 0 2.43061463521882 -5.504284138932892 0 -5.504284138932892 -16.902894369550072 0 0 0 0 -7.2247772808455153 -5.1148837822346778 0 -5.1148837822346778 -10.930154300618362 0 0 0 0 -15.458457939697837 -15.737528475328872 0 -15.737528475328872 -40.249421272201289 0 0 0 0 -4.9186542792012915 -1.75394390434667 0 -1.75394390434667 -20.905996285091533 0 0 0 0 -3.6987149370400445 -4.0496488316007149 0 -4.0496488316007149 -11.818946928124149 0 0 0 0 -5.097699023948735 -16.035819702125082 0 -16.035819702125082 -48.982069120771484 0 0 0 0 -10.0822169093517 -4.5234632112769759 0 -4.5234632112769759 -42.533573527722183 0 0 0 0 -30.679289501596941 -52.316504115442513 0 -52.316504115442513 -62.063227880692466 0 0 0 0 -15.415572893936769 2.5245669901923975 0 2.5245669901923975 -65.562578880650108 0 0 0 0 -10.253408629971091 -6.0125915230182727 0 -6.0125915230182727 -51.479850835778052 0 0 0 0 -16.255417004718765 -5.6712233715843468 0 -5.6712233715843468 -34.95776511697477 0 0 0 0 -26.465532418838848 2.6878591586646507 0 2.6878591586646507 -44.718675434342003 0 0 0 0 -25.494472976446559 0.23784398660791339 0 0.23784398660791339 -38.614277615641186 0 0 0 0 -1.9899497764927219 -5.2532811151577334 0 -5.2532811151577334 -45.502832227313775 0 0 0 0 -7.0946282140012045 -9.2959024286228669 0 -9.2959024286228669 -19.951124666826217 0 0 0 0 -16.742361174945472 -4.1372010001996387 0 -4.1372010001996387 -13.527193576792342 0 0 0 0 -19.28569618740039 1.3047606010350137 0 1.3047606010350137 -19.766662488047587 0 0 0 0 -11.170505239102567 -1.4050013002633932 0 -1.4050013002633932 -34.326082779851276 0 0 0 0 -9.5673829378865776 -12.136452430924692 0 -12.136452430924692 -46.260235548572382 0 0 0 0 -28.088966985640354 -16.011858247781674 0 -16.011858247781674 -40.730568567156297 0 0 0 0 -26.909791228467839 -16.48678285203232 0 -16.48678285203232 -85.253144697111566 0 0 0 0 -1.7853154123044934 0.16380322791525437 0 0.16380322791525437 0.85787379766443905 0 0 0 0 -8.9063901878105192 1.6979437306751635 0 1.6979437306751635 -1.851190513178814 0 0 0 0 0.38005001893179724 -27.014641522931925 0 -27.014641522931925 -55.31929211933857 0 0 0 0 -10.484697798326124 1.2306180978848715 0 1.2306180978848715 -10.223023028562238 0 0 0 0 -23.560298277155198 -17.655548212323993 0 -17.655548212323993 -44.874524524548178 0 0 0 0 8.9545200135314644 5.7386947729123676 0 5.7386947729123676 -31.56587231532103 0 0 0 0 16.910583777035299 -30.286732900596348 0 -30.286732900596348 -45.586728586389654 0 0 0 0 -6.3916195674103768 1.3804021536317421 0 1.3804021536317421 -2.936172064257125 0 0 0 0 -9.9901090411603946 9.0443085833958321 0 9.0443085833958321 -15.193678042767715 0 0 0 0 -51.346054476255631 -20.040790823200041 0 -20.040790823200041 109.48337653276849 0 0 0 0 18.023658376077037 28.941090228528083 0 28.941090228528083 14.669846356793187 0 0 0 0 23.79335403584264 24.735654954874917 0 24.735654954874917 -433.08867352517336 0 0 0 0 -57.957433910129325 231.33038032521625 0 231.33038032521625 -428.43804813847237 0 0 0 0 -103.52026983336373 -157.5064474910032 0 -157.5064474910032 -35.530911209093574 0 0 0 0 -13.451290781897114 -11.551009227274335 0 -11.551009227274335 -13.210056456333405 0 0 0 0 -2.5318925441537647 -6.0143342229263332 0 -6.0143342229263332 -17.030846141521238 0 0 0 0 -4.0850780582083885 -5.6527416852424484 0 -5.6527416852424484 -14.857209179878197 0 0 0 0 63.096196040399263 -66.911319227178865 0 -66.911319227178865 -19.934583597561868 0 0 0 0 -1.9117451318812924 2.1336414459387871 0 2.1336414459387871 -12.428878427831897 0 0 0 0 -15.600698134190679 -0.12441822421806137 0 -0.12441822421806137 -20.500264186877757 0 0 0 0 -26.5850222991603 -4.6610096261338185 0 -4.6610096261338185 -12.079005916968526 0 0 0 0 -20.954028380059754 -7.3751737260236041 0 -7.3751737260236041 -14.287638009660441 0 0 0 0 -0.98804124921025505 -31.247207826860631 0 -31.247207826860631 0.45625071620634117 0 0 0 0 -20.574235119275727 -6.6862306111652288 0 -6.6862306111652288 -14.755966980332687 0 0 0 0 -2.3922379340721429 -5.9256852425425173 0 -5.9256852425425173 -15.001180199723443 0 0 0 0 3.4995835185573014 -6.2620743054599188 0 -6.2620743054599188 -15.640229445209116 0 0 0 0 -3.0941378516054101 1.9572028840696021 0 1.9572028840696021 -13.673896193488872 0 0 0 0 -2.6763255803958366 -3.6791564919767579 0 -3.6791564919767579 -11.42093806509304 0 0 0 0 -2.1141671095356713 -4.7769580649738153 0 -4.7769580649738153 -14.01273288863413 0 0 0 0 -43.245971255096265 -19.834044714918178 0 -19.834044714918178 4.8011767432409442 0 0 0 0 -1.1626451391716532 0.55943586423469149 0 0.55943586423469149 -7.9374735389862119 0 0 0 0 -4.2671407838588493 -2.9362982538291362 0 -2.9362982538291362 -14.892718624740723 0 0 0 0 -6.1036703241447867 -9.6061141088182467 0 -9.6061141088182467 -27.990452540798287 0 0 0 0 -0.39022844319259065 -2.4332037233827908 0 -2.4332037233827908 -12.344766488608379 0 0 0 0 -7.6060077484580688 -25.14178167032432 0 -25.14178167032432 -16.998066539026468 0 0 0 0 -5.8642662001111603 -3.1394709650899131 0 -3.1394709650899131 -14.758856447685901 0 0 0 0 -9.0907663274583683 -6.993891954150854 0 -6.993891954150854 -27.116608293351646 0 0 0 0 -3.388080584762065 -4.6377699978147575 0 -4.6377699978147575 -28.308245111622 0 0 0 0 -10.375963789620073 -3.3666057228560931 0 -3.3666057228560931 -19.529344071455625 0 0 0 0 -3.5309688503821235 -4.5097336280412037 0 -4.5097336280412037 -26.37656698597948 0 0 0 0 -3.0546756757576077 -4.2309578881609013 0 -4.2309578881609013 -29.979990170653565 0 0 0 0 -5.4953613817543179 -9.8015490789476356 0 -9.8015490789476356 -13.16684345011647 0 0 0 0 1.5003453365125097 17.43257594449733 0 17.43257594449733 -6.7515534234435108 0 0 0 0 -48.745951025975955 -16.903917341805936 0 -16.903917341805936 27.652682870859735 0 0 0 0 -44.298480788005691 -8.4291339847404743 0 -8.4291339847404743 -20.095718351766664 0 0 0 0 -67.445759190955869 26.440171220297998 0 26.440171220297998 -43.52910116588555 0 0 0 0 -9.1021461878044647 -26.082052782195206 0 -26.082052782195206 -225.34287281688057 0 0 0 0 -19.453443604915265 -34.254522333274736 0 -34.254522333274736 -121.50533649270074 0 0 0 0 -27.181419563079544 -8.3988933529280985 0 -8.3988933529280985 -116.14101408663009 0 0 0 0 -39.396559888504271 32.778791101667593 0 32.778791101667593 -233.08910464424457 0 0 0 0 -103.81579424840493 -22.477146299640026 0 -22.477146299640026 -118.71913590273834 0 0 0 0 3.1546074500802206 -52.517947761888081 0 -52.517947761888081 -42.413649171385259 0 0 0 0 -53.630373960739234 -34.949314133531061 0 -34.949314133531061 -84.759551669285429 0 0 0 0 -11.539606492358871 30.251258538049569 0 30.251258538049569 -121.13719412943647 0 0 0 0 6.2414243528946827 3.1383150964165907 0 3.1383150964165907 -93.389384410621915 0 0 0 0 15.924644243075818 13.204541928496837 0 13.204541928496837 -52.943746683735299 0 0 0 0 -11.885189028246259 -2.7964053023897577 0 -2.7964053023897577 -67.483977436981149 0 0 0 0 5.2996110321829226 -5.3360550364335602 0 -5.3360550364335602 -47.777252548259526 0 0 0 0 -11.676942145958151 3.8621814955795344 0 3.8621814955795344 -53.245528792293044 0 0 0 0 21.892544755415656 -15.2481919050133 0 -15.2481919050133 -54.756485376878118 0 0 0 0 -2.1180621449566388 -1.5403819353468862 0 -1.5403819353468862 -34.753093355617239 0 0 0 0 0.02493482855018847 3.0454508624273213 0 3.0454508624273213 -38.977136014961189 0 0 0 0 -107.66247938170454 -54.629673231791912 0 -54.629673231791912 28.782781614389023 0 0 0 0 69.993676667972977 63.904280190713052 0 63.904280190713052 -45.127521914935869 0 0 0 0 1.3669494891448508 2.5414424877772959 0 2.5414424877772959 -33.625119818347706 0 0 0 0 -5.648745815276925 -8.4370653563219093 0 -8.4370653563219093 -34.510261104749588 0 0 0 0 14.109967664834585 -3.8664284783044423 0 -3.8664284783044423 -36.076800767994428 0 0 0 0 -2.1150901179714463 1.5656755249168484 0 1.5656755249168484 -28.443160985030644 0 0 0 0 6.8636355181320852 -6.4576099726621514 0 -6.4576099726621514 -38.517250232045342 0 0 0 0 11.87814603766742 -8.909529465057858 0 -8.909529465057858 -42.921833587293804 0 0 0 0 -5.4951075184662841 -2.8075636519884029 0 -2.8075636519884029 -38.969392595696263 0 0 0 0 2.0813745237133698 -8.0006766647264946 0 -8.0006766647264946 -38.221477612707623 0 0 0 0 -0.91743220394582536 -9.2839200319625323 0 -9.2839200319625323 -26.259230271539899 0 0 0 0 -4.3133665876562191 -25.786023531027553 0 -25.786023531027553 -36.102072101321482 0 0 0 0 4.1379525221063886 -0.69804100213332276 0 -0.69804100213332276 -43.728647597286908 0 0 0 0 19.928597005116899 -39.212660549034638 0 -39.212660549034638 -34.564674888633135 0 0 0 0 -35.135216594786471 -23.542302240303179 0 -23.542302240303179 -17.040477854216707 0 0 0 0 -0.067021209273605109 -56.398545840542027 0 -56.398545840542027 -7.7220349885987325 0 0 0 0 0.39817136528836272 -68.14240602842159 0 -68.14240602842159 20.85487291529401 0 0 0 0 -28.861227057173892 -45.97823805728185 0 -45.97823805728185 -3.9181733533273047 0 0 0 0 3.8294088792899856 -1.6922833347780397 0 -1.6922833347780397 -44.486255068139144 0 0 0 0 55.975688217822608 -56.965035364471092 0 -56.965035364471092 -29.311369545889903 0 0 0 0 46.697671788540902 -6.443886577037798 0 -6.443886577037798 -54.970991173616341 0 0 0 0 5.3947826659512339 -9.4049046941061221 0 -9.4049046941061221 -38.191015353263957 0 0 0 0 7.092677034237699 -9.5216732847740033 0 -9.5216732847740033 -25.772498792347431 0 0 0 0 18.671592134397088 -8.5351663331712189 0 -8.5351663331712189 -62.853916133379244 0 0 0 0 18.136013429519711 -15.336053979587222 0 -15.336053979587222 -41.291789311497055 0 0 0 0 33.726545339419772 11.583664353356653 0 11.583664353356653 -46.416500548439217 0 0 0 0 19.40454647081333 -6.3384964539018256 0 -6.3384964539018256 -62.488585250037431 0 0 0 0 8.5444893477689163 3.8113502518770552 0 3.8113502518770552 -42.690481235149775 0 0 0 0 4.7953741742768434 -1.6879510295786311 0 -1.6879510295786311 -50.448429169910582 0 0 0 0 41.01647856752561 -14.008872640108166 0 -14.008872640108166 -74.938800978054132 0 0 0 0 5.0783381923979505 -6.4047800843072764 0 -6.4047800843072764 -76.541664864402264 0 0 0 0 14.905450886466038 1.074683613537097 0 1.074683613537097 -76.246230705128085 0 0 0 0 31.55344356755802 -11.641096584204206 0 -11.641096584204206 -52.602446589880856 0 0 0 0 6.1658639584640458 -8.3003433504398103 0 -8.3003433504398103 -51.851661600223665 0 0 0 0 1.8216757368030123 2.8667380398904072 0 2.8667380398904072 -17.773847205161438 0 0 0 0 25.033967906751059 -9.8642599431077542 0 -9.8642599431077542 -101.94346075921931 0 0 0 0 -12.29923160515682 -17.182773941782216 0 -17.182773941782216 -59.349353412646451 0 0 0 0 0.52744177911444723 0.35852956026120353 0 0.35852956026120353 1.0116062722922869 0 0 0 0 33.499209991376119 -48.634983076713979 0 -48.634983076713979 -52.31014826529281 0 0 0 0 35.75656779490464 -45.566475509056545 0 -45.566475509056545 -53.984980947025178 0 0 0 0 18.767794684018554 -27.912246549220072 0 -27.912246549220072 -48.961599193975417 0 0 0 0 43.760216593175301 -32.985983087374734 0 -32.985983087374734 -60.750350487272954 0 0 0 0 51.316455144347486 -20.230435837030882 0 -20.230435837030882 -47.237404900697584 0 0 0 0 59.408771133901951 -59.872453835149827 0 -59.872453835149827 -43.417537230277958 0 0 0 0 98.19388476497943 -20.969748023890133 0 -20.969748023890133 -57.869104971694469 0 0 0 0 1.4473187937489072 2.0661977681949608 0 2.0661977681949608 -41.461856131432597 0 0 0 0 43.738537923799868 8.1824537472821248 0 8.1824537472821248 -51.568660527598695 0 0 0 0 -3.6107689966561338 -3.582828895712737 0 -3.582828895712737 -46.532270017899464 0 0 0 0 12.645896819841937 17.551798546992359 0 17.551798546992359 -44.583083110963344 0 0 0 0 1.1694490330567078 2.8341055142218465 0 2.8341055142218465 -34.307588142924942 0 0 0 0 -4.4333639761844097 13.088417244387529 0 13.088417244387529 -41.835788093861083 0 0 0 0 1.9411545990897139 -27.004934912121826 0 -27.004934912121826 -26.310067149504903 0 0 0 0 -251.87470452913385 292.6786423385347 0 292.6786423385347 -232.67814305435604 0 0 0 0 14.208338475915298 -49.8526982581825 0 -49.8526982581825 -13.625907349065528 0 0 0 0 46.419667376905636 -48.379398967021189 0 -48.379398967021189 -88.935497700280393 0 0 0 0 14.513662955403561 -21.107272844543331 0 -21.107272844543331 -64.249359137178544 0 0 0 0 17.184525231343287 -33.550789991772035 0 -33.550789991772035 -73.944114090340008 0 0 0 0 5.3222508517246752 -30.802459306556557 0 -30.802459306556557 -32.987505248922389 0 0 0 0 16.174582872559768 -37.374029050981335 0 -37.374029050981335 -21.241511166452256 0 0 0 0 12.761503739767079 -27.359370238805013 0 -27.359370238805013 -31.556329292245209 0 0 0 0 10.952704272147457 -28.171467936328554 0 -28.171467936328554 -36.663269202796982 0 0 0 0 2.8918277687655518 -25.424739508778657 0 -25.424739508778657 -36.601525684258377 0 0 0 0 6.7255321240927515 -35.50490513823388 0 -35.50490513823388 -56.793025228689658 0 0 0 0 59.922682027875453 -41.97475764416231 0 -41.97475764416231 -60.596537130331853 0 0 0 0 33.971447387263652 -10.574627717716794 0 -10.574627717716794 -54.142088053129555 0 0 0 0 0.82834108112183458 -46.690396966190747 0 -46.690396966190747 -25.899337865077541 0 0 0 0 27.92830463665905 -43.577114109113609 0 -43.577114109113609 -51.843796905817726 0 0 0 0 27.609531146953941 -42.300543373019082 0 -42.300543373019082 -25.502636010744027 0 0 0 0 -11.693953463411162 -68.041298437434307 0 -68.041298437434307 -31.485849925936236 0 0 0 0 21.847500089595087 -63.826367797089915 0 -63.826367797089915 -32.597314307309716 0 0 0 0 1.0526708382258221 -44.726756201329408 0 -44.726756201329408 -21.114058676210789 0 0 0 0 -13.221108051769988 -52.371491415426135 0 -52.371491415426135 -21.509575840854041 0 0 0 0 8.9559114062803928 -30.522788412663431 0 -30.522788412663431 -14.764063998198253 0 0 0 0 -5.2721056749578565 -37.600348644391488 0 -37.600348644391488 -8.6770864335412625 0 0 0 0 36.531115986548684 -25.675504823200754 0 -25.675504823200754 -21.166309471343993 0 0 0 0 17.950693993021559 -19.919518091446662 0 -19.919518091446662 -10.066311245391262 0 0 0 0 10.080807235131942 -34.750963189435424 0 -34.750963189435424 -16.732946984131559 0 0 0 0 2.1351124738284852 -26.331420350608823 0 -26.331420350608823 -7.1891386520728702 0 0 0 0 -12.810715815641743 -36.545613488455274 0 -36.545613488455274 -14.121364802384051 0 0 0 0 -790.64809985610191 287.17566801259818 0 287.17566801259818 -151.73190866797813 0 0 0 0 -3.3123343033204975 -8.2105081014431818 0 -8.2105081014431818 -22.299122231599029 0 0 0 0 -525.37755725784336 598.9020670435566 0 598.9020670435566 -361.58411768011865 0 0 0 0 -235.05992610613612 419.22176864889479 0 419.22176864889479 -391.35329288947105 0 0 0 0 -2.3854013205274391 1.4065884158733581 0 1.4065884158733581 -0.92140793087975226 0 0 0 0 87.191141938470537 -146.69429691776895 0 -146.69429691776895 -87.785766512373812 0 0 0 0 -69.089998964172992 54.994921196310315 0 54.994921196310315 -340.40860031220654 0 0 0 0 -301.79621643005157 502.87795109747094 0 502.87795109747094 -489.1200957079127 0 0 0 0 -241.50881846907032 327.3953426749722 0 327.3953426749722 -153.09254661237264 0 0 0 0 -5.5313717134513034 -14.905877320760929 0 -14.905877320760929 -37.081542050161687 0 0 0 0 -288.78753554240575 389.87248256730527 0 389.87248256730527 -234.67042938483064 0 0 0 0 -215.32945779662714 238.64065327029311 0 238.64065327029311 -579.04666382263531 0 0 0 0 40.019263395324742 -52.077842959068221 0 -52.077842959068221 -22.305661619415332 0 0 0 0 -218.84840758402697 248.1958288889291 0 248.1958288889291 -334.61156189358735 0 0 0 0 -0.39308752461588181 1.6383810040556916 0 1.6383810040556916 -1.7198851037780685 0 0 0 0 -375.17229162926196 444.68786902351712 0 444.68786902351712 -230.19273807136051 0 0 0 0 423.02819970317739 46.163249495021773 0 46.163249495021773 -170.65831603806873 0 0 0 0 -343.02988547152563 359.43764804917009 0 359.43764804917009 83.383314502149005 0 0 0 0 -157.68339298687715 -40.119870036760403 0 -40.119870036760403 147.97650506967329 0 0 0 0 -211.94760228249402 159.74808270603808 0 159.74808270603808 -271.17025083894987 0 0 0 0 -424.96967839892886 556.43228950716184 0 556.43228950716184 -240.74329774499347 0 0 0 0 -407.99207119914081 85.910431860189419 0 85.910431860189419 -23.893894518580055 0 0 0 0 -1.4628396130563974 -2.3799331593930972 0 -2.3799331593930972 -6.9928959060226248 0 0 0 0 -490.64511843675473 415.14760047431628 0 415.14760047431628 -646.60944855358684 0 0 0 0 -302.42288172518283 -223.9927370708283 0 -223.9927370708283 -119.69477614437346 0 0 0 0 3.8940243528722931 -56.958874516280048 0 -56.958874516280048 -27.565262692914985 0 0 0 0 -35.56613984143587 -64.891072362494015 0 -64.891072362494015 -25.883359420505258 0 0 0 0 111.20705988032296 81.644525450585206 0 81.644525450585206 -694.18915396862576 0 0 0 0 -489.65649762887915 373.87691672299115 0 373.87691672299115 -228.36679528366949 0 0 0 0 4.0397845692659757 176.76450336906055 0 176.76450336906055 -173.43519313920842 0 0 0 0 -191.03312535201803 230.03528157836627 0 230.03528157836627 -96.859703389825881 0 0 0 0 -224.24708054300027 -12.973053897661885 0 -12.973053897661885 -86.672576176359144 0 0 0 0 -185.57041173759262 26.172226623531969 0 26.172226623531969 -168.96825310497297 0 0 0 0 -503.95212158746097 -205.72790866932922 0 -205.72790866932922 -336.02964775398868 0 0 0 0 -34.305108739898969 7.6916442470028414 0 7.6916442470028414 -468.04348427231889 0 0 0 0 -165.30459683522486 -178.52784759549104 0 -178.52784759549104 -190.90825369396771 0 0 0 0 5.3377054450024843 -73.488080727533543 0 -73.488080727533543 -193.70445823422051 0 0 0 0 15.766729490523176 -97.757047406263155 0 -97.757047406263155 -356.14528372302084 0 0 0 0 -28.41618506901068 -48.886808071722044 0 -48.886808071722044 44.808682081413281 0 0 0 0 348.37924685245343 -74.078757752307865 0 -74.078757752307865 -350.84969874242961 0 0 0 0 25.392680419482531 -9.308458326073378 0 -9.308458326073378 -53.74801147863036 0 0 0 0 3.2563203213901666 -14.793926558839019 0 -14.793926558839019 4.0856200149381721 0 0 0 0 -30.882475111771782 133.62038960734208 0 133.62038960734208 -218.12266574436217 0 0 0 0 10.805133574126767 -15.043576699776338 0 -15.043576699776338 -2.3683796144736249 0 0 0 0 48.813605056342567 -24.4671699290775 0 -24.4671699290775 -85.041486812264338 0 0 0 0 8.1143492632372727 -18.472779116302263 0 -18.472779116302263 -65.974800091527868 0 0 0 0 2.9066882996231911 0.04961633841689661 0 0.04961633841689661 -14.004527984494167 0 0 0 0 22.88067905285169 -39.058108988896947 0 -39.058108988896947 -190.36259138066089 0 0 0 0 -109.36522825749489 -38.477443299489096 0 -38.477443299489096 -190.35908905414209 0 0 0 0 0.65526627392523551 -4.0298434138285302 0 -4.0298434138285302 -40.166463168046903 0 0 0 0 1.9729188579770494 -46.293366843358399 0 -46.293366843358399 -104.57392655203876 0 0 0 0 -2.8927910871916538 8.8344435358612827 0 8.8344435358612827 -82.370278497357504 0 0 0 0 13.136279453721727 -23.303996529566575 0 -23.303996529566575 -63.413113376718684 0 0 0 0 142.21492457991008 3.7514954827238398 0 3.7514954827238398 -44.283929896035261 0 0 0 0 155.4879305523782 34.810693401002936 0 34.810693401002936 -82.057937817258789 0 0 0 0 3.7533305840893467 -1.1933851473985619 0 -1.1933851473985619 -35.594390985660425 0 0 0 0 101.69829371972264 -104.36675062719587 0 -104.36675062719587 -71.441018644080032 0 0 0 0 -41.112964203919745 -157.06429832513277 0 -157.06429832513277 -90.673944150577881 0 0 0 0 385.85805216635163 -127.50523831822284 0 -127.50523831822284 -256.02499923494906 0 0 0 0 89.620202974122776 49.860997606082492 0 49.860997606082492 0.024329058702278417 0 0 0 0 287.89805269775047 172.54068601279687 0 172.54068601279687 57.851202809411916 0 0 0 0 2.6113060395834289 -1.6064796260019847 0 -1.6064796260019847 -7.5874517548600551 0 0 0 0 33.53659311777119 -213.89572160910757 0 -213.89572160910757 -237.21472459213692 0 0 0 0 -190.74917409090631 5.7835298820173193 0 5.7835298820173193 -105.95792890377925 0 0 0 0 20.879788999956872 -27.917611977907654 0 -27.917611977907654 -115.86122190924652 0 0 0 0 369.28733060517698 -118.04719966035918 0 -118.04719966035918 -255.74700066852529 0 0 0 0 96.89683972218586 -36.333600585548083 0 -36.333600585548083 -223.42255575204035 0 0 0 0 98.685780847350543 -22.165957329052617 0 -22.165957329052617 -128.82457468572102 0 0 0 0 45.78088245426261 5.3663736228118069 0 5.3663736228118069 -135.0183362364769 0 0 0 0 11.20296339460856 222.59632284059262 0 222.59632284059262 -246.87423588857564 0 0 0 0 410.90479455161494 173.51895904372941 0 173.51895904372941 -328.62812950743682 0 0 0 0 53.82449764525154 161.05367317594937 0 161.05367317594937 -159.57610082994961 0 0 0 0 156.21751998122909 110.16782590114235 0 110.16782590114235 -162.03152558212605 0 0 0 0 79.864684013032274 44.029495459577447 0 44.029495459577447 -126.68848233150493 0 0 0 0 126.88725568054542 51.755620566291327 0 51.755620566291327 -194.37861617971794 0 0 0 0 80.447813865622265 52.5975167432116 0 52.5975167432116 -97.606790352379903 0 0 0 0 75.525387711539224 49.143713743156695 0 49.143713743156695 -95.966916514302284 0 0 0 0 53.952787871523469 57.853745679833082 0 57.853745679833082 -44.188855620610411 0 0 0 0 76.555832699650637 58.178819125285372 0 58.178819125285372 -85.450568831614873 0 0 0 0 46.642758375048288 34.591645858570701 0 34.591645858570701 -77.029351393757679 0 0 0 0 66.271383484550825 41.1898152489739 0 41.1898152489739 -99.413841363420943 0 0 0 0 63.715397018833755 36.725582959392341 0 36.725582959392341 -91.461287030600943 0 0 0 0 73.764845409536065 31.094318748026126 0 31.094318748026126 -121.44695507152937 0 0 0 0 79.404582829491119 20.52422689031664 0 20.52422689031664 -101.85980541739082 0 0 0 0 59.872215972778577 2.281104991248867 0 2.281104991248867 -113.58756391805946 0 0 0 0 107.41831047833648 -27.56994176284752 0 -27.56994176284752 -103.91880406263226 0 0 0 0 159.39966851753525 37.528822871601733 0 37.528822871601733 -192.73596573781106 0 0 0 0 -0.96525811827450525 43.304688533564331 0 43.304688533564331 -123.44131891129291 0 0 0 0 16.138757393301603 -9.744428741185402 0 -9.744428741185402 -75.193738761547138 0 0 0 0 44.977570721322991 8.5583105403165973 0 8.5583105403165973 -71.602432721432706 0 0 0 0 -1.6015212526300016 6.2157024292480827 0 6.2157024292480827 -48.056886626529803 0 0 0 0 11.885894580420427 25.859402790189051 0 25.859402790189051 -42.112641915478889 0 0 0 0 47.638227676443535 28.837341259124514 0 28.837341259124514 -70.397919273003936 0 0 0 0 -4.2174852120360811 16.932620266488811 0 16.932620266488811 -120.63520436432736 0 0 0 0 142.93696799155208 307.11813377498856 0 307.11813377498856 -217.80319387790223 0 0 0 0 -2.832381572342463 10.385298308716921 0 10.385298308716921 -67.004981833950964 0 0 0 0 -21.226016900354807 32.140729358903627 0 32.140729358903627 -94.613773650911753 0 0 0 0 -0.14812753184469329 28.774437863241474 0 28.774437863241474 -146.11313835337933 0 0 0 0 -16.194320427053754 45.726435553129704 0 45.726435553129704 -116.74246472419327 0 0 0 0 55.545252607144903 39.396758581475297 0 39.396758581475297 -36.147425800591009 0 0 0 0 33.634149911394161 48.343169267191115 0 48.343169267191115 -20.153797270289942 0 0 0 0 -3.9457891405103247 3.35975913660657 0 3.35975913660657 -10.371677316316259 0 0 0 0 48.079139117008253 29.74527219392985 0 29.74527219392985 11.579449043172644 0 0 0 0 -23.387701960295999 147.44880430068952 0 147.44880430068952 194.60400626826231 0 0 0 0 86.161349692982185 102.8199480299445 0 102.8199480299445 -24.301765440373856 0 0 0 0 -36.732825144767048 188.07604517737491 0 188.07604517737491 -62.23824284994771 0 0 0 0 -10.93676025370587 139.92857852116867 0 139.92857852116867 9.3184768875726149 0 0 0 0 85.975457672912967 106.46662305117661 0 106.46662305117661 -94.305262381269131 0 0 0 0 0.27368563160962367 206.47434558391251 0 206.47434558391251 -5.8666954462460126 0 0 0 0 -49.646958014725442 -6.5939141906792429 0 -6.5939141906792429 -25.053319049693528 0 0 0 0 34.91698477974569 249.0484313009656 0 249.0484313009656 -266.81651498736392 0 0 0 0 91.124036111914393 42.515125809877645 0 42.515125809877645 -427.9142071956303 0 0 0 0 -20.136983517505541 -54.321668052929454 0 -54.321668052929454 -209.47321603461023 0 0 0 0 -1.3875653088841275 1.1111534327102817 0 1.1111534327102817 0.89669870622164893 0 0 0 0 -25.283320079720241 38.929365357329495 0 38.929365357329495 -1.908802927342637 0 0 0 0 -105.28607839741653 176.18464431549728 0 176.18464431549728 -585.05940156883298 0 0 0 0 -130.86402323857669 66.47598364885198 0 66.47598364885198 -382.93820064796455 0 0 0 0 -78.564621939374774 101.79059248342674 0 101.79059248342674 -20.624086586693011 0 0 0 0 13.983996220211338 -35.364441473961051 0 -35.364441473961051 -605.26765965449158 0 0 0 0 16.540772402155483 -11.198109153833684 0 -11.198109153833684 -474.23753016101546 0 0 0 0 -136.69998911078699 -311.43163832372375 0 -311.43163832372375 -571.1524882073445 0 0 0 0 31.680045349717034 2.9809629761384713 0 2.9809629761384713 -860.21489838717389 0 0 0 0 61.013446713283429 -242.25226255122107 0 -242.25226255122107 -956.65967934610671 0 0 0 0 43.497712363252504 216.57535574564099 0 216.57535574564099 251.59696374568739 0 0 0 0 -2.3393849146633889 2.5613983552622415 0 2.5613983552622415 -2.5097894031871704 0 0 0 0 128.73623621806769 -280.38480688821437 0 -280.38480688821437 -1271.8303962591563 0 0 0 0 41.13621779889877 420.50513463407697 0 420.50513463407697 146.81215526893902 0 0 0 0 42.042917283809871 275.5094525866416 0 275.5094525866416 -201.44294905906281 0 0 0 0 -172.01863392876749 114.05277171873604 0 114.05277171873604 -1161.7878612199565 0 0 0 0 88.385408976203735 328.19890793823652 0 328.19890793823652 -1212.5438266609244 0 0 0 0 -41.073252161798109 68.108656871878338 0 68.108656871878338 -1399.2080491645756 0 0 0 0 -8.7562027853955229 13.095945040435751 0 13.095945040435751 0.96192269718486045 0 0 0 0 -114.9442386687499 37.873158344209514 0 37.873158344209514 -409.86024725131574 0 0 0 0 -11.536602056441325 -262.82234995729596 0 -262.82234995729596 -929.69703586057585 0 0 0 0 -23.304528528699144 38.414966523084232 0 38.414966523084232 -9.5306473311835145 0 0 0 0 -70.133010836381345 18.230880462571804 0 18.230880462571804 181.06290599123167 0 0 0 0 -2.5471968779111194 40.047987202735385 0 40.047987202735385 -154.54795927859232 0 0 0 0 13.976625158413299 19.368756064664922 0 19.368756064664922 -283.45789665608754 0 0 0 0 -88.010839958028555 -31.696090964454925 0 -31.696090964454925 -26.6412824534018 0 0 0 0 -87.489480841697514 37.758266548822576 0 37.758266548822576 218.66149588664121 0 0 0 0 27.048391964465736 64.749918050350971 0 64.749918050350971 7.5893138925130188 0 0 0 0 -119.992743909821 78.924107753296994 0 78.924107753296994 29.894615214710939 0 0 0 0 39.587673818587973 60.004515027856542 0 60.004515027856542 24.345320674204231 0 0 0 0 -21.023121384439492 79.327219511672411 0 79.327219511672411 -51.477674497706175 0 0 0 0 -21.913124124291244 175.49857024353332 0 175.49857024353332 -47.546159874454133 0 0 0 0 -45.852955583798689 143.49682129502844 0 143.49682129502844 -51.650636777696491 0 0 0 0 -15.513097518727818 167.93095139097659 0 167.93095139097659 -38.781319419635111 0 0 0 0 -86.751686066649199 94.097938816161331 0 94.097938816161331 166.48635048503638 0 0 0 0 -22.208862066922645 37.085281175642642 0 37.085281175642642 -2.5655961049355325 0 0 0 0 -0.44655874645400218 2.7500962769026955 0 2.7500962769026955 -465.71060208728159 0 0 0 0 39.516656585275229 -58.332252644644541 0 -58.332252644644541 -397.40627192720058 0 0 0 0 4.2163031451520396 -60.274973160325487 0 -60.274973160325487 -322.01814295686199 0 0 0 0 -16.60928140127411 35.189241706875649 0 35.189241706875649 -2.1576458788429091 0 0 0 0 25.847543683094273 -74.090060367881961 0 -74.090060367881961 -362.27098503293382 0 0 0 0 -16.185032392865423 -91.357136754451858 0 -91.357136754451858 -356.13621178393441 0 0 0 0 -9.0869846342641498 33.833765544879924 0 33.833765544879924 -2.1232498931398758 0 0 0 0 -68.117489163345454 -18.673479657381904 0 -18.673479657381904 -122.47298032006279 0 0 0 0 -1.6935272378451298 -2.0637848034296589 0 -2.0637848034296589 -2.8594654595230367 0 0 0 0 -91.20545941175169 205.88414363636184 0 205.88414363636184 -457.6832905631145 0 0 0 0 33.414735532803888 -84.686963931153514 0 -84.686963931153514 -614.60003468144714 0 0 0 0 36.181615643221903 -42.275167204034005 0 -42.275167204034005 -326.28370791704219 0 0 0 0 5.4376260091323729 -46.597804071439896 0 -46.597804071439896 -308.90508266645702 0 0 0 0 -18.301188690128356 68.079230123596062 0 68.079230123596062 -198.37713380810237 0 0 0 0 -58.605059598762637 46.447575608533953 0 46.447575608533953 -65.21776093551307 0 0 0 0 14.72886504369302 -27.552942340904337 0 -27.552942340904337 -270.52993995101133 0 0 0 0 0.012531427362830527 -71.634573466157235 0 -71.634573466157235 -304.7026977884525 0 0 0 0 14.565394860456422 -54.151237643349305 0 -54.151237643349305 -382.59027614130173 0 0 0 0 -45.799239881807353 -42.810899228366907 0 -42.810899228366907 -108.39602478599909 0 0 0 0 -26.304598368354021 -83.424845485553305 0 -83.424845485553305 -221.07065512060217 0 0 0 0 -33.562453804643042 35.527859246012667 0 35.527859246012667 -50.000769387828768 0 0 0 0 1.7743952297093983 15.325501238665311 0 15.325501238665311 -105.60535313889386 0 0 0 0 -19.295876353908625 36.38563980222898 0 36.38563980222898 -25.107098284897802 0 0 0 0 -14.369218510245162 14.329701007067342 0 14.329701007067342 -31.463780203059287 0 0 0 0 -30.807819535187036 33.533982477383688 0 33.533982477383688 -43.243673875938839 0 0 0 0 -29.937286639399645 13.299659409563901 0 13.299659409563901 -17.508482531226036 0 0 0 0 -46.757441329714425 -2.0749869316082368 0 -2.0749869316082368 -80.950114082988875 0 0 0 0 -18.38352248527849 7.3637885903926872 0 7.3637885903926872 -97.830886984094832 0 0 0 0 -16.099940510905299 -3.8611116351203236 0 -3.8611116351203236 -18.103248527273536 0 0 0 0 -47.700817889028485 20.310567647176867 0 20.310567647176867 5.587939422337513 0 0 0 0 128.95737311969356 30.494275356104708 0 30.494275356104708 -40.115645630947256 0 0 0 0 143.63558801978729 -46.614306316361763 0 -46.614306316361763 -59.314667115286284 0 0 0 0 -2.8869871165583465 -5.0254257348640792 0 -5.0254257348640792 -7.9549063376690157 0 0 0 0 124.4268653438105 155.5590752748667 0 155.5590752748667 3.5990581691621628 0 0 0 0 67.203716629191149 89.109373997089278 0 89.109373997089278 53.929323567856045 0 0 0 0 77.406170958174243 79.327218750742759 0 79.327218750742759 39.115734354410961 0 0 0 0 -16.132501292853476 114.96317516412091 0 114.96317516412091 26.457982707453993 0 0 0 0 -32.025385234957071 66.48768817733071 0 66.48768817733071 67.661947600085114 0 0 0 0 84.651612201185529 47.442003188996068 0 47.442003188996068 59.561358151011518 0 0 0 0 19.147323605892439 135.59969642717624 0 135.59969642717624 107.81369343852202 0 0 0 0 74.221746998060553 50.664533728937386 0 50.664533728937386 210.88288571023713 0 0 0 0 167.90422891061883 169.95259374236639 0 169.95259374236639 87.92760474237366 0 0 0 0 -114.51680811638948 125.43641292535358 0 125.43641292535358 -139.71854571996846 0 0 0 0 193.90076684789278 65.79306675181806 0 65.79306675181806 94.056139191059629 0 0 0 0 -3.1164552383497632 5.5426273993491435 0 5.5426273993491435 -10.404722455978096 0 0 0 0 98.501549048543893 125.12063528347426 0 125.12063528347426 62.957188486479936 0 0 0 0 -1.0189965185230796 1.7679874251260941 0 1.7679874251260941 -4.7586320778319759 0 0 0 0 -19.238745640740277 -20.997212261752452 0 -20.997212261752452 -141.56823549803084 0 0 0 0 -122.42201141437158 -229.26036415928502 0 -229.26036415928502 -292.17166791386626 0 0 0 0 29.520566218213503 -25.439789728869073 0 -25.439789728869073 -72.672872994480713 0 0 0 0 1.7314541599128876 -0.56135496044741018 0 -0.56135496044741018 -4.2950041345435039 0 0 0 0 146.53665804397497 114.57493895710286 0 114.57493895710286 70.131240991228879 0 0 0 0 -3.0775190639847869 9.8761717651453491 0 9.8761717651453491 -27.336737027649775 0 0 0 0 178.93499107925868 137.19134141218001 0 137.19134141218001 12.514455474331044 0 0 0 0 259.54649860775771 101.32441781555281 0 101.32441781555281 -83.552211793663446 0 0 0 0 142.61168434336568 127.31545160439151 0 127.31545160439151 24.789850330162153 0 0 0 0 -3.098685992940716 11.151605856427437 0 11.151605856427437 -35.429647878613821 0 0 0 0 -14.453333034166945 39.460357500142891 0 39.460357500142891 -37.958934238959046 0 0 0 0 54.554764161581289 38.371214756902191 0 38.371214756902191 -54.324481690458924 0 0 0 0 194.66456197597699 84.83907371719215 0 84.83907371719215 -60.436013986682156 0 0 0 0 181.99921108178216 107.92092753668021 0 107.92092753668021 -90.992621892040916 0 0 0 0 100.37635412345151 21.610435381806383 0 21.610435381806383 -157.33566406337923 0 0 0 0 71.108248902542755 180.06634031834619 0 180.06634031834619 -102.00017857356215 0 0 0 0 141.43642442384817 98.805051860523236 0 98.805051860523236 -9.8650085916219723 0 0 0 0 -70.184436074743644 235.61802177452046 0 235.61802177452046 -179.08622407185612 0 0 0 0 14.2936825264253 99.015180456065082 0 99.015180456065082 15.130154919505003 0 0 0 0 -21.894533267048701 -90.491191343602623 0 -90.491191343602623 -394.62932059273498 0 0 0 0 14.745881814096947 33.170796892369253 0 33.170796892369253 -86.173193795133557 0 0 0 0 51.188031566474137 -120.00566073852497 0 -120.00566073852497 -525.20086317068944 0 0 0 0 -67.982151682255676 130.64478172838608 0 130.64478172838608 -384.32240813686985 0 0 0 0 53.089435789396703 -94.568292042667963 0 -94.568292042667963 -252.54240362385099 0 0 0 0 98.981954264231888 -75.233896318672123 0 -75.233896318672123 -349.61153916140393 0 0 0 0 -17.009836161037285 29.253197475565685 0 29.253197475565685 83.2600339979399 0 0 0 0 -117.22054282973806 110.67241042536625 0 110.67241042536625 103.5691835018697 0 0 0 0 -1.9765075118024784 1.9119414827744805 0 1.9119414827744805 -2.0881855541098204 0 0 0 0 32.972474883195645 -208.96413649669012 0 -208.96413649669012 -451.63331933462905 0 0 0 0 124.92043373817444 -78.867387182678613 0 -78.867387182678613 -267.77358912726049 0 0 0 0 109.06604421069721 -44.316242337245058 0 -44.316242337245058 -271.94458614122414 0 0 0 0 52.550971205720202 -79.289124377119151 0 -79.289124377119151 -214.86571966722477 0 0 0 0 200.72356988239949 90.146352108924475 0 90.146352108924475 -158.75991325566611 0 0 0 0 100.00650155174598 106.60381363344823 0 106.60381363344823 -371.09910817827949 0 0 0 0 39.925611648020734 185.96646606043282 0 185.96646606043282 56.534465511147573 0 0 0 0 116.28676291130989 -33.678562587066153 0 -33.678562587066153 -125.41090659165638 0 0 0 0 57.546926037730373 188.43426174578417 0 188.43426174578417 155.05078636758844 0 0 0 0 -5.6677276763079885 6.9830588264364657 0 6.9830588264364657 -7.0798614767625594 0 0 0 0 74.48322799042694 -32.073423940282737 0 -32.073423940282737 -120.99668716976157 0 0 0 0 294.84063081245779 282.59386303166684 0 282.59386303166684 3.1760822030955751 0 0 0 0 -9.5752623875895893 57.553448273481081 0 57.553448273481081 215.43984109515804 0 0 0 0 -24.780838821192901 53.387384140212816 0 53.387384140212816 79.440636035326406 0 0 0 0 -61.784934757239483 56.167359077195215 0 56.167359077195215 79.244603016853944 0 0 0 0 -52.046829374912477 61.323635532095068 0 61.323635532095068 117.86501137019582 0 0 0 0 -4.3865053343916962 5.427247327250889 0 5.427247327250889 -5.8216195088528337 0 0 0 0 92.452056894031713 140.517754531018 0 140.517754531018 108.60364675374149 0 0 0 0 12.299853187639371 25.351697999702083 0 25.351697999702083 -9.3364768402716436 0 0 0 0 -51.335919085183036 148.10846640058662 0 148.10846640058662 -58.947994273616132 0 0 0 0 2.5882850010642642 79.42269979502089 0 79.42269979502089 -32.103049768124038 0 0 0 0 113.83061332435588 202.52203506357137 0 202.52203506357137 -383.94655595843506 0 0 0 0 143.14947043649133 203.11336903240954 0 203.11336903240954 -939.0159042369778 0 0 0 0 39.867296993928036 462.42354056878776 0 462.42354056878776 -169.02881603060814 0 0 0 0 22.286413942358479 -22.396754469316875 0 -22.396754469316875 -518.36288004207017 0 0 0 0 -399.76496177665098 84.081023551363614 0 84.081023551363614 -110.43276068527484 0 0 0 0 -159.85058517410147 -235.86775475678587 0 -235.86775475678587 -741.54864830470615 0 0 0 0 -8.4967280288194207 9.7878395858804126 0 9.7878395858804126 -7.8390469130898275 0 0 0 0 106.65622091893187 6.5918254759217234 0 6.5918254759217234 -662.60216926970679 0 0 0 0 114.12487062090287 102.94049755164167 0 102.94049755164167 -553.66542522545933 0 0 0 0 78.871031267751107 66.298562763660811 0 66.298562763660811 -312.00874727485643 0 0 0 0 55.803008989893385 120.80830317980781 0 120.80830317980781 -276.05601124750683 0 0 0 0 178.00214470357946 121.10837791019003 0 121.10837791019003 -884.48651341277764 0 0 0 0 151.72854654355001 -35.892296994097705 0 -35.892296994097705 -414.07269565351089 0 0 0 0 56.654909173005535 -421.43111080093877 0 -421.43111080093877 -376.47439238778134 0 0 0 0 -2.8993756106922808 3.4524761022854378 0 3.4524761022854378 -3.7314467992166982 0 0 0 0 62.667837407242985 293.29486846731635 0 293.29486846731635 -1038.6787949919926 0 0 0 0 304.7473080660414 -21.626024731227517 0 -21.626024731227517 -937.90582143474967 0 0 0 0 4.3008326678734399 -2.3165557444073457 0 -2.3165557444073457 -5.4254028108583441 0 0 0 0 -70.323151601285304 111.15577152353217 0 111.15577152353217 286.82847921437133 0 0 0 0 33.452210905723291 -15.772078503589974 0 -15.772078503589974 -36.18243207737693 0 0 0 0 182.34236238238481 -125.99366840582843 0 -125.99366840582843 -220.84769852121826 0 0 0 0 -233.34891151195194 386.41685172335838 0 386.41685172335838 -615.52369399555755 0 0 0 0 -11.827125821393338 148.32156397169092 0 148.32156397169092 -368.59818580492015 0 0 0 0 11.661522123709888 8.4885955704587204 0 8.4885955704587204 -7.8614096268150053 0 0 0 0 13.009258969212592 -6.0343348938112911 0 -6.0343348938112911 -61.449195432177675 0 0 0 0 60.805895005529692 13.394460179915768 0 13.394460179915768 -72.337735008877644 0 0 0 0 46.791304589972924 20.174391677981475 0 20.174391677981475 -59.093441760886435 0 0 0 0 40.661225068305612 -26.792936002686474 0 -26.792936002686474 -56.265350399375166 0 0 0 0 22.348963787104822 0.25138065150895272 0 0.25138065150895272 -72.218926669629582 0 0 0 0 31.638339570426069 15.740336124129499 0 15.740336124129499 -60.563189131473337 0 0 0 0 117.45686322705797 -16.560622334240179 0 -16.560622334240179 -74.983248212924082 0 0 0 0 3.6025897804617175 2.348309686521894 0 2.348309686521894 -47.848828538583405 0 0 0 0 37.219978002423659 1.9179162634354725 0 1.9179162634354725 -49.319472846117606 0 0 0 0 42.381173480774578 -37.01505066820755 0 -37.01505066820755 -55.40672426934907 0 0 0 0 43.713816017429764 -18.600008761180561 0 -18.600008761180561 -84.017663091261056 0 0 0 0 -32.094614301151182 4.3060467759478342 0 4.3060467759478342 -37.969191423704615 0 0 0 0 41.021034528487689 -9.7019211872902815 0 -9.7019211872902815 -92.963508661545347 0 0 0 0 -51.544946919502763 -6.7661914241180057 0 -6.7661914241180057 -73.594335671798035 0 0 0 0 -81.710509968792621 -23.401374196491815 0 -23.401374196491815 -63.765907497174339 0 0 0 0 -55.166376471722003 -26.081731765640143 0 -26.081731765640143 -87.816324267929303 0 0 0 0 0.70929599788411535 1.714440353614151 0 1.714440353614151 -6.0601959039599436 0 0 0 0 -2.5833259837141895 3.5064366523365607 0 3.5064366523365607 -27.191911108704517 0 0 0 0 3.921939070937718 18.889975735563439 0 18.889975735563439 -34.112497465686509 0 0 0 0 1.4152170991332742 1.2114809661750066 0 1.2114809661750066 -2.4642681837725462 0 0 0 0 -100.21258488188414 -110.29380351017608 0 -110.29380351017608 -64.770090900143259 0 0 0 0 -18.904027839861556 -111.08594565588282 0 -111.08594565588282 -126.37593916446258 0 0 0 0 -57.933103101343704 16.049404352706915 0 16.049404352706915 21.838426387388608 0 0 0 0 89.265963645199122 -18.85222631378565 0 -18.85222631378565 -102.1478253186724 0 0 0 0 -48.57238793356953 -41.007013841592197 0 -41.007013841592197 -90.031023559466121 0 0 0 0 76.12608007221661 27.108994519399403 0 27.108994519399403 -177.48273326306662 0 0 0 0 -35.281608887042921 66.25661825153054 0 66.25661825153054 -78.336405922727863 0 0 0 0 -23.659027618019536 -3.2556724510627646 0 -3.2556724510627646 -263.05106728809369 0 0 0 0 -67.921768933561907 187.47451998143879 0 187.47451998143879 -298.05242590996636 0 0 0 0 0.66283915672619464 -0.83689989229005946 0 -0.83689989229005946 -10.503890295572347 0 0 0 0 -37.174469937942831 -20.876115443794106 0 -20.876115443794106 -16.237423221691643 0 0 0 0 -6.6913900332156118 -4.1889327843905448 0 -4.1889327843905448 -14.543919029563767 0 0 0 0 -103.01969624186313 -34.993714972740236 0 -34.993714972740236 45.17815336489457 0 0 0 0 -9.080185577584416 68.616110748221217 0 68.616110748221217 -32.066020806529195 0 0 0 0 -0.29773443459795534 3.0840907494105529 0 3.0840907494105529 -4.0406862023585575 0 0 0 0 -90.948671711803399 -45.594209201055037 0 -45.594209201055037 -49.439856053722906 0 0 0 0 -208.02349750145004 140.99688409042483 0 140.99688409042483 -91.21645286675539 0 0 0 0 -78.257277455119038 100.06659405308528 0 100.06659405308528 -106.73246437275884 0 0 0 0 -40.180719391228195 58.668091739722513 0 58.668091739722513 -100.9373043712751 0 0 0 0 27.362979785579228 10.414251891166714 0 10.414251891166714 -183.58762467507404 0 0 0 0 22.428623501185452 -6.7713821935762581 0 -6.7713821935762581 -65.933416565137037 0 0 0 0 -25.21892397265583 11.629803177098438 0 11.629803177098438 -37.089803115408358 0 0 0 0 -334.52100994258853 148.21339910137613 0 148.21339910137613 -44.826972537857728 0 0 0 0 -34.804980255997407 150.17903636206279 0 150.17903636206279 -294.59629283193681 0 0 0 0 18.162366737909906 -57.702273389411857 0 -57.702273389411857 -338.2100703398919 0 0 0 0 -84.101806410692006 41.141545261571991 0 41.141545261571991 -117.40084530544118 0 0 0 0 -45.202473070278756 84.6444069808731 0 84.6444069808731 -92.587068266446295 0 0 0 0 14.945373447724705 43.883072200829702 0 43.883072200829702 -144.70804559986209 0 0 0 0 97.734349017767897 268.85945361402082 0 268.85945361402082 -296.47755876098745 0 0 0 0 32.670883034854661 -12.321260671146401 0 -12.321260671146401 -114.35315079976716 0 0 0 0 -12.846387566614538 -475.53699311042669 0 -475.53699311042669 -621.8203320608518 0 0 0 0 1.3584386690569801 8.6696228769306067 0 8.6696228769306067 -32.163240304422921 0 0 0 0 -318.81536270891201 301.17287959988244 0 301.17287959988244 235.34695218668276 0 0 0 0 -307.37838777966999 422.8405325619151 0 422.8405325619151 6.5410986055594549 0 0 0 0 -30.52325566054833 117.15015894744056 0 117.15015894744056 -214.59422960722259 0 0 0 0 -18.426521251030863 -71.285888545375201 0 -71.285888545375201 -213.21848153059443 0 0 0 0 -110.72493479530385 142.99657426448221 0 142.99657426448221 -106.78385390342919 0 0 0 0 -110.74741380906744 138.92421836700851 0 138.92421836700851 -134.20736150733683 0 0 0 0 0.7478209358491803 0.60256499804262731 0 0.60256499804262731 -4.6948167837415795 0 0 0 0 -152.10711915348975 241.62592911637239 0 241.62592911637239 -331.40875483302079 0 0 0 0 -199.07081767572527 -100.306282060591 0 -100.306282060591 -359.73107101169035 0 0 0 0 -78.278297749535795 22.26232209846512 0 22.26232209846512 -247.47908434708916 0 0 0 0 79.749842821847778 -48.485389494139781 0 -48.485389494139781 -260.96006874902514 0 0 0 0 -181.86392272655996 -352.33957193353399 0 -352.33957193353399 -422.10761832180287 0 0 0 0 27.091957148328031 -14.734518330874145 0 -14.734518330874145 -126.92791276587189 0 0 0 0 -58.321431876282077 38.084328078696672 0 38.084328078696672 -199.23687697709101 0 0 0 0 -185.88545997651619 266.28747879626644 0 266.28747879626644 -25.805680657653284 0 0 0 0 -10.625893972152454 248.90158256420727 0 248.90158256420727 -11.700311524728022 0 0 0 0 -311.23386160202278 47.981756809027502 0 47.981756809027502 -118.5558204193967 0 0 0 0 28.041701165991796 -12.204822903953689 0 -12.204822903953689 -124.70873765089753 0 0 0 0 -542.38967983995201 54.989743051935875 0 54.989743051935875 -70.285998068626213 0 0 0 0 95.562081578250343 50.089190911023707 0 50.089190911023707 -255.71059497247188 0 0 0 0 -205.98900037288311 268.03069132028668 0 268.03069132028668 -806.12509620548008 0 0 0 0 -88.019084846481007 1.3485044890931022 0 1.3485044890931022 -205.33106767072422 0 0 0 0 -0.96715122881056703 2.0991735669237146 0 2.0991735669237146 -7.7164950541129826 0 0 0 0 -349.97679272352423 -410.94837136076785 0 -410.94837136076785 -524.31833537771126 0 0 0 0 -439.73418777305034 346.6006450031573 0 346.6006450031573 -236.73228065326475 0 0 0 0 -107.4054191955565 -109.01472719984758 0 -109.01472719984758 -149.7482627648933 0 0 0 0 512.41936319092474 -267.64077431949954 0 -267.64077431949954 -387.27742255082194 0 0 0 0 -55.422341933335929 269.86870295782683 0 269.86870295782683 -701.94753464689529 0 0 0 0 -198.19866667465067 244.72332817585811 0 244.72332817585811 -252.86192956334935 0 0 0 0 40.330217370136097 79.442233804430089 0 79.442233804430089 -328.21843476937647 0 0 0 0 26.926130124049763 -14.957296474978948 0 -14.957296474978948 -126.60691692376332 0 0 0 0 -207.07419959240019 197.29355110403003 0 197.29355110403003 -184.9472742497328 0 0 0 0 -139.38443201856217 106.12548547909046 0 106.12548547909046 -143.52552735095378 0 0 0 0 -50.843560571229716 34.482303399831835 0 34.482303399831835 -98.278901450446938 0 0 0 0 -104.35651765870614 129.39622662043712 0 129.39622662043712 -128.13431466916882 0 0 0 0 -47.190419621428305 45.916625283298345 0 45.916625283298345 -81.368633838785172 0 0 0 0 -139.41179888507554 95.35979465753644 0 95.35979465753644 -74.40268890823063 0 0 0 0 -134.78315452014249 76.063541981513481 0 76.063541981513481 -176.94567142121741 0 0 0 0 -20.555710587961585 78.267102760984017 0 78.267102760984017 -101.05329334748421 0 0 0 0 7.3583397833906758 -18.542759361088429 0 -18.542759361088429 -57.037432675180753 0 0 0 0 17.285371591726516 0.70225032544567512 0 0.70225032544567512 -70.837544403606444 0 0 0 0 21.615608828916493 17.928320918142845 0 17.928320918142845 -44.195744842065324 0 0 0 0 4.7339948990656922 5.6021927797692115 0 5.6021927797692115 -51.207861125416457 0 0 0 0 -139.58690408267398 96.564643688600654 0 96.564643688600654 -70.324407754775166 0 0 0 0 -10.735200341765449 -13.660945518700828 0 -13.660945518700828 -53.621869075330324 0 0 0 0 -88.130715226887332 3.7504420619261509 0 3.7504420619261509 -29.025964161417505 0 0 0 0 7.6557451573160051 15.642235438529497 0 15.642235438529497 -53.088217857690324 0 0 0 0 0.61035730986083603 6.1611745130865945 0 6.1611745130865945 -26.940290730789584 0 0 0 0 2.4806628863201041 3.1475853027664016 0 3.1475853027664016 -32.798334745495595 0 0 0 0 2.3710869196956992 -10.614386694527639 0 -10.614386694527639 9.6769927282075514 0 0 0 0 2.8409574534281403 -3.3067658373386939 0 -3.3067658373386939 -2.8909393289424372 0 0 0 0 3.6022910247614681 -0.020850348336889368 0 -0.020850348336889368 -24.800675406260993 0 0 0 0 0.6780271726712499 11.735779980004736 0 11.735779980004736 -24.279952386920741 0 0 0 0 -7.2893550764202359 14.251041579965886 0 14.251041579965886 -38.84933512963471 0 0 0 0 9.6202428998058167 16.333536420796918 0 16.333536420796918 -45.359657097682884 0 0 0 0 -0.20877776265456305 -1.1151490889096749 0 -1.1151490889096749 -41.591261326908125 0 0 0 0 -8.9424573515462953 -9.8409463246916857 0 -9.8409463246916857 -16.814250549596181 0 0 0 0 56.446691539855465 -16.109782301636187 0 -16.109782301636187 -54.131031914632331 0 0 0 0 1.0349514671287312 -1.109629215132383 0 -1.109629215132383 -7.8151164652284733 0 0 0 0 33.765939484175306 -1.5720216603695008 0 -1.5720216603695008 -44.80229655673611 0 0 0 0 9.2924070641123535 -95.699275022207075 0 -95.699275022207075 -189.13473150834034 0 0 0 0 -21.652344430562607 74.979094381957111 0 74.979094381957111 -294.6143647924182 0 0 0 0 -0.15220390634756142 6.2337134345796548 0 6.2337134345796548 -32.653768216020225 0 0 0 0 -81.370046939555777 9.0668854228952114 0 9.0668854228952114 24.933638884220272 0 0 0 0 43.15827680773441 -36.572302032835069 0 -36.572302032835069 -272.82750762415526 0 0 0 0 -1.5049288378696695 -0.56807607309289665 0 -0.56807607309289665 -0.17675005762180263 0 0 0 0 -100.29321777760697 102.20366595734231 0 102.20366595734231 168.31410295842943 0 0 0 0 -96.897322233964587 -82.967820570578624 0 -82.967820570578624 102.84714444999736 0 0 0 0 -84.83631887663546 -68.030675802514452 0 -68.030675802514452 -62.567989010982274 0 0 0 0 -70.22066028081781 41.968917454119946 0 41.968917454119946 -29.857406334438565 0 0 0 0 -38.905497616777438 -8.8943898524903489 0 -8.8943898524903489 -22.674748890729461 0 0 0 0 5.3383686514031297 -31.965055124535866 0 -31.965055124535866 -22.576910665156902 0 0 0 0 -144.43904427336054 71.631743437447312 0 71.631743437447312 -19.331473188558448 0 0 0 0 -0.89650804019085206 3.7931783561895118 0 3.7931783561895118 -22.122540358848468 0 0 0 0 16.490853031024926 33.60222473972135 0 33.60222473972135 -86.315702352838343 0 0 0 0 -32.640330274275982 -93.972680268438125 0 -93.972680268438125 -149.47537427350835 0 0 0 0 -81.770698035851225 -119.07039306805291 0 -119.07039306805291 -41.049334177710989 0 0 0 0 -46.987090138579617 -61.092299424257362 0 -61.092299424257362 -70.060254198153416 0 0 0 0 41.9238682837601 -91.799145889337524 0 -91.799145889337524 -266.3196320406023 0 0 0 0 -54.680801293283068 -98.375179054969522 0 -98.375179054969522 -112.2167873649305 0 0 0 0 56.353868934225012 -30.536681613805285 0 -30.536681613805285 -167.76509828514827 0 0 0 0 55.874074892885403 -25.332268185895373 0 -25.332268185895373 -149.08462343084102 0 0 0 0 15.82212042070995 -62.439489293255974 0 -62.439489293255974 -112.53788280096524 0 0 0 0 -4.5402597461366359 -1.3830584709717897 0 -1.3830584709717897 -0.18466968073360057 0 0 0 0 -1.5558276531461956 -12.715379749595741 0 -12.715379749595741 -18.162717330160376 0 0 0 0 -50.719519983486492 -3.2122569185921748 0 -3.2122569185921748 29.847104271862918 0 0 0 0 24.565766653409526 -9.6109571481320017 0 -9.6109571481320017 -77.789781259040865 0 0 0 0 -25.037186133071941 -47.86889855271329 0 -47.86889855271329 -132.9586980285967 0 0 0 0 -216.03461856657879 -12.258794627567113 0 -12.258794627567113 -134.5709529147025 0 0 0 0 9.4544904225538744 3.0446475207954791 0 3.0446475207954791 -185.63251145155664 0 0 0 0 30.124671076602112 40.957398352880773 0 40.957398352880773 -271.4452624579244 0 0 0 0 -57.650117583164956 49.01844803536369 0 49.01844803536369 -160.4403948860072 0 0 0 0 24.378418430171564 35.357397953803229 0 35.357397953803229 -123.59700279877688 0 0 0 0 23.24633615556094 -30.155568076389187 0 -30.155568076389187 -91.054074690553534 0 0 0 0 -287.47441521443579 19.445514157167054 0 19.445514157167054 -129.34812057804038 0 0 0 0 -77.948899892027839 -6.9233805008698255 0 -6.9233805008698255 -10.529111647918398 0 0 0 0 -6.0616836664024332 -1.6928521223536563 0 -1.6928521223536563 -0.091867666567637674 0 0 0 0 -107.43885595992901 -19.337422490344579 0 -19.337422490344579 -65.414452638644434 0 0 0 0 -37.530269794177912 16.955828074631427 0 16.955828074631427 -51.00847913447069 0 0 0 0 -25.951473306815387 -134.66533513444301 0 -134.66533513444301 -268.70464496861678 0 0 0 0 -0.5881175136468979 -0.30928076929276216 0 -0.30928076929276216 -3.1233094256786407 0 0 0 0 -47.838412053184584 -174.67222725330066 0 -174.67222725330066 -191.85391590344443 0 0 0 0 49.061265451308373 -172.21474914231544 0 -172.21474914231544 -252.59282516500389 0 0 0 0 -134.58967329925781 -138.6412482794658 0 -138.6412482794658 -206.01929639853188 0 0 0 0 64.624540960281195 12.876421738889803 0 12.876421738889803 -166.90052010633008 0 0 0 0 -114.83086276017366 195.01178521533802 0 195.01178521533802 -294.79668013803894 0 0 0 0 -0.52092895591207111 2.2102899558178559 0 2.2102899558178559 -0.43128910356398364 0 0 0 0 7.1909482295661746 6.4402623925561784 0 6.4402623925561784 -24.920001178776147 0 0 0 0 0.5699237748486532 0.36474775113466951 0 0.36474775113466951 -17.593764955079479 0 0 0 0 55.262234236473887 -22.952975351865462 0 -22.952975351865462 -46.313577514196368 0 0 0 0 0.58105046770242552 -39.931481255189283 0 -39.931481255189283 23.907742823142598 0 0 0 0 -34.858509825141255 54.348066712551372 0 54.348066712551372 -146.53196207431938 0 0 0 0 0.81179143037864376 6.2054002955161778 0 6.2054002955161778 -5.3356290806314135 0 0 0 0 -52.990855020071194 -45.256234240767299 0 -45.256234240767299 -49.311449219059796 0 0 0 0 29.557092627330121 -31.262969114841326 0 -31.262969114841326 -213.46938258234417 0 0 0 0 1.4613970737176141 5.7214547257581003 0 5.7214547257581003 -0.47513389917254223 0 0 0 0 3.2970932245696076 3.3613541426184383 0 3.3613541426184383 -27.262417515267316 0 0 0 0 0.0065184075091337945 5.3244812488019306 0 5.3244812488019306 -26.274989673433083 0 0 0 0 -0.13882598404597957 4.2746660309403524 0 4.2746660309403524 -30.360400152476359 0 0 0 0 2.5337136950916488 2.6737696051795865 0 2.6737696051795865 -36.972647939668605 0 0 0 0 2.2773622390593573 -0.44622642856120365 0 -0.44622642856120365 -30.320734830525907 0 0 0 0 2.1421645662946212 0.90482876633382858 0 0.90482876633382858 -6.1675274409468113 0 0 0 0 7.5056944918532338 -4.0403175352894323 0 -4.0403175352894323 -37.490400915183272 0 0 0 0 48.416349413527314 8.1836652691999916 0 8.1836652691999916 -7.1162525131294387 0 0 0 0 74.788061938403189 22.042291619669413 0 22.042291619669413 -53.460186755408358 0 0 0 0 1.566771332763141 0.34673797159152198 0 0.34673797159152198 -20.406238633082424 0 0 0 0 2.0804163509108093 0.33754297685300116 0 0.33754297685300116 -22.328819705802744 0 0 0 0 8.097451571700276 -2.8366039769434792 0 -2.8366039769434792 -29.425351376943581 0 0 0 0 6.0753084659700622 0.22388072917172153 0 0.22388072917172153 -3.9130171047709341 0 0 0 0 6.9501212942721207 -7.3215821644243988 0 -7.3215821644243988 -34.401133974725781 0 0 0 0 71.32526012699509 -28.51561192011286 0 -28.51561192011286 -19.427666081439384 0 0 0 0 85.602994535500954 -7.7701017729232262 0 -7.7701017729232262 -35.817097085091518 0 0 0 0 74.113889995494446 47.426170797380109 0 47.426170797380109 18.825898070979747 0 0 0 0 0.014936270330460744 -1.9341653893574389 0 -1.9341653893574389 -7.0283291017191942 0 0 0 0 19.340799745482627 -22.823309851148224 0 -22.823309851148224 -31.447845715731091 0 0 0 0 42.000814149572989 -4.7602065485989442 0 -4.7602065485989442 -35.913401224035624 0 0 0 0 1.8871289723656819 -3.3093068497494476 0 -3.3093068497494476 -23.273016860045118 0 0 0 0 5.7073563134936958 -3.515708807670876 0 -3.515708807670876 -25.906737679686557 0 0 0 0 0.32112863485112797 -10.542238295201059 0 -10.542238295201059 -24.652852104009071 0 0 0 0 9.7161137674016302 -6.4668957504882201 0 -6.4668957504882201 -25.095561823724893 0 0 0 0 0.15394602258219081 -4.9878776267121747 0 -4.9878776267121747 -21.3571987721445 0 0 0 0 0.90917002052088502 -1.7752121843147748 0 -1.7752121843147748 -11.683287429057245 0 0 0 0 14.482761109411513 23.10734931796469 0 23.10734931796469 -32.490962362254976 0 0 0 0 2.6026744058508839 -0.78220751592834858 0 -0.78220751592834858 -24.505741066061091 0 0 0 0 8.832211543174104 -3.5003503593643472 0 -3.5003503593643472 -27.688354945705214 0 0 0 0 52.117865792663679 3.6932073419752669 0 3.6932073419752669 -29.703939731582068 0 0 0 0 -0.059681279728522441 32.971670961408336 0 32.971670961408336 1.2825843690479815 0 0 0 0 17.186638898519234 2.6547206915229253 0 2.6547206915229253 -25.425287461366679 0 0 0 0 0.49580104016942639 3.748937358892932 0 3.748937358892932 -23.059375281064803 0 0 0 0 -0.56937611741423888 3.4782784288813451 0 3.4782784288813451 -18.251296882871365 0 0 0 0 94.121214831586514 184.97134773843277 0 184.97134773843277 29.756938151937902 0 0 0 0 225.03956631496223 98.642383588560051 0 98.642383588560051 -51.318885621612026 0 0 0 0 58.703401264581487 47.209462245094073 0 47.209462245094073 -11.435990665934696 0 0 0 0 -27.271613325435169 61.500980224617706 0 61.500980224617706 26.782571735196143 0 0 0 0 90.208440792361046 -15.673315158690457 0 -15.673315158690457 17.872933496051701 0 0 0 0 82.308734560493491 12.365764284656962 0 12.365764284656962 9.2620889591926243 0 0 0 0 30.881330452856332 33.327672882272964 0 33.327672882272964 -8.6935465415917861 0 0 0 0 51.01901087919498 6.3182180314988727 0 6.3182180314988727 44.212993055211882 0 0 0 0 27.109299373742658 50.946272190163199 0 50.946272190163199 3.1728736643526645 0 0 0 0 27.036817423805019 39.796923808273277 0 39.796923808273277 17.505791626869723 0 0 0 0 -31.687180716458442 6.5570408094968116 0 6.5570408094968116 -7.1051806298873998 0 0 0 0 27.536013802042021 37.15949926124631 0 37.15949926124631 -4.1258076336434897 0 0 0 0 -7.0532840812409177 32.737114845997894 0 32.737114845997894 18.794404305206626 0 0 0 0 -3.7901132358360883 30.844317347318338 0 30.844317347318338 2.969061072313707 0 0 0 0 -42.56948164226651 -17.553809951827134 0 -17.553809951827134 -29.340973488084273 0 0 0 0 -50.460105838356867 8.8155540340158041 0 8.8155540340158041 24.820961063962386 0 0 0 0 -46.886237436764873 -14.634553941145896 0 -14.634553941145896 -0.67031347043939604 0 0 0 0 -228.30286002079788 -77.532504569273442 0 -77.532504569273442 7.9691418655962138 0 0 0 0 -63.402910252624906 -9.7443087631068011 0 -9.7443087631068011 9.1578210907237008 0 0 0 0 -72.348460856024303 -112.07226940832152 0 -112.07226940832152 -79.105367441228168 0 0 0 0 -46.105538799428643 -62.807762746894241 0 -62.807762746894241 -54.693973731949882 0 0 0 0 -103.0575960583335 -43.047792941140415 0 -43.047792941140415 -2.9517250037952181 0 0 0 0 -64.096422333465398 -87.697633503897123 0 -87.697633503897123 -86.27914450772596 0 0 0 0 -37.639629483752742 -106.34955109035673 0 -106.34955109035673 -119.65437807594162 0 0 0 0 -33.896516470332699 -96.761829308996312 0 -96.761829308996312 -131.30802484600463 0 0 0 0 5.4198419527972419 -47.930839088343873 0 -47.930839088343873 -136.42151883118368 0 0 0 0 -38.840983839540058 -81.57215057821486 0 -81.57215057821486 -109.84411075267963 0 0 0 0 -35.202202782780205 6.3686779286927049 0 6.3686779286927049 -4.2355651841999133 0 0 0 0 -30.766752453197114 -34.503436084170062 0 -34.503436084170062 -68.090629334201822 0 0 0 0 -27.479479802729657 -16.282042820445668 0 -16.282042820445668 -38.097194638519795 0 0 0 0 -17.668744584876464 27.864160054221429 0 27.864160054221429 30.638473741317284 0 0 0 0 -21.718131768453418 6.3094344647838625 0 6.3094344647838625 9.7203997855840498 0 0 0 0 10.809431559197037 8.7514928878590581 0 8.7514928878590581 -40.74482706964443 0 0 0 0 -0.53394866768047677 -0.52067530368378812 0 -0.52067530368378812 -1.8612508109378521 0 0 0 0 -0.83593690149098165 -24.098964878043034 0 -24.098964878043034 32.518144851191209 0 0 0 0 -36.316388772546816 5.954016792836228 0 5.954016792836228 24.805175546544888 0 0 0 0 -60.595029336619518 -6.4732361715891784 0 -6.4732361715891784 -0.68445290746876708 0 0 0 0 -1.5746857238318626 -0.29103680528533005 0 -0.29103680528533005 -8.8116844078883787 0 0 0 0 -2.7307264082282927 -10.293327785142537 0 -10.293327785142537 16.228751014536101 0 0 0 0 -0.10256775428186238 -0.94546700848125198 0 -0.94546700848125198 -0.73965968812374072 0 0 0 0 -60.98855652536804 45.569048337757067 0 45.569048337757067 -63.032022538171077 0 0 0 0 28.097885347968258 21.680989201844113 0 21.680989201844113 -72.639029790754648 0 0 0 0 3.1861331386780876 -4.1084929461976571 0 -4.1084929461976571 -31.348607087186792 0 0 0 0 5.7751739230598105 -7.0431580005188152 0 -7.0431580005188152 -35.038805275615232 0 0 0 0 1.2241833742085353 -4.8587951091906589 0 -4.8587951091906589 -4.8245655772359406 0 0 0 0 0.35012596086189163 4.0285272824973362 0 4.0285272824973362 -1.0956803535010495 0 0 0 0 4.1294740921302946 -14.210241155072254 0 -14.210241155072254 -58.515577860645863 0 0 0 0 6.3149218596529693 -0.35561629739095224 0 -0.35561629739095224 -30.355093701354235 0 0 0 0 0.026418527304514328 4.1598160554058303 0 4.1598160554058303 -7.8236270193167954 0 0 0 0 3.859217687128301 -3.2744975989285088 0 -3.2744975989285088 -5.9491475376996981 0 0 0 0 1.704303374630399 -2.2905138844325847 0 -2.2905138844325847 -15.538307693159368 0 0 0 0 -5.8324760308001373 8.0116141696375962 0 8.0116141696375962 -21.134756456645846 0 0 0 0 2.0409558129946959 4.6678914255026029 0 4.6678914255026029 -30.800367381009892 0 0 0 0 2.9836521972868013 -0.58664568106541992 0 -0.58664568106541992 -4.6798414844042782 0 0 0 0 1.1480845643887281 0.075849471588663953 0 0.075849471588663953 -16.86859313240106 0 0 0 0 6.1221808998724292 0.91038566431689105 0 0.91038566431689105 -25.026567743148917 0 0 0 0 0.89700831606444309 -0.89815027882325005 0 -0.89815027882325005 -9.2064552099439183 0 0 0 0 -1.6624796396001784 6.1262563791970024 0 6.1262563791970024 -27.878221100145311 0 0 0 0 -4.3947949931570065 -6.4469054935907479 0 -6.4469054935907479 -18.492638381449069 0 0 0 0 -1.5296630547573282 9.7960523130470243 0 9.7960523130470243 -19.325462083291427 0 0 0 0 0.083522681414258296 6.6029315565800477 0 6.6029315565800477 -16.173870504545551 0 0 0 0 39.012016666023257 39.405721111053708 0 39.405721111053708 -9.23599186739375 0 0 0 0 1.8393447348336336 0.65938180359962395 0 0.65938180359962395 -19.241690440217695 0 0 0 0 23.872536854089901 23.619462776013279 0 23.619462776013279 -15.700930873714697 0 0 0 0 -2.1746912966514174 30.41721062070792 0 30.41721062070792 -3.9142365868647175 0 0 0 0 1.4472247098005937 25.023868856909758 0 25.023868856909758 -4.9514592201131791 0 0 0 0 -3.9091426310399129 74.066044723549567 0 74.066044723549567 -148.36687519690895 0 0 0 0 -26.339028736065075 48.12101734483258 0 48.12101734483258 -105.9420181420428 0 0 0 0 -0.99555200877421157 41.16835058650031 0 41.16835058650031 -206.62353355805681 0 0 0 0 -11.230499607792519 21.546491247987419 0 21.546491247987419 8.2472520748998264 0 0 0 0 -6.3288268795606655 36.397341924272041 0 36.397341924272041 -22.288180616315003 0 0 0 0 20.239690494662682 36.119558493846853 0 36.119558493846853 -132.08258726122585 0 0 0 0 -4.0459543588991504 24.046825730344281 0 24.046825730344281 3.3619899906523187 0 0 0 0 3.5306897452228441 2.7677711043324962 0 2.7677711043324962 -106.77744893684576 0 0 0 0 18.088940874670129 25.823438173829345 0 25.823438173829345 -77.873138960174401 0 0 0 0 17.178434198848954 -24.500810659155036 0 -24.500810659155036 -22.700815378258994 0 0 0 0 15.490284408139814 13.644621374838607 0 13.644621374838607 -71.082208910218469 0 0 0 0 3.9278411818249879 2.1043117496810737 0 2.1043117496810737 -80.467184730059671 0 0 0 0 31.566741476399329 26.993222418139339 0 26.993222418139339 -141.50971239662795 0 0 0 0 60.837260395136923 -44.323172950293156 0 -44.323172950293156 -16.67821238367469 0 0 0 0 44.87574873237844 46.377943474697531 0 46.377943474697531 -10.045731529324257 0 0 0 0 18.705256202285454 -25.568351755438925 0 -25.568351755438925 33.668466732434354 0 0 0 0 1.8680531194052445 2.1117645189095242 0 2.1117645189095242 -4.0259438027533587 0 0 0 0 -0.20410291955931825 8.9409615331387613 0 8.9409615331387613 -7.7338569868406921 0 0 0 0 15.120763816472987 -17.256948369818929 0 -17.256948369818929 -28.562339587617316 0 0 0 0 -4.1289225009965094 -5.3470648603545641 0 -5.3470648603545641 -12.858337493971462 0 0 0 0 -2.7541778713772942 14.911668630669737 0 14.911668630669737 -5.0748872110416414 0 0 0 0 1.5410761023819513 2.7114121149796375 0 2.7114121149796375 -2.7313585276624792 0 0 0 0 -4.5001396121233528 11.636471572708757 0 11.636471572708757 -4.4519187821680752 0 0 0 0 3.3255448642974659 -1.4564570823832526 0 -1.4564570823832526 -24.672870479151499 0 0 0 0 23.546310480568593 -21.889243309497942 0 -21.889243309497942 -21.660539637756301 0 0 0 0 -20.543504812505489 17.623274432095059 0 17.623274432095059 -19.542323364694312 0 0 0 0 2.2538068948394994 -2.5696719686093275 0 -2.5696719686093275 -67.611532102997444 0 0 0 0 -1.1641305838721492 4.0924201855328306 0 4.0924201855328306 -4.9645943725583095 0 0 0 0 -11.532024007671453 -5.6742769225920711 0 -5.6742769225920711 -37.916976784908911 0 0 0 0 -5.7588716110125144 5.0673371337081434 0 5.0673371337081434 -9.3112778046097624 0 0 0 0 -22.303863096695295 23.568843999673845 0 23.568843999673845 -13.955426118947798 0 0 0 0 -16.027757041850798 15.317618012689415 0 15.317618012689415 -18.605630367615959 0 0 0 0 -18.319890777924456 20.890921177000564 0 20.890921177000564 -24.376599440844075 0 0 0 0 12.460040196060845 30.812391767420195 0 30.812391767420195 -27.616831124330929 0 0 0 0 -1.7536057197752037 9.9719678770885967 0 9.9719678770885967 -34.28332027927469 0 0 0 0 119.45181210990847 88.815715097375687 0 88.815715097375687 -21.189295998698071 0 0 0 0 12.675332705392748 13.064170568832196 0 13.064170568832196 -56.91803606535359 0 0 0 0 133.5763751231799 14.998424092401365 0 14.998424092401365 -67.353951412864262 0 0 0 0 0.33665353944756449 2.9777013554451131 0 2.9777013554451131 -34.672645347105757 0 0 0 0 139.80455866083912 25.240794128643756 0 25.240794128643756 -57.967509545655048 0 0 0 0 1.9407086871194488 0.32051720607114831 0 0.32051720607114831 -33.687274285701477 0 0 0 0 30.977646406693793 0.71699145090951788 0 0.71699145090951788 -89.063221790798707 0 0 0 0 5.4512957428974005 4.7165047378020972 0 4.7165047378020972 -21.16249591135329 0 0 0 0 -25.170197695824072 43.032596494347672 0 43.032596494347672 -60.550288056048885 0 0 0 0 1.764516395856949 14.764452435242674 0 14.764452435242674 -39.628370803842074 0 0 0 0 4.5508211433898396 10.599068944473402 0 10.599068944473402 -14.863297271702322 0 0 0 0 63.730603420797252 -3.8241603073329316 0 -3.8241603073329316 -46.819658220791098 0 0 0 0 2.9662087850171988 6.2370799848104035 0 6.2370799848104035 -28.12032081830742 0 0 0 0 190.40248382969639 15.810710758880305 0 15.810710758880305 -57.107803654027521 0 0 0 0 150.204488342525 11.87944410436171 0 11.87944410436171 -99.317058424319839 0 0 0 0 151.65212834372778 -4.5600545837878599 0 -4.5600545837878599 -49.293357740654756 0 0 0 0 69.849458885187687 38.251399148062774 0 38.251399148062774 -82.029691980944335 0 0 0 0 151.22810675480787 -8.2185151197118103 0 -8.2185151197118103 -71.817878989360906 0 0 0 0 151.21897588231104 -7.3247217371754232 0 -7.3247217371754232 -152.57205891270496 0 0 0 0 47.673062135545024 71.566065178587451 0 71.566065178587451 -129.6406968797437 0 0 0 0 -10.321946285345575 -63.970902633028345 0 -63.970902633028345 96.458007728004304 0 0 0 0 188.78816934249335 31.944842510587478 0 31.944842510587478 -56.85128614077621 0 0 0 0 129.16039388214995 6.7483165084267966 0 6.7483165084267966 -67.277808921968244 0 0 0 0 140.97182800659903 35.493182022873953 0 35.493182022873953 -84.266352391356122 0 0 0 0 110.51274626425152 184.82835597317899 0 184.82835597317899 148.94540866584794 0 0 0 0 123.33766777627579 92.069012412010579 0 92.069012412010579 -111.96063924703776 0 0 0 0 -3.1560509621252502 13.762583258264684 0 13.762583258264684 -41.181718246663749 0 0 0 0 311.71505735230676 64.576592191229793 0 64.576592191229793 -97.215463442993496 0 0 0 0 2.3588574455974021 2.4822767552434541 0 2.4822767552434541 -13.086856909756442 0 0 0 0 192.7586571614188 -59.830965195983481 0 -59.830965195983481 -29.392370007946738 0 0 0 0 202.45710318682927 148.36444621681949 0 148.36444621681949 -34.169024196537066 0 0 0 0 14.213400972951149 42.911395207511305 0 42.911395207511305 17.285988612617075 0 0 0 0 320.67275959071947 -112.20270703864662 0 -112.20270703864662 -363.68080737298078 0 0 0 0 -1.0208727524943146 -0.51455227533205061 0 -0.51455227533205061 -0.18508225030681946 0 0 0 0 -59.864789962104965 -102.59828852065129 0 -102.59828852065129 -109.32293856909018 0 0 0 0 66.203211763154968 33.346856989777734 0 33.346856989777734 -114.37881132957409 0 0 0 0 60.462701849234691 27.79624633918138 0 27.79624633918138 -82.099405576414028 0 0 0 0 10.197820638604298 -21.208630154299499 0 -21.208630154299499 -113.3098747296026 0 0 0 0 -4.0517096347944426 -1.5293328298738373 0 -1.5293328298738373 -0.12311234218765277 0 0 0 0 -40.087945812541875 -92.281311906306655 0 -92.281311906306655 -151.76660933058457 0 0 0 0 -26.987293546963429 -38.807239380930696 0 -38.807239380930696 -1.9951256367398287 0 0 0 0 67.782431976446475 -21.732597556476776 0 -21.732597556476776 -163.59618240185955 0 0 0 0 23.878749481938485 -4.9836399713294668 0 -4.9836399713294668 -39.405143611586027 0 0 0 0 -130.5965974129457 -103.32979521057587 0 -103.32979521057587 -58.799718226797268 0 0 0 0 18.909618266673988 -46.327363958163915 0 -46.327363958163915 -222.32323687751523 0 0 0 0 -4.553408683066607 -98.540794799714149 0 -98.540794799714149 -109.98929560709803 0 0 0 0 11.544988163021117 -52.207259053588132 0 -52.207259053588132 -65.934768541581434 0 0 0 0 36.919835110023712 -36.20359618449902 0 -36.20359618449902 -110.16454470944518 0 0 0 0 3.8229374043985445 33.417109318004805 0 33.417109318004805 -53.946108228794401 0 0 0 0 -32.212821851981971 -6.0599072911554686 0 -6.0599072911554686 -25.476515113165078 0 0 0 0 -0.53926609726408614 -1.0937380406086632 0 -1.0937380406086632 -2.3215485477614237 0 0 0 0 -92.05615213739793 83.964355868860366 0 83.964355868860366 -133.49408553363264 0 0 0 0 -4.7262705661005384 30.888651553934324 0 30.888651553934324 -53.618384501376568 0 0 0 0 60.204161725090216 48.816508271402881 0 48.816508271402881 -16.556406125513604 0 0 0 0 -5.2869957292423351 31.939075693873747 0 31.939075693873747 35.150870566074445 0 0 0 0 -46.697477525051454 67.497098129881124 0 67.497098129881124 -13.65857424303249 0 0 0 0 -42.767708549933559 20.26173303102405 0 20.26173303102405 -12.973612020436121 0 0 0 0 -1.1033216523041958 -2.8836305570862706 0 -2.8836305570862706 -6.0002506033291922 0 0 0 0 79.700896953474057 37.304524665394638 0 37.304524665394638 -13.056317543898331 0 0 0 0 99.872253645146088 -10.52786350534916 0 -10.52786350534916 -29.769860012369463 0 0 0 0 28.435651843990854 45.035137487913744 0 45.035137487913744 -1.8720835173244268 0 0 0 0 -1.0031382570582537 22.922279496423471 0 22.922279496423471 8.6963172865871456 0 0 0 0 4.9552192289040704 52.083455739892088 0 52.083455739892088 -48.981145460806147 0 0 0 0 166.35987202527144 -129.13555873278438 0 -129.13555873278438 -94.258274706447992 0 0 0 0 70.425182995948262 -36.380221244146014 0 -36.380221244146014 -192.07819310093146 0 0 0 0 -0.97704457806366918 20.045863568134337 0 20.045863568134337 24.940662573830195 0 0 0 0 -0.63430339482453757 1.1111606177463997 0 1.1111606177463997 -1.1025214845024252 0 0 0 0 -2.9356233856796834 2.2492703848621716 0 2.2492703848621716 -1.0957059963644156 0 0 0 0 39.458620325804361 11.787049627397209 0 11.787049627397209 -195.87709787342465 0 0 0 0 -33.672662528575074 -9.7186799903302017 0 -9.7186799903302017 -61.529506588296499 0 0 0 0 0.37323681730345015 -66.344641882136784 0 -66.344641882136784 -25.429273841382383 0 0 0 0 97.647936128142646 -97.020364193780551 0 -97.020364193780551 -135.46927142397362 0 0 0 0 110.7310976720749 -134.95620412059998 0 -134.95620412059998 -25.497484479179548 0 0 0 0 98.455645775378116 -36.344014824298938 0 -36.344014824298938 19.173153754665691 0 0 0 0 60.816852665671377 -98.880874028511244 0 -98.880874028511244 -32.35395607753162 0 0 0 0 -4.7517363045694765 -80.482224102430337 0 -80.482224102430337 57.317191865127825 0 0 0 0 5.6735366525674635 -144.57841199079394 0 -144.57841199079394 2.547682228465419 0 0 0 0 87.506158200807931 -75.199163086643239 0 -75.199163086643239 -255.45123336126744 0 0 0 0 89.510919919899209 -51.753489618452249 0 -51.753489618452249 -44.084108737610222 0 0 0 0 109.82921029399358 -47.550286985903767 0 -47.550286985903767 10.642300894665823 0 0 0 0 108.43040637905597 -38.942611593083711 0 -38.942611593083711 -37.341110131827008 0 0 0 0 -1.5551198454727082 0.82697307580932744 0 0.82697307580932744 -4.2271173733320069 0 0 0 0 166.90767332306928 11.013154913474864 0 11.013154913474864 -15.792032361313431 0 0 0 0 171.6258320540469 -38.808093217854548 0 -38.808093217854548 -28.389542016753694 0 0 0 0 -0.49224859123675113 2.2020295938547818 0 2.2020295938547818 -4.0395477333969723 0 0 0 0 178.28627725059579 -76.813839357635061 0 -76.813839357635061 -20.305056881654309 0 0 0 0 -2.4076794068125018 7.2169859137684398 0 7.2169859137684398 -8.3198505011211665 0 0 0 0 0.89783280542928878 14.350863462224879 0 14.350863462224879 -23.707502197221402 0 0 0 0 -10.668546651973543 26.266872514896022 0 26.266872514896022 -35.065563924417802 0 0 0 0 -1.6522455488963379 10.113798149469076 0 10.113798149469076 -17.250417792032327 0 0 0 0 -42.57438051513607 26.293250615104625 0 26.293250615104625 -0.29739072508527897 0 0 0 0 -33.450860054698751 36.937134537951351 0 36.937134537951351 -38.16970839581154 0 0 0 0 -0.49245104102219273 -0.84383735885662503 0 -0.84383735885662503 -0.67470139141707364 0 0 0 0 -64.744912860251702 109.9907919690595 0 109.9907919690595 -208.25387241521094 0 0 0 0 31.495736485391262 -35.670585316018332 0 -35.670585316018332 -173.50749497045035 0 0 0 0 55.857661376243641 -32.888083631511108 0 -32.888083631511108 -280.31927352937782 0 0 0 0 28.775197675794175 96.125328345158778 0 96.125328345158778 -9.3653509230280179 0 0 0 0 114.95260929595167 14.173927348967482 0 14.173927348967482 -159.63244527718143 0 0 0 0 70.826738772814622 57.339318624397492 0 57.339318624397492 -288.26948691808866 0 0 0 0 56.629005045504584 -2.5569381984323627 0 -2.5569381984323627 -2.0278865700129245 0 0 0 0 -9.1167439578433402 -130.45204835057757 0 -130.45204835057757 -269.3006012261867 0 0 0 0 39.315069430433368 -48.827677977797066 0 -48.827677977797066 -151.73415144447608 0 0 0 0 -0.54586762832020541 0.9236691173567344 0 0.9236691173567344 -4.2560878612473232 0 0 0 0 -224.72718532626169 32.036209583622622 0 32.036209583622622 4.136315982312226 0 0 0 0 -336.39727647740989 43.104514385988296 0 43.104514385988296 62.017623035959332 0 0 0 0 113.43415861848746 -83.811345773967332 0 -83.811345773967332 -233.15558490324605 0 0 0 0 -35.716883611269225 177.1883767400559 0 177.1883767400559 -225.23327951399727 0 0 0 0 50.11175279210687 29.017059903798327 0 29.017059903798327 -8.1764834505083854 0 0 0 0 -45.572949015958329 67.368055725113663 0 67.368055725113663 28.372087708659819 0 0 0 0 46.832037177627853 106.75334334226864 0 106.75334334226864 -60.137725806636809 0 0 0 0 -38.00686541443801 32.333494381233322 0 32.333494381233322 3.7053969828502886 0 0 0 0 -25.858300407101524 27.043986326818413 0 27.043986326818413 -4.4068775129817368 0 0 0 0 -45.467749869320869 40.066612753835216 0 40.066612753835216 -3.4776973224652465 0 0 0 0 -5.6259982558100319 40.141134221394168 0 40.141134221394168 -3.6453014005164732 0 0 0 0 -7.02538475703534 49.444450788367249 0 49.444450788367249 -49.685535815900948 0 0 0 0 13.979095634835801 34.820184820546274 0 34.820184820546274 -98.622259701623989 0 0 0 0 4.4534170099288071 1.3702978708897291 0 1.3702978708897291 -13.202703418372238 0 0 0 0 -0.013357108797208639 88.731360551752005 0 88.731360551752005 42.056259822886204 0 0 0 0 2.5687748676849935 75.994427718696898 0 75.994427718696898 -7.9394465759105515 0 0 0 0 3.5948145692364051 2.9968733723653713 0 2.9968733723653713 8.0932291883800644 0 0 0 0 1.4063722259552378 -10.490627371618757 0 -10.490627371618757 21.549402667966206 0 0 0 0 -0.59510136143887848 -5.4580571746973874 0 -5.4580571746973874 19.045731825841358 0 0 0 0 4.5962803580869149 -12.874885137360252 0 -12.874885137360252 5.8719604392535985 0 0 0 0 6.6925558405011998 1.7878446212866947 0 1.7878446212866947 -9.178276876846212 0 0 0 0 7.8756910627280377 -4.9254817966284463 0 -4.9254817966284463 -14.975531104202673 0 0 0 0 6.0617451323113301 -3.8310016514633389 0 -3.8310016514633389 -1.8624510526715312 0 0 0 0 9.5963114647011025 9.7342502333922312 0 9.7342502333922312 -12.773341002844973 0 0 0 0 5.2954564709862098 14.291477155202301 0 14.291477155202301 3.9074381468672073 0 0 0 0 6.9982777779423486 1.7354765444470104 0 1.7354765444470104 7.2568443430318439 0 0 0 0 10.018579298923214 10.823593202076154 0 10.823593202076154 -8.7269912518677302 0 0 0 0 6.8174258660601481 -1.1260382931504864 0 -1.1260382931504864 29.821419547592086 0 0 0 0 1.8899906720225772 5.8926788334138109 0 5.8926788334138109 28.203379106940702 0 0 0 0 6.2001786059499864 -7.3621122019103495 0 -7.3621122019103495 35.175696959762718 0 0 0 0 2.4805432540088077 -1.4925226426275913 0 -1.4925226426275913 23.388334740331629 0 0 0 0 2.1078900110569521 0.98091715983173344 0 0.98091715983173344 25.72905355480907 0 0 0 0 22.456246667744381 -21.210825289395871 0 -21.210825289395871 48.157386097023846 0 0 0 0 1.4071159628454097 -10.898911516731459 0 -10.898911516731459 35.819793441449292 0 0 0 0 5.1685787125243223 -7.1235449590021744 0 -7.1235449590021744 39.077419830020517 0 0 0 0 6.8441082850431485 -4.6620413640630431 0 -4.6620413640630431 39.437005719461013 0 0 0 0 5.6205869755431195 -14.959371621283935 0 -14.959371621283935 51.316197333188029 0 0 0 0 15.972145234068023 -14.191148739778782 0 -14.191148739778782 47.915854572260287 0 0 0 0 18.413490298664328 -21.675443399464712 0 -21.675443399464712 49.892186480319651 0 0 0 0 19.748593845046344 -20.140748256861116 0 -20.140748256861116 51.373509825440124 0 0 0 0 -1.4359598177761654 -16.124867304017243 0 -16.124867304017243 49.179710820470063 0 0 0 0 4.9787174771327045 -13.637855489760113 0 -13.637855489760113 49.80584936766536 0 0 0 0 -3.6786422511531782 -13.731993164969026 0 -13.731993164969026 39.860051355542964 0 0 0 0 -0.38887820941363316 -16.058825741692999 0 -16.058825741692999 36.780977960152086 0 0 0 0 -0.93016424919187557 -5.8315246130478045 0 -5.8315246130478045 32.493669100716943 0 0 0 0 1.7630862465430255 -18.96181454827456 0 -18.96181454827456 25.589750019171333 0 0 0 0 9.1967624914536827 -20.653614417802601 0 -20.653614417802601 31.393979336451594 0 0 0 0 3.6670618454677424 -22.370017946166627 0 -22.370017946166627 9.4024186256865505 0 0 0 0 -2.2475712445216232 -12.314192603120318 0 -12.314192603120318 28.811252550789504 0 0 0 0 -3.7180556780148208 -18.69666426996082 0 -18.69666426996082 36.154906754112744 0 0 0 0 2.3234334573844535 -8.8693172932617017 0 -8.8693172932617017 36.727327797622138 0 0 0 0 9.2382006536136032 -37.913607703951129 0 -37.913607703951129 -1.6737801090421272 0 0 0 0 10.16386340705867 -14.27884494898899 0 -14.27884494898899 -11.554015230642108 0 0 0 0 15.695572224105945 -11.453571094567451 0 -11.453571094567451 -37.508892440062482 0 0 0 0 4.1229179987140014 -5.5418428090633824 0 -5.5418428090633824 -1.6925073547536158 0 0 0 0 6.2882483577686799 -12.580756255723827 0 -12.580756255723827 -7.7671642497298308 0 0 0 0 9.5992970884285569 -8.0106136375106871 0 -8.0106136375106871 -37.814277625105206 0 0 0 0 10.64983943921743 -4.5004447827450349 0 -4.5004447827450349 -33.907924656465184 0 0 0 0 11.656358472027932 -3.3952841778300353 0 -3.3952841778300353 -33.685596289811656 0 0 0 0 16.450770880841901 -10.363145170929783 0 -10.363145170929783 -62.907715769601054 0 0 0 0 20.560053356191446 1.8296663536813185 0 1.8296663536813185 -78.478156467201188 0 0 0 0 25.859105873615135 -16.589799011086143 0 -16.589799011086143 -88.922114073531702 0 0 0 0 15.392186710852116 12.326680662108629 0 12.326680662108629 -111.43574840421206 0 0 0 0 25.776841227309887 -5.70934660857165 0 -5.70934660857165 -106.65605703442998 0 0 0 0 19.96721245660865 -1.9122205511957873 0 -1.9122205511957873 -79.201088591724329 0 0 0 0 25.430486107459728 1.6899712243030081 0 1.6899712243030081 -102.28511924493796 0 0 0 0 25.703054238312234 -2.0221236058678187 0 -2.0221236058678187 -101.81439378109644 0 0 0 0 32.831411751887117 11.16825530994538 0 11.16825530994538 -93.53139047143668 0 0 0 0 34.525067428972307 10.469544953892182 0 10.469544953892182 -109.42308473132289 0 0 0 0 25.368803505772121 7.5949293478697655 0 7.5949293478697655 -65.988330125226639 0 0 0 0 29.031062002291037 9.7493347968847957 0 9.7493347968847957 -93.265038734738482 0 0 0 0 25.182600413550972 7.1744278773549013 0 7.1744278773549013 -79.126176732039312 0 0 0 0 23.352352033106399 1.755725034243369 0 1.755725034243369 -81.813082033273531 0 0 0 0 27.126725943061501 4.5615588661894435 0 4.5615588661894435 -85.437338789393834 0 0 0 0 24.876399736418534 -1.1019863810215611 0 -1.1019863810215611 -88.24618017571629 0 0 0 0 20.667480723875407 -4.4162943811695641 0 -4.4162943811695641 -63.176837367209373 0 0 0 0 17.421874447319169 3.3302392951445654 0 3.3302392951445654 -58.592067063822469 0 0 0 0 21.416470722349914 13.16857612664171 0 13.16857612664171 -63.185597162249906 0 0 0 0 14.334676071277954 6.8136604094470385 0 6.8136604094470385 -37.743836154651945 0 0 0 0 15.045822600683096 2.4544578810164239 0 2.4544578810164239 -39.314857068311539 0 0 0 0 10.161194104932587 35.878420534215536 0 35.878420534215536 -21.893926755990833 0 0 0 0 18.828124028605998 22.861114948129398 0 22.861114948129398 -32.285196485216147 0 0 0 0 12.346607939692149 9.026823862670426 0 9.026823862670426 -25.02493529045023 0 0 0 0 21.747881680278965 8.7975322186052836 0 8.7975322186052836 -58.103079718392109 0 0 0 0 25.851030263808752 20.811992839677259 0 20.811992839677259 -68.751025366444082 0 0 0 0 21.479129725405983 25.074336559991934 0 25.074336559991934 -62.803223977374728 0 0 0 0 26.419281912641054 17.15191976542701 0 17.15191976542701 -65.382594931270432 0 0 0 0 40.281868442542873 31.475981029296236 0 31.475981029296236 -87.453527560865041 0 0 0 0 39.93605126283137 7.7007568632179755 0 7.7007568632179755 -123.07425846034312 0 0 0 0 46.699457638506374 -4.6221188771087327 0 -4.6221188771087327 -161.67063276517729 0 0 0 0 48.019983650235758 19.834536517464585 0 19.834536517464585 -135.03154696508136 0 0 0 0 39.59229035547105 -3.636675641319016 0 -3.636675641319016 -141.34560267519555 0 0 0 0 33.583963665196052 -1.1395270006860301 0 -1.1395270006860301 -121.54432978313707 0 0 0 0 34.653502095078466 2.6307915212273656 0 2.6307915212273656 -118.65223578046425 0 0 0 0 46.437834657447183 5.7602539869476459 0 5.7602539869476459 -129.70918124488526 0 0 0 0 36.383268329064776 -15.443720507610124 0 -15.443720507610124 -129.30665923151537 0 0 0 0 25.988369413930286 -4.1187399199552601 0 -4.1187399199552601 -141.35961120095453 0 0 0 0 36.778650464425482 -24.65160315981484 0 -24.65160315981484 -153.6887134357894 0 0 0 0 18.290156341584634 6.5900660602201242 0 6.5900660602201242 -77.287533022023126 0 0 0 0 24.78863830273599 8.4594604784651892 0 8.4594604784651892 -144.222632304125 0 0 0 0 20.932276179020391 9.3178396489529405 0 9.3178396489529405 -124.59818560422809 0 0 0 0 5.9155156896514605 -7.2657617912556702 0 -7.2657617912556702 -7.9847036104862426 0 0 0 0 30.525149010793029 -80.892492699635113 0 -80.892492699635113 102.02841574401828 0 0 0 0 -14.861187806200178 37.595366236142581 0 37.595366236142581 -93.782195045903791 0 0 0 0 4.0044484624349002 2.1576679265612171 0 2.1576679265612171 -7.318366533477878 0 0 0 0 -16.96701522554531 10.288878233510331 0 10.288878233510331 -240.39653661207194 0 0 0 0 -20.637607378810571 22.489739815944631 0 22.489739815944631 -135.64058757558814 0 0 0 0 4.1669237611827157 -3.7486900805815822 0 -3.7486900805815822 -140.68017661071644 0 0 0 0 31.560931656611501 0.23941835599543992 0 0.23941835599543992 -143.69552063509764 0 0 0 0 27.531405557356265 -3.1117627997155068 0 -3.1117627997155068 -140.39548705128254 0 0 0 0 28.454650801553726 1.3384579606681655 0 1.3384579606681655 -127.71000187633035 0 0 0 0 3.0869067457088022 1.9028067960171029 0 1.9028067960171029 -132.84507502915221 0 0 0 0 17.938917845962351 -5.4096262873063097 0 -5.4096262873063097 -140.64442484500614 0 0 0 0 20.074135514981208 7.2926530067634303 0 7.2926530067634303 -131.35701857335516 0 0 0 0 23.452760837699948 6.4681956964496266 0 6.4681956964496266 -117.9649583286955 0 0 0 0 8.5827211364712639 0.43341844266251428 0 0.43341844266251428 -120.41019757071626 0 0 0 0 23.406224443488099 -5.4642792552913306 0 -5.4642792552913306 -113.7684781972057 0 0 0 0 34.046887517681171 -2.9345068875190918 0 -2.9345068875190918 -128.04048118198989 0 0 0 0 3.490945479408083 6.8792218125236104 0 6.8792218125236104 -113.65626312264067 0 0 0 0 7.7495506860213936 15.018308993929168 0 15.018308993929168 -145.28323402311071 0 0 0 0 13.767054924459444 3.1199305657792138 0 3.1199305657792138 -137.02250657296827 0 0 0 0 28.031620960988221 35.661560278931574 0 35.661560278931574 -157.79554635727436 0 0 0 0 32.392633889535887 68.852443863084773 0 68.852443863084773 -198.45713229249668 0 0 0 0 9.5912262616236887 -7.0368167415587308 0 -7.0368167415587308 -7.1274541787756931 0 0 0 0 67.578230180009314 38.703441133569868 0 38.703441133569868 -189.07787416666361 0 0 0 0 -24.957031841327478 44.178094877071544 0 44.178094877071544 -150.74110364805529 0 0 0 0 -141.75921361465674 137.92430078969664 0 137.92430078969664 124.30648607112016 0 0 0 0 2.4800055006408002 17.894304052275402 0 17.894304052275402 -24.449869151150779 0 0 0 0 -2.9142072996871207 2.2979031697035452 0 2.2979031697035452 -4.4629290371070383 0 0 0 0 -1.7128517422789002 -1.6747984211172025 0 -1.6747984211172025 -12.128635573990323 0 0 0 0 71.589395061592526 160.12683069711295 0 160.12683069711295 -355.53961936743144 0 0 0 0 136.40741682041221 30.746817025541532 0 30.746817025541532 -301.88485853763996 0 0 0 0 88.107764610353229 -29.080310159437431 0 -29.080310159437431 -135.926891249459 0 0 0 0 97.918312720656331 -18.142425762940547 0 -18.142425762940547 -213.28931708906202 0 0 0 0 59.022218574417408 44.984386654333321 0 44.984386654333321 -190.55143344168027 0 0 0 0 26.954769472077487 25.869756227642938 0 25.869756227642938 -132.39521396614873 0 0 0 0 24.147154843012004 -22.377989068274474 0 -22.377989068274474 -49.081255894176138 0 0 0 0 56.464397302379666 -8.3085570208604622 0 -8.3085570208604622 -142.45092254259635 0 0 0 0 60.058832664870806 -29.575076715953401 0 -29.575076715953401 -84.605690788193897 0 0 0 0 75.720735482387681 -68.992776609920838 0 -68.992776609920838 -85.125862122666149 0 0 0 0 0.37710447022141125 -35.239067657181295 0 -35.239067657181295 29.99656207316184 0 0 0 0 16.34572265386862 -13.833909074701296 0 -13.833909074701296 -44.60241004297859 0 0 0 0 12.897216763936285 -32.519392038957449 0 -32.519392038957449 -25.742881358401064 0 0 0 0 14.685775667401799 -49.496824107636712 0 -49.496824107636712 37.425208391388878 0 0 0 0 103.37042575057876 -108.35628910977539 0 -108.35628910977539 -11.025086490900321 0 0 0 0 103.96146752037521 -75.133225520912674 0 -75.133225520912674 20.108882352389628 0 0 0 0 141.26840966935788 -129.99228978652536 0 -129.99228978652536 -30.835881930310279 0 0 0 0 167.81774329142888 -75.88234666250537 0 -75.88234666250537 -157.78507240558974 0 0 0 0 188.37295232317706 -75.174746761731512 0 -75.174746761731512 -160.76558568724431 0 0 0 0 73.535824907065489 -90.978696991318429 0 -90.978696991318429 -13.27597820369192 0 0 0 0 123.23228206529529 -72.583696027886617 0 -72.583696027886617 -150.90026839693019 0 0 0 0 -244.12181560214594 229.44044619598208 0 229.44044619598208 -2.1009094806686335 0 0 0 0 184.29798310334922 -161.71494820058797 0 -161.71494820058797 31.228475476353196 0 0 0 0 -122.31195452198958 120.74741721654891 0 120.74741721654891 86.724069049167156 0 0 0 0 -1.1678472142646887 3.3656957076474772 0 3.3656957076474772 -7.7887360084949648 0 0 0 0 198.0248946641135 -103.75183823346742 0 -103.75183823346742 -163.6664284724684 0 0 0 0 -30.223414691451353 153.96755185653274 0 153.96755185653274 -208.88760710461793 0 0 0 0 -140.86534307298723 183.33136881195605 0 183.33136881195605 -2.8948391147496295 0 0 0 0 105.75183609142863 23.281982451130489 0 23.281982451130489 -144.28821019249153 0 0 0 0 19.106534332721367 22.002479905491782 0 22.002479905491782 -64.472907150184255 0 0 0 0 14.874706186283941 -5.506445699733959 0 -5.506445699733959 -6.284256049397186 0 0 0 0 -574.2974287834154 288.1970807815087 0 288.1970807815087 201.36874504634034 0 0 0 0 213.37055953568779 6.9775919507592334 0 6.9775919507592334 -373.72793738725795 0 0 0 0 188.7585206505147 369.63751354152191 0 369.63751354152191 -1117.4833208681957 0 0 0 0 200.34059423434542 -33.391077009109722 0 -33.391077009109722 -335.12638343116851 0 0 0 0 9.8513952123151611 -6.6382740395419333 0 -6.6382740395419333 -7.608600287453136 0 0 0 0 7.9787646921377018 20.525224893657651 0 20.525224893657651 -51.96585327144021 0 0 0 0 -0.76589225603629529 20.99238037259056 0 20.99238037259056 9.4622439313461655 0 0 0 0 7.5711110643342181 18.010449429804794 0 18.010449429804794 -14.926664305152372 0 0 0 0 10.497080037035914 6.5563235516101486 0 6.5563235516101486 -12.200645397744665 0 0 0 0 6.1541211033941181 2.2925328784440353 0 2.2925328784440353 6.4668957716512523 0 0 0 0 10.663185292982462 1.4090343170228152 0 1.4090343170228152 -48.01747307511323 0 0 0 0 -4.6296302094337989 8.7527041645280406 0 8.7527041645280406 -19.789706217063213 0 0 0 0 24.972708108498182 -0.68558514317510344 0 -0.68558514317510344 -30.234130321245175 0 0 0 0 13.260731323692198 12.510150873171369 0 12.510150873171369 -37.991879818342568 0 0 0 0 19.071615248165017 18.566287051340623 0 18.566287051340623 -25.651942385833536 0 0 0 0 27.847386609284172 11.290572908563263 0 11.290572908563263 -14.219897689908976 0 0 0 0 22.794840623376331 22.125507688026119 0 22.125507688026119 6.8094025709106063 0 0 0 0 46.793459766546505 -13.760284186117929 0 -13.760284186117929 -25.708836927111406 0 0 0 0 50.684738826441844 13.665571155748694 0 13.665571155748694 -22.828317582798263 0 0 0 0 32.610758367336075 -5.9607189219696011 0 -5.9607189219696011 -36.084430833030638 0 0 0 0 34.879601289980201 7.7888320639631274 0 7.7888320639631274 -49.109510286853038 0 0 0 0 -28.301603616723241 86.056466839840141 0 86.056466839840141 -71.340973425012635 0 0 0 0 23.172508235592566 0.2064173393537132 0 0.2064173393537132 -12.539431282287186 0 0 0 0 -25.553667055289196 45.325331710391026 0 45.325331710391026 -64.31713080440386 0 0 0 0 -57.821281632133349 -25.566728500986301 0 -25.566728500986301 18.905084621666902 0 0 0 0 -51.456895256809503 14.921798092195672 0 14.921798092195672 -32.804256983126834 0 0 0 0 -15.793225714794517 20.881885141454404 0 20.881885141454404 -35.415313991945368 0 0 0 0 -3.4600294275902939 4.6106646440014227 0 4.6106646440014227 -7.9833319467736175 0 0 0 0 -9.6996945145811022 12.432966128973014 0 12.432966128973014 -18.072430580010312 0 0 0 0 -17.275648998274278 25.737225327313354 0 25.737225327313354 210.50566554068939 0 0 0 0 -488.33767888798207 16.40970247619407 0 16.40970247619407 210.50566554069155 0 0 0 0 321.05253413251233 284.39868799641772 0 284.39868799641772 -2497.3554903744152 0 0 0 0 -261.32483000717122 484.87054768331654 0 484.87054768331654 -992.7326287973774 0 0 0 0 -0.0044356243994207595 0.99095581101738528 0 0.99095581101738528 -4.306594039144116 0 0 0 0 -5.2154681814135655 5.138923184685293 0 5.138923184685293 -7.660068978941311 0 0 0 0 117.33723520508687 -237.75970979814701 0 -237.75970979814701 -2494.7643421201246 0 0 0 0 94.039685251749773 -184.06215721082845 0 -184.06215721082845 -1294.117196036299 0 0 0 0 -175.85284471291106 -155.57728852534638 0 -155.57728852534638 -121.94081422996419 0 0 0 0 -621.80142905350078 229.07272889717569 0 229.07272889717569 -136.6556548254157 0 0 0 0 66.35225948762573 780.74375987450367 0 780.74375987450367 -2494.0558354250752 0 0 0 0 383.15524883805631 124.319884448425 0 124.319884448425 -1142.5242702930846 0 0 0 0 -227.48950600215142 397.12643563132906 0 397.12643563132906 295.26224616796026 0 0 0 0 212.66051218683361 -443.24293105116703 0 -443.24293105116703 -467.86524929869302 0 0 0 0 394.93747989531289 375.61421790563054 0 375.61421790563054 47.410547251871321 0 0 0 0 -398.25882246555528 -50.629110274468076 0 -50.629110274468076 179.53654031766928 0 0 0 0 -108.17145599063565 134.75954419113623 0 134.75954419113623 220.76925177830253 0 0 0 0 -174.59315351367843 11.787540412866292 0 11.787540412866292 60.836130654206499 0 0 0 0 -113.5239568814751 123.73615106836951 0 123.73615106836951 58.45434299365661 0 0 0 0 -81.348864961530353 95.44770061401141 0 95.44770061401141 41.445608473644825 0 0 0 0 -116.65126500047495 64.32224367004801 0 64.32224367004801 132.61034463685792 0 0 0 0 83.641331219604808 27.207671901025606 0 27.207671901025606 96.413113904876809 0 0 0 0 -1.4137163177374559 -1.1600450366609607 0 -1.1600450366609607 -0.6367637184699575 0 0 0 0 84.162877219211737 -40.578065299838272 0 -40.578065299838272 93.229422831507691 0 0 0 0 105.77244218151168 -171.182169339947 0 -171.182169339947 214.83873018618033 0 0 0 0 205.10166369924559 162.51845118357414 0 162.51845118357414 427.66377643617307 0 0 0 0 8.2195718342793498 -67.124396012803118 0 -67.124396012803118 150.2779673655823 0 0 0 0 -404.81066828940305 288.07359625140452 0 288.07359625140452 -224.11544897170825 0 0 0 0 17.574897867780138 -96.204334352237311 0 -96.204334352237311 -310.3904234298825 0 0 0 0 517.33109339924818 256.11782842926914 0 256.11782842926914 -447.65660313451372 0 0 0 0 630.3441446484992 -179.8157922698465 0 -179.8157922698465 -384.47470694492586 0 0 0 0 -1.8707761071708542 7.7654373893425621 0 7.7654373893425621 -19.4295389843424 0 0 0 0 154.54167938892579 46.261822069613117 0 46.261822069613117 -465.88450652189022 0 0 0 0 -637.443039909454 941.66594784075369 0 941.66594784075369 -441.25114581986782 0 0 0 0 590.63215972858916 202.42237505935464 0 202.42237505935464 -2495.8065389815638 0 0 0 0 424.4856363170752 -275.53366479696888 0 -275.53366479696888 -1515.3329230271374 0 0 0 0 -1.7375664466996885 4.7828075653297333 0 4.7828075653297333 -11.342984205276196 0 0 0 0 113.04611951953525 1120.5982374819359 0 1120.5982374819359 -2494.0710068084991 0 0 0 0 -154.81410680127769 -89.564349607313488 0 -89.564349607313488 223.68604951707675 0 0 0 0 279.7355076472619 478.80178770517341 0 478.80178770517341 -1084.0059232177146 0 0 0 0 -99.093492831988016 451.37076708219683 0 451.37076708219683 -1055.2414370921833 0 0 0 0 542.21457869316555 131.16592554607269 0 131.16592554607269 -2500.6794456668731 0 0 0 0 277.19464456042084 435.55243215739233 0 435.55243215739233 -1682.5218456527946 0 0 0 0 173.13485447467082 1.9393567455335869 0 1.9393567455335869 -949.35636170985163 0 0 0 0 42.238064847996156 202.89442160016915 0 202.89442160016915 -742.75193320786275 0 0 0 0 -39.199811446974081 30.949415886469069 0 30.949415886469069 -529.60708920409161 0 0 0 0 83.46405711763839 50.206165968451387 0 50.206165968451387 -507.75326926041271 0 0 0 0 -6.2152345336171919 118.1039251809907 0 118.1039251809907 -473.83052115704777 0 0 0 0 -4.7599722343916202 -2.6728966139369632 0 -2.6728966139369632 -0.97388657688549429 0 0 0 0 -145.54907552242156 -26.078117710436345 0 -26.078117710436345 -200.51090610856045 0 0 0 0 -10.221598014117831 -33.064583320448946 0 -33.064583320448946 71.793106760527735 0 0 0 0 -0.011361283388396259 -26.271151964312594 0 -26.271151964312594 44.265136404386794 0 0 0 0 -6.6888400212032018 -3.3951001227019475 0 -3.3951001227019475 -1.9139950284426206 0 0 0 0 2.1359260001172515 -21.416500336912577 0 -21.416500336912577 49.458019404435618 0 0 0 0 -329.74171604042931 37.063297808897914 0 37.063297808897914 -145.49283433468736 0 0 0 0 13.82196944731669 180.96529001197268 0 180.96529001197268 -223.8039176927341 0 0 0 0 -0.98601993635395957 -0.60392458091156387 0 -0.60392458091156387 -5.4513915412236766 0 0 0 0 6.7108531711041906 56.824701748217194 0 56.824701748217194 -181.84278331816085 0 0 0 0 -423.52194473619602 -293.36375073862496 0 -293.36375073862496 -141.79955032891075 0 0 0 0 -231.06201481318726 -284.58067307114061 0 -284.58067307114061 -367.50827118102552 0 0 0 0 -2.4101203849609538 -0.68346714048753121 0 -0.68346714048753121 -2.4954553407333027 0 0 0 0 -358.59763819032781 -346.41162671943039 0 -346.41162671943039 75.523087890050192 0 0 0 0 -152.1370504357061 -56.161854334013242 0 -56.161854334013242 175.90957521978066 0 0 0 0 -275.67395172878105 -220.4597846337972 0 -220.4597846337972 116.81311825928151 0 0 0 0 111.1868205073246 76.763743387763043 0 76.763743387763043 61.655579579109144 0 0 0 0 326.4959315298064 -213.83013836955115 0 -213.83013836955115 0.84434592842444545 0 0 0 0 -0.68527036673170993 -2.7558957170742184 0 -2.7558957170742184 -10.686929112893274 0 0 0 0 -7.2124204482840932 -4.5349237563779701 0 -4.5349237563779701 -2.8251884223716606 0 0 0 0 15.484885883982429 78.2400407741452 0 78.2400407741452 137.24020632537895 0 0 0 0 -18.800783032784921 23.234808520030128 0 23.234808520030128 67.120315564374778 0 0 0 0 135.78847894680962 96.380968324363494 0 96.380968324363494 83.241518786007077 0 0 0 0 -199.11228151829243 -274.42583160805839 0 -274.42583160805839 66.161482353057636 0 0 0 0 307.15106735798736 -57.64163752561717 0 -57.64163752561717 -59.512022715956391 0 0 0 0 61.280208000255129 -172.62119660441522 0 -172.62119660441522 -105.1941321812842 0 0 0 0 113.28607974209829 -400.46694978087817 0 -400.46694978087817 -274.41341025711154 0 0 0 0 -6.2074382208116958 33.816345064115353 0 33.816345064115353 3.6844551806680101 0 0 0 0 20.064985973150669 -25.997956490937554 0 -25.997956490937554 -44.338433260642887 0 0 0 0 -11.939725759928479 -11.251877664813946 0 -11.251877664813946 -66.962223203456688 0 0 0 0 -45.907037051917541 -2.9947550410465738 0 -2.9947550410465738 3.4088522233307685 0 0 0 0 -44.912199689376394 -30.92085778935143 0 -30.92085778935143 22.573214027094423 0 0 0 0 -32.834932540072259 36.239809921165488 0 36.239809921165488 -84.437396576328183 0 0 0 0 -10.66932504130159 -71.931823159838132 0 -71.931823159838132 -146.64897419318731 0 0 0 0 0.2233949530308017 -154.3140803885583 0 -154.3140803885583 -372.38278254678426 0 0 0 0 7.1191574755648617 -39.807732708606636 0 -39.807732708606636 -177.10495041564536 0 0 0 0 -10.210661841310412 -10.115403402858249 0 -10.115403402858249 -67.845668730838952 0 0 0 0 -14.407117664916768 -87.267017371879547 0 -87.267017371879547 -167.68905467073728 0 0 0 0 -46.472337006448697 -131.87761427047269 0 -131.87761427047269 -149.99433821855382 0 0 0 0 -89.188106751070109 -135.88184814995952 0 -135.88184814995952 -112.02813065718055 0 0 0 0 -293.55395370768031 -252.65542837672729 0 -252.65542837672729 -156.468232398586 0 0 0 0 -100.91293333785489 3.9038153852861797 0 3.9038153852861797 -39.064745894130283 0 0 0 0 -398.82810809839509 -9.2391547185376339 0 -9.2391547185376339 -15.018821369204488 0 0 0 0 321.89459609845483 31.667947310955469 0 31.667947310955469 -262.83902240094449 0 0 0 0 -89.59433832656687 46.541364321159961 0 46.541364321159961 68.303858585395574 0 0 0 0 -166.86431895634479 -312.70067692029761 0 -312.70067692029761 -380.70657991967892 0 0 0 0 -60.734361532372304 67.945300288795806 0 67.945300288795806 -395.01475077545319 0 0 0 0 10.763155917006465 -105.14785798069033 0 -105.14785798069033 23.184733997896728 0 0 0 0 -37.614737428486109 154.57179576299882 0 154.57179576299882 107.14045658153645 0 0 0 0 -135.82463666243478 26.931273597581821 0 26.931273597581821 68.23256005651092 0 0 0 0 0.31333332729523033 4.8832069255456965 0 4.8832069255456965 -27.613480574988301 0 0 0 0 43.216602654059898 -32.235684344545916 0 -32.235684344545916 -49.134982414225306 0 0 0 0 42.278483561990477 11.221054377330347 0 11.221054377330347 -29.586469513276825 0 0 0 0 26.073469811218331 -7.6912760403665743 0 -7.6912760403665743 -41.270350010992843 0 0 0 0 -22.345344992243952 67.212161479921633 0 67.212161479921633 14.902536142009922 0 0 0 0 69.807746396862512 54.885922003360065 0 54.885922003360065 -33.343992651469307 0 0 0 0 -0.16153930664966451 2.6735042701726641 0 2.6735042701726641 -17.448064689291467 0 0 0 0 -60.614508619488049 5.6026794055087521 0 5.6026794055087521 16.013182470984248 0 0 0 0 2.7063378995892116 -7.4443733938796868 0 -7.4443733938796868 -25.974466909054172 0 0 0 0 5.9406821590759327 4.4295795780929943 0 4.4295795780929943 -7.1617901873259768 0 0 0 0 -22.087551758929692 -12.473020266561434 0 -12.473020266561434 -26.345509953580859 0 0 0 0 23.660249925060242 -4.6573943508901721 0 -4.6573943508901721 -37.609376468399205 0 0 0 0 22.983517611285976 15.2983584436206 0 15.2983584436206 -19.427419007524804 0 0 0 0 27.198632843045743 9.2703732493228017 0 9.2703732493228017 -65.148626618455182 0 0 0 0 3.4760966512934033 -26.393830470147805 0 -26.393830470147805 -59.124672265075787 0 0 0 0 36.027695269277956 -3.6066322196929832 0 -3.6066322196929832 -34.509167016407446 0 0 0 0 25.558949706098218 -7.6036931271073627 0 -7.6036931271073627 -74.624819460481376 0 0 0 0 -6.8592675930818672 -3.8649624721429063 0 -3.8649624721429063 -18.340923080275388 0 0 0 0 1.2871523755493608 -4.3363011327039347 0 -4.3363011327039347 -31.685987721235207 0 0 0 0 -0.80496134821427745 -7.0848732846670828 0 -7.0848732846670828 -17.709268240490928 0 0 0 0 11.160811875523336 1.9378670889191199 0 1.9378670889191199 -16.90779114119141 0 0 0 0 4.19041131271553 -5.0072846230893218 0 -5.0072846230893218 -32.305461909602002 0 0 0 0 27.884838034117365 -0.75588201333448524 0 -0.75588201333448524 -29.228606434873655 0 0 0 0 28.14384975618211 -3.3427730085802523 0 -3.3427730085802523 -3.3927539799660735 0 0 0 0 134.55319467716677 59.764388009904906 0 59.764388009904906 -53.859250787958445 0 0 0 0 -4.3075896633745856 23.78099002545423 0 23.78099002545423 -4.6053676543670008 0 0 0 0 15.628169986386411 2.1456715925032768 0 2.1456715925032768 12.619462273069075 0 0 0 0 15.691060787376445 3.4878262245935616 0 3.4878262245935616 -53.571736369238351 0 0 0 0 0.89095208695686501 1.5923068845087478 0 1.5923068845087478 -12.38682337354577 0 0 0 0 0.083810343886682404 42.031717003235826 0 42.031717003235826 22.226172269776725 0 0 0 0 60.604242378745369 -21.758603251350905 0 -21.758603251350905 -59.211219927974525 0 0 0 0 -126.24955288895544 -16.724237415628522 0 -16.724237415628522 48.435984921431555 0 0 0 0 -67.775552273254277 -226.03149670478092 0 -226.03149670478092 -283.63179794422831 0 0 0 0 -0.15342401473849387 0.41401049317171346 0 0.41401049317171346 -12.34143418789094 0 0 0 0 76.191843790664777 22.566158095592073 0 22.566158095592073 -33.65481696896768 0 0 0 0 0.13785399385574554 5.8632159728948139 0 5.8632159728948139 -30.68249221625863 0 0 0 0 116.15298735719341 89.916409836534513 0 89.916409836534513 -27.839526402369302 0 0 0 0 15.234148981257505 -41.548834479795914 0 -41.548834479795914 -25.428941236411447 0 0 0 0 -39.172904268388976 76.496283704365851 0 76.496283704365851 67.284628728258213 0 0 0 0 -514.1140618608199 -274.24250663532007 0 -274.24250663532007 -383.21263147876016 0 0 0 0 -0.38459802076766114 -0.51620664144317807 0 -0.51620664144317807 -4.2701083071028414 0 0 0 0 -275.15270171687064 50.716588325568409 0 50.716588325568409 -31.793136544399658 0 0 0 0 -47.038317951132569 199.53118949602504 0 199.53118949602504 -174.80440893552986 0 0 0 0 195.01408693211187 143.03356606433158 0 143.03356606433158 -180.11264498404489 0 0 0 0 -190.60224212734644 -485.31378138781383 0 -485.31378138781383 -656.51230578009654 0 0 0 0 -19.722721980562937 156.00334517752071 0 156.00334517752071 -910.83343645074137 0 0 0 0 25.194535656843414 7.4476571444520232 0 7.4476571444520232 -83.42981438384777 0 0 0 0 0.013118952492182229 12.043634218177566 0 12.043634218177566 -37.523559854972888 0 0 0 0 2.3906733311000332 -0.63230296560988464 0 -0.63230296560988464 -5.8999262551338774 0 0 0 0 -10.452896198423211 -44.212517506321547 0 -44.212517506321547 -7.7106491154772812 0 0 0 0 0.45067231930838014 5.7802950364454082 0 5.7802950364454082 -31.555939378195635 0 0 0 0 96.155125041092461 -48.810858918743179 0 -48.810858918743179 -170.65017466125573 0 0 0 0 -44.410672522072673 34.630891221571801 0 34.630891221571801 74.312981939805468 0 0 0 0 57.199157757327157 -203.85673614959455 0 -203.85673614959455 -629.73663221251081 0 0 0 0 109.77028032054903 99.860000507230325 0 99.860000507230325 6.0328809433167407 0 0 0 0 0.73115198925120262 3.6889191710899052 0 3.6889191710899052 -26.52238056031711 0 0 0 0 89.097845378910108 26.276664400219488 0 26.276664400219488 -44.365402680697571 0 0 0 0 -3.8481782701703438 0.47050873740488441 0 0.47050873740488441 14.015451380917511 0 0 0 0 -479.90527195737502 -707.06231334566928 0 -707.06231334566928 -751.83546302598552 0 0 0 0 -794.73824977175855 -1455.7333067950631 0 -1455.7333067950631 -2494.6767059636622 0 0 0 0 -16.29456260903854 102.63015037775131 0 102.63015037775131 -27.285083271931853 0 0 0 0 229.77599087900677 -95.39589330645731 0 -95.39589330645731 -2470.3069371592828 0 0 0 0 -0.24302453286382988 -0.16482976764444857 0 -0.16482976764444857 -11.698617511158723 0 0 0 0 -260.44890745937255 -397.55465153943442 0 -397.55465153943442 -766.76202826007466 0 0 0 0 -172.3976432903462 -443.10376958880624 0 -443.10376958880624 -1233.3832458204561 0 0 0 0 9.6947231490683361 -642.69459206191232 0 -642.69459206191232 -2495.8810576080032 0 0 0 0 20.101734982516426 -1075.3574250757888 0 -1075.3574250757888 -2497.6237532230034 0 0 0 0 1.4063090372079956 0.688754693185885 0 0.688754693185885 -7.1956578148161903 0 0 0 0 150.55387926453665 -137.89947931596669 0 -137.89947931596669 -693.18084372074372 0 0 0 0 170.08528224727277 -625.13094656905196 0 -625.13094656905196 -1151.022920246276 0 0 0 0 458.47157478666014 -382.05004042177598 0 -382.05004042177598 -2499.3711022950274 0 0 0 0 326.48968714003684 130.52081985260429 0 130.52081985260429 -1681.7435094443749 0 0 0 0 95.786991653877863 221.99610731456414 0 221.99610731456414 -1714.6309350763995 0 0 0 0 245.23190586011742 274.02880923027806 0 274.02880923027806 -1799.2644196418951 0 0 0 0 164.26350514194803 -144.82546619819914 0 -144.82546619819914 -1732.7794511612055 0 0 0 0 1.1618920094172986 1.3107549810029724 0 1.3107549810029724 -5.4097608829620718 0 0 0 0 799.03241843134094 710.78514090025146 0 710.78514090025146 -1302.6082608590505 0 0 0 0 -49.075807097691069 -669.56187820822572 0 -669.56187820822572 -1822.4845000699761 0 0 0 0 -107.91823408496506 125.22240167656537 0 125.22240167656537 -670.10720579185636 0 0 0 0 109.03373610712219 -60.071275069043622 0 -60.071275069043622 -1821.9241666672542 0 0 0 0 217.83834888404726 715.08861291419623 0 715.08861291419623 -448.50563710437382 0 0 0 0 423.86198154419537 -50.574822415539984 0 -50.574822415539984 -1490.4058056620743 0 0 0 0 -122.75207878599443 -392.56453979757759 0 -392.56453979757759 -748.89051277931958 0 0 0 0 0.40310318373186216 -0.53006935210094819 0 -0.53006935210094819 -6.9719696093976751 0 0 0 0 -206.80750881283018 -130.98688824256305 0 -130.98688824256305 71.476551971547224 0 0 0 0 -400.40933519076043 3.96854655909965 0 3.96854655909965 128.16389701578137 0 0 0 0 -275.43997202980671 -380.21226171729859 0 -380.21226171729859 228.40831398380487 0 0 0 0 -128.8402079799888 -213.12250014589108 0 -213.12250014589108 113.83444915090149 0 0 0 0 -106.29601310904926 -22.194339395939778 0 -22.194339395939778 86.302694440205414 0 0 0 0 -131.44903037106417 -168.9889276590693 0 -168.9889276590693 -91.386109505776403 0 0 0 0 -72.692885089560662 -64.22760729986112 0 -64.22760729986112 -366.43881387479723 0 0 0 0 -123.13924482150165 -141.40958451755151 0 -141.40958451755151 -68.408715663459589 0 0 0 0 -56.430521168726955 -48.991375696379237 0 -48.991375696379237 -45.162623572354278 0 0 0 0 -53.548236101637656 151.17504414014593 0 151.17504414014593 110.17112024381368 0 0 0 0 -110.42176925597073 -15.978171098257008 0 -15.978171098257008 -65.149990255436478 0 0 0 0 -133.39315513556983 -265.55648132185433 0 -265.55648132185433 -436.34887085329319 0 0 0 0 158.54709275508594 -168.60551931615873 0 -168.60551931615873 -1035.7487457230682 0 0 0 0 39.781212914145954 28.627435605752567 0 28.627435605752567 -972.79070962990863 0 0 0 0 16.664158236013691 3.9293096987876197 0 3.9293096987876197 -681.2810946157706 0 0 0 0 -76.797028311917188 73.370852391289645 0 73.370852391289645 -369.72976411227438 0 0 0 0 11.737270037213811 -3.06516602709371 0 -3.06516602709371 -532.88286005672853 0 0 0 0 -115.66924234566268 612.24802949776858 0 612.24802949776858 -772.04923804586269 0 0 0 0 171.07826207157692 437.01313167623255 0 437.01313167623255 -1421.8080383972865 0 0 0 0 178.45224116293551 339.92273837777191 0 339.92273837777191 -1355.8334282795481 0 0 0 0 140.57319282924641 206.20344662265416 0 206.20344662265416 -1563.7363315296807 0 0 0 0 142.26542408573471 120.11651532912947 0 120.11651532912947 -943.12375133063142 0 0 0 0 241.17147412251336 308.43745304161712 0 308.43745304161712 -1573.5845837418228 0 0 0 0 265.12881853234956 405.62975437027444 0 405.62975437027444 -1742.5431027535383 0 0 0 0 244.97535226484626 238.07615724762695 0 238.07615724762695 -1570.0375068923231 0 0 0 0 363.12122005670653 254.93054144906614 0 254.93054144906614 -1921.7084868660813 0 0 0 0 519.08331589106047 411.83810406739269 0 411.83810406739269 -2500.3045164509413 0 0 0 0 238.51058459893494 704.06793776401685 0 704.06793776401685 -1527.2909044323703 0 0 0 0 322.6542102871519 686.68055997067245 0 686.68055997067245 -2051.6363997686476 0 0 0 0 257.10502405437899 664.13020274267183 0 664.13020274267183 -1450.2056326584488 0 0 0 0 -262.6470325557458 1584.5930328877441 0 1584.5930328877441 -2495.5512672082964 0 0 0 0 -4.2400136467005236 1.9897854294343151 0 1.9897854294343151 -8.3679787911356733 0 0 0 0 -11.274016503831756 0.60607495805629696 0 0.60607495805629696 -2482.3069576323901 0 0 0 0 -1553.2037602670541 1097.9211879623324 0 1097.9211879623324 -679.02473289592467 0 0 0 0 0.35364108053389787 0.82160600793228178 0 0.82160600793228178 -14.036228785057697 0 0 0 0 -2.8840680839965671 29.339495364209466 0 29.339495364209466 -30.995984747857765 0 0 0 0 -1.6627195511912221 2.3675689382966696 0 2.3675689382966696 -34.132404521694156 0 0 0 0 -163.55399827262244 -97.84686289190995 0 -97.84686289190995 -49.360375724021424 0 0 0 0 -385.94989884499364 844.49625867710495 0 844.49625867710495 -966.79756277360229 0 0 0 0 -137.6006392496061 361.90689061238277 0 361.90689061238277 -201.01547279272154 0 0 0 0 -78.711847709029698 -1014.2480206008586 0 -1014.2480206008586 -1777.3574441341652 0 0 0 0 -490.92333262780522 -1696.0457365460984 0 -1696.0457365460984 -2495.5719734228965 0 0 0 0 -2074.401974557617 -1436.7883636201218 0 -1436.7883636201218 -571.32282090785839 0 0 0 0 -5.3280845468560383 -3.0119108276306292 0 -3.0119108276306292 -10.396742663250816 0 0 0 0 -485.0270643840463 -121.80391941231937 0 -121.80391941231937 65.1621438666416 0 0 0 0 187.83135524335785 247.69611300679844 0 247.69611300679844 -701.25296174815412 0 0 0 0 -406.17726019792559 -484.23135377058679 0 -484.23135377058679 -719.59264850846057 0 0 0 0 -1417.8622316119001 -1044.3225989724042 0 -1044.3225989724042 -808.78798911694867 0 0 0 0 1.2125388403831376 1.1405681628231861 0 1.1405681628231861 -4.7022846152132018 0 0 0 0 -470.99644486347614 -759.38526319134576 0 -759.38526319134576 -803.00928131347973 0 0 0 0 37.760151390849842 16.704216447139402 0 16.704216447139402 -75.356465426740897 0 0 0 0 41.080993848559501 69.7814269925384 0 69.7814269925384 -20.257354698864219 0 0 0 0 -2.1461573153107052 8.8672341741493952 0 8.8672341741493952 -43.378736041840178 0 0 0 0 -69.652453729615445 -116.37672202866634 0 -116.37672202866634 -17.155170248370268 0 0 0 0 -129.30345546753119 -74.015972146730746 0 -74.015972146730746 233.85897872350324 0 0 0 0 -12.031410079432135 2.4322724462772385 0 2.4322724462772385 -53.145460416874812 0 0 0 0 -2.960429695797052 5.3985722855321008 0 5.3985722855321008 -39.401692782107986 0 0 0 0 -6.6774828258530192 20.946601111281325 0 20.946601111281325 -9.2368967557813448 0 0 0 0 -1.4210862470499706 -6.8438181760870975 0 -6.8438181760870975 -54.781205044196668 0 0 0 0 41.180393429510332 3.4378981247764386 0 3.4378981247764386 -51.451154877199428 0 0 0 0 0.78929243731765908 0.11369803905561149 0 0.11369803905561149 -12.741794781429585 0 0 0 0 48.77428618315389 4.498758373306373 0 4.498758373306373 -64.422347181900477 0 0 0 0 -10.92533498091646 6.137048355066069 0 6.137048355066069 -13.480992502069151 0 0 0 0 -39.153391737377206 49.950684913180339 0 49.950684913180339 -32.247378112037268 0 0 0 0 147.52838351307014 -189.98792028568641 0 -189.98792028568641 -22.700176625129757 0 0 0 0 -66.589160834779875 90.080005792081124 0 90.080005792081124 -94.702097371708533 0 0 0 0 26.902029480117701 116.41025837160896 0 116.41025837160896 -232.05335128884371 0 0 0 0 0.15497174973802919 -2.5436323207941673 0 -2.5436323207941673 -8.6404088591503196 0 0 0 0 7.1874509010658585 -0.60005576495598234 0 -0.60005576495598234 -33.909119489135676 0 0 0 0 -51.076866777225405 31.782646198609768 0 31.782646198609768 -51.392486703251961 0 0 0 0 6.1497012765702337 48.475567564180892 0 48.475567564180892 -144.30437946099892 0 0 0 0 0.19580116863789954 11.683281413311306 0 11.683281413311306 -82.383525813822416 0 0 0 0 26.065291656525915 26.785128246890167 0 26.785128246890167 -72.700707336532105 0 0 0 0 24.826925137321268 20.423432903737194 0 20.423432903737194 -99.485651947370116 0 0 0 0 27.072034871745245 12.839944465672147 0 12.839944465672147 -105.07907618832542 0 0 0 0 41.562994775375955 -8.3795522675272878 0 -8.3795522675272878 -84.159609210521126 0 0 0 0 -133.64091615238817 32.983555207464178 0 32.983555207464178 -107.97952186777911 0 0 0 0 -11.997161450037964 -5.312329670775835 0 -5.312329670775835 0.23348331086109531 0 0 0 0 -82.530618813312003 252.99218604047292 0 252.99218604047292 -86.93783517159909 0 0 0 0 0.20595579944891729 -0.62378490231797556 0 -0.62378490231797556 -3.6897048884411188 0 0 0 0 -539.89785492430883 -186.09431764701367 0 -186.09431764701367 -115.7517593997236 0 0 0 0 -231.36776052126424 248.41203264509409 0 248.41203264509409 -27.522591332231968 0 0 0 0 -33.732115063025049 -14.710038596551385 0 -14.710038596551385 36.494008656470783 0 0 0 0 177.09464214296713 97.729866405226858 0 97.729866405226858 -147.06774903670112 0 0 0 0 16.714552135170379 -42.412895933475738 0 -42.412895933475738 -12.854997109478461 0 0 0 0 10.756350730117902 22.990804717667743 0 22.990804717667743 -71.613085256835802 0 0 0 0 -1.9803001129785116 -11.243070518296463 0 -11.243070518296463 -10.591287277627316 0 0 0 0 -4.5399715853318412 14.309626872597164 0 14.309626872597164 -47.037292891947345 0 0 0 0 -18.549232843128266 12.885696929124606 0 12.885696929124606 -34.353943501344474 0 0 0 0 -23.195374325240664 44.097909622409361 0 44.097909622409361 -16.806276306413565 0 0 0 0 -27.797351706095469 30.707877296504648 0 30.707877296504648 -49.691170294684525 0 0 0 0 26.736572774771957 -41.680582393513532 0 -41.680582393513532 -20.934525225148718 0 0 0 0 -56.907903788250223 40.461669696071226 0 40.461669696071226 -18.675732016963821 0 0 0 0 -10.052254710032006 -5.0185493605924965 0 -5.0185493605924965 -9.1736475925833911 0 0 0 0 45.7937622075533 -15.239423435903973 0 -15.239423435903973 -65.557020025079737 0 0 0 0 96.624948581517629 -49.311871556667484 0 -49.311871556667484 -96.748251393675332 0 0 0 0 -10.273627416117961 -3.2379770549155182 0 -3.2379770549155182 -64.814946811246955 0 0 0 0 -7.0981609636087342 -6.0540353998993623 0 -6.0540353998993623 -46.86868284281627 0 0 0 0 -9.5593799579375016 -1.0776929315826855 0 -1.0776929315826855 -14.400254880565011 0 0 0 0 -1.7438935801246771 -4.5070651775995429 0 -4.5070651775995429 -49.783610057913393 0 0 0 0 -1.0844151335240397 -2.1680075216582022 0 -2.1680075216582022 -27.247602370549881 0 0 0 0 -28.375252428495514 35.706100991199946 0 35.706100991199946 13.543883454707156 0 0 0 0 -1.2214040293843986 -2.1464360638469397 0 -2.1464360638469397 -8.3181909179901279 0 0 0 0 -2.0778582466836042 3.3663584640393651 0 3.3663584640393651 -39.635126421994684 0 0 0 0 8.2139129344113826 -7.0315300374599019 0 -7.0315300374599019 -83.307504673192511 0 0 0 0 -29.327081381111384 36.413485538010718 0 36.413485538010718 -14.128222374001325 0 0 0 0 6.8292692878003436 49.008204930381908 0 49.008204930381908 -19.596038174443038 0 0 0 0 19.030448543449893 12.186843100834722 0 12.186843100834722 -3.7953069907919144 0 0 0 0 -16.342761181715559 8.5749077153179769 0 8.5749077153179769 -30.861029208867876 0 0 0 0 65.988008385591456 44.704757848500321 0 44.704757848500321 -33.090448380350608 0 0 0 0 10.745322581095024 0.13101706801057844 0 0.13101706801057844 -57.679202936260481 0 0 0 0 -2.6200699113469454 -0.30829778282986808 0 -0.30829778282986808 -36.429544209197502 0 0 0 0 0.054414173931205845 6.1490598410760811 0 6.1490598410760811 -40.096884907344482 0 0 0 0 31.615717976557789 13.809437362632707 0 13.809437362632707 -48.222124788961537 0 0 0 0 0.83634703433346314 7.3015164338098728 0 7.3015164338098728 -49.02690660514574 0 0 0 0 1.2007937570246856 0.48151165669337104 0 0.48151165669337104 -48.868911471613629 0 0 0 0 102.94354649980869 54.838117465671303 0 54.838117465671303 -103.40269803392221 0 0 0 0 58.96478713819306 22.059137998534879 0 22.059137998534879 -49.994647459207044 0 0 0 0 -73.122020026097744 6.6948395821109443 0 6.6948395821109443 -43.582471316556166 0 0 0 0 -36.948671670564636 94.314904251046414 0 94.314904251046414 -78.475297787606905 0 0 0 0 -116.21528204017659 -40.974989617133815 0 -40.974989617133815 -46.549301103673315 0 0 0 0 -63.446201878692591 27.790317841145225 0 27.790317841145225 -26.806779967697821 0 0 0 0 -52.1566579820269 -67.294281290509844 0 -67.294281290509844 -94.167791601005774 0 0 0 0 -91.484954934850975 -90.989300507835651 0 -90.989300507835651 -89.714167263783565 0 0 0 0 -53.756426972154259 -69.555981432048156 0 -69.555981432048156 -97.364425062708165 0 0 0 0 -19.331558532686358 -36.448824572175454 0 -36.448824572175454 -109.47489435004945 0 0 0 0 -52.516724542604607 -11.620548932394968 0 -11.620548932394968 -46.54035246368403 0 0 0 0 -34.432140982424244 6.9772865404422646 0 6.9772865404422646 -35.393567163117041 0 0 0 0 -49.775215491674317 8.5271920470863733 0 8.5271920470863733 -18.051210743414728 0 0 0 0 9.5009474082216911 10.678914291111141 0 10.678914291111141 -0.44348269863985479 0 0 0 0 2.896390989446747 4.0684223175769105 0 4.0684223175769105 -3.4282473268399372 0 0 0 0 -8.8097381589086581 -103.54610934022821 0 -103.54610934022821 -148.15325287277574 0 0 0 0 -29.717365597853131 -32.325970389127178 0 -32.325970389127178 -68.280314012850795 0 0 0 0 -34.643162198539358 442.46089467484853 0 442.46089467484853 -571.35831572728057 0 0 0 0 6.6610323253516981 53.271175801524805 0 53.271175801524805 -76.940527766029845 0 0 0 0 95.396866438239613 -10.766775048135969 0 -10.766775048135969 -171.09876734806312 0 0 0 0 -38.287581722382129 -72.758362035825485 0 -72.758362035825485 -91.780330710800627 0 0 0 0 5.5597178995342809 -3.1839848292583923 0 -3.1839848292583923 -11.04311603495227 0 0 0 0 9.329154831139931 9.8626252915128134 0 9.8626252915128134 13.323150795891706 0 0 0 0 -9.5697461451527488 -40.745107990891483 0 -40.745107990891483 -29.549194992825505 0 0 0 0 -1.6731820059994789 -66.174010263452146 0 -66.174010263452146 -46.041077377120018 0 0 0 0 -90.615715734442773 241.84088911957912 0 241.84088911957912 -298.591926637906 0 0 0 0 -4.3986166876511561 -67.003703216958456 0 -67.003703216958456 -6.1084567141413117 0 0 0 0 -3.7656619520878767 -4.4896725426979103 0 -4.4896725426979103 -5.2861118771307218 0 0 0 0 56.25960512736583 12.573829213844874 0 12.573829213844874 -98.399633679480758 0 0 0 0 -89.418587450837549 33.845058400826019 0 33.845058400826019 -25.08937354003865 0 0 0 0 1.8401522797160546 1.1884506621114141 0 1.1884506621114141 -1.918799395320498 0 0 0 0 -4.383987907142 15.810897693037987 0 15.810897693037987 35.799832929835247 0 0 0 0 -37.538214133493966 -65.528706083641737 0 -65.528706083641737 134.66800699660598 0 0 0 0 1.3277279260229351 -3.0426137868560801 0 -3.0426137868560801 -48.91841614244705 0 0 0 0 4.5733239480181282 -0.029915055644643473 0 -0.029915055644643473 -14.240251943735942 0 0 0 0 90.475642689912092 -41.295042108117741 0 -41.295042108117741 -113.91422026719374 0 0 0 0 1.3296294983283197 1.5209467902350298 0 1.5209467902350298 -1.6102300059521113 0 0 0 0 859.44823803313193 -1066.3520246398257 0 -1066.3520246398257 -1152.5738776986327 0 0 0 0 -12.837426689634867 -16.412756686446301 0 -16.412756686446301 -69.598411627379392 0 0 0 0 -17.800798179520825 -24.518300520792764 0 -24.518300520792764 -75.171405290901021 0 0 0 0 -10.567963665610478 -30.395613654666704 0 -30.395613654666704 -87.317601254620968 0 0 0 0 -1.4051778476095889 -8.4862077886664782 0 -8.4862077886664782 -41.975408061451162 0 0 0 0 -1.9173444114630911 -28.273416668135724 0 -28.273416668135724 -78.391703401346604 0 0 0 0 -0.2775040615006219 -11.898872384853348 0 -11.898872384853348 -66.958102424370736 0 0 0 0 -5.4667311402408814 -22.363057898965053 0 -22.363057898965053 -86.089294261558734 0 0 0 0 -12.305603359258384 0.03897959546520724 0 0.03897959546520724 -69.506417837677873 0 0 0 0 -19.135058747859148 -12.052732268632099 0 -12.052732268632099 -6.9518143878012779 0 0 0 0 -16.181373643983992 -13.303545112525079 0 -13.303545112525079 -13.718659744405402 0 0 0 0 -14.804507387206442 -2.2273076229491764 0 -2.2273076229491764 -25.306185721901972 0 0 0 0 -21.850116267829776 -26.014654159446081 0 -26.014654159446081 -64.599472450434405 0 0 0 0 -16.209099404815788 -15.884393681095389 0 -15.884393681095389 -40.854599236180547 0 0 0 0 -34.091711136528829 -25.396366552817199 0 -25.396366552817199 -30.372322561865076 0 0 0 0 -2.2846182113855615 -1.4720361401338664 0 -1.4720361401338664 -9.2000094747112016 0 0 0 0 -13.744366888163366 -3.9216395067016663 0 -3.9216395067016663 -4.8370073265771127 0 0 0 0 -11.057387950173709 0.76560908254205984 0 0.76560908254205984 -7.5340596197022371 0 0 0 0 -8.1590400975055672 0.093847362288215663 0 0.093847362288215663 -7.0253449580441156 0 0 0 0 -3.2764510498746233 0.84602472860589373 0 0.84602472860589373 0.19830848265107015 0 0 0 0 -25.836129935291069 41.916196855090675 0 41.916196855090675 -7.3171943672132329 0 0 0 0 -14.769412714787633 -5.4645074851354849 0 -5.4645074851354849 -0.73438220514138663 0 0 0 0 -30.672783679214263 -16.899674115940797 0 -16.899674115940797 -25.99512728699483 0 0 0 0 -18.21400081199954 -14.483502584986127 0 -14.483502584986127 -25.532023325355112 0 0 0 0 -35.478238470035649 -16.557465950812912 0 -16.557465950812912 -17.381868987355119 0 0 0 0 17.584242666146565 -36.318090975102677 0 -36.318090975102677 -32.20928758354421 0 0 0 0 1.5305707083893445 0.9645284096446467 0 0.9645284096446467 -2.230174113804722 0 0 0 0 -13.291804674921877 -23.928286192145606 0 -23.928286192145606 -34.942008554051426 0 0 0 0 40.950217826163907 -90.92072809444835 0 -90.92072809444835 57.913496543282236 0 0 0 0 10.745215250230103 -1.9150413997267606 0 -1.9150413997267606 -108.60641691902856 0 0 0 0 68.257813633803835 -89.441558623875608 0 -89.441558623875608 -41.939810893205504 0 0 0 0 10.054064662515884 -37.680743590761267 0 -37.680743590761267 -6.5916017354102223 0 0 0 0 -3.5367730845409824 -46.809684163083148 0 -46.809684163083148 4.0291556252923328 0 0 0 0 -370.77958662833208 -542.06578521477104 0 -542.06578521477104 -691.0127525625976 0 0 0 0 -8.6846422393172258 -4.1874877189671977 0 -4.1874877189671977 1.8129886352344116 0 0 0 0 -4.0226409540050554 -36.064840563600228 0 -36.064840563600228 81.614242118183029 0 0 0 0 -11.134381475541886 -0.54432548692057026 0 -0.54432548692057026 1.7735915792115975 0 0 0 0 -303.75052911400337 -220.62059998126733 0 -220.62059998126733 -600.97151690669489 0 0 0 0 -317.90251610660954 -285.02745697542287 0 -285.02745697542287 -869.07873440016192 0 0 0 0 -228.67186947271284 -350.66892138574258 0 -350.66892138574258 -826.24456517693761 0 0 0 0 -130.54348081421335 -302.20278153354229 0 -302.20278153354229 -864.41091640822106 0 0 0 0 -141.46495997254561 -255.10029435968318 0 -255.10029435968318 -774.64670506789844 0 0 0 0 -188.52457890916045 -340.62160706647273 0 -340.62160706647273 -920.51754890044322 0 0 0 0 -31.487805868804628 -268.44689030432255 0 -268.44689030432255 -1370.50423877102 0 0 0 0 -163.23379570930922 -314.40091179140745 0 -314.40091179140745 -969.35034349495254 0 0 0 0 -101.01934027299615 -424.44535876116788 0 -424.44535876116788 -1019.9596406923247 0 0 0 0 -90.963324387260926 -101.55192550952142 0 -101.55192550952142 -1070.7778200937646 0 0 0 0 -77.667995366055379 -185.59720412823299 0 -185.59720412823299 -1060.479659627541 0 0 0 0 -38.022960331553229 -264.35163676545244 0 -264.35163676545244 -651.51404613254272 0 0 0 0 -33.063440856149128 -23.616782834062576 0 -23.616782834062576 -9.6718757564267435 0 0 0 0 -21.45358415436931 -0.98961282735217537 0 -0.98961282735217537 -62.648397500792271 0 0 0 0 -12.654980313466917 7.0701017989898975 0 7.0701017989898975 -9.0060634595407336 0 0 0 0 -2.2609619015266489 1.9795877898500116 0 1.9795877898500116 -7.6553874702923466 0 0 0 0 -182.61552276273 -99.934527955265366 0 -99.934527955265366 -406.07883060323365 0 0 0 0 -52.225943452767567 -317.15198953776326 0 -317.15198953776326 -650.23459038550573 0 0 0 0 -68.68795690846207 -44.538680717458192 0 -44.538680717458192 -85.769281306061202 0 0 0 0 8.8135499317352242 -226.69028025145235 0 -226.69028025145235 -837.8032663551985 0 0 0 0 -120.19205515244687 -426.14572203568969 0 -426.14572203568969 -817.45359453093988 0 0 0 0 -73.461475980933869 -367.12058241215709 0 -367.12058241215709 -1010.8385032122433 0 0 0 0 -157.55744390857251 -335.85377995753697 0 -335.85377995753697 -630.88216942367853 0 0 0 0 -20.605975330851521 -412.64289482503682 0 -412.64289482503682 -988.23931154323873 0 0 0 0 -120.03764419961982 -271.71491035973122 0 -271.71491035973122 -615.0077466603725 0 0 0 0 -296.38905093430947 -615.47721511192685 0 -615.47721511192685 -920.60226075926221 0 0 0 0 -359.21106066175224 -413.75930444176811 0 -413.75930444176811 -309.47139337661429 0 0 0 0 -89.815814206584804 -734.04581639115031 0 -734.04581639115031 -1537.9408028561847 0 0 0 0 -78.833423107153749 -515.17604444052813 0 -515.17604444052813 -1061.3448548153674 0 0 0 0 -73.28261727517372 -625.68704915291903 0 -625.68704915291903 -1297.6170933370777 0 0 0 0 115.99179269936951 -400.04813943984391 0 -400.04813943984391 -1724.9722445894367 0 0 0 0 365.34675876732672 -484.39895315001013 0 -484.39895315001013 -1776.0130828195233 0 0 0 0 277.51053570412853 -787.65968303120144 0 -787.65968303120144 -2500.2985484837136 0 0 0 0 -32.784909480228201 -904.80388014246591 0 -904.80388014246591 -1563.6949331468006 0 0 0 0 115.34116698548178 -345.56324639889499 0 -345.56324639889499 -1420.2900030335559 0 0 0 0 431.51668988785849 -371.15027256734038 0 -371.15027256734038 -2499.1718172589117 0 0 0 0 327.85924370184688 -59.902321051253239 0 -59.902321051253239 -1951.9035533082024 0 0 0 0 374.56596907815424 71.278984997317821 0 71.278984997317821 -1753.1328002916198 0 0 0 0 498.91468184884474 331.68490197265328 0 331.68490197265328 -2499.7894071377214 0 0 0 0 153.8203945548762 225.91401711505023 0 225.91401711505023 -1471.946589129182 0 0 0 0 163.15904329214453 277.13090514311079 0 277.13090514311079 -1469.2397095971628 0 0 0 0 383.52267223624364 631.18067429617622 0 631.18067429617622 -1676.5898216379546 0 0 0 0 496.32507126161778 572.54657532125884 0 572.54657532125884 -3013.5149346322723 0 0 0 0 -1600.851639113599 -64.448388650089328 0 -64.448388650089328 -2500.5916706549524 0 0 0 0 405.98435912709579 -667.05355623881951 0 -667.05355623881951 -2500.3068436477806 0 0 0 0 -166.6870354588994 129.75334161223145 0 129.75334161223145 -3254.1407067732871 0 0 0 0 -149.07779900754468 -1011.1077718670604 0 -1011.1077718670604 -774.65329936495255 0 0 0 0 248.80374269190096 -1156.3299442260604 0 -1156.3299442260604 -1895.8336396483046 0 0 0 0 0.41867840301137149 -1.0256631103652785 0 -1.0256631103652785 -18.650309786388021 0 0 0 0 -34.773710650480382 1052.1733818217072 0 1052.1733818217072 -1734.7963984353064 0 0 0 0 508.05714294256626 253.26312230146505 0 253.26312230146505 -366.71041143615366 0 0 0 0 -69.824465366098366 -28.915778425647659 0 -28.915778425647659 -104.22322636944227 0 0 0 0 56.970173381391646 408.43692951566481 0 408.43692951566481 -338.40437531760199 0 0 0 0 -66.909023810890915 108.45910877616552 0 108.45910877616552 -274.73188924986971 0 0 0 0 231.29982811632976 258.04622963539623 0 258.04622963539623 -232.76738021684287 0 0 0 0 1.7448205813976376 -2.8033772105645118 0 -2.8033772105645118 -36.166963111035528 0 0 0 0 1324.3256798386246 -97.720278248848444 0 -97.720278248848444 -678.33958380349213 0 0 0 0 901.87722339180561 -69.19621362909038 0 -69.19621362909038 -339.82292551903447 0 0 0 0 134.85737447737881 27.705469502023334 0 27.705469502023334 202.28639232663409 0 0 0 0 -58.232908163604748 -369.56900926098751 0 -369.56900926098751 -538.34006697950281 0 0 0 0 185.8020506118026 367.03167553088929 0 367.03167553088929 197.21010243746059 0 0 0 0 -258.02602875626343 47.454680258293592 0 47.454680258293592 -118.07202503156623 0 0 0 0 -260.05374815669234 -27.287905852628683 0 -27.287905852628683 -893.79514546562496 0 0 0 0 -24.453144761933856 115.57743044012386 0 115.57743044012386 563.76766270298504 0 0 0 0 90.201529639633634 490.68426469771759 0 490.68426469771759 -1079.9685173877442 0 0 0 0 -375.38479210001105 670.4214535081519 0 670.4214535081519 -1288.9893935204673 0 0 0 0 76.506438134173209 312.40027506923616 0 312.40027506923616 -2500.3584944808135 0 0 0 0 186.58882747672732 54.455167558435278 0 54.455167558435278 -2009.9921578700414 0 0 0 0 12.859847453140283 -27.05400296139851 0 -27.05400296139851 -1481.8716365522996 0 0 0 0 -77.622518137574275 227.39375010112417 0 227.39375010112417 -2081.8127686244916 0 0 0 0 19.30973638329445 -39.251112180904784 0 -39.251112180904784 -1580.2313716271128 0 0 0 0 373.87903956114513 -418.7111486497879 0 -418.7111486497879 -1939.9230754777727 0 0 0 0 282.10551868704579 -31.345147584335791 0 -31.345147584335791 -2499.2915758793933 0 0 0 0 396.40168823206983 -425.37538263269016 0 -425.37538263269016 -2200.4191836426162 0 0 0 0 -197.43095955330816 -358.19422727731944 0 -358.19422727731944 -683.88592539519595 0 0 0 0 -112.36002421661834 -225.21931499587663 0 -225.21931499587663 -1443.0549138306433 0 0 0 0 -133.74875269323383 258.60998058060795 0 258.60998058060795 -582.46063962032895 0 0 0 0 -148.57436493632878 372.27252251432583 0 372.27252251432583 -592.84124681784965 0 0 0 0 -325.10958597243945 80.80746992200875 0 80.80746992200875 -564.37385559352697 0 0 0 0 -400.70774503198686 244.25198033415018 0 244.25198033415018 -914.74955572661565 0 0 0 0 -4.0846676680976231 -43.70112631631855 0 -43.70112631631855 -474.27091346262921 0 0 0 0 -326.22173099951704 456.11159040666644 0 456.11159040666644 -495.10095641041698 0 0 0 0 0.88722722544182475 -5.969293565366435 0 -5.969293565366435 -8.2396755141277396 0 0 0 0 -147.32555885800843 -15.116979694032125 0 -15.116979694032125 -885.57356879119106 0 0 0 0 -439.38640728247765 71.60201734315342 0 71.60201734315342 -1274.2488661457282 0 0 0 0 -140.74253560815367 138.68888815276296 0 138.68888815276296 -1491.7485620223524 0 0 0 0 -122.13333885792451 399.35443308160848 0 399.35443308160848 -1304.1120510954279 0 0 0 0 -482.80947614743405 243.52797331479451 0 243.52797331479451 -76.997014432254218 0 0 0 0 -4.5786680284411707 -9.9373781104809211 0 -9.9373781104809211 -4.2990209126632948 0 0 0 0 -151.86016397350477 -89.620639766257227 0 -89.620639766257227 136.88504902473869 0 0 0 0 -1.9156754402550589 -2.1655139535434103 0 -2.1655139535434103 -3.9739669235403028 0 0 0 0 -435.26212940749718 -236.83560566467349 0 -236.83560566467349 256.2944684237018 0 0 0 0 180.99186001699073 259.80401775413156 0 259.80401775413156 -1174.2037544396953 0 0 0 0 -578.28677557936408 169.19157990216263 0 169.19157990216263 -974.9321155781272 0 0 0 0 156.89615838546888 -61.542714268125565 0 -61.542714268125565 -106.42622433337965 0 0 0 0 161.52902035452553 -76.074426249711905 0 -76.074426249711905 -70.806923948068288 0 0 0 0 181.69425258601223 -48.100105425990478 0 -48.100105425990478 -99.197932832292281 0 0 0 0 -22.520319313770784 -34.730256656113347 0 -34.730256656113347 -53.581089379768827 0 0 0 0 197.52736791664029 -194.63279281094583 0 -194.63279281094583 -77.955749799068144 0 0 0 0 225.0741965431701 -491.63683556517572 0 -491.63683556517572 133.11352639927736 0 0 0 0 70.331971730783607 -31.829043240525607 0 -31.829043240525607 34.797038872085977 0 0 0 0 -109.54914848286307 -40.502543452636019 0 -40.502543452636019 145.88006674792632 0 0 0 0 -211.63371278871898 75.424368665367183 0 75.424368665367183 32.90993489590619 0 0 0 0 -130.1551141996988 -86.456752486205005 0 -86.456752486205005 43.472882980488066 0 0 0 0 -16.553098245580685 -44.8308685378272 0 -44.8308685378272 -55.352935097612445 0 0 0 0 33.410382271530807 -186.91568209827892 0 -186.91568209827892 44.004739427207824 0 0 0 0 -79.266467518702257 -89.528257210753509 0 -89.528257210753509 38.618210538188578 0 0 0 0 2.1772477834735287 -28.872821548311158 0 -28.872821548311158 42.683735465557902 0 0 0 0 -71.687276863610634 -77.414652867817495 0 -77.414652867817495 55.720737654075492 0 0 0 0 17.448002693480476 -130.34196789971065 0 -130.34196789971065 32.186803543983842 0 0 0 0 5.1442319843411708 -24.814486159657072 0 -24.814486159657072 38.142928455062503 0 0 0 0 10.213379413786129 119.65187037791111 0 119.65187037791111 -143.54993655482349 0 0 0 0 -593.72597258984047 284.47373691808934 0 284.47373691808934 -134.22541546265711 0 0 0 0 -3.9482711318512513 -27.993949358913497 0 -27.993949358913497 -53.715344770925256 0 0 0 0 -2.5742575680374102 424.61104586158945 0 424.61104586158945 -251.95515278703078 0 0 0 0 -155.25953439223963 368.66895727718429 0 368.66895727718429 -212.39731565950206 0 0 0 0 -27.145010686090103 383.52812646067446 0 383.52812646067446 -307.42770594547619 0 0 0 0 88.887945037269674 -217.82789627803686 0 -217.82789627803686 196.31415085747722 0 0 0 0 110.73772210213122 -180.38726285911616 0 -180.38726285911616 126.33378492578049 0 0 0 0 -12.737239269768251 -37.425922890210963 0 -37.425922890210963 -70.819915662001307 0 0 0 0 59.248680944827242 -21.389231560662665 0 -21.389231560662665 28.791649267732282 0 0 0 0 39.329023220584986 -60.633408115577367 0 -60.633408115577367 243.40817452526244 0 0 0 0 52.624946615051158 1.9293166032803128 0 1.9293166032803128 52.698338436228369 0 0 0 0 -10.176419747726447 0.059456753756890635 0 0.059456753756890635 -0.45872754678699579 0 0 0 0 2.0266819149528601 -14.820330658913008 0 -14.820330658913008 78.030607488381065 0 0 0 0 -4.1417789225190518 7.7258469583139231 0 7.7258469583139231 -3.0570512531412533 0 0 0 0 65.818854397907003 -77.956421984825283 0 -77.956421984825283 0.79167228988080751 0 0 0 0 -98.330015388241691 -145.22815752136012 0 -145.22815752136012 38.095310968921694 0 0 0 0 19.956866510039617 -42.863540346730588 0 -42.863540346730588 -21.22737126048014 0 0 0 0 34.195203620577104 -37.364014522750949 0 -37.364014522750949 -29.022028354258509 0 0 0 0 20.392507741569059 -32.022986840635916 0 -32.022986840635916 -19.316834789342636 0 0 0 0 -217.30124005119387 -18.957475980532763 0 -18.957475980532763 31.255637336709697 0 0 0 0 7.175981364590136 -6.199563897099921 0 -6.199563897099921 3.651481751729051 0 0 0 0 -128.28173893540361 -55.822375666943117 0 -55.822375666943117 61.818578001904825 0 0 0 0 35.048289327129169 -53.126351715625788 0 -53.126351715625788 -434.03021441002784 0 0 0 0 -28.789583983884548 -9.5290040420429847 0 -9.5290040420429847 -2.1868500249218989 0 0 0 0 92.916754076863072 82.037861969085498 0 82.037861969085498 93.968002038294799 0 0 0 0 10.292321765037421 -0.5183672775795003 0 -0.5183672775795003 -2.0729506414872247 0 0 0 0 33.035238888869571 24.29103717666294 0 24.29103717666294 38.325311649939977 0 0 0 0 -72.465656084019429 34.916823714680504 0 34.916823714680504 33.420660115938517 0 0 0 0 -2.0433847405894152 -2.8372695778654844 0 -2.8372695778654844 -1.5810147320007673 0 0 0 0 322.42426474746389 7.0197095245530363 0 7.0197095245530363 -216.19320358955883 0 0 0 0 153.05387789189081 68.468760398522136 0 68.468760398522136 -90.219169490999775 0 0 0 0 115.15164726903822 -43.617248210633988 0 -43.617248210633988 -44.693182376075129 0 0 0 0 143.25984700211757 -14.172424729138584 0 -14.172424729138584 -128.79732098060776 0 0 0 0 -69.80298913541219 -283.64364648697847 0 -283.64364648697847 687.72846987617959 0 0 0 0 184.83256871889125 -963.48628939873743 0 -963.48628939873743 -806.52494961683624 0 0 0 0 92.29588210134375 -119.26537410555284 0 -119.26537410555284 -190.45124129614385 0 0 0 0 75.554092229388857 -109.56247006222384 0 -109.56247006222384 10.339721801661653 0 0 0 0 -335.13286086459175 -489.2296524948606 0 -489.2296524948606 -781.06280678021085 0 0 0 0 -347.84821426114166 -293.64940451874025 0 -293.64940451874025 -512.7221763027519 0 0 0 0 -2.1041247392772751 -1.4571566831004148 0 -1.4571566831004148 -0.49002131885588796 0 0 0 0 119.27420562815269 -1019.4244488797049 0 -1019.4244488797049 -1896.8122577784752 0 0 0 0 -315.63155844930952 -1189.0094519618942 0 -1189.0094519618942 65.317974053672515 0 0 0 0 -23.150514425501797 356.91114601547451 0 356.91114601547451 30.026630385593307 0 0 0 0 -2.4940628943738261 427.40248687145686 0 427.40248687145686 -183.08667532719119 0 0 0 0 86.620467996347656 466.03348877412645 0 466.03348877412645 -409.34291327484971 0 0 0 0 12.494612937974466 249.16231444303958 0 249.16231444303958 -221.16660595763278 0 0 0 0 -55.507841203360385 351.76944721338077 0 351.76944721338077 -377.24975883413208 0 0 0 0 103.53228152512611 39.808331893746072 0 39.808331893746072 -1103.6980418266503 0 0 0 0 0.31109499000297092 133.22439878225123 0 133.22439878225123 -619.75958261468986 0 0 0 0 0.023525016397597964 -2.6010445575438226 0 -2.6010445575438226 -17.295309723401758 0 0 0 0 113.93811658634468 -802.17083190989797 0 -802.17083190989797 -756.49099482584279 0 0 0 0 21.308596160429829 459.90513299313807 0 459.90513299313807 -498.48999076598921 0 0 0 0 160.10544017919369 368.61221152115832 0 368.61221152115832 -776.88275413062365 0 0 0 0 156.09165185792011 344.6266828519565 0 344.6266828519565 -909.98201122742466 0 0 0 0 -150.66791756443558 -463.07595111599221 0 -463.07595111599221 -511.1080158080149 0 0 0 0 -257.77742433305343 -784.58102663333375 0 -784.58102663333375 -1388.769954650661 0 0 0 0 -307.8087984869444 310.1974293475032 0 310.1974293475032 105.40233943604835 0 0 0 0 -7.3925637161819191 -3.7327163738085005 0 -3.7327163738085005 -2.9005634572124208 0 0 0 0 738.34361712707482 -472.07344773895966 0 -472.07344773895966 -916.47246439197443 0 0 0 0 -776.98486713277487 -165.78268685734838 0 -165.78268685734838 806.64308391595114 0 0 0 0 80.001409292631479 -575.56055090154405 0 -575.56055090154405 428.77970947142785 0 0 0 0 25.544756298100765 8.5187921970391471 0 8.5187921970391471 99.254099225217942 0 0 0 0 -18.337476467742341 -42.763179238143351 0 -42.763179238143351 -76.491896436593862 0 0 0 0 -78.836581301708975 -740.28776073846893 0 -740.28776073846893 123.10368005513737 0 0 0 0 268.6256923330136 -87.294085897505283 0 -87.294085897505283 -130.79547385052501 0 0 0 0 -77.446450418615768 -122.30227968245163 0 -122.30227968245163 144.04828946601629 0 0 0 0 -15.721204334121612 -14.017933813771776 0 -14.017933813771776 -0.32086718028534733 0 0 0 0 -51.406992800988746 -77.468083719209972 0 -77.468083719209972 320.12874151764004 0 0 0 0 -64.548523869556448 -21.141832635545143 0 -21.141832635545143 43.538901867315872 0 0 0 0 -196.64230027307707 264.75528229617339 0 264.75528229617339 312.67700266087417 0 0 0 0 -258.70626971808377 553.97447881791538 0 553.97447881791538 -210.67499544146995 0 0 0 0 26.983750888277427 265.76715436925042 0 265.76715436925042 -312.45416819526145 0 0 0 0 317.54383489698591 77.799518647888362 0 77.799518647888362 -307.62962250249984 0 0 0 0 237.6379762943443 348.93930226251905 0 348.93930226251905 -1182.3085600936511 0 0 0 0 188.20861945318097 -22.911237513133528 0 -22.911237513133528 -182.69275703347694 0 0 0 0 103.76569659623993 11.691974878102428 0 11.691974878102428 -155.04153590305941 0 0 0 0 50.514968182102166 28.372775962005107 0 28.372775962005107 -148.1930027140661 0 0 0 0 9.290026176798392 11.075680699037548 0 11.075680699037548 13.404272188310642 0 0 0 0 16.339106847830408 2.3926368414668104 0 2.3926368414668104 16.057831026821077 0 0 0 0 85.8380159872479 116.96761198043714 0 116.96761198043714 50.885102775719133 0 0 0 0 -3.1998232489576903 -47.519160562687205 0 -47.519160562687205 -51.56201477821871 0 0 0 0 -0.72378445663991897 -58.181999377809916 0 -58.181999377809916 -184.20306813497882 0 0 0 0 -245.59820573216297 -108.61748134504523 0 -108.61748134504523 441.22531237597286 0 0 0 0 3.1031678506205247 0.0091325321462960574 0 0.0091325321462960574 -16.631158766473348 0 0 0 0 -27.175891540085388 -293.46900316715255 0 -293.46900316715255 45.832840581060736 0 0 0 0 25.361824747541277 -43.254780211789694 0 -43.254780211789694 -45.343954788040719 0 0 0 0 -1.5065425601365146 -9.937853597177309 0 -9.937853597177309 -0.20849856154964641 0 0 0 0 15.24223960348354 -68.711787402011396 0 -68.711787402011396 -53.741578616871266 0 0 0 0 240.80712732685717 151.87849176927921 0 151.87849176927921 145.5265779751644 0 0 0 0 15.158765656954852 -52.447029424316078 0 -52.447029424316078 15.436920555615899 0 0 0 0 35.757058902844619 -87.407946146526228 0 -87.407946146526228 19.244784652939416 0 0 0 0 88.992898522057686 -149.07329487712923 0 -149.07329487712923 -139.52923598595953 0 0 0 0 18.133236976881562 -182.05752642360676 0 -182.05752642360676 100.19973485119408 0 0 0 0 440.86000062583025 -143.50552382649403 0 -143.50552382649403 -78.964745454621152 0 0 0 0 -12.173250876477617 -47.063585992162075 0 -47.063585992162075 -64.493983533920499 0 0 0 0 252.07104080066892 312.47816429832164 0 312.47816429832164 -462.51072809790639 0 0 0 0 -407.35648839229361 66.411561071236065 0 66.411561071236065 -63.070603948144708 0 0 0 0 -88.894960701848504 -91.590282678444055 0 -91.590282678444055 29.782395642410847 0 0 0 0 149.72028243647628 171.12454250116207 0 171.12454250116207 -116.11838234036986 0 0 0 0 13.203765812730595 -8.5522278384926977 0 -8.5522278384926977 -6.4902470640374048 0 0 0 0 133.66254492353892 171.4114210259977 0 171.4114210259977 12.726968135810239 0 0 0 0 -9.2227556933598862 9.5479417674796423 0 9.5479417674796423 -68.271539245222812 0 0 0 0 13.224904698882014 -41.629149850632587 0 -41.629149850632587 -249.27095551954699 0 0 0 0 13.096457206399919 -19.380838331588166 0 -19.380838331588166 -189.97046674964804 0 0 0 0 -18.203615840732027 -61.046372206372325 0 -61.046372206372325 -89.098828780202894 0 0 0 0 5.4066633251841267 -80.161400493325345 0 -80.161400493325345 -193.09256506347447 0 0 0 0 0.78806096233074641 -38.474239666007634 0 -38.474239666007634 -278.08149719732137 0 0 0 0 41.979259038770124 -43.285474386066198 0 -43.285474386066198 -278.82402992550487 0 0 0 0 12.28097895093515 -26.745422318366764 0 -26.745422318366764 -275.46709069768986 0 0 0 0 -208.98977150848907 -50.945571054782704 0 -50.945571054782704 -228.65513702589669 0 0 0 0 -33.203852570642766 -122.82992902817205 0 -122.82992902817205 -400.79720088932118 0 0 0 0 12.339737704500294 68.378444142155786 0 68.378444142155786 -328.63179337512702 0 0 0 0 -212.5599545183716 -301.5743527444082 0 -301.5743527444082 -185.9225638096832 0 0 0 0 -220.71891124756257 41.931311620493943 0 41.931311620493943 134.98971243394772 0 0 0 0 -0.54072754921153043 -1.2167843503189033 0 -1.2167843503189033 -3.3027490545214562 0 0 0 0 -17.449084183647301 11.071047409182938 0 11.071047409182938 19.959951578741311 0 0 0 0 4.4645922205943407 28.17283771061193 0 28.17283771061193 -148.27818551714881 0 0 0 0 14.871252409790827 37.879777141276463 0 37.879777141276463 -260.48981907602865 0 0 0 0 18.843439171883176 -26.419300774387693 0 -26.419300774387693 -19.363120637426618 0 0 0 0 6.0979163051124488 162.43745569205657 0 162.43745569205657 -61.504466336031328 0 0 0 0 -142.76264487295884 190.05500649709938 0 190.05500649709938 -652.59078637309722 0 0 0 0 -232.97343999324448 -122.67018107041986 0 -122.67018107041986 -242.40088880484109 0 0 0 0 57.823463614662614 -144.44741884410178 0 -144.44741884410178 -411.94461220045923 0 0 0 0 -99.931038021225504 -176.57796531698841 0 -176.57796531698841 -416.67627554634237 0 0 0 0 24.059074215864257 197.27290625955175 0 197.27290625955175 -363.38084023352712 0 0 0 0 123.08005332059565 -181.03813315473235 0 -181.03813315473235 -663.66445070916961 0 0 0 0 50.559584736784927 -96.729981597018195 0 -96.729981597018195 -287.48118523788435 0 0 0 0 63.947023576530057 -47.075783822771655 0 -47.075783822771655 -403.34800927822653 0 0 0 0 -45.888965217824989 -75.141579835679295 0 -75.141579835679295 -407.32782179398055 0 0 0 0 -45.288998230278594 -6.4584023112729483 0 -6.4584023112729483 -80.118655084384955 0 0 0 0 1.7959352040681473 -0.93010787011060359 0 -0.93010787011060359 0.25240842063555213 0 0 0 0 -134.28975752374663 -27.933626693324186 0 -27.933626693324186 31.996935325871164 0 0 0 0 0.45731691310809097 -0.12755740131891002 0 -0.12755740131891002 -0.10303110419629746 0 0 0 0 93.252581215019063 -11.296633394671517 0 -11.296633394671517 -342.05837955561583 0 0 0 0 -74.529912053275439 -87.818125745463476 0 -87.818125745463476 -376.81508188522275 0 0 0 0 -57.658532934652612 115.56348289489779 0 115.56348289489779 -459.5260586982331 0 0 0 0 95.802727747332028 -69.497475292984745 0 -69.497475292984745 -950.41239434711861 0 0 0 0 -64.705116157116208 -235.74107346757955 0 -235.74107346757955 -335.5279606619697 0 0 0 0 -253.51400424046096 -342.48023003338585 0 -342.48023003338585 -505.36106979838223 0 0 0 0 8.3099296620966925 19.314285715729056 0 19.314285715729056 -196.58979506848846 0 0 0 0 -85.58136558009619 122.55856731545282 0 122.55856731545282 246.26093775455229 0 0 0 0 7.1505894097709781 -0.99336821901350447 0 -0.99336821901350447 0.31616631500520498 0 0 0 0 -5.5044223315456975 -43.45720400988921 0 -43.45720400988921 -245.99021526454453 0 0 0 0 -13.365603103713966 -74.563750404577149 0 -74.563750404577149 -265.8136566215253 0 0 0 0 -20.592420379235136 -120.594508687489 0 -120.594508687489 -533.01781986815331 0 0 0 0 67.739574511880164 137.12126367347082 0 137.12126367347082 145.51268448732117 0 0 0 0 1.7304040988692897 -0.44125477786020895 0 -0.44125477786020895 -0.60065217877101418 0 0 0 0 94.115947195983608 -30.877258898693981 0 -30.877258898693981 -134.62332154669957 0 0 0 0 -4.1430233660203157 -9.1808865460407105 0 -9.1808865460407105 95.79652827254904 0 0 0 0 15.643962677959394 -109.89379140199844 0 -109.89379140199844 -38.895934255953762 0 0 0 0 -18.39665718264132 -94.97028871398652 0 -94.97028871398652 -31.944669044065449 0 0 0 0 162.8154919257322 59.990913775831359 0 59.990913775831359 -70.883713775707292 0 0 0 0 -163.29452645211859 -211.19050068235811 0 -211.19050068235811 -355.25016806902931 0 0 0 0 73.485558708698591 -80.935893139816471 0 -80.935893139816471 -290.91350455083375 0 0 0 0 -196.15542154049399 -49.96011653507594 0 -49.96011653507594 -38.898676846103626 0 0 0 0 22.459108096273667 -41.64608965104344 0 -41.64608965104344 -39.300617578308447 0 0 0 0 1.6585936091541953 524.84993720432976 0 524.84993720432976 -989.84342932230356 0 0 0 0 -85.878006683589774 -161.16172855662444 0 -161.16172855662444 -1160.4104579237173 0 0 0 0 0.93745515718683237 77.287024078019385 0 77.287024078019385 -559.20381410163827 0 0 0 0 104.64372002751884 -32.394509803298206 0 -32.394509803298206 -683.031244249265 0 0 0 0 54.92808845680247 180.37692634610721 0 180.37692634610721 -726.74941093458801 0 0 0 0 36.350774668894246 54.242495509719447 0 54.242495509719447 -588.94651613471433 0 0 0 0 63.033032843268529 -31.842067776769909 0 -31.842067776769909 -485.70378661705763 0 0 0 0 34.718735743424077 54.449625830232435 0 54.449625830232435 -442.91336853138637 0 0 0 0 24.080946404500992 160.96072113583523 0 160.96072113583523 -440.55012029947829 0 0 0 0 -52.972026000599271 107.06122032872736 0 107.06122032872736 -474.45728261615659 0 0 0 0 58.571324709809687 75.7368399768784 0 75.7368399768784 -404.7147448045107 0 0 0 0 -8.9448491099283274 67.328832275692548 0 67.328832275692548 -236.17283800028963 0 0 0 0 68.887112457345211 125.00262203607417 0 125.00262203607417 -507.09233398215656 0 0 0 0 53.809142861018245 112.12288628848364 0 112.12288628848364 -492.55620095444465 0 0 0 0 -14.63129254702153 129.79813023192946 0 129.79813023192946 -184.0501258206059 0 0 0 0 -33.427802353178777 204.26224872027888 0 204.26224872027888 -356.13014257080795 0 0 0 0 -0.9588952805561366 1.6592240480317173 0 1.6592240480317173 -3.5291595286998927 0 0 0 0 -55.827247649517176 230.46429451782024 0 230.46429451782024 -113.26653618227283 0 0 0 0 -85.452781039060028 -305.53346228256851 0 -305.53346228256851 -162.84549864537257 0 0 0 0 -152.08945531342033 421.05482596346701 0 421.05482596346701 -653.00486238375743 0 0 0 0 -1.4608258495445625 293.39350708225902 0 293.39350708225902 -510.40560328550055 0 0 0 0 -124.74773605383871 125.30550430629228 0 125.30550430629228 -541.14920106984937 0 0 0 0 -251.89342022126766 417.45320733288827 0 417.45320733288827 -615.93443854403449 0 0 0 0 16.032996256626575 1.1638710251099837 0 1.1638710251099837 -307.0871279049752 0 0 0 0 -0.81573815243633785 -0.53421673894200694 0 -0.53421673894200694 -0.59050132922856502 0 0 0 0 30.053733504468255 6.5115439845685614 0 6.5115439845685614 -340.67278606914306 0 0 0 0 -43.979468911568262 -16.852233965160565 0 -16.852233965160565 -238.59656574758992 0 0 0 0 14.343527401487677 -51.369830646834998 0 -51.369830646834998 -300.37886721870746 0 0 0 0 -42.267651473410297 -22.852246498237946 0 -22.852246498237946 -254.90742915159012 0 0 0 0 23.840686510835894 -31.946954825995817 0 -31.946954825995817 -327.33371191853075 0 0 0 0 -42.574818475944085 47.453051045959 0 47.453051045959 -389.64341914862234 0 0 0 0 30.34567556498223 -47.758681487182912 0 -47.758681487182912 -378.90227806566691 0 0 0 0 -62.286216896662154 57.614018056308851 0 57.614018056308851 -416.5363674420887 0 0 0 0 15.410124415578593 -22.996770151170495 0 -22.996770151170495 -307.61760033715109 0 0 0 0 -0.5043833596684113 -0.66731238838349327 0 -0.66731238838349327 -0.53108700947446863 0 0 0 0 -51.247072117575954 84.595928076250857 0 84.595928076250857 -376.97889680569642 0 0 0 0 -11.727214950075449 183.32666711301863 0 183.32666711301863 -471.29922529088799 0 0 0 0 -55.669317344200181 -115.31852373414222 0 -115.31852373414222 -580.45603265389218 0 0 0 0 -296.49033359067562 108.66615940236443 0 108.66615940236443 -378.16742838927348 0 0 0 0 43.003503500118995 26.152382676827983 0 26.152382676827983 -423.22977434690984 0 0 0 0 99.018670827840197 -11.866020448185736 0 -11.866020448185736 -450.76597444903746 0 0 0 0 -23.768955866184001 -47.719022327183666 0 -47.719022327183666 -392.27818402699631 0 0 0 0 127.02510132924535 70.582319285193989 0 70.582319285193989 -459.15399413886189 0 0 0 0 211.97018786873571 71.946306079735223 0 71.946306079735223 -472.74651489923417 0 0 0 0 176.99886339306232 -87.511068399363467 0 -87.511068399363467 -370.23758354100573 0 0 0 0 243.15951095111336 83.898790348604962 0 83.898790348604962 -470.77991105647379 0 0 0 0 201.90447784147125 203.92913553766266 0 203.92913553766266 -681.94810045984559 0 0 0 0 235.2229555920897 5.6143765340530081 0 5.6143765340530081 -471.2494582653344 0 0 0 0 210.15572163772299 94.291318135714391 0 94.291318135714391 -638.3102409670937 0 0 0 0 146.96820098804972 168.332823503697 0 168.332823503697 -555.9866026577256 0 0 0 0 30.72542566377706 621.39225714833447 0 621.39225714833447 -634.64403724117074 0 0 0 0 -212.66492541375518 354.02088271239427 0 354.02088271239427 -431.17676893149473 0 0 0 0 339.55286301815727 -21.640839117175346 0 -21.640839117175346 -309.46571851995395 0 0 0 0 -206.58253808729609 -258.93924220585274 0 -258.93924220585274 -63.123305989487562 0 0 0 0 38.491858788840659 102.36857996469189 0 102.36857996469189 -238.84022883259604 0 0 0 0 32.066546543115521 130.11556966566059 0 130.11556966566059 -358.6617231904238 0 0 0 0 -10.686503767579154 74.238264937186614 0 74.238264937186614 -151.89094129775913 0 0 0 0 -0.36039089225524024 -0.59611452908299611 0 -0.59611452908299611 -0.35979324539769664 0 0 0 0 102.69112978865007 -16.55377308561583 0 -16.55377308561583 -243.14225934170827 0 0 0 0 18.509228334757154 119.00461219020144 0 119.00461219020144 -215.12120341436457 0 0 0 0 64.475833788967691 82.03226834779889 0 82.03226834779889 -179.41299512813566 0 0 0 0 -45.678809639575512 73.487886164884173 0 73.487886164884173 -254.66923578279238 0 0 0 0 67.225069116492293 38.91764181632243 0 38.91764181632243 -336.83148510263118 0 0 0 0 -147.36232198140928 -97.662796302220642 0 -97.662796302220642 -142.75769233444589 0 0 0 0 -108.27153476128092 -31.659513541966589 0 -31.659513541966589 -123.06885556214183 0 0 0 0 1.1715524155556523 65.763904513150919 0 65.763904513150919 -104.31899685981625 0 0 0 0 -34.527750526171076 -4.0570263882254949 0 -4.0570263882254949 -85.861509077680239 0 0 0 0 -5.0312461832359077 90.633028432923311 0 90.633028432923311 -156.06118030814105 0 0 0 0 -147.9183047365118 50.308305327114795 0 50.308305327114795 -70.925861881369201 0 0 0 0 100.49625974587491 48.211103652094607 0 48.211103652094607 -167.01983526270487 0 0 0 0 100.83150916976501 30.984394691617126 0 30.984394691617126 -251.92946380644571 0 0 0 0 2.798497469670254 14.097666052956814 0 14.097666052956814 -94.780166440047566 0 0 0 0 178.28026633659829 132.10702868184126 0 132.10702868184126 -210.62515930613154 0 0 0 0 -56.316103529683005 166.89421144777043 0 166.89421144777043 -191.62290839421132 0 0 0 0 -54.858440893458464 -7.9355615520125866 0 -7.9355615520125866 -198.12384343242593 0 0 0 0 365.57253480511667 95.754393266590341 0 95.754393266590341 -319.14582114825316 0 0 0 0 -2.3906145883157826 18.689944723386187 0 18.689944723386187 -97.38604806959313 0 0 0 0 -38.055327365788749 100.31331398632119 0 100.31331398632119 -329.03175734823708 0 0 0 0 10.906308668557131 112.04480498076555 0 112.04480498076555 -357.12549498452427 0 0 0 0 10.304284580074864 117.1362237809908 0 117.1362237809908 -350.21660931390761 0 0 0 0 18.759519253634153 58.504560706320262 0 58.504560706320262 -500.44394401433874 0 0 0 0 -0.35123729293062 -0.99332175598250938 0 -0.99332175598250938 -7.6277275640953235 0 0 0 0 114.90480205993754 -434.24151423761941 0 -434.24151423761941 -228.77474947877272 0 0 0 0 -528.59939202326859 -132.27983039698302 0 -132.27983039698302 88.505977629469271 0 0 0 0 -25.124558264858479 241.49128733771431 0 241.49128733771431 -324.44795426290511 0 0 0 0 370.01146411161244 -521.21191417451701 0 -521.21191417451701 -106.5958164779895 0 0 0 0 -492.16652978379989 -71.110823936460292 0 -71.110823936460292 162.7635925791692 0 0 0 0 25.594509443020762 -13.363130733031056 0 -13.363130733031056 -116.29938106488662 0 0 0 0 370.2273034957725 203.87140907165121 0 203.87140907165121 -334.21505169682496 0 0 0 0 -1.3663390006352207 1.5657877539678102 0 1.5657877539678102 -8.099599030212957 0 0 0 0 -17.877278083162309 458.28512776175194 0 458.28512776175194 -263.50924280641453 0 0 0 0 29.127294314654058 -3.6381123838369271 0 -3.6381123838369271 -106.15920275177851 0 0 0 0 36.574655547799011 -222.70332511948254 0 -222.70332511948254 188.94600112674834 0 0 0 0 625.69305394648563 -251.35546289205922 0 -251.35546289205922 -347.9298845741032 0 0 0 0 9.6101009206489234 -18.334845579708755 0 -18.334845579708755 -15.237450638229035 0 0 0 0 -176.13134680975691 44.909351746357061 0 44.909351746357061 -143.33398617076 0 0 0 0 -252.27737463252515 145.93242102833619 0 145.93242102833619 -125.64103210760368 0 0 0 0 25.987918176845703 2.9917850632548895 0 2.9917850632548895 -76.394968822279623 0 0 0 0 75.198936729790148 -82.451857889067469 0 -82.451857889067469 49.232681245041931 0 0 0 0 -307.25736374460394 73.822809582287391 0 73.822809582287391 -29.2955774236043 0 0 0 0 9.3517423496733336 -15.326100522023175 0 -15.326100522023175 -36.106563113625754 0 0 0 0 -67.960885500466247 33.965432471080931 0 33.965432471080931 -81.936621239657143 0 0 0 0 89.06611390524904 -63.356777679789957 0 -63.356777679789957 -22.096325902758281 0 0 0 0 -40.409584381032687 89.592337266281675 0 89.592337266281675 -30.509090445611946 0 0 0 0 40.316906152586398 90.876203024440656 0 90.876203024440656 -9.6415512514104194 0 0 0 0 209.29632436213706 -236.16736043341734 0 -236.16736043341734 -11.815661760362914 0 0 0 0 -128.20174052738503 -38.296272095511085 0 -38.296272095511085 107.8736588120737 0 0 0 0 -1.3622462167072298 -2.8260329316643746 0 -2.8260329316643746 -23.133619175761638 0 0 0 0 300.72821829046143 -15.369049767519755 0 -15.369049767519755 -162.14972305950869 0 0 0 0 102.59161986312847 -3.9828752087159955 0 -3.9828752087159955 -150.55779559545772 0 0 0 0 158.39881869142164 111.01834737532863 0 111.01834737532863 -56.169231978921744 0 0 0 0 -8.5277362378619728 -38.581642311302858 0 -38.581642311302858 103.19354837225546 0 0 0 0 73.725966644379241 -194.08245039280882 0 -194.08245039280882 -4.1958767916439683 0 0 0 0 217.1286088107945 -161.7514811191096 0 -161.7514811191096 -140.19193744558424 0 0 0 0 19.033760709101706 -6.8963760124844127 0 -6.8963760124844127 -73.178003876969328 0 0 0 0 228.83969921897551 -158.84765238113869 0 -158.84765238113869 -122.55132856922864 0 0 0 0 -66.970572972049922 22.3168564801299 0 22.3168564801299 71.747931632806285 0 0 0 0 -396.88580458686738 -249.47248279423184 0 -249.47248279423184 41.706751566607636 0 0 0 0 273.66188611074699 -285.08555651217648 0 -285.08555651217648 -369.04347130483256 0 0 0 0 21.443968354286248 0.38415971159753859 0 0.38415971159753859 -88.26812976510611 0 0 0 0 310.12176942431688 -74.616659874694278 0 -74.616659874694278 -223.85144797432622 0 0 0 0 4.6442397228951631 -17.0086357469551 0 -17.0086357469551 -34.118543190529692 0 0 0 0 215.56332764968647 -120.9173018720885 0 -120.9173018720885 -115.45348140685383 0 0 0 0 42.336242736455915 -86.568879366622241 0 -86.568879366622241 49.003412916848902 0 0 0 0 98.091815191451133 -5.3454168672542437 0 -5.3454168672542437 -31.369436735185445 0 0 0 0 19.237196208986461 44.999713875153247 0 44.999713875153247 -117.95348995753056 0 0 0 0 -224.46190345533523 105.8060160574023 0 105.8060160574023 -57.595257500741354 0 0 0 0 -139.85697700755372 211.04288041173095 0 211.04288041173095 -210.90003553017232 0 0 0 0 -228.316408689333 102.27390940128498 0 102.27390940128498 -28.429102585143482 0 0 0 0 -457.45868414618963 119.38275753605376 0 119.38275753605376 -29.665176537501566 0 0 0 0 -0.43057685506560262 -0.96610087537972511 0 -0.96610087537972511 -0.7633795927378344 0 0 0 0 -188.92851404008616 -136.52828148549906 0 -136.52828148549906 -62.20954080790807 0 0 0 0 -2.3323273430109501 0.88196965193859356 0 0.88196965193859356 -13.356885275665276 0 0 0 0 -389.29644858740539 270.04370054176343 0 270.04370054176343 -224.44660600693351 0 0 0 0 -586.62014671194947 216.74971817857499 0 216.74971817857499 -70.74808468631818 0 0 0 0 -600.27995835200227 113.17269294991684 0 113.17269294991684 -245.61921413626987 0 0 0 0 10.56760902586484 44.035327501459051 0 44.035327501459051 -55.202527425356493 0 0 0 0 -131.24215078607449 -173.38522091708683 0 -173.38522091708683 -204.23592017211286 0 0 0 0 47.665103980037429 -20.636136097426288 0 -20.636136097426288 -224.18777411831525 0 0 0 0 -15.724977623380255 -88.361841604242954 0 -88.361841604242954 -157.06638703848421 0 0 0 0 -205.53401227598533 -86.120062944702568 0 -86.120062944702568 -147.83558784428988 0 0 0 0 -530.432730088889 187.31396847935957 0 187.31396847935957 -367.13990003253912 0 0 0 0 -368.22858976344651 -288.47647008833746 0 -288.47647008833746 -385.0580842481877 0 0 0 0 -309.44202346854399 2.9927990071971635 0 2.9927990071971635 -11.757533061619142 0 0 0 0 -158.2567439257482 -138.40426753202291 0 -138.40426753202291 -143.53490247852187 0 0 0 0 -46.401214093339604 -126.63834545324767 0 -126.63834545324767 -152.17216248739896 0 0 0 0 -65.506387482299033 -137.62581474582475 0 -137.62581474582475 -157.81815868650767 0 0 0 0 -152.54762098204947 -124.08489511621428 0 -124.08489511621428 -107.65172002458712 0 0 0 0 237.98783017316418 -169.88931849003757 0 -169.88931849003757 -3.6712947831471183 0 0 0 0 12.548706256197645 -3.0421801791519343 0 -3.0421801791519343 -42.584884852482332 0 0 0 0 35.16530413206965 -10.2683909089792 0 -10.2683909089792 -30.099449717082848 0 0 0 0 40.958258557495355 -30.771406000214483 0 -30.771406000214483 -13.092120446367289 0 0 0 0 28.724725459984356 -27.24504464217658 0 -27.24504464217658 -63.819798936626675 0 0 0 0 22.86659828481001 -18.943557912074738 0 -18.943557912074738 -56.470363863204895 0 0 0 0 48.452154495744253 -64.131149733493658 0 -64.131149733493658 13.441268287278945 0 0 0 0 26.006876330306703 2.2550421799360372 0 2.2550421799360372 -130.65487475113059 0 0 0 0 50.919438529920171 95.14789836397847 0 95.14789836397847 -1.7462964003916568 0 0 0 0 499.78577316034352 99.103944928376222 0 99.103944928376222 -95.867604077457145 0 0 0 0 4.1844324631531045 4.759948164907791 0 4.759948164907791 -29.528619806376273 0 0 0 0 313.66169462363951 -568.33577593144378 0 -568.33577593144378 -576.07700905166166 0 0 0 0 591.74539576368625 -86.766596326781837 0 -86.766596326781837 -281.02040966840468 0 0 0 0 -778.09437663528206 41.434788479313511 0 41.434788479313511 1.5248134822031716 0 0 0 0 -46.035149465769791 702.1782235427836 0 702.1782235427836 -206.41828895669892 0 0 0 0 518.87908428672836 49.189695468969376 0 49.189695468969376 -251.5058892991492 0 0 0 0 79.596345706744614 141.11164909898844 0 141.11164909898844 -218.05353802636819 0 0 0 0 -95.850070031237919 142.15935628465195 0 142.15935628465195 4.013494427247366 0 0 0 0 -29.571653913711998 77.89077294705794 0 77.89077294705794 -86.418895811993934 0 0 0 0 44.195554870034812 -13.46587685427221 0 -13.46587685427221 -48.651360062125605 0 0 0 0 6.6828216427287863 -4.2460719793535979 0 -4.2460719793535979 -63.46936204615227 0 0 0 0 114.99729242474859 -31.356055512069815 0 -31.356055512069815 -106.56293588078188 0 0 0 0 162.35297652228701 -0.59495840270528788 0 -0.59495840270528788 -89.935657136576992 0 0 0 0 1.2449032908288542 -14.957988968698494 0 -14.957988968698494 -42.776586936446677 0 0 0 0 -7.191731877467646 33.075764923807583 0 33.075764923807583 -72.542970222117219 0 0 0 0 -3.6566474633208337 -10.305469232904365 0 -10.305469232904365 -22.378070622389998 0 0 0 0 49.800377316315462 -40.320800855977723 0 -40.320800855977723 -45.289748367940774 0 0 0 0 13.701827910798176 -21.555220821867216 0 -21.555220821867216 -34.731230961621776 0 0 0 0 25.60506790184445 -12.200508225669182 0 -12.200508225669182 -50.73159831767407 0 0 0 0 23.97983984684015 -17.409805737078386 0 -17.409805737078386 -33.390795167189935 0 0 0 0 33.406051437726205 -21.975506819864492 0 -21.975506819864492 -76.838570585280138 0 0 0 0 32.3451257395227 -31.568115600835881 0 -31.568115600835881 -51.310990586789785 0 0 0 0 38.722093856882566 -28.08636346169078 0 -28.08636346169078 -62.660735832746013 0 0 0 0 20.303561422068924 -11.213653931234148 0 -11.213653931234148 -88.192582059554525 0 0 0 0 16.257461719606159 -19.254984947362964 0 -19.254984947362964 -6.8226347120786173 0 0 0 0 28.351995340157373 -8.4907410337655165 0 -8.4907410337655165 -4.8397942714945543 0 0 0 0 6.7308768431726094 -38.924691747197357 0 -38.924691747197357 -47.343751983597031 0 0 0 0 -3.7003601069200158 -20.032641528616296 0 -20.032641528616296 -41.41149947825761 0 0 0 0 -8.1285541846455089 -34.337492205424496 0 -34.337492205424496 -60.119048489864781 0 0 0 0 -7.3399018397249165 -43.66326932042648 0 -43.66326932042648 -61.705698051748186 0 0 0 0 4.0760226647939817 -32.819895578775686 0 -32.819895578775686 -79.95566146577039 0 0 0 0 4.3430524071114931 -15.70687452064098 0 -15.70687452064098 -19.489000766319865 0 0 0 0 6.9497510972217675 -22.379290061145731 0 -22.379290061145731 -36.95376356525945 0 0 0 0 8.270526232330667 -13.859890135994647 0 -13.859890135994647 -81.606290448062964 0 0 0 0 131.92979268614101 -16.056859739477659 0 -16.056859739477659 46.855105205417203 0 0 0 0 102.86096050696551 -279.72140070411479 0 -279.72140070411479 44.383624467016489 0 0 0 0 57.054666968774733 -20.128916537905752 0 -20.128916537905752 -249.87261598008627 0 0 0 0 -92.567387112588605 142.79125109450251 0 142.79125109450251 -358.67741054121871 0 0 0 0 144.56012191821154 -13.966024428221317 0 -13.966024428221317 -214.41830318521534 0 0 0 0 63.329624093785846 19.276944718789309 0 19.276944718789309 -80.881328482670142 0 0 0 0 121.17400103809592 -75.225259317000564 0 -75.225259317000564 -57.026136088570638 0 0 0 0 13.618988448733861 -13.57982022865302 0 -13.57982022865302 -47.643780176141917 0 0 0 0 -116.57117750826501 -90.702884317157441 0 -90.702884317157441 -22.027449504281321 0 0 0 0 -267.17892357055098 9.263897370408813 0 9.263897370408813 -77.163541102112504 0 0 0 0 6.4821236954425645 -11.633080815036777 0 -11.633080815036777 -39.22136467042975 0 0 0 0 15.896532919482796 2.6368260603789864 0 2.6368260603789864 -29.42028889234372 0 0 0 0 -44.715300437836049 -134.93286957252712 0 -134.93286957252712 -152.05924151490649 0 0 0 0 26.231191170623561 -1.6832421116214391 0 -1.6832421116214391 -38.827862349404313 0 0 0 0 14.903964790711523 -13.237421611855595 0 -13.237421611855595 -33.583903126940612 0 0 0 0 -13.979460163136537 -76.217678120803612 0 -76.217678120803612 -8.7624557274975814 0 0 0 0 15.542366649650148 -28.824123610533206 0 -28.824123610533206 -61.567584405951493 0 0 0 0 -37.819207124495733 -22.041373336234756 0 -22.041373336234756 -66.606319914004416 0 0 0 0 76.510951012820442 -82.532913571856625 0 -82.532913571856625 -88.690535456325961 0 0 0 0 14.863838959760869 -20.553317273883295 0 -20.553317273883295 -40.404659541178262 0 0 0 0 2.2895830786287661 -8.580724257066322 0 -8.580724257066322 -47.221737960011524 0 0 0 0 11.846853612897192 145.62935685099364 0 145.62935685099364 -246.7046112340995 0 0 0 0 69.517732515254906 -49.924902258109796 0 -49.924902258109796 -154.27506444190112 0 0 0 0 0.0014270170943050386 -3.6680086353254566 0 -3.6680086353254566 -12.173028687654238 0 0 0 0 -91.956561932623814 105.31660988086878 0 105.31660988086878 -65.51606140795775 0 0 0 0 270.98110857702767 -119.88789202470798 0 -119.88789202470798 -96.883291209573144 0 0 0 0 -0.62839224741077104 -3.9195856921111414 0 -3.9195856921111414 -10.901030468412159 0 0 0 0 -63.170190913349003 -8.8561800014358596 0 -8.8561800014358596 -260.34829249601171 0 0 0 0 310.5656944828068 -9.7089714315516176 0 -9.7089714315516176 -277.073785434397 0 0 0 0 0.52112713901130259 -0.92847371568448978 0 -0.92847371568448978 -1.9673206922794506 0 0 0 0 165.39419397251177 135.54242638463256 0 135.54242638463256 -625.34729435898043 0 0 0 0 -181.1242488585853 120.80612684514199 0 120.80612684514199 -156.96212022558757 0 0 0 0 -66.033208088642112 334.22871680356548 0 334.22871680356548 -1388.8463797535587 0 0 0 0 -9.3761777254235277 369.54695607480244 0 369.54695607480244 -1425.7975018084908 0 0 0 0 118.36392635556328 352.33335516182706 0 352.33335516182706 -1494.5520346410049 0 0 0 0 114.29874672156627 427.51353768415356 0 427.51353768415356 -2055.4665662433363 0 0 0 0 98.878068081407562 237.07068485817581 0 237.07068485817581 -1590.554674075458 0 0 0 0 13.833464560465192 -50.992884204721122 0 -50.992884204721122 -7.9325333327069529 0 0 0 0 -252.03836136933629 754.8976503339436 0 754.8976503339436 -779.97986717080494 0 0 0 0 -254.56935457407781 802.08754027358873 0 802.08754027358873 -1638.664097510642 0 0 0 0 0.20192146944936085 -0.88088639410594283 0 -0.88088639410594283 -6.6192194068670744 0 0 0 0 -0.093787317761810068 88.9408986772969 0 88.9408986772969 -1411.0146187982173 0 0 0 0 -61.648815477124487 -55.050894172483822 0 -55.050894172483822 -1791.5794314599825 0 0 0 0 -25.037563210308818 -79.032111241045641 0 -79.032111241045641 -1797.1588881386124 0 0 0 0 99.564075950356937 -365.05972631390068 0 -365.05972631390068 -2495.3799755696382 0 0 0 0 79.008988028223811 -1093.7530207258751 0 -1093.7530207258751 -2496.2043102491443 0 0 0 0 93.371350701359546 -543.75548611773502 0 -543.75548611773502 -1331.9355834938397 0 0 0 0 -120.84158215814111 -141.2438500972894 0 -141.2438500972894 -1516.6533637829489 0 0 0 0 -58.975407716469107 41.420535806119346 0 41.420535806119346 -1300.7089379939425 0 0 0 0 -5.9091689161018213 223.23682854101935 0 223.23682854101935 -1570.5483240820759 0 0 0 0 -12.463824933278779 238.083589059514 0 238.083589059514 -1359.3843259058194 0 0 0 0 81.110524166915354 467.24013479023779 0 467.24013479023779 -1061.043476738545 0 0 0 0 134.82735715019859 -8.2003745870840703 0 -8.2003745870840703 -553.88244893152296 0 0 0 0 169.49639896494432 648.03801758907866 0 648.03801758907866 -1312.0228773242743 0 0 0 0 847.66286316585888 -200.63041345231977 0 -200.63041345231977 -671.07797194781597 0 0 0 0 -205.17885152537676 -208.35736474674195 0 -208.35736474674195 -741.11186031562102 0 0 0 0 73.743823308163655 207.81812811892087 0 207.81812811892087 -143.36665342074411 0 0 0 0 176.59229184102816 1060.1765981160279 0 1060.1765981160279 -2496.0670491314449 0 0 0 0 -1.0555798399839604 -4.9289615057562415 0 -4.9289615057562415 -13.2785687966132 0 0 0 0 -152.13979533470396 -1246.017918932499 0 -1246.017918932499 -140.23684493532619 0 0 0 0 923.88532007145955 250.67680320068484 0 250.67680320068484 -2499.8675572377615 0 0 0 0 619.16873198552048 213.2682483265653 0 213.2682483265653 -905.88958548687515 0 0 0 0 901.17707801896836 -382.7289635287525 0 -382.7289635287525 -743.85155306265278 0 0 0 0 672.96188863832663 -304.65835646473533 0 -304.65835646473533 -1302.3509401071187 0 0 0 0 682.59173224608753 132.46237724836101 0 132.46237724836101 -861.19337884219567 0 0 0 0 136.59324118533209 -408.67833276101737 0 -408.67833276101737 116.72837705031816 0 0 0 0 -0.88911800732276136 -10.875780188482111 0 -10.875780188482111 -25.79058646318839 0 0 0 0 216.16948294601963 601.45536928700676 0 601.45536928700676 -2215.3860269941651 0 0 0 0 424.24906493724359 -1257.4357894765417 0 -1257.4357894765417 -179.69203224914236 0 0 0 0 -0.68087884809487331 -5.422547184677839 0 -5.422547184677839 -12.85998452592807 0 0 0 0 -28.16516137004291 -401.28046095437367 0 -401.28046095437367 -2183.723623700098 0 0 0 0 -256.61557564970633 217.38269065697295 0 217.38269065697295 -992.85185499150248 0 0 0 0 -7.2710481084032255 -8.5255084504482568 0 -8.5255084504482568 -3.5773814587311143 0 0 0 0 70.542273801632405 -52.575237033408484 0 -52.575237033408484 -1474.8154126439331 0 0 0 0 17.530779575864585 39.192697329865041 0 39.192697329865041 -1633.6297353311002 0 0 0 0 251.61404739279726 205.4330990464714 0 205.4330990464714 -1779.7164906364633 0 0 0 0 -1.2552110563607286 -4.2700492418107245 0 -4.2700492418107245 -3.1599234505018465 0 0 0 0 -70.08798279300629 -27.628281315814093 0 -27.628281315814093 -266.71934566463096 0 0 0 0 -37.844167969681848 56.643108664953616 0 56.643108664953616 -292.12158669673954 0 0 0 0 -17.194661047990511 88.954050890934013 0 88.954050890934013 -395.06863207870265 0 0 0 0 -104.47987007734123 -92.512480555673392 0 -92.512480555673392 -336.14878425309143 0 0 0 0 -45.983570667739968 -26.306520835860283 0 -26.306520835860283 -392.83601899312634 0 0 0 0 -21.775614588970448 8.4816132625383034 0 8.4816132625383034 -354.68324113883136 0 0 0 0 -23.234065169524534 -13.456743052132083 0 -13.456743052132083 -432.4074096544864 0 0 0 0 -42.527198942824043 28.263685355334019 0 28.263685355334019 -372.8620994314706 0 0 0 0 -18.021152506760473 2.4807978993012512 0 2.4807978993012512 -488.38630445353374 0 0 0 0 -21.451363499283616 -5.1224202376506582 0 -5.1224202376506582 -416.66495953864796 0 0 0 0 -32.077338341962331 -48.107437445680262 0 -48.107437445680262 -406.4839257425192 0 0 0 0 -28.993796022719039 -49.206957667316601 0 -49.206957667316601 -432.41344796367775 0 0 0 0 -28.248583049898798 -61.898882656798378 0 -61.898882656798378 -464.29536653852665 0 0 0 0 -35.331980435028981 -46.843543195449456 0 -46.843543195449456 -483.10776084103418 0 0 0 0 -34.072078272414899 -15.697047497049425 0 -15.697047497049425 -588.65365678512899 0 0 0 0 -11.363646386346685 -9.4911126992252832 0 -9.4911126992252832 -2.4304029675263372 0 0 0 0 -11.205093781624328 -86.758298808232212 0 -86.758298808232212 -797.00655643884602 0 0 0 0 -27.488361525441405 -54.348150418329169 0 -54.348150418329169 -509.31640581502143 0 0 0 0 -11.214613407566564 -11.184301686652063 0 -11.184301686652063 -3.4077646903349432 0 0 0 0 -5.0493308198897466 -23.981335494187078 0 -23.981335494187078 -576.20613583484374 0 0 0 0 322.90749027607774 -156.52389434461588 0 -156.52389434461588 -744.14922552817734 0 0 0 0 255.4111231709079 -151.43815742487641 0 -151.43815742487641 -655.28772398615729 0 0 0 0 300.58868776386157 -350.18246228265161 0 -350.18246228265161 -685.29432772910513 0 0 0 0 1168.3143306753771 -48.375980278167845 0 -48.375980278167845 -591.5328369974377 0 0 0 0 202.93169610820507 -163.40757416554698 0 -163.40757416554698 -607.0743056522133 0 0 0 0 214.42746380213509 -289.21135244799007 0 -289.21135244799007 -907.06605366616714 0 0 0 0 56.561816216390071 100.19142568700408 0 100.19142568700408 -968.60581215860293 0 0 0 0 -186.53653978435113 62.201707044689101 0 62.201707044689101 -837.9084162490617 0 0 0 0 -11.097521622444603 -10.487816767902402 0 -10.487816767902402 -3.4596493489655771 0 0 0 0 72.652849893866687 88.29953166202904 0 88.29953166202904 -1686.2646081062394 0 0 0 0 369.83441314545553 -898.52891066927623 0 -898.52891066927623 -1359.2771541638704 0 0 0 0 57.68652169725965 -677.49125421006647 0 -677.49125421006647 -573.02801400720637 0 0 0 0 -5.6062748652296932 -587.82443915440672 0 -587.82443915440672 -636.28917617807952 0 0 0 0 122.21600431441755 -533.35821821125501 0 -533.35821821125501 -675.02693173049556 0 0 0 0 685.99679800549427 -353.16520781250438 0 -353.16520781250438 -1468.9509485529798 0 0 0 0 100.18328642877535 -778.48224345153858 0 -778.48224345153858 -1179.490352611283 0 0 0 0 91.434402146520256 -778.69279894234205 0 -778.69279894234205 -928.87744996029869 0 0 0 0 588.4350501125333 -861.29773854507221 0 -861.29773854507221 -2500.1428423579564 0 0 0 0 98.540610064417791 -1515.0072845339682 0 -1515.0072845339682 -2495.0243113458127 0 0 0 0 276.74450854490789 -1044.9754043604644 0 -1044.9754043604644 -1256.0401950135201 0 0 0 0 -1511.767148347961 -1575.5206997703499 0 -1575.5206997703499 -592.53520656135788 0 0 0 0 68.147701287782127 -319.05550716939888 0 -319.05550716939888 -261.48330430647911 0 0 0 0 694.62156246814573 -611.43697130085638 0 -611.43697130085638 -306.7891861148546 0 0 0 0 -197.1210329167555 -918.12278901038007 0 -918.12278901038007 -478.34578589387093 0 0 0 0 164.26650947651859 -387.45776727396878 0 -387.45776727396878 -402.32843609984411 0 0 0 0 104.0045676734195 -302.77218022304078 0 -302.77218022304078 17.345566335759941 0 0 0 0 -865.69028875625509 -697.56292688358008 0 -697.56292688358008 125.71109428326236 0 0 0 0 -0.10593438809624722 -10.854286281084395 0 -10.854286281084395 -27.438760928529689 0 0 0 0 694.35950640749252 -700.28045130853752 0 -700.28045130853752 -394.3332280870909 0 0 0 0 -625.14758949909833 -528.12807457432064 0 -528.12807457432064 278.31843489484527 0 0 0 0 -616.31843106595056 -902.5728643934126 0 -902.5728643934126 -2507.0550602576768 0 0 0 0 -831.11189474929256 1178.9737840207072 0 1178.9737840207072 -2099.0821826104948 0 0 0 0 187.6339782641663 351.26481473843614 0 351.26481473843614 -2495.2735278435466 0 0 0 0 1148.656141881308 1062.0596586536267 0 1062.0596586536267 -2001.8288934134089 0 0 0 0 -0.82278972083254343 -5.8570111108920573 0 -5.8570111108920573 -15.659136441879781 0 0 0 0 -643.53275307077013 -400.55667074148732 0 -400.55667074148732 -2741.0977144721692 0 0 0 0 -1840.6022267193396 134.43905359401833 0 134.43905359401833 -2500.0491824544042 0 0 0 0 -7.558469366900245 -9.4648900510551144 0 -9.4648900510551144 -16.576847853133643 0 0 0 0 40.220427283728441 1019.720680305245 0 1019.720680305245 -2531.3348622847129 0 0 0 0 399.08066529279353 -406.76697916974217 0 -406.76697916974217 -642.4871445505778 0 0 0 0 -297.86240719406038 336.10502835209172 0 336.10502835209172 -808.29816082402976 0 0 0 0 -2151.8173228924543 -466.00996634159674 0 -466.00996634159674 95.346867966924037 0 0 0 0 -413.35975805352791 -274.49844262474289 0 -274.49844262474289 74.004398946713991 0 0 0 0 -904.12845048538657 -552.45974043852038 0 -552.45974043852038 -5.5598416755856306 0 0 0 0 -21.055411776123947 -53.774964188189188 0 -53.774964188189188 29.069456103708944 0 0 0 0 -357.50951101349165 -319.83419299448542 0 -319.83419299448542 -25.974313305101532 0 0 0 0 -16.291406258105003 -26.216251622389976 0 -26.216251622389976 -41.328334223633107 0 0 0 0 32.518224363071567 -146.10072433096502 0 -146.10072433096502 -13.969943050553411 0 0 0 0 33.535796784923036 -141.21370271915248 0 -141.21370271915248 -66.434657159385097 0 0 0 0 128.89784786578457 -197.44380164770701 0 -197.44380164770701 -89.16070277563631 0 0 0 0 -135.34083388422641 -203.41922256917678 0 -203.41922256917678 -76.172377803750351 0 0 0 0 -102.5934940201405 -402.06141950660822 0 -402.06141950660822 8.5863773593209771 0 0 0 0 -162.67235049609121 -278.15852371122401 0 -278.15852371122401 41.197553874764708 0 0 0 0 -284.22657085311266 -233.82695545844399 0 -233.82695545844399 -9.3675808060070267 0 0 0 0 -188.75338268834992 -362.73465514869986 0 -362.73465514869986 -268.22584327558434 0 0 0 0 -305.18405874470432 -813.60008376276892 0 -813.60008376276892 -1020.4657056446449 0 0 0 0 -183.26836068692569 -208.60268917816575 0 -208.60268917816575 -74.427939388591767 0 0 0 0 -1279.4462558708872 -970.60578786471888 0 -970.60578786471888 -53.931562469693745 0 0 0 0 -0.56941804274703611 -6.3934084194654996 0 -6.3934084194654996 -11.61974185272112 0 0 0 0 13.276534003967299 302.61993254596382 0 302.61993254596382 -33.029216983275546 0 0 0 0 -289.89218797065882 -716.41416037856834 0 -716.41416037856834 185.850255346013 0 0 0 0 -511.31967689881822 -202.06862186875514 0 -202.06862186875514 1149.4102077841089 0 0 0 0 -5.9965625452684854 -2.4445967121076251 0 -2.4445967121076251 -0.7335907088168625 0 0 0 0 -16.203936788514511 -45.005318210365658 0 -45.005318210365658 -1225.7980816112686 0 0 0 0 122.42486050883053 -237.99039670645288 0 -237.99039670645288 -1579.1564715030399 0 0 0 0 -115.23100113209489 -37.852485479386814 0 -37.852485479386814 -642.77443621168641 0 0 0 0 -42.966359604224635 -165.87361607392086 0 -165.87361607392086 -655.24620290154144 0 0 0 0 -305.09806366891553 -255.75079599020683 0 -255.75079599020683 -348.17858907086338 0 0 0 0 -71.892709775785988 57.722929346644378 0 57.722929346644378 -252.12437038522512 0 0 0 0 471.80304574286311 380.84993709467381 0 380.84993709467381 -306.94906676018581 0 0 0 0 -282.45592848875958 -542.85744334282936 0 -542.85744334282936 -1021.0599217867421 0 0 0 0 -413.14812024626644 -201.6752743663601 0 -201.6752743663601 322.93987831129925 0 0 0 0 431.06863858253928 -187.11861021876393 0 -187.11861021876393 -251.87052888638573 0 0 0 0 -38.451499516686454 -145.18184501654468 0 -145.18184501654468 127.56497122929795 0 0 0 0 395.52906717483802 146.08764771861388 0 146.08764771861388 -198.70093606690352 0 0 0 0 184.54940946402644 142.99885415170866 0 142.99885415170866 41.111943641088146 0 0 0 0 131.06779202191137 -146.70537008699102 0 -146.70537008699102 -287.20817580008588 0 0 0 0 -75.44414734174461 -430.56330288430763 0 -430.56330288430763 -354.89317330310587 0 0 0 0 410.39365439789822 -67.608218482842858 0 -67.608218482842858 -654.96480250779132 0 0 0 0 27.89851308287416 -12.203505854791729 0 -12.203505854791729 -299.44464537658496 0 0 0 0 173.26009349779042 58.69395395992251 0 58.69395395992251 -223.53600924475177 0 0 0 0 38.660055408387962 67.030849026887154 0 67.030849026887154 -222.20839732440072 0 0 0 0 0.62923209816475278 2.2179453526408821 0 2.2179453526408821 -3.4859493611923771 0 0 0 0 52.688976053501392 82.136655795249681 0 82.136655795249681 19.408641813904978 0 0 0 0 5.0539345833365594 -0.15440207868891775 0 -0.15440207868891775 -2.0859365826590306 0 0 0 0 36.004920574681819 -12.286678167452919 0 -12.286678167452919 -8.5429456329184177 0 0 0 0 -109.03277525660633 -23.833406389167067 0 -23.833406389167067 161.67393768237343 0 0 0 0 -3.4000458809194392 5.7885593287185344 0 5.7885593287185344 -5.976463672155262 0 0 0 0 145.83600170395584 57.083282842082554 0 57.083282842082554 -301.29238042629663 0 0 0 0 -40.166362626278897 -193.10437110315252 0 -193.10437110315252 -512.82511624248582 0 0 0 0 68.409310218272367 -293.64888018136116 0 -293.64888018136116 -976.2077655812609 0 0 0 0 -1.3145087344856314 1.6569183604597981 0 1.6569183604597981 -2.325201910950625 0 0 0 0 73.980464412002107 107.02042347833776 0 107.02042347833776 -494.12337924573512 0 0 0 0 101.78586727788388 -180.55643207274261 0 -180.55643207274261 -291.5139627524477 0 0 0 0 14.579071394436141 160.12775181007601 0 160.12775181007601 -365.25839017463295 0 0 0 0 114.90291547543893 93.235388011864416 0 93.235388011864416 -339.01698680674599 0 0 0 0 11.132458341473196 51.40971460608398 0 51.40971460608398 -322.16276035971532 0 0 0 0 -207.8547409978637 -130.0813422294741 0 -130.0813422294741 -345.19641877881077 0 0 0 0 -1.6896094203384564 8.6228526276463526 0 8.6228526276463526 -306.1643151607841 0 0 0 0 -16.102768331773404 -16.379991914636776 0 -16.379991914636776 -218.51872780268604 0 0 0 0 76.21875864379399 75.963211460904859 0 75.963211460904859 -313.25091192465334 0 0 0 0 -66.814679102434184 -74.156608402096026 0 -74.156608402096026 -414.26622639290144 0 0 0 0 -90.700331547976816 -148.49012204131941 0 -148.49012204131941 -318.14364649519848 0 0 0 0 30.018909597757101 -16.481717484693945 0 -16.481717484693945 -245.6887815190421 0 0 0 0 -32.74244255350186 -4.560793522545282 0 -4.560793522545282 -64.070814835664351 0 0 0 0 83.515668011519665 32.396386408174294 0 32.396386408174294 -215.20387309520538 0 0 0 0 46.177065510522425 1.6528763908536348 0 1.6528763908536348 -36.608130320266355 0 0 0 0 84.629925489311972 -4.6109571047163627 0 -4.6109571047163627 -75.72644790749473 0 0 0 0 161.62237226787875 136.71737096516881 0 136.71737096516881 -31.868531370132587 0 0 0 0 137.43423391844317 203.1515539327047 0 203.1515539327047 94.514826054124569 0 0 0 0 94.405063845070515 -21.093950180361844 0 -21.093950180361844 -111.65180615226564 0 0 0 0 -0.37762786362393719 2.2419529930312194 0 2.2419529930312194 -3.7820235589215372 0 0 0 0 7.0527404955801103 118.91528564952023 0 118.91528564952023 -365.31067754928517 0 0 0 0 110.97284377644337 19.015738691217848 0 19.015738691217848 -338.02370723522472 0 0 0 0 -1.4577303959952417 5.325464446647004 0 5.325464446647004 -7.4228041768761841 0 0 0 0 9.3272186293961568 118.37879244294891 0 118.37879244294891 -291.76106017841812 0 0 0 0 38.460320642812803 -52.675321757560596 0 -52.675321757560596 -351.18722713577881 0 0 0 0 -30.441812774520713 -50.025685833843454 0 -50.025685833843454 4.1124783142877277 0 0 0 0 146.14643318241542 114.94809949225601 0 114.94809949225601 61.612563330064404 0 0 0 0 -0.37270146940413618 5.979112805629768 0 5.979112805629768 -8.0180256879137062 0 0 0 0 12.893481120673641 176.52872520442179 0 176.52872520442179 50.075420126340759 0 0 0 0 54.034484554694131 -53.632530718999078 0 -53.632530718999078 28.280629133005277 0 0 0 0 -122.51340317541326 10.483247580603347 0 10.483247580603347 127.4998536609055 0 0 0 0 -17.613827918254174 34.303092910828127 0 34.303092910828127 -63.94159844655951 0 0 0 0 -196.1545931133216 86.733513716146035 0 86.733513716146035 -270.6029268460552 0 0 0 0 -36.100160428216441 -29.166718218031747 0 -29.166718218031747 -257.70419602553739 0 0 0 0 -187.24285800990947 -1.0078579116379842 0 -1.0078579116379842 -60.375886789488504 0 0 0 0 -589.78779300750557 185.34665043699351 0 185.34665043699351 -584.13350345533036 0 0 0 0 -83.125144768060636 -51.167550055928587 0 -51.167550055928587 -519.55712457127083 0 0 0 0 -19.873554208088535 329.6947764550423 0 329.6947764550423 -1161.8121564450848 0 0 0 0 179.79569496927888 3.0229518852211186 0 3.0229518852211186 -798.06493012366263 0 0 0 0 -139.57799830088572 243.5405136255913 0 243.5405136255913 -619.51748690519889 0 0 0 0 232.68500380710339 -99.606766352531849 0 -99.606766352531849 -1266.7123806597028 0 0 0 0 -0.635305160643167 2.9796411564126899 0 2.9796411564126899 -9.055248191820283 0 0 0 0 22.05634237336858 645.15912386936543 0 645.15912386936543 -404.17130006619846 0 0 0 0 -114.77619645985806 253.98564466249081 0 253.98564466249081 71.410868537102942 0 0 0 0 40.341921516476759 32.043606997784082 0 32.043606997784082 -13.466290344455047 0 0 0 0 -69.816151993880339 -487.42637025895965 0 -487.42637025895965 -769.63524536924524 0 0 0 0 -1.2472210726942308 7.1315192991036511 0 7.1315192991036511 -19.324633661491958 0 0 0 0 397.87047114631423 182.95958064377191 0 182.95958064377191 -187.31388874825279 0 0 0 0 313.18090230258531 146.9278753716244 0 146.9278753716244 -30.711428245704155 0 0 0 0 -17.60001071372858 99.719238386440338 0 99.719238386440338 -132.20552358953864 0 0 0 0 0.49831036538326501 -0.54843996278911789 0 -0.54843996278911789 -0.36534213704206309 0 0 0 0 -84.887985165254577 -214.8982237895907 0 -214.8982237895907 80.994770116274594 0 0 0 0 382.73888790890305 -332.21559376142977 0 -332.21559376142977 -58.993600779422195 0 0 0 0 -33.20456770846522 -69.648389018206217 0 -69.648389018206217 -419.5402462397542 0 0 0 0 25.559807107515553 -153.98967793587508 0 -153.98967793587508 -298.51527678263119 0 0 0 0 73.731155423657583 160.04887410554511 0 160.04887410554511 -235.89216886602662 0 0 0 0 142.93657960844257 49.453451243745803 0 49.453451243745803 -233.58064397771523 0 0 0 0 278.64557334900837 -75.015488401630137 0 -75.015488401630137 -119.72023045426613 0 0 0 0 57.190211585615543 -57.878938050496799 0 -57.878938050496799 -561.53689637513889 0 0 0 0 157.30957885682233 -186.35568006110498 0 -186.35568006110498 -457.56715071618964 0 0 0 0 78.132094774773009 -101.69444813652899 0 -101.69444813652899 -625.98319989589072 0 0 0 0 -189.48887731335481 -113.70705862329487 0 -113.70705862329487 -414.80534575188358 0 0 0 0 44.457988869296059 -72.543009192428144 0 -72.543009192428144 -626.78377904180525 0 0 0 0 124.68378924468834 5.7332931596429262 0 5.7332931596429262 -891.20673206517677 0 0 0 0 233.61748035974045 -182.08869237801065 0 -182.08869237801065 -696.39878992005833 0 0 0 0 64.992942001763822 -134.8683230929164 0 -134.8683230929164 -612.30467858288466 0 0 0 0 194.24999310518638 45.143361819024904 0 45.143361819024904 -876.38015257340157 0 0 0 0 -136.13775410275503 139.86553744375487 0 139.86553744375487 -870.37220031673132 0 0 0 0 50.910131163957374 -221.23837526037187 0 -221.23837526037187 -1135.1178063061452 0 0 0 0 -6.4727131224740333 119.48744178834022 0 119.48744178834022 -656.81519723762722 0 0 0 0 -137.36188675947778 -37.169838201072707 0 -37.169838201072707 -608.4296387169361 0 0 0 0 -67.575576555752377 5.9415131189925887 0 5.9415131189925887 -581.90067565177014 0 0 0 0 -163.5483155896236 37.729727626800013 0 37.729727626800013 -500.9501443665722 0 0 0 0 -219.48557159911434 4.2020525709776848 0 4.2020525709776848 -520.9687126159406 0 0 0 0 -209.12070714068955 -49.628299277303995 0 -49.628299277303995 -469.52750346982793 0 0 0 0 -130.32244328100319 13.920559932954347 0 13.920559932954347 -420.62860572575664 0 0 0 0 -51.493154853000306 -82.918710422287404 0 -82.918710422287404 -527.07364295240041 0 0 0 0 -466.78994863771277 78.349608818731213 0 78.349608818731213 -411.41779070408666 0 0 0 0 -223.76840103768791 -228.75711424565088 0 -228.75711424565088 -446.251584756581 0 0 0 0 -2.8443063624924889 -50.383777257920883 0 -50.383777257920883 -263.79380014730123 0 0 0 0 18.577436207260689 -3.0717860337681486 0 -3.0717860337681486 -392.52750040395767 0 0 0 0 -3.0077930133004429 7.5751270390392165 0 7.5751270390392165 -414.83057995951822 0 0 0 0 -14.634136130644947 49.430021975273121 0 49.430021975273121 -486.87601187455584 0 0 0 0 -127.55406760882971 2.5317150178516385 0 2.5317150178516385 -388.55042643998604 0 0 0 0 -5.0820110664203639 26.455492988912738 0 26.455492988912738 -451.67572741475306 0 0 0 0 13.031780192771294 63.202553137904033 0 63.202553137904033 -381.17846436418768 0 0 0 0 15.613156564371366 89.600166861124308 0 89.600166861124308 -474.76944842090597 0 0 0 0 -46.718448188132925 61.167863759941611 0 61.167863759941611 -466.0805242384522 0 0 0 0 -1.0394038650179027 58.751704829857772 0 58.751704829857772 -531.55494005679793 0 0 0 0 -18.449525585343963 146.56546389494179 0 146.56546389494179 -466.92141758153957 0 0 0 0 31.970166964830923 62.789745602354742 0 62.789745602354742 -477.27827801160311 0 0 0 0 -13.693338827684698 60.307853875471665 0 60.307853875471665 -470.39173254832713 0 0 0 0 -57.029754673972803 -1.5623465527660301 0 -1.5623465527660301 -428.63847409905429 0 0 0 0 -113.59332370131642 85.874999548675987 0 85.874999548675987 -368.20709366386291 0 0 0 0 -59.851367755866249 -4.9634963429016352 0 -4.9634963429016352 -318.64170824666144 0 0 0 0 -24.505080864916977 81.808477728337493 0 81.808477728337493 -413.28209134300414 0 0 0 0 -82.964165699185742 286.99406744660882 0 286.99406744660882 225.40621782669041 0 0 0 0 -79.60444566203978 291.35712607852474 0 291.35712607852474 -389.91750374167896 0 0 0 0 -48.68216042147742 41.000644433850539 0 41.000644433850539 -120.11389250958018 0 0 0 0 -59.360123766751713 -18.939246288122376 0 -18.939246288122376 -264.1574147323845 0 0 0 0 -110.25672779633396 49.949715516282595 0 49.949715516282595 -166.5717459191801 0 0 0 0 -82.791601220166285 -50.616233588640171 0 -50.616233588640171 -235.4062435060041 0 0 0 0 -61.729674378342224 -109.2029521660952 0 -109.2029521660952 -184.70333333830422 0 0 0 0 -37.213118562925956 -89.96276656712871 0 -89.96276656712871 -356.4757656856018 0 0 0 0 -44.735039826610318 -161.6367658816489 0 -161.6367658816489 -506.53678229306024 0 0 0 0 -62.869251443489929 -83.878473191117337 0 -83.878473191117337 -357.91270564993465 0 0 0 0 -50.158231080925191 -105.38628481641626 0 -105.38628481641626 -444.18271887933952 0 0 0 0 -57.401072399799205 -64.970087509078439 0 -64.970087509078439 -357.28939452578925 0 0 0 0 -52.988261982143058 -63.586342964252253 0 -63.586342964252253 -420.45678951058653 0 0 0 0 -32.675653096090286 -47.133195566173526 0 -47.133195566173526 -407.28095178461808 0 0 0 0 -80.877023097231643 -44.281007090729872 0 -44.281007090729872 -367.4883885199306 0 0 0 0 -9.0627287151429528 -76.198059735395873 0 -76.198059735395873 -508.114595154977 0 0 0 0 -21.319436926123103 -55.172772111332961 0 -55.172772111332961 -425.79910688538075 0 0 0 0 -37.332461284498777 -58.6508990804723 0 -58.6508990804723 -424.57380295053008 0 0 0 0 -48.850115260929101 -55.799543535686098 0 -55.799543535686098 -371.99350247938855 0 0 0 0 -31.265843111538913 -104.00336147512644 0 -104.00336147512644 -429.83256387492656 0 0 0 0 45.627440742090272 -267.10277399899132 0 -267.10277399899132 -764.43339098118304 0 0 0 0 -31.281975223253426 -105.00322861997847 0 -105.00322861997847 -334.88288607279537 0 0 0 0 27.713109257767996 29.634557907982526 0 29.634557907982526 -637.59255186395967 0 0 0 0 -45.532817380521408 95.827670845192188 0 95.827670845192188 -696.70827826225286 0 0 0 0 -114.94860711814003 0.60624258893585647 0 0.60624258893585647 -499.79740725305601 0 0 0 0 30.117810708665047 11.072759174683597 0 11.072759174683597 -510.41433376353598 0 0 0 0 14.412926327547666 -1.2762641295012145 0 -1.2762641295012145 -519.95772785701229 0 0 0 0 -6.2690511222019722 6.4681624888726219 0 6.4681624888726219 -440.22713039749578 0 0 0 0 41.983559293985763 66.003333714754262 0 66.003333714754262 -482.52049357597934 0 0 0 0 37.507266716341078 27.776979136268665 0 27.776979136268665 -530.60215784396132 0 0 0 0 43.711434942890378 83.399701056951017 0 83.399701056951017 -481.81706125593337 0 0 0 0 45.467612497482833 39.889847189147417 0 39.889847189147417 -408.44626043196331 0 0 0 0 43.862226494388096 83.787012313350715 0 83.787012313350715 -450.24618664207082 0 0 0 0 32.936578034076547 56.692868475394789 0 56.692868475394789 -354.04886665647064 0 0 0 0 28.603944087773925 30.195428732731671 0 30.195428732731671 -391.53620560862328 0 0 0 0 59.818374903119775 87.769781132912613 0 87.769781132912613 -392.74580754603812 0 0 0 0 28.300154009634412 31.792451293680642 0 31.792451293680642 -224.68252146930172 0 0 0 0 37.329620271964359 -15.147961728020164 0 -15.147961728020164 -237.96321674729188 0 0 0 0 10.989039672452463 -43.684417060045234 0 -43.684417060045234 -240.30772525148677 0 0 0 0 6.7292465622900863 4.0225640148928505 0 4.0225640148928505 -219.02306446465082 0 0 0 0 -0.45438472535940222 -1.3983799226521398 0 -1.3983799226521398 -2.4923187160201792 0 0 0 0 93.679476744507269 -13.285639340851048 0 -13.285639340851048 -187.31950970567914 0 0 0 0 12.635693146061271 16.686402013521729 0 16.686402013521729 -185.46308148201751 0 0 0 0 5.3827534214644857 128.21386372911275 0 128.21386372911275 -370.63240473774204 0 0 0 0 12.604382349982586 -7.0669518060058181 0 -7.0669518060058181 -468.55488266865177 0 0 0 0 -15.285887179783359 23.221464476644542 0 23.221464476644542 -499.41400743713893 0 0 0 0 -0.057486417568822321 5.1361225434757216 0 5.1361225434757216 -305.41891072156432 0 0 0 0 -66.724630256689423 -42.612164604088321 0 -42.612164604088321 -482.90175223801452 0 0 0 0 -78.480806794650434 -21.81960535370672 0 -21.81960535370672 -474.79368756214535 0 0 0 0 -35.026763836691515 2.6569571320032992 0 2.6569571320032992 -418.25149763093214 0 0 0 0 -0.31462082465110197 -0.64207340874959584 0 -0.64207340874959584 -1.3865383838774505 0 0 0 0 13.841289751548675 85.655660063755477 0 85.655660063755477 -578.21238505431393 0 0 0 0 1.5933334631994218 -74.457707049740748 0 -74.457707049740748 -362.82687193152378 0 0 0 0 -12.905660151225078 -81.472844354644621 0 -81.472844354644621 -21.429767099230958 0 0 0 0 11.072320252068256 -9.5208173963947047 0 -9.5208173963947047 -508.56115679839058 0 0 0 0 1.455760657487859 -78.508837266826959 0 -78.508837266826959 -452.94702869072353 0 0 0 0 0.14622000614237496 14.131478466134107 0 14.131478466134107 -558.60840728505718 0 0 0 0 -115.38462064124946 -19.312071377040411 0 -19.312071377040411 -492.18745305501579 0 0 0 0 -10.19718389919181 -78.455077860581696 0 -78.455077860581696 -722.18565202038008 0 0 0 0 -65.49776100334158 -3.2666825486303424 0 -3.2666825486303424 -558.96704999054782 0 0 0 0 -292.46695276504261 -0.76578446888015606 0 -0.76578446888015606 -557.42573079764861 0 0 0 0 -17.074007200119535 128.77924540909407 0 128.77924540909407 -633.01624681470275 0 0 0 0 -16.70420511123115 123.3373742267031 0 123.3373742267031 -1176.243541502663 0 0 0 0 -0.60884272258545113 -1.8119600761445227 0 -1.8119600761445227 -4.4668097274371803 0 0 0 0 13.871069777690366 -433.31403036932898 0 -433.31403036932898 -64.366135919633962 0 0 0 0 -90.91945644240073 -16.213430552267255 0 -16.213430552267255 22.04323101992486 0 0 0 0 -37.028714883443051 40.201702693078914 0 40.201702693078914 -308.39503145935305 0 0 0 0 -0.048218479081914532 23.18797627877575 0 23.18797627877575 -8.0327398610461387 0 0 0 0 -18.280607526112526 14.36289688110628 0 14.36289688110628 -40.386207339470275 0 0 0 0 -3.4928574462252193 32.119131355459103 0 32.119131355459103 -24.772638867754722 0 0 0 0 -12.313417892809312 45.343037761726009 0 45.343037761726009 -54.701524430813151 0 0 0 0 -0.053675848892614952 0.078286018012789782 0 0.078286018012789782 -0.12692867393501217 0 0 0 0 -0.06462891409851762 27.437240311381174 0 27.437240311381174 -86.606100117056485 0 0 0 0 -0.098227295341735993 0.026263851536398874 0 0.026263851536398874 -0.20120763364998595 0 0 0 0 -16.14118532594302 48.158897565816005 0 48.158897565816005 -66.283028093726898 0 0 0 0 -19.831020257926191 14.631684222367767 0 14.631684222367767 -43.031128110538702 0 0 0 0 17.709748740387056 4.5631432638692786 0 4.5631432638692786 -44.694165893364698 0 0 0 0 -74.979945560897306 3.8147597179413424 0 3.8147597179413424 -38.087237825504417 0 0 0 0 -28.072764822019721 34.914173212968308 0 34.914173212968308 -13.254138070733461 0 0 0 0 0.9409798909089786 0.50234639858908281 0 0.50234639858908281 0.26351131792173987 0 0 0 0 -14.524935575858979 -8.9358414729576907 0 -8.9358414729576907 4.5233906071698584 0 0 0 0 -10.855854222423886 15.236210589406255 0 15.236210589406255 -2.241056027225568 0 0 0 0 -1.6606784461011443 9.9883413209718128 0 9.9883413209718128 0.05835206533811288 0 0 0 0 -10.286176182319238 0.90667155411210842 0 0.90667155411210842 15.760577708031633 0 0 0 0 -12.259284399994812 6.0354220039298525 0 6.0354220039298525 -8.8551146073077689 0 0 0 0 0.19934523206152807 0.17585333678221104 0 0.17585333678221104 0.12021084021920103 0 0 0 0 5.3844868664406782 22.235365036012809 0 22.235365036012809 -36.336634343260812 0 0 0 0 6.449543245782273 35.85425173181784 0 35.85425173181784 -46.222647441594745 0 0 0 0 16.905587900594682 8.6812866936706996 0 8.6812866936706996 -106.51028916775977 0 0 0 0 -51.601605072272484 -1.7155575650303945 0 -1.7155575650303945 -112.91368065065399 0 0 0 0 -17.715357193575699 -12.681522422270064 0 -12.681522422270064 -111.24060066411766 0 0 0 0 39.165366137183184 34.712748131405533 0 34.712748131405533 -131.07948667480014 0 0 0 0 4.8992519095637306 39.908246681668061 0 39.908246681668061 -116.95331508196978 0 0 0 0 1.7921035181959866 15.961508727539695 0 15.961508727539695 -38.475669888757693 0 0 0 0 -0.15566999364074263 4.1473676878958941 0 4.1473676878958941 -31.143553674446594 0 0 0 0 26.601240613730141 12.016241400515355 0 12.016241400515355 -119.31013298605831 0 0 0 0 33.576857176508213 16.105560580770543 0 16.105560580770543 -35.18974669670024 0 0 0 0 -3.6475601386869698 19.672632561330829 0 19.672632561330829 65.647190382267581 0 0 0 0 11.118882806420402 -24.404943944085971 0 -24.404943944085971 -1.0677879838549416 0 0 0 0 2.8937366904778514 17.624707611408667 0 17.624707611408667 -36.779089310795825 0 0 0 0 21.88695264712112 22.232220713063725 0 22.232220713063725 -71.973390469065635 0 0 0 0 4.8355936479810566 -23.517379483666446 0 -23.517379483666446 -45.317903201515946 0 0 0 0 22.324656918841271 24.211420358214127 0 24.211420358214127 -117.08491560202674 0 0 0 0 26.076371872499976 27.963218456236064 0 27.963218456236064 -114.1293819128914 0 0 0 0 -8.0180874340928199 100.86721729001056 0 100.86721729001056 -260.65270687839802 0 0 0 0 45.255757548353245 9.2806944127660245 0 9.2806944127660245 -112.07484999698499 0 0 0 0 49.074694614209534 -98.734558195359568 0 -98.734558195359568 -144.69740465612267 0 0 0 0 3.5546217736010703 -14.243842552587012 0 -14.243842552587012 -91.289233061397681 0 0 0 0 45.454427383757206 -167.55964427463186 0 -167.55964427463186 12.303132301678261 0 0 0 0 5.8624736478438422 24.265589445047226 0 24.265589445047226 1.4132459455577191 0 0 0 0 -0.41941423765798369 -0.67337014601220346 0 -0.67337014601220346 -0.97755949657130259 0 0 0 0 8.0934859247342956 -78.367862076534948 0 -78.367862076534948 -149.25158660701709 0 0 0 0 10.271167820224491 23.116131170729204 0 23.116131170729204 -147.00331822894805 0 0 0 0 8.842389914914861 59.542169078259121 0 59.542169078259121 -23.821055679523852 0 0 0 0 -65.189935652003442 29.664601990276424 0 29.664601990276424 -47.893927233526483 0 0 0 0 -16.347907593702757 -71.678886757203145 0 -71.678886757203145 -155.15368431117895 0 0 0 0 -33.950181329174825 17.170056762839522 0 17.170056762839522 62.113061745076266 0 0 0 0 23.372777996586365 -16.369499528787856 0 -16.369499528787856 -51.337673968264426 0 0 0 0 1.3352817596383519 0.88781139847741031 0 0.88781139847741031 -2.0609232953868286 0 0 0 0 20.105318532313504 -7.1024332229753782 0 -7.1024332229753782 -32.06444877233298 0 0 0 0 0.31538506707691738 4.4848633997983995 0 4.4848633997983995 -6.2909898447357477 0 0 0 0 -0.86130901902470214 8.7786480734939687 0 8.7786480734939687 -4.5657853955344763 0 0 0 0 -2.4659871174104815 5.2318907263249628 0 5.2318907263249628 -7.4798997905405145 0 0 0 0 -3.3366096363870383 6.606636552947748 0 6.606636552947748 -5.4878851067915093 0 0 0 0 -1.0294986135567683 11.032729313086747 0 11.032729313086747 -11.172385195677634 0 0 0 0 5.2080289568076932 -1.7213015394013524 0 -1.7213015394013524 -4.384578487063294 0 0 0 0 6.2154655957671707 2.6109376052445441 0 2.6109376052445441 -12.117121972427412 0 0 0 0 -7.2254390371977024 6.3696796766671469 0 6.3696796766671469 -19.58188469405286 0 0 0 0 1.37456824516903 11.597276108659571 0 11.597276108659571 -16.156073800695594 0 0 0 0 -1.1152393233714468 8.1872787024541012 0 8.1872787024541012 -13.733296356706688 0 0 0 0 2.4328093177042849 0.62935930459491374 0 0.62935930459491374 -7.2207201389400666 0 0 0 0 3.7551701459135529 -2.1687667344958754 0 -2.1687667344958754 -13.499890118062467 0 0 0 0 3.183364691371743 -8.2453615303243168 0 -8.2453615303243168 -17.655753890605411 0 0 0 0 19.573256891662481 13.86209118439001 0 13.86209118439001 2.8662334306864068 0 0 0 0 0.78691466935532051 -0.14393698505723762 0 -0.14393698505723762 -1.7048190410580446 0 0 0 0 -1.3588838319642491 4.505972094804747 0 4.505972094804747 -5.3023953793745022 0 0 0 0 10.497912252420178 19.801197890825279 0 19.801197890825279 7.3133026720779526 0 0 0 0 14.241820388288943 13.7442416779013 0 13.7442416779013 -27.937583629653091 0 0 0 0 0.1148728110771704 0.50265453735485721 0 0.50265453735485721 -1.1745820279407724 0 0 0 0 -16.441198215691088 -6.6178128365791054 0 -6.6178128365791054 2.6711331115220673 0 0 0 0 15.639847711487846 -10.861156249058695 0 -10.861156249058695 -44.582459913115599 0 0 0 0 -10.246702592646898 -15.994986432400765 0 -15.994986432400765 0.96329861984122545 0 0 0 0 0.29546640245789568 0.099721098656928575 0 0.099721098656928575 0.13396737786545287 0 0 0 0 -2.2800707388928032 3.4668690042017261 0 3.4668690042017261 7.8451116132782772 0 0 0 0 13.571603816997822 17.237571946367098 0 17.237571946367098 -5.8349881240683317 0 0 0 0 12.783331925904292 10.805335955483315 0 10.805335955483315 -21.177210603593267 0 0 0 0 1.4101138350781213 15.811431726253431 0 15.811431726253431 -3.4169317408814095 0 0 0 0 8.6158368699465768 20.20488308082713 0 20.20488308082713 10.386618165197433 0 0 0 0 15.244058004512794 6.0845892440484022 0 6.0845892440484022 -19.511414067459555 0 0 0 0 9.593701690344858 -0.064005492451542523 0 -0.064005492451542523 0.89585652538517024 0 0 0 0 -9.8990802026714846 -22.458728449371847 0 -22.458728449371847 -30.885954135810607 0 0 0 0 13.598115205560305 4.9323534912909963 0 4.9323534912909963 -31.175805217608286 0 0 0 0 -0.07028881395372677 0.081960317552344009 0 0.081960317552344009 -0.071660781762261649 0 0 0 0 7.3078752902188739 14.453034104481048 0 14.453034104481048 -13.610351620955043 0 0 0 0 -13.635935868116803 -2.6037298961746274 0 -2.6037298961746274 -13.40161450844937 0 0 0 0 2.2513264220751035 1.1088093362704683 0 1.1088093362704683 0.51700012437143528 0 0 0 0 15.715479258146956 -8.5758647190195916 0 -8.5758647190195916 -49.936656248541112 0 0 0 0 -3.99218966160592 -26.565500017273735 0 -26.565500017273735 -36.407825473223056 0 0 0 0 5.8586098409591614 1.6967462785105454 0 1.6967462785105454 -0.049969518986472394 0 0 0 0 2.0147805507413175 -1.4908816324184002 0 -1.4908816324184002 -3.9760750899154971 0 0 0 0 72.570826934632009 49.63638149232429 0 49.63638149232429 -123.01304671541584 0 0 0 0 3.7419950007286231 1.8425466730228237 0 1.8425466730228237 0.074686889797959566 0 0 0 0 10.121695809460221 5.7892987646118854 0 5.7892987646118854 -4.5351633993705036 0 0 0 0 1.6827904395032647 3.6266761516671977 0 3.6266761516671977 -0.77405679586445331 0 0 0 0 -13.897875497248378 -15.187341817778361 0 -15.187341817778361 0.11980611667240737 0 0 0 0 -83.516781718752213 8.0968234113097424 0 8.0968234113097424 -1.7302762851759326 0 0 0 0 -73.556576936741408 -73.946552417524799 0 -73.946552417524799 -7.568761489012104 0 0 0 0 139.8831296032854 -12.765682625307818 0 -12.765682625307818 -64.806544188628322 0 0 0 0 44.108643166619004 -47.815065521885117 0 -47.815065521885117 -11.647903441706148 0 0 0 0 33.252162677249608 -12.800136140904215 0 -12.800136140904215 -21.982626886165235 0 0 0 0 -13.07397018745695 -15.399733145524806 0 -15.399733145524806 -12.941990010018344 0 0 0 0 13.644616788517965 -0.07386131848761579 0 -0.07386131848761579 -15.095652781939862 0 0 0 0 20.893436881811986 -6.8079044569840335 0 -6.8079044569840335 -21.794463379366789 0 0 0 0 5.7766875303408298 -2.5147628889187104 0 -2.5147628889187104 -7.5305272295510122 0 0 0 0 18.593516196453834 -11.961254313049722 0 -11.961254313049722 -13.209318623950821 0 0 0 0 15.818308134491682 3.0527233372920932 0 3.0527233372920932 -14.093948161272692 0 0 0 0 7.1874840292689441 -5.0413519399189681 0 -5.0413519399189681 -12.051551171491155 0 0 0 0 5.3652712464478327 -2.6777053942132625 0 -2.6777053942132625 -15.087955290484388 0 0 0 0 5.612757738911796 8.4385181045363424 0 8.4385181045363424 -6.0835646665655077 0 0 0 0 19.883960599880083 16.720604216010543 0 16.720604216010543 -114.99101037002401 0 0 0 0 2.410724187996987 1.0425957613157522 0 1.0425957613157522 -3.8193066256422128 0 0 0 0 21.883058087311838 -11.950506527979087 0 -11.950506527979087 -295.85060343796795 0 0 0 0 41.733508687992071 86.494808066861879 0 86.494808066861879 92.668817145036883 0 0 0 0 61.242758333950405 56.635752702197351 0 56.635752702197351 -16.208635183007573 0 0 0 0 31.196728244292899 18.962177295528818 0 18.962177295528818 -63.009113502776017 0 0 0 0 36.950565525978675 -11.668732455444115 0 -11.668732455444115 -23.192898713896284 0 0 0 0 7.8641474614560138 32.781354060629383 0 32.781354060629383 -71.420569473237265 0 0 0 0 15.588531523651938 -2.604863955403431 0 -2.604863955403431 -13.176069998203985 0 0 0 0 23.879372534409413 47.403375158639392 0 47.403375158639392 -59.096738446269228 0 0 0 0 17.879680568062327 22.023486022662837 0 22.023486022662837 -4.7346096749533899 0 0 0 0 -1.1025174717767565 5.2818765188151531 0 5.2818765188151531 -7.3235441771824696 0 0 0 0 2.8464973737603714 28.916757524872082 0 28.916757524872082 -49.652819029986858 0 0 0 0 76.217544294353957 44.19361686695629 0 44.19361686695629 -7.4529379927535047 0 0 0 0 38.56142135270477 -16.771468513456057 0 -16.771468513456057 -19.686079041508492 0 0 0 0 -1.9488985607013092 40.092792684037704 0 40.092792684037704 -53.484525614738232 0 0 0 0 29.116461541730132 5.2433962265349692 0 5.2433962265349692 -32.421895345090888 0 0 0 0 11.920073343461809 2.8205413380055688 0 2.8205413380055688 -0.15926636340736877 0 0 0 0 -10.173275515830028 -25.421656083868584 0 -25.421656083868584 6.6715532486268785 0 0 0 0 22.198158228565777 -10.072228741000259 0 -10.072228741000259 -17.118943570666289 0 0 0 0 1.9251417346367941 -1.5605246987475283 0 -1.5605246987475283 0.53830826430342427 0 0 0 0 -59.421284329935588 57.532297731559083 0 57.532297731559083 -8.4818100314878393 0 0 0 0 1.0347667199664574 -0.22561848099363147 0 -0.22561848099363147 0.43026377877200161 0 0 0 0 16.600822044197457 -18.370234709556826 0 -18.370234709556826 13.759245383131201 0 0 0 0 -0.39996687209441006 -63.720055387468165 0 -63.720055387468165 66.641232397028944 0 0 0 0 -36.387222107210619 -5.7956751008750871 0 -5.7956751008750871 -26.118831305124331 0 0 0 0 40.650350787203024 -9.2325324563425966 0 -9.2325324563425966 0.74010639189509675 0 0 0 0 9.9537732013248323 -4.0782340255831429 0 -4.0782340255831429 -8.0828250842708087 0 0 0 0 3.6526083166595527 23.621056474483339 0 23.621056474483339 -71.270937340537785 0 0 0 0 -4.0957066005903471 46.966133849695325 0 46.966133849695325 -54.671718369645532 0 0 0 0 -2.5575079482223373 31.64707127091242 0 31.64707127091242 -74.98544000016409 0 0 0 0 -23.873277189539294 56.795511528413044 0 56.795511528413044 -97.558416812447831 0 0 0 0 -26.20337160701456 19.354799932596507 0 19.354799932596507 -69.55027580857859 0 0 0 0 18.342229373410646 35.889188688586728 0 35.889188688586728 -109.73648745968239 0 0 0 0 13.63555191565365 31.369458701818075 0 31.369458701818075 -36.942450313988957 0 0 0 0 -5.0016534166588826 32.692792651549098 0 32.692792651549098 -51.801311199786142 0 0 0 0 -11.142019831982907 42.259784789290279 0 42.259784789290279 -40.185453758705989 0 0 0 0 28.56814268812991 9.117939233132347 0 9.117939233132347 -101.97278917112999 0 0 0 0 -1.1627500101531041 5.3692976198362885 0 5.3692976198362885 -81.106066565756919 0 0 0 0 0.49703357585900676 -0.086879906810594321 0 -0.086879906810594321 1.6215795465465419 0 0 0 0 -40.480706313072005 18.479085078324715 0 18.479085078324715 262.38146246787437 0 0 0 0 -36.832197590461874 29.210252066404792 0 29.210252066404792 -278.65137511333887 0 0 0 0 -45.274962737364376 87.82772212800046 0 87.82772212800046 -158.85407200350892 0 0 0 0 0.79624543160741723 -6.7288120334751511 0 -6.7288120334751511 -175.60746834852034 0 0 0 0 25.029542785345257 6.5877527811098844 0 6.5877527811098844 -270.82488458808075 0 0 0 0 -2.1351964639252401 -110.66371482352406 0 -110.66371482352406 143.89296742114675 0 0 0 0 45.454545676835551 -0.47982621515984647 0 -0.47982621515984647 5.9693356706193299 0 0 0 0 144.45153287750622 44.991503343962904 0 44.991503343962904 31.989015276907594 0 0 0 0 -299.43779128430015 -53.302201227292244 0 -53.302201227292244 25.474674736263296 0 0 0 0 -91.902506512138643 205.15816627853201 0 205.15816627853201 -83.131281632769969 0 0 0 0 57.918440624303003 -5.9750138463423355 0 -5.9750138463423355 -276.32652326951211 0 0 0 0 -3.8608400156444986 167.20339007517032 0 167.20339007517032 -247.04755567158281 0 0 0 0 33.5585939401426 59.836122357199201 0 59.836122357199201 -116.99776817341626 0 0 0 0 53.570901735402799 -39.010745125945505 0 -39.010745125945505 -33.451008640273358 0 0 0 0 31.430155716829631 82.54688993469972 0 82.54688993469972 -51.593679726996925 0 0 0 0 39.414301660198362 9.3125103703059722 0 9.3125103703059722 -22.541781099105719 0 0 0 0 48.492867110895077 26.807548866603611 0 26.807548866603611 -44.995193235386978 0 0 0 0 27.361989452888338 4.9870587233090191 0 4.9870587233090191 -20.76473364757112 0 0 0 0 43.829410557186748 -6.7553871400014032 0 -6.7553871400014032 -14.077669933059951 0 0 0 0 7.9957682682761515 6.7406392010016134 0 6.7406392010016134 46.742485977418255 0 0 0 0 30.1648648292703 -21.98356242128466 0 -21.98356242128466 69.952301503828494 0 0 0 0 -17.634969317616196 39.299335679330397 0 39.299335679330397 -31.040749065068667 0 0 0 0 5.5601550776354998 19.093015932718117 0 19.093015932718117 -15.804013755114283 0 0 0 0 -20.810750932810151 15.104577282909304 0 15.104577282909304 1.291685094271088 0 0 0 0 5.8920316514686419 -5.1164275045812246 0 -5.1164275045812246 -0.81919660636776825 0 0 0 0 8.7425149134032836 10.701847553697007 0 10.701847553697007 -16.939114252716536 0 0 0 0 8.3922563527485181 5.677221579295292 0 5.677221579295292 -14.74307276986292 0 0 0 0 -4.0971481613323704 12.398711647168966 0 12.398711647168966 -10.600948002640507 0 0 0 0 26.058003757170354 7.9916143136651954 0 7.9916143136651954 -18.797966520767659 0 0 0 0 -3.5359717729410916 3.7340695970222271 0 3.7340695970222271 -2.4017777755188945 0 0 0 0 -2.3164049635150192 4.5876584376989058 0 4.5876584376989058 -4.7540229652786081 0 0 0 0 1.0593151046209641 7.0805538866989082 0 7.0805538866989082 -1.907136213107151 0 0 0 0 1.3485569757181111 6.5710166840799502 0 6.5710166840799502 -1.1058329452080216 0 0 0 0 5.4716438475770701 7.0986923073214712 0 7.0986923073214712 0.091310416057240218 0 0 0 0 -1.5149204162400567 3.4873787072659042 0 3.4873787072659042 -4.5291558401530096 0 0 0 0 2.1968284306698571 6.5407473426208185 0 6.5407473426208185 -10.02087491367444 0 0 0 0 -39.118945763169904 58.972770281179692 0 58.972770281179692 1.5358480233990122 0 0 0 0 -22.549099653907433 8.8441575709039171 0 8.8441575709039171 -8.6342952063969278 0 0 0 0 29.239821639164802 41.283570964544197 0 41.283570964544197 -50.013371458218899 0 0 0 0 16.531238438476066 24.157403397392045 0 24.157403397392045 4.8890640967147192 0 0 0 0 17.246330444536397 27.937034945447522 0 27.937034945447522 -36.239055675061536 0 0 0 0 0.54253195224653084 0.86522562684770321 0 0.86522562684770321 -2.0245783496285341 0 0 0 0 -3.7961235845980301 4.4783630411603497 0 4.4783630411603497 -4.59578670174227 0 0 0 0 -28.987321894732304 47.706650507712766 0 47.706650507712766 12.76202610511973 0 0 0 0 -0.8344366933706624 12.234596515263547 0 12.234596515263547 -5.6727871325274464 0 0 0 0 -3.1974822764775688 4.0756619686637521 0 4.0756619686637521 -2.9042680454778349 0 0 0 0 -6.5637474700856728 -26.557317684375448 0 -26.557317684375448 -6.3429755556844611 0 0 0 0 24.004189626549987 -52.899073342709016 0 -52.899073342709016 -125.60169073622092 0 0 0 0 -14.024651424680542 -43.970176824386726 0 -43.970176824386726 -64.138897024400649 0 0 0 0 -1.4283435793474046 0.77415592750814 0 0.77415592750814 0.83524694985320025 0 0 0 0 53.055219373683485 -17.637255261455721 0 -17.637255261455721 -71.619417801193777 0 0 0 0 -3.3004649782984758 4.5118918439496838 0 4.5118918439496838 -5.5067357682474665 0 0 0 0 -9.2521910449345341 15.372538426985557 0 15.372538426985557 -33.057742025353946 0 0 0 0 1.4623047364432296 9.8898056131602061 0 9.8898056131602061 -3.1846932248881785 0 0 0 0 5.3031764540555741 0.12819482659688219 0 0.12819482659688219 2.7909631754155271 0 0 0 0 -15.991916702988874 -68.06560746388277 0 -68.06560746388277 -107.05694007597049 0 0 0 0 -30.717102901819089 -33.297276506178605 0 -33.297276506178605 -12.504753272045491 0 0 0 0 -27.845526677509042 -67.361509225669579 0 -67.361509225669579 -126.06936855574895 0 0 0 0 -37.049684522249777 -25.668342152589503 0 -25.668342152589503 -132.6146416808042 0 0 0 0 -37.031760239688083 -112.78416904394544 0 -112.78416904394544 -256.34660305359284 0 0 0 0 -9.4750122675500279 -29.39399929123465 0 -29.39399929123465 -206.40252090262948 0 0 0 0 -7.0270348081230622 -81.824590416588762 0 -81.824590416588762 -147.44380991216894 0 0 0 0 -6.1724159375211229 -17.417964668007698 0 -17.417964668007698 -218.08934481471078 0 0 0 0 -35.592532450385534 -45.665681996906642 0 -45.665681996906642 -122.7168216000573 0 0 0 0 -540.38932290536559 -88.704280612389994 0 -88.704280612389994 -33.714019936931436 0 0 0 0 -142.66072362135674 -13.342569907254074 0 -13.342569907254074 -28.50521796916928 0 0 0 0 -180.88246235532915 214.75654663764726 0 214.75654663764726 -504.31852868652277 0 0 0 0 -77.183468203795655 -84.212253531597526 0 -84.212253531597526 -160.80592073978914 0 0 0 0 -1.6987190942543151 1.6724513040288684 0 1.6724513040288684 -2.4378112359748911 0 0 0 0 -169.08260858783797 -34.652369439569156 0 -34.652369439569156 32.536489093501586 0 0 0 0 -3.4305640310086138 3.2813020810271709 0 3.2813020810271709 -2.9646495551760665 0 0 0 0 -126.43524548757887 -21.246597577955981 0 -21.246597577955981 11.01355393203994 0 0 0 0 -1.1411068257350463 2.2128629259620851 0 2.2128629259620851 -3.760679448618049 0 0 0 0 -211.0823495856784 159.80093706320531 0 159.80093706320531 106.70405895536533 0 0 0 0 -191.91160454297278 -31.476869795485982 0 -31.476869795485982 52.683574236521963 0 0 0 0 -130.17601183724673 54.808441123532248 0 54.808441123532248 102.49764366582531 0 0 0 0 -80.376133265695643 128.50518874685361 0 128.50518874685361 145.07813760952558 0 0 0 0 -82.943189876141048 53.653988281773763 0 53.653988281773763 80.49294211967208 0 0 0 0 -104.07280963383255 93.732051066610438 0 93.732051066610438 120.20686339028907 0 0 0 0 -53.299137293417516 38.547045022598468 0 38.547045022598468 31.473690512499161 0 0 0 0 -110.6838742228656 62.18270102905808 0 62.18270102905808 30.277737627249735 0 0 0 0 -33.588524275992313 80.342105893018015 0 80.342105893018015 31.848600978624745 0 0 0 0 -61.342357287990808 130.55582830484855 0 130.55582830484855 -47.709977864331449 0 0 0 0 -111.52231409143519 141.40444996549286 0 141.40444996549286 55.124403661233373 0 0 0 0 -53.498445665775364 51.727711906712102 0 51.727711906712102 113.78418261633487 0 0 0 0 -68.544997168675764 127.50812994381704 0 127.50812994381704 56.25776996462082 0 0 0 0 -67.330093694722791 119.3733810985832 0 119.3733810985832 47.757907457373221 0 0 0 0 -0.89819264672681598 1.8365945256735827 0 1.8365945256735827 -4.0212829635678986 0 0 0 0 -88.73971318227359 -136.0861821848921 0 -136.0861821848921 -118.3909709451691 0 0 0 0 171.44358117824959 57.600598791610537 0 57.600598791610537 -66.865163603244582 0 0 0 0 147.0470714945759 -44.89048158506921 0 -44.89048158506921 -167.48889885662356 0 0 0 0 -31.347638738696332 -58.653312712518527 0 -58.653312712518527 -57.920534425473306 0 0 0 0 1.096454973368818 -0.62560562341393933 0 -0.62560562341393933 -1.3562422973470802 0 0 0 0 39.085156486976302 20.921285563352285 0 20.921285563352285 32.619097226270242 0 0 0 0 162.49225619633671 72.140735128486995 0 72.140735128486995 66.961166310808039 0 0 0 0 -1.6724593818178155 5.2376753919724877 0 5.2376753919724877 -11.905110804155981 0 0 0 0 219.91152173150238 243.76018395421488 0 243.76018395421488 98.750468165293569 0 0 0 0 336.73532060101206 87.079311593428429 0 87.079311593428429 15.215555131166184 0 0 0 0 62.573306251167196 104.60563311037549 0 104.60563311037549 71.138690453350137 0 0 0 0 40.394135506075713 157.77333188688499 0 157.77333188688499 208.97320373135153 0 0 0 0 183.28189821129763 45.670441881971783 0 45.670441881971783 -63.731138563307468 0 0 0 0 86.24175949462915 25.981120854696201 0 25.981120854696201 9.5374211602975265 0 0 0 0 412.09006472916064 342.80541047459064 0 342.80541047459064 1.9430394844675902 0 0 0 0 -1.7343379591469539 7.3942397854668656 0 7.3942397854668656 -18.223548250801144 0 0 0 0 151.8847214297387 189.72016273150575 0 189.72016273150575 197.8899658981536 0 0 0 0 173.69337763086503 54.963263697358343 0 54.963263697358343 -125.61350355864852 0 0 0 0 -116.97225294373129 37.046663373341289 0 37.046663373341289 -70.252577129140263 0 0 0 0 65.197025731779831 106.94592323192774 0 106.94592323192774 -119.64770117869921 0 0 0 0 28.610234569355271 189.85162765505811 0 189.85162765505811 62.408375658109435 0 0 0 0 -1.2557039985873537 4.0089021992500236 0 4.0089021992500236 -11.447315548792687 0 0 0 0 -102.08512942329162 -134.83594740933768 0 -134.83594740933768 129.45001475186291 0 0 0 0 -39.728783857737653 211.40511902316939 0 211.40511902316939 101.58426090596186 0 0 0 0 187.55880634491041 -18.67101747290144 0 -18.67101747290144 -130.14146139381046 0 0 0 0 1.4444999748310199 -0.97127942740685569 0 -0.97127942740685569 -1.4725238366750375 0 0 0 0 95.355815042264112 -34.289572295165271 0 -34.289572295165271 -47.534916804113891 0 0 0 0 21.717353589016966 42.13518107807613 0 42.13518107807613 -122.50320832573925 0 0 0 0 152.57729579280294 78.577431440149667 0 78.577431440149667 -6.277726930406061 0 0 0 0 64.065052428852141 15.05237406298329 0 15.05237406298329 8.002823177157552 0 0 0 0 113.6040477065344 37.160609393289633 0 37.160609393289633 -18.020440819971554 0 0 0 0 58.728627107940156 41.963279812420296 0 41.963279812420296 0.967551489105972 0 0 0 0 72.328305383590305 20.448386173107792 0 20.448386173107792 -17.603490372464876 0 0 0 0 -2.0211468104915635 6.8124324494262112 0 6.8124324494262112 -19.25680924422943 0 0 0 0 -58.722038801693998 -53.706465479139297 0 -53.706465479139297 29.070739612667239 0 0 0 0 82.844843204243261 52.205430107332859 0 52.205430107332859 -23.101410639879759 0 0 0 0 -3.5580736029353073 9.8459176503586114 0 9.8459176503586114 -27.428741046580626 0 0 0 0 80.299029947833446 23.12536858485737 0 23.12536858485737 -19.446835521972389 0 0 0 0 51.637856912644565 24.108496535074664 0 24.108496535074664 3.2755935666209552 0 0 0 0 49.027861781523825 34.129955898715707 0 34.129955898715707 -19.592065281045507 0 0 0 0 36.006916501339219 7.3711836774782569 0 7.3711836774782569 -18.000030663824873 0 0 0 0 57.37536172795626 27.645242935232091 0 27.645242935232091 -18.869301583617926 0 0 0 0 54.60256391184339 17.67237198849034 0 17.67237198849034 -29.976726800683537 0 0 0 0 36.354381814455337 13.479407000057108 0 13.479407000057108 -18.11178165981255 0 0 0 0 35.865284749019338 17.4966028475028 0 17.4966028475028 -27.631715062903822 0 0 0 0 26.111798594308311 2.9588041132337821 0 2.9588041132337821 -25.593449706429965 0 0 0 0 29.169997710310781 4.4445062590239104 0 4.4445062590239104 -33.549015385138773 0 0 0 0 24.091654033614759 10.654119590988557 0 10.654119590988557 -40.941865729328129 0 0 0 0 40.007875503273681 11.795713280902419 0 11.795713280902419 -40.831865132051462 0 0 0 0 32.860258927944869 20.232878084202639 0 20.232878084202639 -27.474803325429093 0 0 0 0 28.537321271052861 4.2752273389414768 0 4.2752273389414768 -57.484427215444157 0 0 0 0 30.732146729544183 0.26885752901580418 0 0.26885752901580418 -63.002781140006846 0 0 0 0 24.548797833827848 11.763899623525504 0 11.763899623525504 -39.387981367312022 0 0 0 0 18.067981329537361 -1.4894091276291874 0 -1.4894091276291874 -47.156731000432046 0 0 0 0 14.52619669550586 3.7248938182165148 0 3.7248938182165148 -52.053273280223948 0 0 0 0 20.467899046792809 -0.75042651557305362 0 -0.75042651557305362 -89.675447632700525 0 0 0 0 22.532456013722367 31.108469230348419 0 31.108469230348419 -38.967312176453561 0 0 0 0 34.259003978251712 -6.2237458692979999 0 -6.2237458692979999 -87.920426225915435 0 0 0 0 21.001835909246982 17.088269540115391 0 17.088269540115391 -0.51492552944142744 0 0 0 0 15.83260165662432 -0.60485476462054066 0 -0.60485476462054066 -60.767962164158234 0 0 0 0 9.4043724241801101 3.5162298921568436 0 3.5162298921568436 -62.871410270337947 0 0 0 0 8.678803549869599 8.9188217156406608 0 8.9188217156406608 -92.954580738849472 0 0 0 0 10.279218297637271 -2.8662516802141909 0 -2.8662516802141909 -72.77308934595203 0 0 0 0 9.8771822251437698 4.6818903420207789 0 4.6818903420207789 -62.880467811803101 0 0 0 0 17.657609346140362 9.8574092114758969 0 9.8574092114758969 -60.277137891040184 0 0 0 0 26.007768907231366 12.267838137500803 0 12.267838137500803 -72.58292540696857 0 0 0 0 29.374584441782872 25.47455725753025 0 25.47455725753025 -34.79614263746771 0 0 0 0 2.643582889425435 -4.1221254903165203 0 -4.1221254903165203 -5.5256056897562758 0 0 0 0 11.283238557472941 -5.8413729938984034 0 -5.8413729938984034 -52.244762206930318 0 0 0 0 40.715419448340981 10.950658416375518 0 10.950658416375518 -36.920105955199688 0 0 0 0 32.287954067464852 27.927353102082634 0 27.927353102082634 -3.1460566220484907 0 0 0 0 32.795380692215986 19.556480912571715 0 19.556480912571715 -44.860809191119188 0 0 0 0 62.521514919320907 28.431605132311233 0 28.431605132311233 -28.604114925845352 0 0 0 0 37.146657239043179 31.76558057425882 0 31.76558057425882 -23.997261926298961 0 0 0 0 49.601670728681256 53.741863100241972 0 53.741863100241972 -4.6959790846449323 0 0 0 0 16.135177749196373 39.457786856681196 0 39.457786856681196 53.934091489965795 0 0 0 0 106.6359421588204 -4.9571466654670076 0 -4.9571466654670076 -302.37962230316043 0 0 0 0 -182.19325764034238 126.56817760370541 0 126.56817760370541 231.13532067547203 0 0 0 0 90.527720612079065 9.9478252814187726 0 9.9478252814187726 71.13290317638166 0 0 0 0 -171.56209953279358 254.51274551755068 0 254.51274551755068 -128.5730076279724 0 0 0 0 -2.1934850801941153 15.679261699743289 0 15.679261699743289 -31.502350721768551 0 0 0 0 215.9498776421533 171.36255867569707 0 171.36255867569707 -101.65503379889924 0 0 0 0 40.111117172207287 30.178079613359841 0 30.178079613359841 -56.053429617699294 0 0 0 0 23.792178598851919 15.347832502316564 0 15.347832502316564 -19.571018882211959 0 0 0 0 52.503871549887663 21.703797442503856 0 21.703797442503856 -50.308725686478283 0 0 0 0 20.969217096790203 20.49330947702947 0 20.49330947702947 -68.668366860263632 0 0 0 0 30.025516842690422 24.586944250215311 0 24.586944250215311 -76.450653170483747 0 0 0 0 35.182292890165627 3.2559484201774467 0 3.2559484201774467 -96.899375048895308 0 0 0 0 5.4068089717543595 16.455762916465272 0 16.455762916465272 -59.818740801627882 0 0 0 0 4.2227703073431115 1.251130796080929 0 1.251130796080929 -9.8406731942121297 0 0 0 0 36.927257483657513 20.760475325067091 0 20.760475325067091 -69.690852699557581 0 0 0 0 35.825767007933678 23.632121767545868 0 23.632121767545868 -76.178479709262319 0 0 0 0 36.165112023806614 43.149726831363296 0 43.149726831363296 -72.438775072179851 0 0 0 0 43.793848284280784 36.438768694599275 0 36.438768694599275 -70.006597068890187 0 0 0 0 28.873495095417184 47.825382226863439 0 47.825382226863439 -71.66654106248825 0 0 0 0 23.145450421727219 44.376201862840389 0 44.376201862840389 -58.619350874432712 0 0 0 0 32.138384092370188 42.180329752975013 0 42.180329752975013 -61.919662835054623 0 0 0 0 31.486564740891936 35.523405303865729 0 35.523405303865729 -52.782175091604586 0 0 0 0 27.469021496919595 42.087975605201791 0 42.087975605201791 -61.905028140099603 0 0 0 0 24.039749712928369 38.929287042625219 0 38.929287042625219 -45.887497134826845 0 0 0 0 23.891206960624459 39.214305174893525 0 39.214305174893525 -46.361564196151448 0 0 0 0 23.460080533438941 39.474357071158011 0 39.474357071158011 -45.505365706252633 0 0 0 0 25.856491156525408 32.734817271644715 0 32.734817271644715 -38.729835311714851 0 0 0 0 23.77979599739254 32.627310930230578 0 32.627310930230578 -38.637226385355461 0 0 0 0 24.207296010965024 35.930142256531326 0 35.930142256531326 -52.768764026739518 0 0 0 0 24.170200813896827 27.679160345258424 0 27.679160345258424 -41.162345974546042 0 0 0 0 24.6278335266868 24.46192530548069 0 24.46192530548069 -58.936753424612107 0 0 0 0 31.448541339133044 34.172947063350875 0 34.172947063350875 -70.41479945768333 0 0 0 0 47.237748585562258 50.527237461694313 0 50.527237461694313 -16.880871600857063 0 0 0 0 30.586722189810871 39.508802657692286 0 39.508802657692286 -54.742963280757976 0 0 0 0 35.613310753420137 15.05890729462044 0 15.05890729462044 -74.735784068972862 0 0 0 0 26.224585722253664 24.087465513746793 0 24.087465513746793 -100.02269145257014 0 0 0 0 22.461952354458617 26.97087076995922 0 26.97087076995922 -72.1273168962216 0 0 0 0 26.454876058612399 43.811441653055226 0 43.811441653055226 -70.373905942175043 0 0 0 0 35.608403796472203 47.343341516498185 0 47.343341516498185 -77.298883115312492 0 0 0 0 55.064792169682846 43.512272612517336 0 43.512272612517336 -75.118399535138451 0 0 0 0 39.782538235255288 40.453582660447864 0 40.453582660447864 -71.452152629430202 0 0 0 0 53.429081714859535 31.669082328623517 0 31.669082328623517 -63.881583216134459 0 0 0 0 74.851477013350177 25.590363880146469 0 25.590363880146469 -76.550349286249457 0 0 0 0 31.450359715382547 0.021012397095546476 0 0.021012397095546476 -50.493161678256001 0 0 0 0 26.255567734865508 11.863139659757508 0 11.863139659757508 -75.651352039101766 0 0 0 0 2.7728102159038106 9.7013110254996704 0 9.7013110254996704 -61.690044650415189 0 0 0 0 5.6546844457625411 -0.10977215383172734 0 -0.10977215383172734 -63.879747720275191 0 0 0 0 -38.657177666525513 113.64799267981653 0 113.64799267981653 -81.85360674871481 0 0 0 0 3.8799274514059059 5.8324717352905111 0 5.8324717352905111 -20.181597695586163 0 0 0 0 28.376686067475703 57.511146472214023 0 57.511146472214023 -119.43862410380825 0 0 0 0 7.520804026636938 29.867176845929862 0 29.867176845929862 -93.971297184078139 0 0 0 0 122.54045875083784 39.940405462362833 0 39.940405462362833 -69.821766610879422 0 0 0 0 113.1038479886256 -39.704103399290034 0 -39.704103399290034 -31.16710600373699 0 0 0 0 -1.062735997464177 0.84583087218990016 0 0.84583087218990016 1.5078617616231327 0 0 0 0 78.597198815468346 51.523396878790663 0 51.523396878790663 -63.906606452765118 0 0 0 0 38.500566218085169 6.8541938910475437 0 6.8541938910475437 -46.626845047605457 0 0 0 0 56.423072083690386 76.357682204699813 0 76.357682204699813 -69.83176270342301 0 0 0 0 39.434880492454454 81.474945865140398 0 81.474945865140398 -34.111659775164298 0 0 0 0 36.598631299785438 56.290961049409816 0 56.290961049409816 -72.248387605402968 0 0 0 0 36.149458655914657 41.857235878018855 0 41.857235878018855 -9.7323779514044872 0 0 0 0 34.993412693877417 50.681551172987383 0 50.681551172987383 -66.043544633910642 0 0 0 0 4.7230446545952418 46.92795240851774 0 46.92795240851774 -56.575887910670644 0 0 0 0 -37.792735608160001 -43.161468786231126 0 -43.161468786231126 -89.981904457821656 0 0 0 0 9.7680345972598843 -7.7409475360327633 0 -7.7409475360327633 -83.127740479272688 0 0 0 0 -8.7874032686756891 -19.411460408395214 0 -19.411460408395214 -80.56994526948256 0 0 0 0 1.0086545178410802 -7.960694788860792 0 -7.960694788860792 -74.342438599473098 0 0 0 0 8.8212247122162353 3.3686263052186405 0 3.3686263052186405 -53.639705634130223 0 0 0 0 19.796028222495806 18.287249478787999 0 18.287249478787999 -52.482446963935217 0 0 0 0 20.543180586523405 -4.146819027566039 0 -4.146819027566039 -82.815040760586271 0 0 0 0 17.451956320506213 -8.3091662337392336 0 -8.3091662337392336 -100.9974196797848 0 0 0 0 4.9992346439512403 -20.194868109461822 0 -20.194868109461822 -90.857100317552977 0 0 0 0 6.7948947585223323 -35.004951796092428 0 -35.004951796092428 -115.32919102269807 0 0 0 0 5.7727011872439107 -31.039837408876338 0 -31.039837408876338 -115.96429460970376 0 0 0 0 9.7693446288503765 -27.058554501039907 0 -27.058554501039907 -130.25953991405549 0 0 0 0 16.642464788834786 -10.141875846158655 0 -10.141875846158655 -166.36652893330756 0 0 0 0 15.501214302425524 -10.088023053012876 0 -10.088023053012876 -142.81443523352209 0 0 0 0 3.0094349217524723 -13.183338342067145 0 -13.183338342067145 -131.20079947943304 0 0 0 0 -56.872421482687969 -76.544272214199736 0 -76.544272214199736 -140.72216000477783 0 0 0 0 3.6953614707772431 -23.210658493560913 0 -23.210658493560913 -148.32465764310473 0 0 0 0 13.936844406326145 -33.31025923287234 0 -33.31025923287234 -153.65954489444266 0 0 0 0 21.508039424599247 -9.3961054254832561 0 -9.3961054254832561 -217.05874086670519 0 0 0 0 21.824039366519131 -0.59858857363633433 0 -0.59858857363633433 -153.69376599266252 0 0 0 0 2.8881749605505149 -31.09087131007891 0 -31.09087131007891 -222.09503851372574 0 0 0 0 2.4399131588697855 -29.85984913674838 0 -29.85984913674838 -165.16047843210981 0 0 0 0 2.7396811425655869 -15.948536169340514 0 -15.948536169340514 -197.80318059243291 0 0 0 0 20.655056571485147 13.725238870360045 0 13.725238870360045 -273.78834734334669 0 0 0 0 13.747771421402831 14.532851796604518 0 14.532851796604518 -168.76037745633948 0 0 0 0 22.652205643649722 30.275236858018616 0 30.275236858018616 -175.27268157053186 0 0 0 0 11.494819800321011 28.362252644143155 0 28.362252644143155 -138.99647632248525 0 0 0 0 12.667173074658194 36.51119220745386 0 36.51119220745386 -139.39762382836898 0 0 0 0 -15.183914903753248 101.81061842900817 0 101.81061842900817 -191.69764765381842 0 0 0 0 -2.9241905706981441 5.2008362838000721 0 5.2008362838000721 -105.12632447425858 0 0 0 0 13.697441859569153 12.610486673846026 0 12.610486673846026 -138.5640721321206 0 0 0 0 -3.7984990582449427 15.525509049708489 0 15.525509049708489 -132.10784776879154 0 0 0 0 -17.657883344264519 32.30239968632668 0 32.30239968632668 -91.883182063487766 0 0 0 0 13.916150851801376 -16.380530880232982 0 -16.380530880232982 -91.065737461518438 0 0 0 0 6.7159389539981476 39.976834185083135 0 39.976834185083135 -115.19678348152593 0 0 0 0 11.152871342511418 -14.446419615796913 0 -14.446419615796913 -57.878224383835914 0 0 0 0 0.1642052286048985 -1.3526748141563161 0 -1.3526748141563161 -5.070698612541463 0 0 0 0 -42.661954908719963 25.129694926799857 0 25.129694926799857 -5.9489821973547805 0 0 0 0 -2.5515211386612009 21.940364416775992 0 21.940364416775992 -56.926653057569638 0 0 0 0 3.1688714731166101 -2.2494083093260997 0 -2.2494083093260997 -7.3396274399965478 0 0 0 0 5.3313022293142467 -5.305501228211142 0 -5.305501228211142 -3.8447891659125162 0 0 0 0 -4.3417818582047403 -26.925994912686292 0 -26.925994912686292 -6.6244887222346733 0 0 0 0 -1.7688093251622661 26.44947780773964 0 26.44947780773964 -10.159986287006177 0 0 0 0 -21.453301701063879 -5.6231386827075767 0 -5.6231386827075767 15.589143168297596 0 0 0 0 -0.79634239047390842 -1.9781328886371661 0 -1.9781328886371661 -5.0474191430393489 0 0 0 0 -112.63389742397294 131.75463610715087 0 131.75463610715087 -283.82584132780266 0 0 0 0 -63.570455823305224 -201.36154250784057 0 -201.36154250784057 78.572026444060612 0 0 0 0 136.12878015691967 -409.49263187302131 0 -409.49263187302131 -207.76688450793881 0 0 0 0 116.57680509926229 -83.104310198083112 0 -83.104310198083112 150.80881340445194 0 0 0 0 314.87495740385771 -259.90346622875586 0 -259.90346622875586 -104.1819928579207 0 0 0 0 -0.74226103257563214 -3.308344169727448 0 -3.308344169727448 -4.9120866802585965 0 0 0 0 -0.36355960623569683 -1.2159993052087898 0 -1.2159993052087898 0.44577446826096434 0 0 0 0 -78.072955503510912 49.562158747885405 0 49.562158747885405 -91.439334342983784 0 0 0 0 -0.59138008174824885 -3.8616224357768587 0 -3.8616224357768587 -14.879635022191053 0 0 0 0 355.4779064723769 -353.02192328502133 0 -353.02192328502133 -219.35887153899967 0 0 0 0 -25.938767835326644 -56.242591052017815 0 -56.242591052017815 146.01783878944298 0 0 0 0 -0.83227202271371503 -1.9743945529646325 0 -1.9743945529646325 -2.3810746958710354 0 0 0 0 -199.63235181698178 132.66673081178851 0 132.66673081178851 -96.786493587627774 0 0 0 0 -49.427725101770193 81.372700332227396 0 81.372700332227396 -65.797364800260766 0 0 0 0 62.451789794764409 64.225567102403147 0 64.225567102403147 -63.379187960672425 0 0 0 0 0.097211194076407992 -50.014916749703843 0 -50.014916749703843 -461.74905613908413 0 0 0 0 -73.880212860182155 157.11511306402826 0 157.11511306402826 -298.61879773737746 0 0 0 0 -214.58044272495113 -120.94096179910775 0 -120.94096179910775 -134.99326303983253 0 0 0 0 -80.578849104392901 28.848979184546806 0 28.848979184546806 -13.360765762226947 0 0 0 0 -54.833528056311025 171.94744729336162 0 171.94744729336162 -12.424429309536208 0 0 0 0 354.35997071402988 23.734137404846479 0 23.734137404846479 -105.31772265824475 0 0 0 0 -81.356702440534264 62.522247376196901 0 62.522247376196901 -12.878048629298746 0 0 0 0 -0.89461479908367858 -5.8812786180198096 0 -5.8812786180198096 -20.043645288817828 0 0 0 0 -15.588216263388858 2.4588890014674689 0 2.4588890014674689 -18.748148144171864 0 0 0 0 82.324686777861643 95.137361812550807 0 95.137361812550807 -20.100532071948692 0 0 0 0 -30.920835002964509 59.278005546252189 0 59.278005546252189 35.800086008835933 0 0 0 0 -102.24119849334181 23.857025885145958 0 23.857025885145958 -17.403562978193804 0 0 0 0 -52.608014245234244 -2.42651466235111 0 -2.42651466235111 -19.133411440344389 0 0 0 0 -49.995407225040253 2.7980121380605851 0 2.7980121380605851 -107.58365086847334 0 0 0 0 -82.329210033962681 -4.2778212057455676 0 -4.2778212057455676 -30.876446445128749 0 0 0 0 8.8211414438512747 2.5029744425464742 0 2.5029744425464742 -5.9652432586444775 0 0 0 0 -63.796452759552722 24.857444695750019 0 24.857444695750019 3.7068068663502345 0 0 0 0 -17.506241790830245 -72.06462818512955 0 -72.06462818512955 -241.89938925261959 0 0 0 0 -71.03745900155991 -104.16978957458196 0 -104.16978957458196 -35.414524813013486 0 0 0 0 22.13613381413461 -41.753679612687847 0 -41.753679612687847 -241.39098984628299 0 0 0 0 13.37137912570779 -56.569909048281261 0 -56.569909048281261 -263.20367233777597 0 0 0 0 -22.060248361135791 21.454050888252823 0 21.454050888252823 -267.63731243064831 0 0 0 0 -13.50327610287377 -22.947392512360238 0 -22.947392512360238 -100.38599342526868 0 0 0 0 52.899764616261564 -48.244005106356781 0 -48.244005106356781 -144.48180656206387 0 0 0 0 89.751339225604966 -64.899275279298308 0 -64.899275279298308 -138.05639048000012 0 0 0 0 -316.59389051145081 -18.039642758369155 0 -18.039642758369155 212.193238484635 0 0 0 0 -81.86958229249467 -185.03815143611428 0 -185.03815143611428 -268.66857369735226 0 0 0 0 -0.28110369821597025 14.811541789304243 0 14.811541789304243 -60.791808051595808 0 0 0 0 176.45410967738098 242.56829637769624 0 242.56829637769624 53.018452586533385 0 0 0 0 -128.71612762344978 -73.415497149380826 0 -73.415497149380826 12.892748140075128 0 0 0 0 -0.92921438529527201 3.3061006427217237 0 3.3061006427217237 -7.808339818849845 0 0 0 0 207.97096644282664 28.963700815966149 0 28.963700815966149 -132.48535143133631 0 0 0 0 -208.01716663986599 -17.208316677370021 0 -17.208316677370021 65.96184160923076 0 0 0 0 -0.93071518860374658 14.401047572519083 0 14.401047572519083 -54.957207224456113 0 0 0 0 -1.0451303466129391 3.4405841292871386 0 3.4405841292871386 -7.9277762744096947 0 0 0 0 163.28145396793164 82.727023880252091 0 82.727023880252091 -59.336293897169526 0 0 0 0 72.359287981984153 -73.82526106689329 0 -73.82526106689329 -177.85536278932705 0 0 0 0 39.440244889568987 -12.661613994019717 0 -12.661613994019717 -9.4326622777953162 0 0 0 0 -0.47123944590681699 1.4590389448513434 0 1.4590389448513434 -3.487690510379764 0 0 0 0 -26.285282343323161 181.19093679272191 0 181.19093679272191 -39.408954287064262 0 0 0 0 -90.945960662863399 141.33741415989061 0 141.33741415989061 73.741591243087896 0 0 0 0 178.32531329703772 63.511521602438734 0 63.511521602438734 -86.444207256878144 0 0 0 0 -149.13253934839167 73.854122291559179 0 73.854122291559179 113.36669493040245 0 0 0 0 5.8721045834643064 58.41833701988071 0 58.41833701988071 -44.156522945763754 0 0 0 0 106.28858715696379 40.222055892532808 0 40.222055892532808 -69.047933790148818 0 0 0 0 -0.59088276334936429 2.4637247883410502 0 2.4637247883410502 -29.705104625383967 0 0 0 0 115.02955191129683 4.2385112893352925 0 4.2385112893352925 -75.093032555654645 0 0 0 0 58.231384717404126 -0.65572244253780809 0 -0.65572244253780809 -64.751996892278839 0 0 0 0 -155.87425687036671 23.031591150727763 0 23.031591150727763 15.865486052774941 0 0 0 0 -1.7236762413226518 11.212735875296275 0 11.212735875296275 -54.339414465501761 0 0 0 0 -35.03297872143321 69.466247719959938 0 69.466247719959938 -117.8401273182244 0 0 0 0 -93.021435098863094 106.16629806019046 0 106.16629806019046 -66.769365324260434 0 0 0 0 -26.563756184757267 165.04199953787611 0 165.04199953787611 -191.00563089171192 0 0 0 0 -14.77498328878346 120.90295206547307 0 120.90295206547307 -72.250850717791764 0 0 0 0 -2.1374923258091485 148.12233882351029 0 148.12233882351029 -124.52168178494321 0 0 0 0 158.70630050775162 59.377358489888138 0 59.377358489888138 -117.41446821810678 0 0 0 0 74.902087459205177 3.439348673884524 0 3.439348673884524 -130.29703824693479 0 0 0 0 54.91768477433925 -24.916350610161317 0 -24.916350610161317 -127.15557123319013 0 0 0 0 151.69928506105543 53.763386433951382 0 53.763386433951382 -186.70579173639999 0 0 0 0 -15.601160576535676 -141.28885058402375 0 -141.28885058402375 -318.97483790531624 0 0 0 0 61.644343630785443 85.328419706027489 0 85.328419706027489 -363.925718345723 0 0 0 0 2.4782102028971167 17.303344705582266 0 17.303344705582266 -78.230066813282349 0 0 0 0 79.99864763569397 63.460838810908626 0 63.460838810908626 -116.02765208244091 0 0 0 0 19.742134661771388 34.313897735992214 0 34.313897735992214 -89.073145377977198 0 0 0 0 78.076870672222412 97.699896127560351 0 97.699896127560351 -42.132050216954667 0 0 0 0 9.3929458887301536 20.826906541718778 0 20.826906541718778 -15.24179565454088 0 0 0 0 88.146325632624212 59.72252655767079 0 59.72252655767079 -116.42311952530872 0 0 0 0 102.11301291650216 21.594355199529673 0 21.594355199529673 -198.94919631744415 0 0 0 0 15.890294357553103 25.491089047049172 0 25.491089047049172 -38.100782987045932 0 0 0 0 8.7504013376774701 -0.56770440860424287 0 -0.56770440860424287 -26.655498181730579 0 0 0 0 30.005870382339708 47.143663959424885 0 47.143663959424885 -61.419909684460436 0 0 0 0 28.96256508891156 -56.943958315772761 0 -56.943958315772761 -16.252740922951489 0 0 0 0 13.800270752275537 -51.422107818332734 0 -51.422107818332734 44.580455830786377 0 0 0 0 -180.06678155984491 -119.04208300008759 0 -119.04208300008759 -168.22934839480149 0 0 0 0 74.764958889648369 -9.7641906395729166 0 -9.7641906395729166 -122.2870219684628 0 0 0 0 18.012135161592596 -97.501514953233709 0 -97.501514953233709 -157.71975520912019 0 0 0 0 -0.11397699823905505 -0.147908307565217 0 -0.147908307565217 -0.10225876408043177 0 0 0 0 -29.907295341732834 105.89864529801707 0 105.89864529801707 17.060926248377655 0 0 0 0 -66.248315211410045 27.989201175514609 0 27.989201175514609 107.76051883664331 0 0 0 0 -15.149143853395344 27.56125507185061 0 27.56125507185061 -30.89712399529526 0 0 0 0 -60.967712896931744 78.448488304093189 0 78.448488304093189 -21.224516729474999 0 0 0 0 -185.98277978004089 92.480446830653591 0 92.480446830653591 -113.61422737842076 0 0 0 0 -21.925225812380631 51.021049593211501 0 51.021049593211501 -103.17995112529024 0 0 0 0 -18.308115421647926 106.08821676089428 0 106.08821676089428 -135.93434212949069 0 0 0 0 47.532822118420654 38.481732947329874 0 38.481732947329874 -185.37127066876565 0 0 0 0 8.2057643338043817 41.917889833595837 0 41.917889833595837 -70.280090737447608 0 0 0 0 -30.747675127508501 55.690709200254787 0 55.690709200254787 -31.89222541716299 0 0 0 0 -15.036253393799825 30.693154577587848 0 30.693154577587848 -48.868261898533092 0 0 0 0 2.1159606457722475 37.105531633278588 0 37.105531633278588 -56.262372769400827 0 0 0 0 8.6590509476875468 51.415589589181764 0 51.415589589181764 -88.22173105206457 0 0 0 0 4.1305649025227922 37.786462821608438 0 37.786462821608438 -82.569450662325835 0 0 0 0 3.8380776271505965 52.655864751872286 0 52.655864751872286 -71.240464572736528 0 0 0 0 19.359643505504664 0.061315900646150112 0 0.061315900646150112 -158.35392499047157 0 0 0 0 -3.2982492532463539 -17.648116842399759 0 -17.648116842399759 -51.885275259744958 0 0 0 0 23.100088575890823 13.5290142673839 0 13.5290142673839 -119.61577419922105 0 0 0 0 63.885067840162719 -1.3384217996099323 0 -1.3384217996099323 -228.43614062693086 0 0 0 0 45.866778680287553 27.557745726240682 0 27.557745726240682 -166.88571029760351 0 0 0 0 65.952691533088 -18.030725108794286 0 -18.030725108794286 -166.6720106589637 0 0 0 0 78.284298352975156 -49.320074816092529 0 -49.320074816092529 -271.297774391438 0 0 0 0 3.9075841536263169 122.28219470094336 0 122.28219470094336 -335.44218072918011 0 0 0 0 4.4800070504957716 -43.505006976083678 0 -43.505006976083678 -187.94033247016091 0 0 0 0 -1.0934348962688318 -82.849086482689017 0 -82.849086482689017 -187.23759731152802 0 0 0 0 10.874099463443088 -56.144023598051717 0 -56.144023598051717 -163.16731543660717 0 0 0 0 53.335471294258355 -54.982112180825425 0 -54.982112180825425 -178.43674846709473 0 0 0 0 -135.2737270586415 125.72238443329115 0 125.72238443329115 121.13744964420039 0 0 0 0 -22.188962304371103 -57.969074386026477 0 -57.969074386026477 -136.96324557515618 0 0 0 0 105.09801671944294 -151.08353515567978 0 -151.08353515567978 -78.783805543935159 0 0 0 0 120.3880512379701 71.490561619473738 0 71.490561619473738 -83.38419933928526 0 0 0 0 -47.320332079825448 72.553440693860466 0 72.553440693860466 -76.821004863391863 0 0 0 0 0.15306584968131465 -1.0249963524022974 0 -1.0249963524022974 -0.61650427693109577 0 0 0 0 -2.5260825866283003 4.1469740412594973 0 4.1469740412594973 -4.418062639019297 0 0 0 0 81.184223638234315 -39.304041914525442 0 -39.304041914525442 -51.82002242928138 0 0 0 0 18.64049660519602 -8.2230407004990411 0 -8.2230407004990411 -66.101244918594602 0 0 0 0 -13.970002180630388 -37.026522739823122 0 -37.026522739823122 -60.994160257061594 0 0 0 0 -57.214907530459328 62.038517572218552 0 62.038517572218552 -38.658100095170084 0 0 0 0 0.045853651540170404 137.44714660879254 0 137.44714660879254 -209.94336140537052 0 0 0 0 19.032076917919056 132.02510962118686 0 132.02510962118686 -321.23078115156386 0 0 0 0 -7.0496198499598393 118.71109022428209 0 118.71109022428209 118.88728524426915 0 0 0 0 -0.96886825399413645 1.5427605066170997 0 1.5427605066170997 -1.9410832493928467 0 0 0 0 -95.969920811998463 149.08879066736699 0 149.08879066736699 -359.25922239162901 0 0 0 0 -48.977113952978897 -133.83300262725879 0 -133.83300262725879 -456.18115417911758 0 0 0 0 -217.26186716726076 143.85686700008773 0 143.85686700008773 -35.861422084723017 0 0 0 0 -193.2827110803895 72.71462868211529 0 72.71462868211529 57.579322584060719 0 0 0 0 -148.90067366811701 -14.216816228792595 0 -14.216816228792595 -46.489269499608781 0 0 0 0 3.6257704987730692 -127.96268150215656 0 -127.96268150215656 -98.259729345125379 0 0 0 0 -0.20102497575411296 -1.0627438002676683 0 -1.0627438002676683 -3.6513142377509666 0 0 0 0 -88.04603829131625 -96.019270827811852 0 -96.019270827811852 97.630778145598015 0 0 0 0 -128.80939586736037 2.6754345169829321 0 2.6754345169829321 -77.455773146881256 0 0 0 0 -110.22044859865323 60.032660002339981 0 60.032660002339981 -87.118891220023215 0 0 0 0 -80.011454282381479 -20.532911471600528 0 -20.532911471600528 -133.32643904715951 0 0 0 0 -16.426605809852816 25.066471722579081 0 25.066471722579081 -251.06866195816838 0 0 0 0 -72.4127289661497 -85.846736934400724 0 -85.846736934400724 -174.70253755626618 0 0 0 0 64.13511905113819 -29.844489964554668 0 -29.844489964554668 -194.42438164700798 0 0 0 0 39.910908374524411 45.979864422311948 0 45.979864422311948 -95.933483101707679 0 0 0 0 -9.4466104820282624 -24.770699460184915 0 -24.770699460184915 -65.278137056513515 0 0 0 0 58.061521623450574 0.58373624831801862 0 0.58373624831801862 17.160646220116178 0 0 0 0 -8.8311646698184632 69.613596440554829 0 69.613596440554829 -4.9672438075594982 0 0 0 0 -64.584904765091949 21.233463018699695 0 21.233463018699695 12.339065307831333 0 0 0 0 -76.684479401438352 32.242891717192833 0 32.242891717192833 28.290129753571819 0 0 0 0 -34.561386231148646 60.647258528111706 0 60.647258528111706 7.5155516123340931 0 0 0 0 72.805241111491412 9.7621566678062663 0 9.7621566678062663 -1.6798693709861254 0 0 0 0 127.98287905812867 122.37147454273509 0 122.37147454273509 21.873172098923533 0 0 0 0 -13.699934232111104 90.74342136119958 0 90.74342136119958 66.498835678056821 0 0 0 0 -23.71989241040626 19.228556093417865 0 19.228556093417865 60.010594757535728 0 0 0 0 -109.01473435779621 27.998259117463022 0 27.998259117463022 22.410960939145298 0 0 0 0 -36.238575221929437 41.939702252162533 0 41.939702252162533 -36.037405071183457 0 0 0 0 120.56922672921695 78.034671807959967 0 78.034671807959967 -236.70201023959089 0 0 0 0 -0.1253802934376903 -0.91890040313645471 0 -0.91890040313645471 -3.39180638871116 0 0 0 0 10.52333329836403 105.18391061564853 0 105.18391061564853 -22.0657343135681 0 0 0 0 16.533169584970892 60.777864783187397 0 60.777864783187397 -220.39010539240553 0 0 0 0 -0.21896409965138403 1.241776545080576 0 1.241776545080576 -3.481612298899762 0 0 0 0 96.781096112384603 -27.951717820131307 0 -27.951717820131307 -195.34851513429021 0 0 0 0 14.436846911505086 125.01000179693074 0 125.01000179693074 16.755567420346779 0 0 0 0 -16.650203368026069 11.351103467688517 0 11.351103467688517 -53.221520411818346 0 0 0 0 -29.852141594595651 24.322751442154185 0 24.322751442154185 -64.53195681181387 0 0 0 0 -0.18137230572701291 -0.26701022341289615 0 -0.26701022341289615 -0.74728131265007391 0 0 0 0 3.4373644191517414 -41.046183265048057 0 -41.046183265048057 -97.70626191199699 0 0 0 0 -58.539619607805378 47.946262164266955 0 47.946262164266955 -54.174224223635974 0 0 0 0 -29.812361144426745 21.603758841847593 0 21.603758841847593 -89.162208850168099 0 0 0 0 5.8463704682575184 -6.8678627477347618 0 -6.8678627477347618 -0.84949254803359509 0 0 0 0 -10.336297119558139 17.598662242355203 0 17.598662242355203 39.812134934327332 0 0 0 0 -51.31607645359972 32.062761414665147 0 32.062761414665147 -22.360408438486047 0 0 0 0 -26.930988415001195 20.238996049905836 0 20.238996049905836 -16.817916540036094 0 0 0 0 -33.187483021585109 22.142749915030436 0 22.142749915030436 -10.746595614713442 0 0 0 0 -0.25331819514185228 -0.75363193138382201 0 -0.75363193138382201 -2.3232423019116766 0 0 0 0 5.0444314463523074 -35.651059240890049 0 -35.651059240890049 -34.171303304348839 0 0 0 0 -29.799473006643467 16.059034037596575 0 16.059034037596575 -7.0932948150730226 0 0 0 0 -0.14247346271790984 -0.39109799324107541 0 -0.39109799324107541 -1.6419547918712851 0 0 0 0 -126.10563331617854 74.408929854304006 0 74.408929854304006 20.41580404767592 0 0 0 0 -78.890722892341103 46.770560786766055 0 46.770560786766055 -20.241772880312055 0 0 0 0 -58.748758521032286 22.390283706685295 0 22.390283706685295 -61.65334566841193 0 0 0 0 -110.36173079759624 31.328082229258143 0 31.328082229258143 0.22693147655809298 0 0 0 0 -93.643306102933337 5.6652637711486022 0 5.6652637711486022 -39.350944662786787 0 0 0 0 48.16447704861136 43.545117789923097 0 43.545117789923097 70.742644503974589 0 0 0 0 -0.12384774171274981 -0.13442367968242053 0 -0.13442367968242053 -0.37527709468236026 0 0 0 0 9.9796592847163197 11.310190199088538 0 11.310190199088538 -11.065653939571348 0 0 0 0 -15.521861870636883 34.427925018098904 0 34.427925018098904 -9.0618394815028296 0 0 0 0 9.5170287665898741 36.22616588837991 0 36.22616588837991 -11.915573932208645 0 0 0 0 -13.111786774647555 12.054771400507889 0 12.054771400507889 -6.5502846995441359 0 0 0 0 -2.500813007880879 27.75842626317899 0 27.75842626317899 -11.960761358670425 0 0 0 0 -34.541783219006476 35.020006236700283 0 35.020006236700283 -18.765793031183421 0 0 0 0 -32.778603954311905 28.477637867406884 0 28.477637867406884 -2.7161917681842169 0 0 0 0 -28.468071225074027 38.469391085447569 0 38.469391085447569 -6.4073225008178269 0 0 0 0 -16.619893965260076 32.076108961771752 0 32.076108961771752 -7.5514854326029308 0 0 0 0 -21.329013037789366 31.3004034718615 0 31.3004034718615 -7.6788924778957153 0 0 0 0 -25.568257890433586 28.216834573104279 0 28.216834573104279 -3.026228713337332 0 0 0 0 -24.493820525158128 28.324546287709381 0 28.324546287709381 -6.0952103552408516 0 0 0 0 -19.493055469312139 24.469019922697044 0 24.469019922697044 -5.6108631136230542 0 0 0 0 -19.327086367297795 25.106270950949693 0 25.106270950949693 -13.297952661610907 0 0 0 0 -20.687897653873307 22.860991061388631 0 22.860991061388631 -7.7656789555621799 0 0 0 0 -27.306116076422569 20.132941139920149 0 20.132941139920149 -13.711459790620211 0 0 0 0 -17.591926380945466 23.337134007510031 0 23.337134007510031 -12.854698917974019 0 0 0 0 -19.246590727312196 24.419904227499501 0 24.419904227499501 -12.321858085648273 0 0 0 0 -15.728185086877716 29.410347459393961 0 29.410347459393961 -10.485250260608154 0 0 0 0 -24.140134960543065 27.405731669256056 0 27.405731669256056 -14.389283411146607 0 0 0 0 -13.719774221097367 24.190186823081604 0 24.190186823081604 -26.682811107755697 0 0 0 0 -5.7310448813486232 13.104792048688978 0 13.104792048688978 -11.621709783532424 0 0 0 0 0.47363009220515551 -0.061268026584002655 0 -0.061268026584002655 -31.226748106372725 0 0 0 0 0.018684390041149079 0.025341518138930041 0 0.025341518138930041 -0.07003558967767276 0 0 0 0 -14.075446087957687 21.784160882089054 0 21.784160882089054 -14.35860720481287 0 0 0 0 -0.00520517186407571 -22.90127712904723 0 -22.90127712904723 2.4467025750745961 0 0 0 0 11.107226088081688 1.3819388421325129 0 1.3819388421325129 -5.3242914380243747 0 0 0 0 1.9400135855873941 -2.2936948597780429 0 -2.2936948597780429 -0.94503063355477934 0 0 0 0 3.9355739212564913 2.8971437536383746 0 2.8971437536383746 1.9240066492347978 0 0 0 0 3.9509879745801038 1.1623914725603299 0 1.1623914725603299 -0.99949217119137757 0 0 0 0 -5.5238811089491691 -1.6278254679964448 0 -1.6278254679964448 -3.2984351148479618 0 0 0 0 -1.1143500088186329 0.011459649620519485 0 0.011459649620519485 -2.9235565509616208 0 0 0 0 -0.21170572248072972 -2.0195001884567318 0 -2.0195001884567318 -2.8495439184916904 0 0 0 0 5.6572916141706173 1.2393242792240926 0 1.2393242792240926 -5.7655278392267064 0 0 0 0 -0.23336316435132076 -0.72989615853703071 0 -0.72989615853703071 -1.4309867625706829 0 0 0 0 0.030893618005478629 2.6956603988219285 0 2.6956603988219285 -11.180135602451628 0 0 0 0 -9.1508405293993746 8.0939487789437408 0 8.0939487789437408 -2.1449984698265325 0 0 0 0 1.9475366472174187 -0.042266880554961972 0 -0.042266880554961972 -4.1295721266287728 0 0 0 0 7.2177520697697872 0.7495511766828713 0 0.7495511766828713 0.87402755187940784 0 0 0 0 -0.064791350183545315 0.45227843636797616 0 0.45227843636797616 -1.5657516450807236 0 0 0 0 1.7193899328488556 -3.6956878280334422 0 -3.6956878280334422 4.0369897880009376 0 0 0 0 8.8199479177185935 -3.9352743554773042 0 -3.9352743554773042 -3.6155590013368055 0 0 0 0 -0.073801786029079497 0.46255306897237247 0 0.46255306897237247 -1.4442376286133651 0 0 0 0 0.0051597371528824447 0.85058129053504672 0 0.85058129053504672 0.87742431629465045 0 0 0 0 9.3172076357489004 4.3325031209787994 0 4.3325031209787994 -5.747323159215739 0 0 0 0 -3.6130970069581849 3.3484937741886824 0 3.3484937741886824 5.4358774012307549 0 0 0 0 -4.9152833910615072 7.0868864404401393 0 7.0868864404401393 -4.4976993479940575 0 0 0 0 -5.4079476681949927 6.7466148481034907 0 6.7466148481034907 1.4803647473818273 0 0 0 0 -15.55508976885983 12.845169774787792 0 12.845169774787792 -0.80465300155628938 0 0 0 0 -31.172942488096851 21.357942199072568 0 21.357942199072568 -0.037739941593827098 0 0 0 0 -16.451647031364985 10.853962952023721 0 10.853962952023721 1.4883774259360507 0 0 0 0 -12.788877848622917 15.727296282384486 0 15.727296282384486 -1.6925463651568862 0 0 0 0 -5.927397277824241 -12.880084753795018 0 -12.880084753795018 2.8748440261551877 0 0 0 0 -20.188345432681871 10.106506930023897 0 10.106506930023897 6.9038312654010952 0 0 0 0 -47.157725949713225 26.657082595653264 0 26.657082595653264 -12.092738315550378 0 0 0 0 -53.7669889363614 -2.5013026692467974 0 -2.5013026692467974 29.291913494605978 0 0 0 0 -49.769718887037754 22.820843085566594 0 22.820843085566594 7.866529790653658 0 0 0 0 4.0828260077363003 11.878009865072272 0 11.878009865072272 25.454266756307334 0 0 0 0 8.7326092759099581 -12.311305736853683 0 -12.311305736853683 22.88140677147203 0 0 0 0 0.030329848337158755 18.792109561913094 0 18.792109561913094 -74.783422068445361 0 0 0 0 -0.066115703769137876 0.24316996942482838 0 0.24316996942482838 -0.67043998181128472 0 0 0 0 -73.222321647377527 38.68062695354638 0 38.68062695354638 -34.034869344264735 0 0 0 0 33.629633589529888 10.443477921146041 0 10.443477921146041 -90.288837387546664 0 0 0 0 -36.945871507379451 48.780009496978892 0 48.780009496978892 -157.96766190975723 0 0 0 0 28.946712991752708 34.824463369717705 0 34.824463369717705 -160.43498172983527 0 0 0 0 -10.415933860696995 5.7798132494499441 0 5.7798132494499441 -179.35766169659837 0 0 0 0 -26.650853332262301 38.029429450456519 0 38.029429450456519 -177.19840174690671 0 0 0 0 -24.319065720306753 19.235521050937678 0 19.235521050937678 -74.146069945330964 0 0 0 0 -57.844105363865111 57.144513059240126 0 57.144513059240126 -99.779291536950041 0 0 0 0 -42.092583808561109 38.10843071806994 0 38.10843071806994 -76.303088028289494 0 0 0 0 -49.313564852045346 23.635748327847978 0 23.635748327847978 -14.991324180955417 0 0 0 0 -43.26492583458122 18.78038595142425 0 18.78038595142425 -17.612903948892836 0 0 0 0 -19.945944272097648 27.144995178321551 0 27.144995178321551 -15.480181636376074 0 0 0 0 -22.436638249965029 -10.60099364277994 0 -10.60099364277994 -65.421905515177059 0 0 0 0 -37.967714082327767 36.161937744616807 0 36.161937744616807 -18.514101669483352 0 0 0 0 36.31436221092369 21.224250322549779 0 21.224250322549779 -18.48827367121703 0 0 0 0 9.1481697864787179 47.553744281889522 0 47.553744281889522 2.0327442186535336 0 0 0 0 -19.378912065966375 35.903701779265248 0 35.903701779265248 0.093104579631472006 0 0 0 0 -22.399372785429108 2.0644904773216695 0 2.0644904773216695 30.495680699357763 0 0 0 0 17.275835597359531 -72.840727373833943 0 -72.840727373833943 -74.493915340215608 0 0 0 0 -13.313263132460435 147.68891584800076 0 147.68891584800076 -296.71353673336853 0 0 0 0 -0.024652551892747496 -0.39677255500217257 0 -0.39677255500217257 -2.2342751878577189 0 0 0 0 21.508672516271048 -71.832339320448227 0 -71.832339320448227 -188.00054568412452 0 0 0 0 -13.412309709096817 -8.0955157462813077 0 -8.0955157462813077 -157.59514417880564 0 0 0 0 -20.830209094532051 -2.9011584025138291 0 -2.9011584025138291 -73.561753154732287 0 0 0 0 5.1283961357103749 -3.169066293965443 0 -3.169066293965443 -159.30644006192597 0 0 0 0 12.940024622619454 44.226232874854759 0 44.226232874854759 -186.4430580483604 0 0 0 0 0.9449170174762429 86.474513956894953 0 86.474513956894953 -290.36028655034897 0 0 0 0 39.026131702744436 -23.048362055411417 0 -23.048362055411417 -282.02040886231407 0 0 0 0 -155.21241734639196 85.051993445100379 0 85.051993445100379 -141.74818612144736 0 0 0 0 -52.180442571787736 15.927512738453515 0 15.927512738453515 -254.97947817363456 0 0 0 0 -0.015615184268837831 -0.035455525726518999 0 -0.035455525726518999 -0.24285790963828902 0 0 0 0 -36.75659858787121 56.073617662019387 0 56.073617662019387 -83.743519256877335 0 0 0 0 -31.955027404695585 91.201888625397046 0 91.201888625397046 -150.75371884318884 0 0 0 0 -31.957391827694899 14.343760342468185 0 14.343760342468185 -112.27542001778784 0 0 0 0 -19.899869415458483 39.446677202708088 0 39.446677202708088 -80.721476579310547 0 0 0 0 -14.662718821456195 44.344429616263369 0 44.344429616263369 -134.72223931839108 0 0 0 0 -8.9814294374711263 56.068727983507415 0 56.068727983507415 -132.16833975426562 0 0 0 0 0.026714736122927622 38.417979216900477 0 38.417979216900477 -160.37844616798975 0 0 0 0 5.1702243342958027 36.664129413562478 0 36.664129413562478 -180.81420455117768 0 0 0 0 0.19983542098927387 8.9441565784654813 0 8.9441565784654813 -189.03809014249418 0 0 0 0 81.100901944823477 -72.387016621123621 0 -72.387016621123621 -356.96866746805972 0 0 0 0 248.46044575148608 280.16009064322861 0 280.16009064322861 56.769386216034036 0 0 0 0 -488.41113860108817 -786.98554791828064 0 -786.98554791828064 -1162.9768526923435 0 0 0 0 46.321402064353151 -62.934799612356983 0 -62.934799612356983 -84.726064857139136 0 0 0 0 -4.9842464879879804 -32.150911765002292 0 -32.150911765002292 -63.793353167675981 0 0 0 0 436.63417314752996 65.467421551136795 0 65.467421551136795 -730.82652510322987 0 0 0 0 32.164889706606573 -22.689579364301608 0 -22.689579364301608 -85.447339970450244 0 0 0 0 -3.1320478111698669 -24.4618863680885 0 -24.4618863680885 -62.343516026236536 0 0 0 0 -35.898867979149486 -16.626122965977629 0 -16.626122965977629 313.61164735040984 0 0 0 0 -2.0307699115029529 -6.2970649927850211 0 -6.2970649927850211 -2.0748059014127875 0 0 0 0 -26.544992739179349 -1.735638086034669 0 -1.735638086034669 -28.21186614972612 0 0 0 0 -42.651491607635421 5.2055513379527838 0 5.2055513379527838 -3.2189988713489583 0 0 0 0 -3.2504944447888171 10.049529885693968 0 10.049529885693968 -28.459118853442703 0 0 0 0 18.651877209794065 32.441244298704987 0 32.441244298704987 -16.783098026702646 0 0 0 0 115.43355663822371 43.336303229332771 0 43.336303229332771 -45.3372920946058 0 0 0 0 -43.211489096467858 38.104407698596333 0 38.104407698596333 2.4810833432202344 0 0 0 0 -43.189878619119213 1.8968493858519651 0 1.8968493858519651 -6.0762282427749597 0 0 0 0 -25.734108551047569 12.931988706417997 0 12.931988706417997 -151.33653452106955 0 0 0 0 -84.798041778311017 39.572862665951106 0 39.572862665951106 -37.093759458186469 0 0 0 0 -24.216512229017894 -3.1725191879195336 0 -3.1725191879195336 -23.511104031147624 0 0 0 0 -2.1643669273014168 6.3796259891932507 0 6.3796259891932507 -17.4448617670337 0 0 0 0 41.657306842056101 44.132664499258681 0 44.132664499258681 -55.540379841608228 0 0 0 0 -50.398984682393007 -22.394104457242065 0 -22.394104457242065 -188.77298056552536 0 0 0 0 -48.905515477878623 -88.072963664260897 0 -88.072963664260897 -42.271903824032051 0 0 0 0 -157.09324806553798 -131.08267680989957 0 -131.08267680989957 -150.08946730996831 0 0 0 0 -50.379912075566722 -26.042317513685703 0 -26.042317513685703 -46.967014392848796 0 0 0 0 24.328083551400141 -118.49759610954061 0 -118.49759610954061 -134.51040090872993 0 0 0 0 -153.2188779792541 -157.65392392710783 0 -157.65392392710783 15.49668283291976 0 0 0 0 102.57294296773921 -372.38609352671119 0 -372.38609352671119 134.17388254513207 0 0 0 0 0.38974728802077324 1.4363255235104173 0 1.4363255235104173 -1.3407542434047457 0 0 0 0 -115.03868360355773 -226.03380829869639 0 -226.03380829869639 -172.00262678868239 0 0 0 0 144.25160910377474 -155.67548924359107 0 -155.67548924359107 -281.79501992612495 0 0 0 0 -261.11569218086561 -290.47364155799914 0 -290.47364155799914 -168.20262594644737 0 0 0 0 -202.19571047921863 -113.01262298474012 0 -113.01262298474012 24.284608429770742 0 0 0 0 -26.250851918734725 -414.77052246962194 0 -414.77052246962194 -619.72699568711869 0 0 0 0 -63.773730906293622 -117.26846261003811 0 -117.26846261003811 -16.374730133960838 0 0 0 0 -121.79549433666102 -22.213749298884068 0 -22.213749298884068 -42.257950357103255 0 0 0 0 -116.1092473185272 -4.213248518826731 0 -4.213248518826731 -7.2928937909891829 0 0 0 0 -98.0718497102539 -59.998342672828585 0 -59.998342672828585 -27.080143808934736 0 0 0 0 -92.576591336242018 -66.079398582209251 0 -66.079398582209251 -66.22738291452697 0 0 0 0 146.93045989481107 -99.892783071609301 0 -99.892783071609301 -183.83826648559625 0 0 0 0 -33.748848978576007 -72.024929104394687 0 -72.024929104394687 -65.745121463827672 0 0 0 0 -81.849301864189329 -10.087741220471798 0 -10.087741220471798 -39.617328692736919 0 0 0 0 -66.394428154666002 -4.6333024799350824 0 -4.6333024799350824 -113.08796747913584 0 0 0 0 -75.025977979197705 31.619669035731931 0 31.619669035731931 -107.98238842493447 0 0 0 0 -73.470295985741529 7.2373514841001452 0 7.2373514841001452 -136.05247007371509 0 0 0 0 8.2874532851178628 -10.395522363163764 0 -10.395522363163764 -124.75439633164206 0 0 0 0 -40.574908949077326 58.591678424694692 0 58.591678424694692 -60.433504429252935 0 0 0 0 -57.884359057260099 61.245481619942439 0 61.245481619942439 66.208257751968631 0 0 0 0 102.60559121237566 52.02014103716283 0 52.02014103716283 -88.776003706501797 0 0 0 0 -5.7365259135439119 -7.7372014955624167 0 -7.7372014955624167 -19.919537925212069 0 0 0 0 -8.4435325104632284 -69.703742275460627 0 -69.703742275460627 -16.928966032218568 0 0 0 0 71.885107851924204 225.08251162961824 0 225.08251162961824 -20.351522622833727 0 0 0 0 109.65478360076176 -38.830145270462594 0 -38.830145270462594 -105.00473221079301 0 0 0 0 -5.2108621941652018 -45.152198137763662 0 -45.152198137763662 -27.700348010277594 0 0 0 0 -2.9256646445227883 -3.824846170762271 0 -3.824846170762271 -3.944951115704157 0 0 0 0 26.886256721289101 -102.16279495935805 0 -102.16279495935805 -49.0274964346454 0 0 0 0 221.37221892260732 529.87445237213979 0 529.87445237213979 443.02717148931697 0 0 0 0 -5.9607922985520956 -32.769986447041077 0 -32.769986447041077 -65.496810997495643 0 0 0 0 -390.97066859853476 -236.87751031228254 0 -236.87751031228254 -349.20105036309906 0 0 0 0 -9.6724832499694458 -34.703312931132587 0 -34.703312931132587 -16.908285493095264 0 0 0 0 -20.530262465834539 -68.806618056570642 0 -68.806618056570642 -63.286729569565068 0 0 0 0 -60.40071272069963 -34.960660289874795 0 -34.960660289874795 -15.393575805055207 0 0 0 0 -29.028914005700244 -16.514215619577499 0 -16.514215619577499 -41.949984361727729 0 0 0 0 -160.75746452862359 -171.88521104355596 0 -171.88521104355596 -202.89149973812346 0 0 0 0 -93.717690512709851 -21.622230158703132 0 -21.622230158703132 -40.473886974019479 0 0 0 0 -84.174601939357956 -101.79754427675266 0 -101.79754427675266 -75.101083335517615 0 0 0 0 13.563010699318966 -47.123247823889869 0 -47.123247823889869 -219.30963643490941 0 0 0 0 -41.338627805096621 -0.047625591223550146 0 -0.047625591223550146 -167.80855794783474 0 0 0 0 -44.181401080733849 92.21433011397221 0 92.21433011397221 -393.93143555724782 0 0 0 0 32.340310852435778 -31.954278352390247 0 -31.954278352390247 -77.660704148002424 0 0 0 0 14.140485761607408 -57.316607188654814 0 -57.316607188654814 -105.47094674309665 0 0 0 0 37.290267592002238 -7.1860640661889192 0 -7.1860640661889192 -153.10813099559073 0 0 0 0 8.9846379136970427 13.737788224076212 0 13.737788224076212 -121.54030494171639 0 0 0 0 18.415266150517709 45.299762905358875 0 45.299762905358875 -139.910960648127 0 0 0 0 -61.994028581166731 -17.348788948784204 0 -17.348788948784204 31.110784783641066 0 0 0 0 -3.0782976696222075 -0.16363340994938369 0 -0.16363340994938369 0.86184975094042526 0 0 0 0 11.064940155657155 23.072485590001634 0 23.072485590001634 -58.1167967879137 0 0 0 0 -235.50178197781725 166.4745882575981 0 166.4745882575981 -182.14661179017821 0 0 0 0 9.2680380584206148 8.2617756318485078 0 8.2617756318485078 -196.39906930885081 0 0 0 0 -181.1333755803953 101.48579577511373 0 101.48579577511373 -86.152008426283828 0 0 0 0 -17.593708512192961 169.91816732428856 0 169.91816732428856 -320.49478107938194 0 0 0 0 -189.71028750530422 168.44590979124678 0 168.44590979124678 -196.73074145514329 0 0 0 0 -387.16754599165597 254.40465447446877 0 254.40465447446877 -291.87486741951034 0 0 0 0 -1.5480782476792783 -0.85628910297679539 0 -0.85628910297679539 -0.50933404675614335 0 0 0 0 -79.913004062807886 174.9805884001471 0 174.9805884001471 -540.10995262544384 0 0 0 0 -380.33822523048366 93.586421751833768 0 93.586421751833768 -459.22281303873388 0 0 0 0 376.95656310166487 277.48053440314015 0 277.48053440314015 -503.72420246653201 0 0 0 0 -29.83959861583017 126.99127169152632 0 126.99127169152632 -514.36685048124855 0 0 0 0 -271.17107571139695 -491.84819124504793 0 -491.84819124504793 152.24953673728669 0 0 0 0 360.05681115468428 180.58741037772643 0 180.58741037772643 -699.93642473701038 0 0 0 0 -56.888001133000216 29.412940155764772 0 29.412940155764772 -231.34783182094361 0 0 0 0 -8.7408251757963171 61.989331322361068 0 61.989331322361068 -331.26095894222544 0 0 0 0 3.8460400631001903 100.65987596832565 0 100.65987596832565 -478.02898109549278 0 0 0 0 -323.72146283264919 262.63042283937284 0 262.63042283937284 -272.26115341753939 0 0 0 0 -24.203516324130106 261.24556883138399 0 261.24556883138399 -371.65780819682186 0 0 0 0 -210.73738926711792 9.9304906718411985 0 9.9304906718411985 -334.61125613118566 0 0 0 0 -11.404314417680837 92.80324881493425 0 92.80324881493425 -298.83754217120077 0 0 0 0 9.2587434944763345 55.09024924017649 0 55.09024924017649 -346.68820888481787 0 0 0 0 4.093963576821082 24.618613161331723 0 24.618613161331723 -214.90811068487528 0 0 0 0 -34.308222252922747 31.467256603767964 0 31.467256603767964 -140.08452490050695 0 0 0 0 3.288590801895225 -1.2345476602522467 0 -1.2345476602522467 -230.15299222688373 0 0 0 0 3.5990144232176533 6.3741941443013275 0 6.3741941443013275 -95.269465686320473 0 0 0 0 -2.6365784224337632 0.70375057367644445 0 0.70375057367644445 -9.2424022359326958 0 0 0 0 2.0173928896821849 3.5235335996126196 0 3.5235335996126196 -78.12450513672411 0 0 0 0 -6.2180899558551346 -5.3782609939480608 0 -5.3782609939480608 -87.721957086332623 0 0 0 0 13.899630749202217 -13.961912491932821 0 -13.961912491932821 -84.072854744288634 0 0 0 0 15.328012839943142 -6.2150568149818355 0 -6.2150568149818355 -101.06865450315672 0 0 0 0 77.341944950643608 -14.664632939899093 0 -14.664632939899093 -42.986226101922512 0 0 0 0 -2.9080165932578526 10.500468857119024 0 10.500468857119024 -40.473067767177866 0 0 0 0 -4.5431462672696625 16.894269560350949 0 16.894269560350949 -44.304886254138182 0 0 0 0 -4.4574283137767363 0.29571233815356379 0 0.29571233815356379 -26.803647580152671 0 0 0 0 -0.12276917033250356 0.98599053583711793 0 0.98599053583711793 -49.268555422848294 0 0 0 0 2.0149572675633558 -1.4319286606722219 0 -1.4319286606722219 -56.235444754881073 0 0 0 0 -1.5852878146404237 3.8782859545899555 0 3.8782859545899555 -53.589399914329988 0 0 0 0 -1.4541701554911532 5.4750438061087152 0 5.4750438061087152 -35.389262191561784 0 0 0 0 7.1724222288016284 1.4091363935901597 0 1.4091363935901597 -75.013394557536515 0 0 0 0 1.9802027464609921 13.410862949655225 0 13.410862949655225 -26.381535439535376 0 0 0 0 6.246862336969385 1.6087260269358481 0 1.6087260269358481 -33.439357545317407 0 0 0 0 2.6874657967168787 4.5402770325854362 0 4.5402770325854362 -32.542365665940451 0 0 0 0 41.396943138497591 18.0891151932301 0 18.0891151932301 -52.271473451404745 0 0 0 0 0.64496680011692442 0.85082503275546628 0 0.85082503275546628 -4.8541274432519623 0 0 0 0 164.86873261184422 -105.74531599611873 0 -105.74531599611873 -22.291513807707815 0 0 0 0 2.9442404500141053 4.5287195088927774 0 4.5287195088927774 -3.6903561544655759 0 0 0 0 30.707781795199423 28.159344095125562 0 28.159344095125562 -102.09702548061523 0 0 0 0 -6.4318368765260345 21.293486509377544 0 21.293486509377544 -38.280234418052714 0 0 0 0 -16.684407630274208 98.223272213032942 0 98.223272213032942 113.21187461045338 0 0 0 0 185.89561261297877 263.02471828561102 0 263.02471828561102 96.710742652510817 0 0 0 0 17.006891249841487 17.203527388755901 0 17.203527388755901 -41.759963660833591 0 0 0 0 7.9161942211813994 43.118591529455443 0 43.118591529455443 -202.79761464767944 0 0 0 0 40.161559570270896 53.600742389542575 0 53.600742389542575 -39.482231355446856 0 0 0 0 5.8010160993583213 50.038374070118152 0 50.038374070118152 6.6187123072741088 0 0 0 0 0.37837824710937373 11.473930091893742 0 11.473930091893742 -56.578007523241325 0 0 0 0 0.092251080233233806 13.462717631853353 0 13.462717631853353 -60.921037562628129 0 0 0 0 -2.2895622567272214 15.255941038104499 0 15.255941038104499 -99.392459002951512 0 0 0 0 -0.41712079186446838 12.219359789232087 0 12.219359789232087 -9.9388155666405851 0 0 0 0 105.46161614504365 -43.915883290074817 0 -43.915883290074817 -249.7491680784442 0 0 0 0 40.025278109211996 110.1409345020511 0 110.1409345020511 -23.437675964700247 0 0 0 0 39.832447547590306 114.34845346466318 0 114.34845346466318 -54.302126346818113 0 0 0 0 321.67274489618103 117.65603003940851 0 117.65603003940851 -321.43767321359337 0 0 0 0 188.12053247648589 48.546750617813814 0 48.546750617813814 -322.4795287551533 0 0 0 0 406.06633752507867 -48.081987656276851 0 -48.081987656276851 -384.5710195656502 0 0 0 0 448.29647565583468 244.91784268131596 0 244.91784268131596 -194.22572440273507 0 0 0 0 453.60672782313907 154.58896516971436 0 154.58896516971436 -57.111581354925875 0 0 0 0 425.49990985214237 -22.128826687287074 0 -22.128826687287074 -14.27966990150162 0 0 0 0 19.241019615096803 86.102911501071361 0 86.102911501071361 -259.31622207227338 0 0 0 0 19.080737835964328 108.59251036323622 0 108.59251036323622 116.09945832006633 0 0 0 0 -346.48577910922722 284.0193693248948 0 284.0193693248948 -343.36145167545328 0 0 0 0 -1.4551458390953069 2.8419762157010666 0 2.8419762157010666 -4.0545200395415009 0 0 0 0 -663.94166146248563 109.97731587509406 0 109.97731587509406 -27.01396454150381 0 0 0 0 116.90904310047972 -82.287837433833374 0 -82.287837433833374 -277.52865421269235 0 0 0 0 -24.627856619418253 50.496307294422877 0 50.496307294422877 -2.9282305268134223 0 0 0 0 -393.1676145952174 -19.092132464393217 0 -19.092132464393217 10.751770587645296 0 0 0 0 -257.19739608380974 30.353223320777943 0 30.353223320777943 21.972262614814099 0 0 0 0 -85.164343030677628 116.32576382018669 0 116.32576382018669 25.997913483721732 0 0 0 0 -2.4049533993641576 6.5897113713456879 0 6.5897113713456879 -12.123221377653095 0 0 0 0 130.97043058307668 65.263043449984252 0 65.263043449984252 -32.2041371847954 0 0 0 0 -70.985987611709788 71.41385790230197 0 71.41385790230197 -11.50221196496932 0 0 0 0 -38.813052648494249 69.359772328585677 0 69.359772328585677 -17.643171054492996 0 0 0 0 -45.78014168201662 78.89389186786866 0 78.89389186786866 -25.035536752116968 0 0 0 0 100.97391630902109 126.69705416921715 0 126.69705416921715 -28.684861126581382 0 0 0 0 20.092077336851162 80.972083756834763 0 80.972083756834763 -26.370140574616926 0 0 0 0 132.80735588653482 37.32394429386477 0 37.32394429386477 -64.3280202303431 0 0 0 0 82.849588882506623 68.873903627641994 0 68.873903627641994 -82.653832555632107 0 0 0 0 51.874342773023152 183.82391580155308 0 183.82391580155308 11.363343763609009 0 0 0 0 359.89325061734223 103.39089651635732 0 103.39089651635732 -81.333905015548225 0 0 0 0 -51.093095005909618 79.457493079609776 0 79.457493079609776 -8.2638785663802992 0 0 0 0 10.03510105679743 18.306999155425729 0 18.306999155425729 -23.456535078359593 0 0 0 0 13.372764762819315 0.85889668237359729 0 0.85889668237359729 14.897508105335874 0 0 0 0 67.345512403299836 17.640617156968801 0 17.640617156968801 -15.093028985444107 0 0 0 0 -33.757610064379151 6.8530858029953379 0 6.8530858029953379 102.98542428062501 0 0 0 0 131.66763646403956 -2.0280156681546941 0 -2.0280156681546941 -59.041034088135348 0 0 0 0 -45.627177376677537 130.29470171923458 0 130.29470171923458 -177.46966196256835 0 0 0 0 -54.012282659349694 72.612790251165279 0 72.612790251165279 -29.730878532878705 0 0 0 0 -36.739865212029599 109.41064133414602 0 109.41064133414602 -180.32025457204145 0 0 0 0 -36.389574116170479 32.885973887212458 0 32.885973887212458 -46.809394185169367 0 0 0 0 -22.002741542243712 -5.0580051387150888 0 -5.0580051387150888 -32.672032784974135 0 0 0 0 -19.035843755710498 52.475273238707842 0 52.475273238707842 -194.25478411104268 0 0 0 0 -20.52856042296321 75.276012524573161 0 75.276012524573161 -185.1235888576557 0 0 0 0 -18.9775181368841 22.144796589622274 0 22.144796589622274 -77.716400384728331 0 0 0 0 -28.046197165970625 -29.750143289635162 0 -29.750143289635162 -69.14283466190318 0 0 0 0 12.477491275159537 6.3685900250529812 0 6.3685900250529812 17.770982179012208 0 0 0 0 9.9657600501387833 16.156561384656015 0 16.156561384656015 -10.121550040443253 0 0 0 0 32.916792650124989 58.615976984401641 0 58.615976984401641 32.98522739683176 0 0 0 0 11.090720631806562 18.358561295794061 0 18.358561295794061 -38.428718444833066 0 0 0 0 -25.055656174340584 16.167592504800268 0 16.167592504800268 -28.268208651192253 0 0 0 0 -16.188574622321994 32.957928441401236 0 32.957928441401236 3.5246316989359912 0 0 0 0 -41.014140001229862 30.951792867392214 0 30.951792867392214 -9.7911798953100515 0 0 0 0 -41.404669553600797 -6.1652403773950937 0 -6.1652403773950937 -19.135173552447668 0 0 0 0 -26.146066710613013 7.9895416781473614 0 7.9895416781473614 -6.1318901903723599 0 0 0 0 -15.746373594720353 -14.52137980392763 0 -14.52137980392763 -6.5356139183859341 0 0 0 0 -22.653017179140534 7.2575367011559138 0 7.2575367011559138 -5.9896603757588309 0 0 0 0 -8.5922701143017548 11.243437030887435 0 11.243437030887435 -30.203243851545267 0 0 0 0 -0.26393635970453033 -0.95787044249300379 0 -0.95787044249300379 -36.244058169446362 0 0 0 0 -1.1368415557672051 -1.1938806253911025 0 -1.1938806253911025 -13.8330552339321 0 0 0 0 10.829275371035692 -2.9290369031004957 0 -2.9290369031004957 -29.540526071256863 0 0 0 0 18.609207056199011 10.75025866656506 0 10.75025866656506 -33.677809023749433 0 0 0 0 23.749325600401789 14.251530326524517 0 14.251530326524517 -19.846167341620458 0 0 0 0 23.735979580333151 4.3542466955113923 0 4.3542466955113923 -28.940040326829603 0 0 0 0 20.126526545616798 7.9461664849950466 0 7.9461664849950466 -13.367684928453173 0 0 0 0 27.318241241468968 -3.3427188027417287 0 -3.3427188027417287 -8.9318429170671152 0 0 0 0 13.499089809669385 23.675510546177975 0 23.675510546177975 -11.867850865834043 0 0 0 0 2.5058246972349814 2.4247008712744247 0 2.4247008712744247 4.5303254517373297 0 0 0 0 13.508548392069315 -3.1860803942690836 0 -3.1860803942690836 -69.881342665401462 0 0 0 0 7.2448280813787278 45.662001966382377 0 45.662001966382377 39.683789326572878 0 0 0 0 16.126064390073779 17.857811105276184 0 17.857811105276184 4.3553900042489175 0 0 0 0 25.574512127324738 18.239116977792946 0 18.239116977792946 -22.419972830728511 0 0 0 0 12.184116536641341 33.043293221548083 0 33.043293221548083 -11.318855313340464 0 0 0 0 1.3428605435037753 1.6299958566305577 0 1.6299958566305577 -63.864293537473714 0 0 0 0 10.855192003304182 -0.48687294610863319 0 -0.48687294610863319 -68.966256838408299 0 0 0 0 14.277079568029876 -5.3109002610726748 0 -5.3109002610726748 -64.878059840470087 0 0 0 0 7.8072087634661784 -1.7825976442759384 0 -1.7825976442759384 -68.043732632213505 0 0 0 0 11.432379668837257 -6.7719617916773132 0 -6.7719617916773132 -66.372594227839727 0 0 0 0 14.800996388628846 -1.231987251812825 0 -1.231987251812825 -62.109250567707932 0 0 0 0 12.29691559101957 -3.3589273132456583 0 -3.3589273132456583 -52.001933162362548 0 0 0 0 15.430679384502582 3.8170714419538854 0 3.8170714419538854 -50.717392662845668 0 0 0 0 17.860441386528692 -4.0295492163859308 0 -4.0295492163859308 -60.444645029812818 0 0 0 0 13.250527277825313 0.43052852383698337 0 0.43052852383698337 -60.743136163313466 0 0 0 0 18.356411945203035 -2.2640029830199637 0 -2.2640029830199637 -40.936548220241093 0 0 0 0 11.456622902234812 -4.0607202877290547 0 -4.0607202877290547 -46.705632708486519 0 0 0 0 -0.71764257085851568 7.0800758940313244 0 7.0800758940313244 -38.143726824389887 0 0 0 0 5.463966171408174 3.4303082774204086 0 3.4303082774204086 -54.784146117643104 0 0 0 0 10.721133043594818 -4.000196462522581 0 -4.000196462522581 -60.492248677095631 0 0 0 0 4.0306573114794446 -3.1350395299514275 0 -3.1350395299514275 -62.223180796412635 0 0 0 0 -6.4754174582176347 -6.4660725174326217 0 -6.4660725174326217 -60.343384787731338 0 0 0 0 -9.7249730610892584 9.893858919145714 0 9.893858919145714 -45.732654120409279 0 0 0 0 -7.8481299356858472 6.5120770151725083 0 6.5120770151725083 -64.621076282084687 0 0 0 0 0.62587302881851414 -0.13461404866150417 0 -0.13461404866150417 -0.2318730099515669 0 0 0 0 30.890392197678921 61.776834166557819 0 61.776834166557819 -33.949069891667023 0 0 0 0 -0.059909790702477039 -3.2095393704967137 0 -3.2095393704967137 -90.983004333480494 0 0 0 0 -33.837810456085208 48.362703618040541 0 48.362703618040541 126.3111094590713 0 0 0 0 11.12820735629299 -44.539683871443799 0 -44.539683871443799 43.936093368014554 0 0 0 0 -2.8468499524060462 83.935208463240997 0 83.935208463240997 50.625290889460302 0 0 0 0 1.5646075162921989 -18.85228807677413 0 -18.85228807677413 85.154217407271062 0 0 0 0 -12.860381705604595 14.471659855968028 0 14.471659855968028 -68.877411461508018 0 0 0 0 -23.264532119712385 15.729028217618179 0 15.729028217618179 -28.331470126568092 0 0 0 0 2.5261169869863807 33.216640936756448 0 33.216640936756448 -71.933825032028835 0 0 0 0 -24.390210133798064 -10.072493479161494 0 -10.072493479161494 -89.203877410895075 0 0 0 0 37.81661708440879 0.48774015732487896 0 0.48774015732487896 -182.37551762796647 0 0 0 0 0.66945627216836101 8.9520106122722609 0 8.9520106122722609 -92.901848248206079 0 0 0 0 38.68812096550937 59.487800078815781 0 59.487800078815781 -31.637305217538596 0 0 0 0 76.951473364130834 29.213778504377842 0 29.213778504377842 -92.39065545774065 0 0 0 0 62.612214692822818 71.989322294422891 0 71.989322294422891 -122.0035879378629 0 0 0 0 26.394754012934754 56.159712620683422 0 56.159712620683422 -12.645254040311556 0 0 0 0 -19.626953329045136 70.881591073048185 0 70.881591073048185 181.0564069275606 0 0 0 0 129.78130046543447 47.371276692123502 0 47.371276692123502 -11.898724150320049 0 0 0 0 0.010510656368314386 -0.35654746151274708 0 -0.35654746151274708 0.1381419509591133 0 0 0 0 -0.79404709928278372 13.64579912083977 0 13.64579912083977 -25.63153814540297 0 0 0 0 22.879698765579178 48.351387823975529 0 48.351387823975529 54.692551698237367 0 0 0 0 11.105189813459704 18.972650351985607 0 18.972650351985607 3.373911318122147 0 0 0 0 8.6610766873027387 15.169089401304518 0 15.169089401304518 7.6797971166888601 0 0 0 0 56.385338010122723 61.027579621248151 0 61.027579621248151 -69.11719472828554 0 0 0 0 0.27706183299437959 9.0674614901495261 0 9.0674614901495261 -6.0711617337390749 0 0 0 0 5.0411320472471743 11.593305428163148 0 11.593305428163148 -18.38885538413524 0 0 0 0 10.064348116441579 20.060839020352432 0 20.060839020352432 -0.59378609814302763 0 0 0 0 -20.193855126726248 38.863371428680693 0 38.863371428680693 -0.26155148399266182 0 0 0 0 -0.40184934618366697 15.944058468499861 0 15.944058468499861 25.923265647834342 0 0 0 0 -10.255765224464085 68.212317519622047 0 68.212317519622047 -72.356777019915171 0 0 0 0 0.40057246214178122 39.17036490674036 0 39.17036490674036 -8.7937180530134356 0 0 0 0 13.476446915832639 16.064180908473645 0 16.064180908473645 -11.980332348432057 0 0 0 0 1.3318479460945127 23.970450383443676 0 23.970450383443676 3.3869776684841781 0 0 0 0 13.984866799597567 17.86444981801759 0 17.86444981801759 9.2498573472458503 0 0 0 0 18.390896534531407 26.233560234089964 0 26.233560234089964 -19.997193669900298 0 0 0 0 16.088975883645162 36.640357137917817 0 36.640357137917817 -18.904511625936721 0 0 0 0 1.3552544380168001 37.237266878641094 0 37.237266878641094 -16.095771007790972 0 0 0 0 13.700706201504772 42.793304926002747 0 42.793304926002747 -40.896519618036109 0 0 0 0 7.054943221301528 33.122132238637278 0 33.122132238637278 -26.619180452580622 0 0 0 0 -3.3932176706566679 44.517198476361955 0 44.517198476361955 -27.283425879169954 0 0 0 0 5.0289465171829875 60.955841260139096 0 60.955841260139096 -63.731890433184162 0 0 0 0 8.717338138562809 46.75213667404023 0 46.75213667404023 -71.680339114391245 0 0 0 0 11.840046100927339 41.587916878539545 0 41.587916878539545 -41.383417104276305 0 0 0 0 11.831001851889141 53.240742781170411 0 53.240742781170411 -56.499224474253424 0 0 0 0 24.010985832796905 45.760118387624971 0 45.760118387624971 -69.370532450964674 0 0 0 0 19.817065786584635 48.111151242497726 0 48.111151242497726 -70.472276265500113 0 0 0 0 20.632681115562946 40.767145148839973 0 40.767145148839973 -43.476497159688734 0 0 0 0 19.514297092850029 48.38238128003286 0 48.38238128003286 -56.342666845532221 0 0 0 0 23.288815830830117 39.752581248627394 0 39.752581248627394 -45.92088271315879 0 0 0 0 13.139474912893547 36.650099010388658 0 36.650099010388658 -25.828259782545501 0 0 0 0 16.000925624234242 42.292595151739079 0 42.292595151739079 -41.785845173351845 0 0 0 0 17.795740457494503 34.067179247213062 0 34.067179247213062 -27.223891369569174 0 0 0 0 14.742330595227486 29.883624165900983 0 29.883624165900983 -17.141936879517743 0 0 0 0 17.390931580568122 31.875737740847399 0 31.875737740847399 -30.31586485945445 0 0 0 0 17.994363979975788 35.258656076246552 0 35.258656076246552 -28.488368334350525 0 0 0 0 20.783350511384015 25.906042814982357 0 25.906042814982357 -22.716804323984888 0 0 0 0 0.33230846336800823 63.508101903673378 0 63.508101903673378 -35.801423956945655 0 0 0 0 9.347568286128535 50.847789579231176 0 50.847789579231176 -27.491900492360344 0 0 0 0 0.81520376221169499 65.756758317926142 0 65.756758317926142 -27.292430241052614 0 0 0 0 28.083794832119679 62.643611262756167 0 62.643611262756167 -55.049681468342897 0 0 0 0 66.850271487117482 22.545442062837537 0 22.545442062837537 -13.501147074355686 0 0 0 0 21.893128828168358 60.545789239127771 0 60.545789239127771 -0.21995316289394395 0 0 0 0 69.402134014166904 48.095208077025745 0 48.095208077025745 -34.911179769042064 0 0 0 0 25.675022795302766 62.493990801986001 0 62.493990801986001 -30.75081846852845 0 0 0 0 72.476230980940556 51.254695217685367 0 51.254695217685367 -43.90875970810157 0 0 0 0 -45.672473300025558 54.762031897207635 0 54.762031897207635 -20.119790049451694 0 0 0 0 -8.0935001767538779 70.19672212356636 0 70.19672212356636 -21.752659645266249 0 0 0 0 99.88073694688137 68.496130427360185 0 68.496130427360185 -55.009877270778816 0 0 0 0 -37.393449281114954 30.116017025422479 0 30.116017025422479 -15.831223165936535 0 0 0 0 -3.2990058502058508 8.6061744790507593 0 8.6061744790507593 -19.682094680476865 0 0 0 0 -117.99857710653623 28.26879123029903 0 28.26879123029903 -3.630234862153884 0 0 0 0 -7.2530132551241877 33.239253411213213 0 33.239253411213213 -35.974493600078858 0 0 0 0 -18.138505364579032 24.288756117181038 0 24.288756117181038 -23.730185616852395 0 0 0 0 -28.006736646063018 39.184426011697724 0 39.184426011697724 -31.151744148970465 0 0 0 0 -47.815399434640312 40.140554696718027 0 40.140554696718027 -17.291084815587965 0 0 0 0 -40.608679011046661 57.064112273401406 0 57.064112273401406 -22.775015739753144 0 0 0 0 -19.276124715686109 38.437085424762472 0 38.437085424762472 -51.473033967609808 0 0 0 0 -19.132870287624428 40.439764012022351 0 40.439764012022351 -32.330862566797805 0 0 0 0 -14.946675596248951 39.75026480874476 0 39.75026480874476 -41.469829720059352 0 0 0 0 9.7395761541352961 3.7708571884301421 0 3.7708571884301421 -3.0913812888914904 0 0 0 0 3.2490572462659202 11.107436970904018 0 11.107436970904018 -15.461742724684882 0 0 0 0 38.830786257024556 6.9368386326823384 0 6.9368386326823384 -21.885282577510225 0 0 0 0 44.013564017718636 26.742955256064306 0 26.742955256064306 -48.529612602382258 0 0 0 0 39.37614937779631 59.993460089634027 0 59.993460089634027 -111.56290088253991 0 0 0 0 -24.62296866717179 101.70924746190212 0 101.70924746190212 182.24977546730224 0 0 0 0 4.3054882940145678 -0.66552036092781464 0 -0.66552036092781464 -0.084182912984481106 0 0 0 0 18.755641219822337 45.465037493991986 0 45.465037493991986 -103.65003352714484 0 0 0 0 27.622537808857061 67.257779445688357 0 67.257779445688357 -54.335967043240089 0 0 0 0 41.401323257812578 88.720618550534709 0 88.720618550534709 -48.522093982533988 0 0 0 0 47.200029087411508 76.048976651687553 0 76.048976651687553 -106.79977320531907 0 0 0 0 -7.236233918713765 377.76603306397465 0 377.76603306397465 -171.55767444521189 0 0 0 0 -292.73641878585926 -16.519239420304075 0 -16.519239420304075 317.21426186744793 0 0 0 0 -55.010548394291391 -145.38076616902254 0 -145.38076616902254 -256.31654905399773 0 0 0 0 -1.2191849925079454 2.4815969436356227 0 2.4815969436356227 -5.6022926165998115 0 0 0 0 37.026121673823127 56.655125835561194 0 56.655125835561194 -113.62247783810744 0 0 0 0 93.122723574861084 -75.166589847642172 0 -75.166589847642172 -428.24732071047038 0 0 0 0 -219.49991576878676 -305.47713368959512 0 -305.47713368959512 101.12987810110644 0 0 0 0 54.840338502353603 227.92247358184432 0 227.92247358184432 -324.68956785618502 0 0 0 0 -24.005410442101265 28.958646620427317 0 28.958646620427317 -526.19198776011763 0 0 0 0 -34.20436707652874 146.95810006737634 0 146.95810006737634 -580.06358940603968 0 0 0 0 -45.185864335580845 42.89935675857123 0 42.89935675857123 -518.15759968922066 0 0 0 0 0.070832153451131585 -4.0630583954474133 0 -4.0630583954474133 -2.3539438625464157 0 0 0 0 30.341041763156227 52.891367337855627 0 52.891367337855627 -682.31076370698429 0 0 0 0 -19.63363939705755 -20.378931440791348 0 -20.378931440791348 -487.17539235247386 0 0 0 0 48.372758958096256 -25.683100139878661 0 -25.683100139878661 -629.1750782423951 0 0 0 0 39.761191712634627 13.300216527524753 0 13.300216527524753 -565.13794105240959 0 0 0 0 153.9022675135534 42.592703201931727 0 42.592703201931727 -378.91599631013014 0 0 0 0 151.91505798393916 20.672478398323619 0 20.672478398323619 -51.20920915852912 0 0 0 0 3.9895885768611894 -4.4416876609679861 0 -4.4416876609679861 -2.6652341738080949 0 0 0 0 78.393032205236977 -15.369860656039236 0 -15.369860656039236 -30.846896645991364 0 0 0 0 6.1942315516776034 18.585449593821977 0 18.585449593821977 -26.934252762715914 0 0 0 0 8.7027610410821268 -2.3095093992664602 0 -2.3095093992664602 -3.0636625845274637 0 0 0 0 -12.537600124568598 -3.031275228040613 0 -3.031275228040613 -19.951575758303079 0 0 0 0 -14.65063093594722 7.9077925740202772 0 7.9077925740202772 -173.47832975764686 0 0 0 0 17.660284964093989 35.045892033598648 0 35.045892033598648 -297.25142155976573 0 0 0 0 5.6208913654647858 73.307927547652071 0 73.307927547652071 -252.36145759024657 0 0 0 0 28.702902645014547 -12.329411368398723 0 -12.329411368398723 -239.66013924057188 0 0 0 0 -117.79540557848918 28.441313801115029 0 28.441313801115029 -278.03011275293102 0 0 0 0 -12.262897583304493 12.753612025597249 0 12.753612025597249 -284.73676080433142 0 0 0 0 23.731750286762463 19.969121921138139 0 19.969121921138139 -390.83840493557364 0 0 0 0 -28.52684451164339 -38.139992627793617 0 -38.139992627793617 -80.034459180016711 0 0 0 0 -20.655062933481304 -138.73755093546424 0 -138.73755093546424 -236.87805571516583 0 0 0 0 -16.335650304713909 -39.601165575475534 0 -39.601165575475534 -166.0535142751105 0 0 0 0 -10.498348757689882 -59.054543847014429 0 -59.054543847014429 -277.85490437358749 0 0 0 0 -33.031667704992287 -29.838648536260735 0 -29.838648536260735 -83.822470082166546 0 0 0 0 -1.2531928980047269 -35.558372413623147 0 -35.558372413623147 -131.64586203655199 0 0 0 0 0.67532883182525438 -12.587819255246359 0 -12.587819255246359 -55.182089747941063 0 0 0 0 -5.3319442830199932 0.11398949284193804 0 0.11398949284193804 -79.078802506546594 0 0 0 0 47.393190098929608 -10.039059495764377 0 -10.039059495764377 -34.702578620795975 0 0 0 0 14.332424550095993 8.8220282839865831 0 8.8220282839865831 -21.739352770411642 0 0 0 0 -13.730631727161381 12.064728312336229 0 12.064728312336229 -14.719478523460566 0 0 0 0 57.68279709179933 -33.89304240720594 0 -33.89304240720594 -19.106565149606467 0 0 0 0 25.739176732955229 -16.087909796180611 0 -16.087909796180611 -4.0410374963030335 0 0 0 0 3.2504317560617948 0.14304267047614161 0 0.14304267047614161 -13.363673203308082 0 0 0 0 -67.381459344198902 -20.911262231165892 0 -20.911262231165892 -244.27455489963904 0 0 0 0 -9.0723346013487554 2.0353843585375415 0 2.0353843585375415 0.1424056365466555 0 0 0 0 -15.493135763717177 107.53076016214209 0 107.53076016214209 -460.69971459334192 0 0 0 0 -15.388945507923864 110.87162017435912 0 110.87162017435912 -597.67059281439288 0 0 0 0 -1.6619602337003938 -0.16117232153142425 0 -0.16117232153142425 -2.8064626466706386 0 0 0 0 37.320556069390932 92.008816618050332 0 92.008816618050332 -684.25538489264 0 0 0 0 -7.5929786027057844 -75.255250033230368 0 -75.255250033230368 51.862681413258542 0 0 0 0 20.974439416054565 18.525620057836932 0 18.525620057836932 -90.68785769520764 0 0 0 0 14.695861886830471 7.9390740221388114 0 7.9390740221388114 -108.45392809678651 0 0 0 0 23.270525729460587 30.902418579345976 0 30.902418579345976 -81.427756584052986 0 0 0 0 27.736583051746152 44.630632038444674 0 44.630632038444674 -90.000140864271089 0 0 0 0 20.994347836028624 50.599215690104757 0 50.599215690104757 -98.972980308957631 0 0 0 0 24.824532827874918 32.493388065853651 0 32.493388065853651 -112.89288702719205 0 0 0 0 17.748621385854449 35.150139060322545 0 35.150139060322545 -95.771070161284115 0 0 0 0 19.318910176026975 30.91672919760822 0 30.91672919760822 -137.68071807889646 0 0 0 0 6.0383074566768755 62.283739361406333 0 62.283739361406333 -104.87418835990684 0 0 0 0 0.41624850231278288 46.800566419977258 0 46.800566419977258 -80.501821018919145 0 0 0 0 22.383374376579013 7.8234983026559348 0 7.8234983026559348 -149.13160681049339 0 0 0 0 16.799807309168273 25.05241346211551 0 25.05241346211551 -127.30271420670033 0 0 0 0 -30.355489198836267 -20.349222797965922 0 -20.349222797965922 -172.89078158801203 0 0 0 0 4.8239853262616634 -16.314026706000732 0 -16.314026706000732 -174.12186063910849 0 0 0 0 14.053558577987644 11.087999606179437 0 11.087999606179437 -186.99636427316 0 0 0 0 5.6487851030037746 24.495013649408065 0 24.495013649408065 -208.31932882432739 0 0 0 0 -68.866582916689595 78.806762257168884 0 78.806762257168884 -115.41557644376007 0 0 0 0 -11.385898540855123 74.843720678542013 0 74.843720678542013 -126.6957634881619 0 0 0 0 -0.48361158890644029 1.2324182127418908 0 1.2324182127418908 -2.2913794319522083 0 0 0 0 -21.231328403182488 42.011682233911415 0 42.011682233911415 -168.74630051745044 0 0 0 0 -11.301923240489344 74.224505334521837 0 74.224505334521837 -225.54648858452856 0 0 0 0 -22.275457387025824 28.231592188752074 0 28.231592188752074 -349.09818820898363 0 0 0 0 -109.10449584982098 156.44316550023359 0 156.44316550023359 -186.41242058448552 0 0 0 0 1.8450161098713216 -1.4038676118432019 0 -1.4038676118432019 -1.4086745807084071 0 0 0 0 37.570660136156675 -24.547877891134704 0 -24.547877891134704 -326.93904144277985 0 0 0 0 16.069820624764191 31.409767365256812 0 31.409767365256812 -232.07827237017045 0 0 0 0 -44.248264874526967 79.346634112793254 0 79.346634112793254 -267.46780075744027 0 0 0 0 -97.321997308368054 8.7230155180659494 0 8.7230155180659494 -203.70146900432155 0 0 0 0 -27.422076720194127 11.597450838424265 0 11.597450838424265 -211.15125585188798 0 0 0 0 -17.758601610586538 11.713841942571889 0 11.713841942571889 -242.73314578102145 0 0 0 0 -16.268040063222152 -18.366674897906023 0 -18.366674897906023 -174.57943942965358 0 0 0 0 -20.153618839420005 -15.314298236127797 0 -15.314298236127797 -138.55851197589072 0 0 0 0 -23.272650442019199 -25.363309676013159 0 -25.363309676013159 -96.063188940945111 0 0 0 0 -19.143290084112955 -47.191838999081028 0 -47.191838999081028 -135.9901564705433 0 0 0 0 -0.66409279023423551 -32.29461297722446 0 -32.29461297722446 -128.59913703349412 0 0 0 0 -12.752549898539428 -37.923906415468082 0 -37.923906415468082 -105.25212939077755 0 0 0 0 -23.682528660460093 -14.903059920474334 0 -14.903059920474334 -162.82277026704105 0 0 0 0 -2.9920565223599169 -34.1746130110987 0 -34.1746130110987 -159.26016968366457 0 0 0 0 -3.9400078292802618 -34.496917352427772 0 -34.496917352427772 -137.30991662023007 0 0 0 0 5.1544398326150258 -19.158216816258573 0 -19.158216816258573 -129.56788291803969 0 0 0 0 9.981674018213198 -25.638723306630709 0 -25.638723306630709 -136.78578133266274 0 0 0 0 2.2899654117231876 -25.297165423067781 0 -25.297165423067781 -126.87362867445336 0 0 0 0 3.1046775217251934 -12.509064822867003 0 -12.509064822867003 -149.36224207030318 0 0 0 0 -0.34260674687334358 -39.345955200336903 0 -39.345955200336903 -124.02786791930703 0 0 0 0 2.5684144075094082 -33.026947794294756 0 -33.026947794294756 -112.42830311942089 0 0 0 0 8.0463417177920746 -27.860383435465337 0 -27.860383435465337 -118.00400003803952 0 0 0 0 1.2498822795005253 -30.561457294708816 0 -30.561457294708816 -114.17542629682794 0 0 0 0 11.208298837246957 -14.297393333301443 0 -14.297393333301443 -103.60405204363633 0 0 0 0 13.348461024436119 -14.104287992176978 0 -14.104287992176978 -106.20469565874373 0 0 0 0 -8.4530664686626551 -16.280589970232541 0 -16.280589970232541 -102.35678708410705 0 0 0 0 -36.899718823096464 14.222981588434777 0 14.222981588434777 -106.25425379785156 0 0 0 0 -32.263386694220799 -6.251491063296271 0 -6.251491063296271 -94.298152070608921 0 0 0 0 -12.727263746656263 -7.7261353885078279 0 -7.7261353885078279 -119.38266325593577 0 0 0 0 4.4214523105705439 -18.434926366009677 0 -18.434926366009677 -114.27871314081131 0 0 0 0 -1.2835376538369019 -24.614869785455085 0 -24.614869785455085 -119.51999877364142 0 0 0 0 6.6577467880078984 -30.687204753470724 0 -30.687204753470724 -115.01854603766333 0 0 0 0 -6.9624727920147507 -34.149938752794696 0 -34.149938752794696 -102.02006343898756 0 0 0 0 -1.8843726479768605 -30.333821234671404 0 -30.333821234671404 -111.9207985482426 0 0 0 0 -6.8948088328631911 -25.210299842583481 0 -25.210299842583481 -86.784495740881539 0 0 0 0 -12.004132523757789 -18.765573946970107 0 -18.765573946970107 -94.108533868859013 0 0 0 0 -0.12730055442921184 -25.209630906023449 0 -25.209630906023449 -54.115068017417798 0 0 0 0 -2.5918687233713626 -13.091174517423497 0 -13.091174517423497 -74.759526545914923 0 0 0 0 -2.7809763641038217 -28.980955656567858 0 -28.980955656567858 -102.72252673321782 0 0 0 0 -8.0450950379884034 -37.248083130853047 0 -37.248083130853047 -85.405215963013688 0 0 0 0 -7.6664892264049058 -19.451451039398847 0 -19.451451039398847 -64.066180608249852 0 0 0 0 5.1285694583723398 -32.826848203396366 0 -32.826848203396366 -94.125848087734994 0 0 0 0 7.793556843022543 -9.8278003844698105 0 -9.8278003844698105 -67.634421116352314 0 0 0 0 13.725088641366369 -30.578118983126842 0 -30.578118983126842 -18.454939583854866 0 0 0 0 7.8806434066111706 27.390689420379204 0 27.390689420379204 -5.6726776220193642 0 0 0 0 5.2118564779704002 10.29338996847946 0 10.29338996847946 -30.360074871223333 0 0 0 0 -11.090287826535246 16.440445330032162 0 16.440445330032162 2.8916049416729948 0 0 0 0 -4.1914335387621122 14.251322327891103 0 14.251322327891103 -31.243426390763489 0 0 0 0 -14.934487805123808 4.7200462061045982 0 4.7200462061045982 -70.989871871393916 0 0 0 0 -8.1297944869762375 -1.7372443273829958 0 -1.7372443273829958 -64.867553714007954 0 0 0 0 -9.3513295863933763 31.97110221026378 0 31.97110221026378 -50.465535604842444 0 0 0 0 -3.8849259850478575 35.860176397556643 0 35.860176397556643 -27.439654733328098 0 0 0 0 -32.051958984757107 20.765429348863108 0 20.765429348863108 -24.767291561882303 0 0 0 0 -48.879380084663694 52.357243027103323 0 52.357243027103323 -84.057857017804054 0 0 0 0 -24.640388736736213 -7.4140145055607718 0 -7.4140145055607718 -9.7858380008146924 0 0 0 0 15.237500591425487 3.5545844239459257 0 3.5545844239459257 -6.7688771447210456 0 0 0 0 -0.093859780011888549 -0.1483511338867487 0 -0.1483511338867487 -0.53775603356800161 0 0 0 0 -16.24943701101688 -2.8593921434849108 0 -2.8593921434849108 -110.51013886927831 0 0 0 0 7.339259677735555 21.699173064134357 0 21.699173064134357 -43.824752696833457 0 0 0 0 11.746245130134184 6.7265578439801175 0 6.7265578439801175 -30.027434839350462 0 0 0 0 -1.5615421622678696 16.845887874420441 0 16.845887874420441 -47.606974901779722 0 0 0 0 7.506336689805778 -0.061922299349134846 0 -0.061922299349134846 -20.680871358919831 0 0 0 0 15.685808529673523 15.472055227466626 0 15.472055227466626 -47.564626454108748 0 0 0 0 24.322438560441469 8.7896277647214447 0 8.7896277647214447 -32.684418474280392 0 0 0 0 3.5933631488665014 22.458898437827884 0 22.458898437827884 -42.857384350640132 0 0 0 0 -4.487637572928179 4.5534563935907499 0 4.5534563935907499 -69.808789080023416 0 0 0 0 -3.7491181926452555 -1.0334564558434067 0 -1.0334564558434067 -61.88587961905796 0 0 0 0 43.686198768649774 19.740183810779854 0 19.740183810779854 -54.650211888274498 0 0 0 0 -1.4728136581700255 15.898263271268661 0 15.898263271268661 -46.666669312900922 0 0 0 0 1.7793073268461512 25.072753100365844 0 25.072753100365844 -26.360189422310214 0 0 0 0 -18.50445204500943 -18.734965493880736 0 -18.734965493880736 30.930421029797799 0 0 0 0 0.66429562912321405 0.014660123092667732 0 0.014660123092667732 -0.027682958100157862 0 0 0 0 0.38237118512509438 0.063515664243567471 0 0.063515664243567471 -0.099312299188856201 0 0 0 0 47.603370204888222 8.9397567665509996 0 8.9397567665509996 -51.494916521649429 0 0 0 0 10.756091273078368 -35.322860472100729 0 -35.322860472100729 -39.743175701238215 0 0 0 0 19.777030477926246 -23.984725852013071 0 -23.984725852013071 -56.01756083854707 0 0 0 0 10.367077420329679 13.395716759223433 0 13.395716759223433 2.7392974762169615 0 0 0 0 0.21548618740381054 -0.12582993099894679 0 -0.12582993099894679 -0.008566176194566566 0 0 0 0 9.6680282077595621 -0.15409517136868089 0 -0.15409517136868089 -32.986151902110578 0 0 0 0 2.287156268044555 -22.069665358849306 0 -22.069665358849306 -13.607165912377241 0 0 0 0 2.1285356428893785 -0.045721512228183769 0 -0.045721512228183769 0.031951416911404351 0 0 0 0 -3.3977891057352281 11.263721102332056 0 11.263721102332056 -53.565789295709692 0 0 0 0 7.1339991096342601 18.895268889136787 0 18.895268889136787 -62.456027803771576 0 0 0 0 3.3685775996526992 0.68878226677195187 0 0.68878226677195187 -2.5257035432036155 0 0 0 0 10.018300112670204 11.035244954215159 0 11.035244954215159 -80.293068403894722 0 0 0 0 12.001213393689198 5.4589230238081541 0 5.4589230238081541 -59.626972840007511 0 0 0 0 12.209121322183819 16.315609683348157 0 16.315609683348157 -60.382361797222984 0 0 0 0 2.0604799248296786 4.4298408883696538 0 4.4298408883696538 -70.889308945945231 0 0 0 0 12.994108469381899 8.8991880032626796 0 8.8991880032626796 -31.601955383914174 0 0 0 0 9.2197053615207096 18.352298034304113 0 18.352298034304113 -13.217237025841314 0 0 0 0 36.566483486515722 0.12113417488944833 0 0.12113417488944833 -19.787257269723341 0 0 0 0 18.366955343771906 -9.3075192964970483 0 -9.3075192964970483 -3.8740571713933605 0 0 0 0 6.9919085403923873 -0.57277805006378912 0 -0.57277805006378912 -20.028301150276093 0 0 0 0 9.4114791700133082 2.8603518522431841 0 2.8603518522431841 -15.997293058331707 0 0 0 0 3.0180022626444161 -0.30361951819297062 0 -0.30361951819297062 -14.797220928689342 0 0 0 0 4.6193937031348469 0.69207550208375324 0 0.69207550208375324 -12.159782977134455 0 0 0 0 -7.5186024229702326 8.5538313566089528 0 8.5538313566089528 -16.089949580753455 0 0 0 0 -0.34716438461873622 7.8797911222936818 0 7.8797911222936818 -19.660922663213569 0 0 0 0 3.1668365493212605 1.544697922814521 0 1.544697922814521 -15.080664359600632 0 0 0 0 0.20318447585350441 5.2760597285523545 0 5.2760597285523545 -16.611601126329333 0 0 0 0 -6.2489964818782937 1.4883939830397139 0 1.4883939830397139 -16.095152837864589 0 0 0 0 -1.2111418436406893 -1.3681205996399513 0 -1.3681205996399513 -19.723524932422151 0 0 0 0 2.653315508647256 6.5551265808797581 0 6.5551265808797581 -12.509708633055133 0 0 0 0 5.0854022670523591 -0.24601064441594644 0 -0.24601064441594644 -16.904047484749753 0 0 0 0 5.4323253751586194 1.2222121168908586 0 1.2222121168908586 -19.125709601601898 0 0 0 0 0.79294937324417702 0.078000416039520459 0 0.078000416039520459 -12.127114183896111 0 0 0 0 4.5895337881792102 -7.6688551382439982 0 -7.6688551382439982 -39.203208677616203 0 0 0 0 4.4508216061286703 -8.3718948001405806 0 -8.3718948001405806 -40.800951926494349 0 0 0 0 -59.478480616414345 -135.86934684145217 0 -135.86934684145217 3.5941415475826943 0 0 0 0 73.936862143261123 77.551263805402414 0 77.551263805402414 -196.43860499706352 0 0 0 0 2.8839648641877424 -3.3862088594961435 0 -3.3862088594961435 -19.40634719069924 0 0 0 0 0.23326386518078834 -1.2477168837685895 0 -1.2477168837685895 -18.506258641762543 0 0 0 0 2.6005991428817588 5.4661014393103695 0 5.4661014393103695 -42.163965889557247 0 0 0 0 15.885313684636003 53.516952222158579 0 53.516952222158579 -81.874212637452729 0 0 0 0 11.549621115904984 11.019975322853497 0 11.019975322853497 -56.004112575712497 0 0 0 0 5.2516025428080866 -18.837861239915583 0 -18.837861239915583 -42.23731833032798 0 0 0 0 1.8665083080182145 5.8987096072358653 0 5.8987096072358653 -8.3442932995320689 0 0 0 0 14.567937895981458 -37.641127834340296 0 -37.641127834340296 -105.31344757556508 0 0 0 0 6.1246516315168265 6.1485438320887624 0 6.1485438320887624 -23.602170777525316 0 0 0 0 6.40625713513964 -4.9097678401085432 0 -4.9097678401085432 -40.124874621516938 0 0 0 0 12.612791149428631 5.9451309559881338 0 5.9451309559881338 -58.255176668804779 0 0 0 0 -1.4687918869867644 5.8888744951254921 0 5.8888744951254921 -42.916253518225858 0 0 0 0 -0.49430486927121819 1.8052100448985584 0 1.8052100448985584 -88.163033039920265 0 0 0 0 -12.907269273975771 -1.0822193126550701 0 -1.0822193126550701 -58.169976891062106 0 0 0 0 -0.34009771807404832 21.218282936555624 0 21.218282936555624 -68.276156960218941 0 0 0 0 1.1217972426934466 31.295651965148863 0 31.295651965148863 -92.719053162116325 0 0 0 0 1.2940584689736081 1.7423968896022366 0 1.7423968896022366 -1.7700249165260118 0 0 0 0 9.1414583711439263 10.734630898463365 0 10.734630898463365 -53.785134419636961 0 0 0 0 -4.924782287898779 -60.945196682585447 0 -60.945196682585447 179.22876658482346 0 0 0 0 -1.4950512303166024 -0.96134323010839928 0 -0.96134323010839928 -0.023408127920021116 0 0 0 0 298.98658254156487 -9.4757197195976914 0 -9.4757197195976914 -10.107875368597888 0 0 0 0 1.7908507628981392 -1.6328833272578969 0 -1.6328833272578969 -3.528678592479916 0 0 0 0 72.571775991158546 99.079657264372145 0 99.079657264372145 106.88784193912079 0 0 0 0 3.3447453673201673 2.6261479111464663 0 2.6261479111464663 -19.286615685902149 0 0 0 0 -74.931844335131473 -60.047500725288046 0 -60.047500725288046 226.34722646003866 0 0 0 0 5.0534032916478067 -10.469411009002865 0 -10.469411009002865 -17.662689630044405 0 0 0 0 8.8421678300828717 1.8856286352893221 0 1.8856286352893221 -27.740241635174243 0 0 0 0 34.491819792687238 -77.072504699193814 0 -77.072504699193814 185.54814781238201 0 0 0 0 41.20386287241854 -111.14583771419711 0 -111.14583771419711 239.99453214027744 0 0 0 0 2.5590433576831222 -14.269099670204184 0 -14.269099670204184 -27.808413186434819 0 0 0 0 8.1078463725042731 -6.4128813974021277 0 -6.4128813974021277 -10.234558666055186 0 0 0 0 11.606684607850411 -0.2325868149400776 0 -0.2325868149400776 -27.141264182597297 0 0 0 0 3.3920243377533552 -7.0191709273858578 0 -7.0191709273858578 -37.372369686461752 0 0 0 0 0.47716900712202914 -9.1957208849053131 0 -9.1957208849053131 -37.580223965812365 0 0 0 0 4.2408992550695075 -8.376970147681277 0 -8.376970147681277 -40.389017783512827 0 0 0 0 3.9161997844507308 3.1377998048761171 0 3.1377998048761171 -25.262225056574785 0 0 0 0 10.0922678655852 0.34435355420282576 0 0.34435355420282576 -0.31643035231354588 0 0 0 0 1.6470681763821995 -0.29479099545155663 0 -0.29479099545155663 -2.7421588261813383 0 0 0 0 460.87774070167916 -165.49837198576097 0 -165.49837198576097 -2.2428752108680783 0 0 0 0 -203.22569678762443 -558.23323270201581 0 -558.23323270201581 37.696733070921255 0 0 0 0 27.785472048786687 -8.4733843522008101 0 -8.4733843522008101 -86.778670125684584 0 0 0 0 345.29360837291597 -327.47666320013468 0 -327.47666320013468 -25.226137338766421 0 0 0 0 5.1433088351187823 -2.8148532252944065 0 -2.8148532252944065 -46.841846071254338 0 0 0 0 28.655737269233668 -2.9166463556575764 0 -2.9166463556575764 -57.560085235760198 0 0 0 0 28.850692690813958 -62.329002324691828 0 -62.329002324691828 186.41627098130266 0 0 0 0 29.133783657414824 -63.730250051299663 0 -63.730250051299663 190.14403174549807 0 0 0 0 -621.50102447741961 -14.885226086831608 0 -14.885226086831608 238.24171558771968 0 0 0 0 -34.787317012722269 -99.355656208302207 0 -99.355656208302207 249.64166481473148 0 0 0 0 -303.76827943627495 491.57284774610252 0 491.57284774610252 -499.53989548095342 0 0 0 0 92.906998042099389 -22.335633224629419 0 -22.335633224629419 158.90588694303005 0 0 0 0 -26.954091920789342 276.60509681649148 0 276.60509681649148 180.34644464832672 0 0 0 0 185.89766035754172 71.704303403164886 0 71.704303403164886 -727.84317949807519 0 0 0 0 -149.47020915455687 591.66651955244197 0 591.66651955244197 -766.44138241140354 0 0 0 0 424.71272212957592 -44.214049313100077 0 -44.214049313100077 -216.83904787114079 0 0 0 0 -135.87917753035617 332.48197255238301 0 332.48197255238301 -67.374081609199493 0 0 0 0 177.13117181008693 186.91602551483447 0 186.91602551483447 -47.771055972487375 0 0 0 0 -312.88087513635401 126.66714385439263 0 126.66714385439263 112.95667116819823 0 0 0 0 -406.63496743926498 6.2099819913310057 0 6.2099819913310057 243.91387788558495 0 0 0 0 -473.5294284652191 93.359358940771926 0 93.359358940771926 128.88525235593625 0 0 0 0 -0.42735831765821353 5.448384459840546 0 5.448384459840546 -9.7799370340284781 0 0 0 0 1.5962222165680657 -128.30540092076671 0 -128.30540092076671 -370.02492333453847 0 0 0 0 -821.78957500135277 169.04105111673744 0 169.04105111673744 218.9319614417218 0 0 0 0 -426.98588602285946 -12.235368333629594 0 -12.235368333629594 17.958436711094691 0 0 0 0 -195.82929019459152 334.83674598470679 0 334.83674598470679 -496.55719634145498 0 0 0 0 -430.22934825064021 -26.277553825093491 0 -26.277553825093491 965.1536898712734 0 0 0 0 -0.14250907778839916 1.3542787120011752 0 1.3542787120011752 -1.9935572276682887 0 0 0 0 22.828784109055277 -8.6989308994780004 0 -8.6989308994780004 -46.871439949871274 0 0 0 0 18.969603090527926 9.7406780095770955 0 9.7406780095770955 -42.193062982725678 0 0 0 0 -0.48558738247027122 -1.0883097436399112 0 -1.0883097436399112 -26.216110660872801 0 0 0 0 1.3975853019883648 0.20241051155588607 0 0.20241051155588607 -21.551780859882768 0 0 0 0 1.5061113242909889 -1.8910119876388833 0 -1.8910119876388833 -24.987742780106032 0 0 0 0 3.1577348174293736 8.6178563389457352 0 8.6178563389457352 -33.002891842919638 0 0 0 0 24.381559611393186 -0.5339409009902738 0 -0.5339409009902738 -21.219849165376218 0 0 0 0 -4.509202285923493 7.2897027396102203 0 7.2897027396102203 -31.174314518879328 0 0 0 0 -4.2431181850140032 13.462213646978103 0 13.462213646978103 -18.521227662129633 0 0 0 0 -5.5444389455897181 8.0985014524267172 0 8.0985014524267172 -22.952152858502814 0 0 0 0 40.819483704675804 -16.17875022138287 0 -16.17875022138287 -22.836315933942387 0 0 0 0 2.7508256181545354 -2.8475344553866435 0 -2.8475344553866435 -17.268378220370209 0 0 0 0 -8.8873227825501999 6.8230737462617981 0 6.8230737462617981 -23.410339080239282 0 0 0 0 -8.2233631979233905 10.181449689272995 0 10.181449689272995 -12.859746885405912 0 0 0 0 -6.0439264387959453 3.5451107791228083 0 3.5451107791228083 0.85642197898374661 0 0 0 0 -56.260182264891569 -54.723355088226526 0 -54.723355088226526 -90.879619519364496 0 0 0 0 21.047851916589707 95.925643311624299 0 95.925643311624299 -367.39229637099197 0 0 0 0 53.538402152963954 -60.66931511623261 0 -60.66931511623261 -501.37614293970546 0 0 0 0 -108.39817064367389 0.3449428595486097 0 0.3449428595486097 -15.575990886351065 0 0 0 0 -63.748031667391615 -121.31319224644903 0 -121.31319224644903 -317.8274709790785 0 0 0 0 -24.075078807103864 42.900961066381569 0 42.900961066381569 -131.95899665010802 0 0 0 0 -2.270880341520892 2.6588613892947421 0 2.6588613892947421 -0.87220858242847044 0 0 0 0 -55.193648412519224 23.052203691444447 0 23.052203691444447 35.667565524490783 0 0 0 0 -5.8990967530794478 10.47468545988886 0 10.47468545988886 -25.729596587549167 0 0 0 0 -4.8805651935768992 10.900516112689729 0 10.900516112689729 -12.385658224600775 0 0 0 0 -6.5879361908352223 11.598984731131544 0 11.598984731131544 -8.7193087641382476 0 0 0 0 -0.2444052977499096 7.0589889171855802 0 7.0589889171855802 -15.947106980499925 0 0 0 0 15.155656231368994 11.165384781670582 0 11.165384781670582 135.12420271537121 0 0 0 0 -1.2790534008221179 -0.37737281040853787 0 -0.37737281040853787 -7.6911117828829525 0 0 0 0 -186.9607460806651 -42.08861939835333 0 -42.08861939835333 207.61376029353414 0 0 0 0 -186.23768303473616 308.13285229976464 0 308.13285229976464 -299.25003814929369 0 0 0 0 251.80274802230463 177.82839465851612 0 177.82839465851612 -324.66389840593911 0 0 0 0 16.042729503204811 5.0725627493222873 0 5.0725627493222873 -31.709346148156328 0 0 0 0 -2.2191390272278837 10.876711620217478 0 10.876711620217478 -21.942428644017852 0 0 0 0 -323.55054739398656 9.0515207151838695 0 9.0515207151838695 232.43045981304749 0 0 0 0 -57.533034540769222 522.38501804227235 0 522.38501804227235 -32.796166812448064 0 0 0 0 -370.48200308374908 434.36236522150648 0 434.36236522150648 287.132635725 0 0 0 0 -986.36687541039691 -66.982726939004351 0 -66.982726939004351 351.51216593073923 0 0 0 0 -598.57867562891715 189.97036015192134 0 189.97036015192134 34.832147548739158 0 0 0 0 38.40785685047922 77.050464894673496 0 77.050464894673496 -72.263371016510064 0 0 0 0 -4.1207588993200508 12.212162425592009 0 12.212162425592009 -23.162676075294456 0 0 0 0 -1.6518154654775223 3.0420804113797217 0 3.0420804113797217 -8.3226637319510672 0 0 0 0 -119.06864567298851 -318.01470152121146 0 -318.01470152121146 -500.04275055440667 0 0 0 0 608.59675947110782 -5.0288897741393157 0 -5.0288897741393157 -879.06490378460512 0 0 0 0 0.38059592736387571 8.8672092973110619 0 8.8672092973110619 -28.856091987938072 0 0 0 0 -154.92094442091616 -608.1104121412136 0 -608.1104121412136 529.60821102622867 0 0 0 0 27.342274663510352 -19.019978704669484 0 -19.019978704669484 -238.4890898677113 0 0 0 0 3.527726403989413 0.92836295268816116 0 0.92836295268816116 -7.014096760348874 0 0 0 0 1.7312289318298895 3.5069711789519715 0 3.5069711789519715 -11.300296761575737 0 0 0 0 -63.39148687017132 31.506610395343159 0 31.506610395343159 -150.95768396647327 0 0 0 0 -28.807736211922929 -45.503236586577259 0 -45.503236586577259 -226.58452405023854 0 0 0 0 -94.652028358803364 11.607052820851095 0 11.607052820851095 -124.68066339881625 0 0 0 0 -89.894195599744535 -6.985656552380533 0 -6.985656552380533 -136.95639855050831 0 0 0 0 5.738102768252145 4.1132307128405294 0 4.1132307128405294 -12.238311437153413 0 0 0 0 -758.11142495500701 384.53310969555423 0 384.53310969555423 121.50270696961525 0 0 0 0 -556.81099996092473 623.63638966401231 0 623.63638966401231 -219.29242658660223 0 0 0 0 -277.21413380868478 162.55229538443018 0 162.55229538443018 -139.28311225429934 0 0 0 0 -583.48604662183334 -18.983659746314515 0 -18.983659746314515 603.88029111151263 0 0 0 0 -246.18326067525123 106.93876044722765 0 106.93876044722765 -107.7466383719875 0 0 0 0 -1.6172182108841753 97.280306553453556 0 97.280306553453556 -237.43615140356269 0 0 0 0 54.001505474574628 -4.7871366459075944 0 -4.7871366459075944 -209.99961698377592 0 0 0 0 9.6416333586844303 185.19268937968809 0 185.19268937968809 36.897642739480943 0 0 0 0 100.31685764152803 83.171197715557355 0 83.171197715557355 -254.5474828828992 0 0 0 0 -3.4165668665916655 112.0593905052483 0 112.0593905052483 -93.47706739345449 0 0 0 0 143.42848632714572 61.704768155515922 0 61.704768155515922 -953.53923421639047 0 0 0 0 -47.841810188372619 -79.222626665323332 0 -79.222626665323332 310.72150721216531 0 0 0 0 -0.71385823217802624 -1.4347227578809338 0 -1.4347227578809338 -1.0914926256641451 0 0 0 0 123.55885509677387 -130.26869510244433 0 -130.26869510244433 -205.22412296559196 0 0 0 0 -51.832643532537986 -266.10265490274469 0 -266.10265490274469 -546.02022598003168 0 0 0 0 -38.13806914654252 -9.5396983725308928 0 -9.5396983725308928 -420.95646244117233 0 0 0 0 45.074458455657805 -99.613947027304675 0 -99.613947027304675 -500.59443966756589 0 0 0 0 75.482533459751721 -76.149412656668574 0 -76.149412656668574 -895.19999653525156 0 0 0 0 -34.457790771062264 109.9118996562247 0 109.9118996562247 -242.28250080422731 0 0 0 0 -90.450110357396852 311.52590297802089 0 311.52590297802089 -881.78081137652043 0 0 0 0 111.67385819340416 -60.527296644555463 0 -60.527296644555463 -559.02639297744463 0 0 0 0 -23.973471243092717 5.9241759420092421 0 5.9241759420092421 -46.448495821285178 0 0 0 0 -4.5538739506337151 -1.1197422924669809 0 -1.1197422924669809 -44.378636906367319 0 0 0 0 3.8562311733484833 -2.4438499289591817 0 -2.4438499289591817 -11.266418583902713 0 0 0 0 -7.52516785658554 -3.8746058882670695 0 -3.8746058882670695 -42.705374376068676 0 0 0 0 8.0021040008404221 -4.0351826566785292 0 -4.0351826566785292 -23.996022949356679 0 0 0 0 2.8455790393877578 10.217046443152867 0 10.217046443152867 -38.823218209421611 0 0 0 0 2.5123549274568653 -10.257663344119846 0 -10.257663344119846 -33.440175015892549 0 0 0 0 1.0233196267372477 6.8386121650210043 0 6.8386121650210043 -71.849962068392415 0 0 0 0 -0.42184095473930938 -8.0327653070862652 0 -8.0327653070862652 -44.045310690193901 0 0 0 0 6.8477035235864836 -8.3831493922493205 0 -8.3831493922493205 -27.189398536772391 0 0 0 0 -9.329809129187197 -5.1908331628073938 0 -5.1908331628073938 -43.965526952100845 0 0 0 0 -20.803466508741622 -27.335963382336899 0 -27.335963382336899 -20.208310001900827 0 0 0 0 -5.847733500500361 -8.7493720981626915 0 -8.7493720981626915 -14.630998395439224 0 0 0 0 -0.19076335102300312 6.7208480569344005 0 6.7208480569344005 -45.259115035349879 0 0 0 0 6.2437023108702228 12.449352012043107 0 12.449352012043107 -3.4656039585812906 0 0 0 0 -3.0662985745998412 21.260345813778258 0 21.260345813778258 -32.102135075766455 0 0 0 0 -5.4020143956036417 -31.445829926133463 0 -31.445829926133463 -64.888937525181518 0 0 0 0 -114.82272105142147 16.804572209017351 0 16.804572209017351 -116.89749894410488 0 0 0 0 50.599448353507796 -19.525573334183719 0 -19.525573334183719 -67.807195060857339 0 0 0 0 9.9822695523473719 0.4445309587420212 0 0.4445309587420212 -7.9015521904803805 0 0 0 0 5.7775936843432874 13.106518926360877 0 13.106518926360877 -22.496027719299036 0 0 0 0 3.5044516535342094 7.7998593394624223 0 7.7998593394624223 -6.320158139939263 0 0 0 0 -29.185387114015612 66.685264300409472 0 66.685264300409472 -135.27075184260411 0 0 0 0 0.66269084091531205 7.0566941172527535 0 7.0566941172527535 -1.2701989974505636 0 0 0 0 -2.2511157023368469 62.634540318205836 0 62.634540318205836 -270.79200609060354 0 0 0 0 10.161846700423212 19.259350639790227 0 19.259350639790227 -38.107237070322299 0 0 0 0 19.529203919636203 17.423441914250361 0 17.423441914250361 -36.997368653523154 0 0 0 0 0.2382091598497027 13.237368406465976 0 13.237368406465976 -34.637369238125757 0 0 0 0 -1.6919502054879558 19.482632149270557 0 19.482632149270557 -52.210315670417913 0 0 0 0 -0.11322479350792491 7.1671718335710466 0 7.1671718335710466 -31.169501923017378 0 0 0 0 -3.5852904485022918 -2.6502583207111456 0 -2.6502583207111456 -57.123484628158621 0 0 0 0 8.9243220190937791 10.399132831233146 0 10.399132831233146 -45.16059926383241 0 0 0 0 9.012125701225159 11.845516237115589 0 11.845516237115589 -22.269986342716948 0 0 0 0 5.0978436655670976 3.4326931377408982 0 3.4326931377408982 -18.823860886974217 0 0 0 0 2.6357509906993073 -2.6485418181073328 0 -2.6485418181073328 -33.771751536612101 0 0 0 0 -8.2113780108225001 5.6601300203192295 0 5.6601300203192295 -24.367930357249861 0 0 0 0 -7.2474208756048029 -2.649673913459992 0 -2.649673913459992 -34.276189781096036 0 0 0 0 -29.466073472462085 5.9849526963153039 0 5.9849526963153039 -36.523522417227468 0 0 0 0 -8.7220430209936239 12.124812308244145 0 12.124812308244145 -57.046593266779382 0 0 0 0 0.11937151156861958 -1.4133431122054034 0 -1.4133431122054034 -9.8339076748263068 0 0 0 0 6.9105785241663398 7.8060661395575153 0 7.8060661395575153 -54.086639551318513 0 0 0 0 -7.587870002089403 3.8297851336392341 0 3.8297851336392341 -38.615152843038231 0 0 0 0 4.0054073353809372 -7.271171029074333 0 -7.271171029074333 -22.017653196640786 0 0 0 0 1.6439667127642679 -5.3102924122167678 0 -5.3102924122167678 -36.270045214172569 0 0 0 0 -0.65858205642325629 -4.9362935600911442 0 -4.9362935600911442 -26.043401259899838 0 0 0 0 -7.8964360679838137 8.9164488882706792 0 8.9164488882706792 -38.585412480926607 0 0 0 0 -4.3066982241022913 1.6672153938382586 0 1.6672153938382586 -30.046175419784291 0 0 0 0 0.4569996630063784 -2.638403631873171 0 -2.638403631873171 -18.203058362162778 0 0 0 0 -10.365969440346817 8.3114504312234203 0 8.3114504312234203 -31.426141250733053 0 0 0 0 -0.97382514202763559 0.71539259896962903 0 0.71539259896962903 -18.847100122948177 0 0 0 0 2.0665276315425114 -5.7827477984058859 0 -5.7827477984058859 -18.051271665362847 0 0 0 0 0.017763381364325426 0.52493190401397527 0 0.52493190401397527 -29.114011894496802 0 0 0 0 -0.48671593252476697 -3.0066153020008635 0 -3.0066153020008635 -16.761256646962607 0 0 0 0 -3.0350818605656968 2.1806417359402985 0 2.1806417359402985 -21.141268558087177 0 0 0 0 -1.3699319647530501 6.4953692082071939 0 6.4953692082071939 -31.246725994031294 0 0 0 0 -15.291368024476469 10.284350613714196 0 10.284350613714196 -31.654539393203322 0 0 0 0 -51.794808609209667 -21.823681173898876 0 -21.823681173898876 17.521615149860054 0 0 0 0 -13.347945090599637 -1.3357452156615182 0 -1.3357452156615182 -15.489571186190005 0 0 0 0 -4.1209327313253965 0.023559100892626361 0 0.023559100892626361 0.90996754332869889 0 0 0 0 -114.65253120738157 35.231124604285924 0 35.231124604285924 61.088473303556384 0 0 0 0 24.646095665164921 -6.191522616223665 0 -6.191522616223665 -61.830722875569336 0 0 0 0 -6.4576074083562212 1.3578912529428138 0 1.3578912529428138 -0.045485340029333798 0 0 0 0 16.737412996804778 12.609430054531913 0 12.609430054531913 -7.6153492415396613 0 0 0 0 -89.762073921422257 -27.579111930674117 0 -27.579111930674117 49.746179286103143 0 0 0 0 0.95835854512308805 1.4208082886649009 0 1.4208082886649009 -3.0331698853249258 0 0 0 0 -241.10741902758195 286.28484510116868 0 286.28484510116868 -248.94280490119854 0 0 0 0 42.086193236604004 20.236717076824789 0 20.236717076824789 -115.78584975894046 0 0 0 0 -39.60329103633353 158.22320738209419 0 158.22320738209419 -221.4675835657581 0 0 0 0 165.10194633826018 140.2596454329323 0 140.2596454329323 -448.98699576084209 0 0 0 0 -1.9586326554446785 1.3253709046309474 0 1.3253709046309474 1.2575113275015397 0 0 0 0 269.48023221356948 329.77567329865997 0 329.77567329865997 -499.66994068746271 0 0 0 0 -50.830096294460759 402.21271838625398 0 402.21271838625398 1.4941674252040684 0 0 0 0 -45.947495598282899 141.19936453607261 0 141.19936453607261 -282.9057703963058 0 0 0 0 -41.741781535459154 87.793285154277328 0 87.793285154277328 141.45979096084375 0 0 0 0 -337.99873523945348 104.1324393908958 0 104.1324393908958 -117.1954970095212 0 0 0 0 -49.023504593621396 400.61057861846189 0 400.61057861846189 -216.59972767470026 0 0 0 0 -34.211481910578641 8.5244715805447413 0 8.5244715805447413 -226.67162147437739 0 0 0 0 -354.79447557264166 157.46395987224605 0 157.46395987224605 -274.54666960437316 0 0 0 0 27.383618503915045 -122.18369439732851 0 -122.18369439732851 -361.50076679263384 0 0 0 0 -35.141509152584831 -80.539172121169031 0 -80.539172121169031 250.45815476783901 0 0 0 0 285.03055989876771 1.3871063132473864 0 1.3871063132473864 -156.90407274132303 0 0 0 0 301.13854902876585 21.780963452480137 0 21.780963452480137 -215.88897794854347 0 0 0 0 -105.49227879808404 30.671298201425088 0 30.671298201425088 -26.534533776318312 0 0 0 0 -75.230901017758697 -0.58944251650518709 0 -0.58944251650518709 -5.5942535595931986 0 0 0 0 -31.808690432044614 -1.7831501445416507 0 -1.7831501445416507 -73.216402179910801 0 0 0 0 -107.32168223650388 227.75707207183768 0 227.75707207183768 -389.92945608820537 0 0 0 0 -64.450718547257736 183.56089674238774 0 183.56089674238774 -362.21301453445267 0 0 0 0 -3.1557454488516417 -0.086709864800571523 0 -0.086709864800571523 0.43346529034991477 0 0 0 0 -59.771554675675361 142.94616315553685 0 142.94616315553685 -408.3189446446022 0 0 0 0 -3.3393022211495254 0.79556028902548803 0 0.79556028902548803 0.33398542632320627 0 0 0 0 101.89057361179221 205.60452542748681 0 205.60452542748681 -443.69493924476046 0 0 0 0 93.718169547162233 -65.99539223899319 0 -65.99539223899319 -33.355997188180481 0 0 0 0 -130.87039620668338 176.10022195266356 0 176.10022195266356 -255.98233265107956 0 0 0 0 -62.462488656970891 33.610691969146501 0 33.610691969146501 -39.222647671078448 0 0 0 0 -87.903683498181636 -44.246738737017949 0 -44.246738737017949 -152.00024698685866 0 0 0 0 -38.098423964195717 -29.894410411690842 0 -29.894410411690842 25.180767452216969 0 0 0 0 -32.900360319847096 19.329553623387255 0 19.329553623387255 75.383548477082513 0 0 0 0 -57.593081271099948 62.25145184343603 0 62.25145184343603 138.82305637770878 0 0 0 0 -334.75311455520841 -264.0771684419733 0 -264.0771684419733 39.419926843587746 0 0 0 0 -56.633001163676909 29.454138872832118 0 29.454138872832118 -142.72440079330045 0 0 0 0 -5.2231827915502436 -43.459050037924499 0 -43.459050037924499 -60.717400565252319 0 0 0 0 -0.52702450041231574 0.55102994535957706 0 0.55102994535957706 -1.6381834367246739 0 0 0 0 -62.012842066377928 -46.767639793995599 0 -46.767639793995599 9.1443367828233022 0 0 0 0 33.265471183829789 94.365334295228422 0 94.365334295228422 -117.95307673379648 0 0 0 0 6.8730356344985921 -27.020563116512676 0 -27.020563116512676 9.4070253682339171 0 0 0 0 -0.88426104146394602 2.3830224433859097 0 2.3830224433859097 -5.242480518774677 0 0 0 0 -143.42460765415683 -72.421378787832509 0 -72.421378787832509 -19.21911641279803 0 0 0 0 27.938009865556523 3.6928422846799549 0 3.6928422846799549 1.9187000268793781 0 0 0 0 2.6701539896278916 -78.161957433319913 0 -78.161957433319913 -133.54790730282309 0 0 0 0 27.491501374063205 13.230489214598947 0 13.230489214598947 -39.361408185577602 0 0 0 0 6.048903775376175 5.4036033186903296 0 5.4036033186903296 1.825559816915586 0 0 0 0 -12.112626012147842 28.392778679885851 0 28.392778679885851 -25.293394773343607 0 0 0 0 -37.718065275526897 -17.189724315789135 0 -17.189724315789135 28.531016559381897 0 0 0 0 -20.629877233093111 11.301752581569417 0 11.301752581569417 46.177141698217383 0 0 0 0 -21.103893260218683 27.575113875300303 0 27.575113875300303 14.900782846689253 0 0 0 0 -48.301666563900653 99.806406999431601 0 99.806406999431601 -73.040888198107496 0 0 0 0 -32.22093611702735 43.005645353328873 0 43.005645353328873 20.963404045724019 0 0 0 0 0.417188921784998 70.68594364358205 0 70.68594364358205 -104.78498354955991 0 0 0 0 22.907403290134994 28.434177642601753 0 28.434177642601753 -25.716458514317537 0 0 0 0 24.765165574872299 28.198783860440471 0 28.198783860440471 -56.566318407001745 0 0 0 0 122.55982996979947 374.65453758526837 0 374.65453758526837 -749.04522941501637 0 0 0 0 -2.6801808030548067 4.2222101462147688 0 4.2222101462147688 -5.3279261333252563 0 0 0 0 118.90755046761922 184.1863756807586 0 184.1863756807586 -263.7272584894381 0 0 0 0 76.421746211652589 115.63855916101966 0 115.63855916101966 76.773765343256855 0 0 0 0 132.90905624725747 127.24687323493526 0 127.24687323493526 -342.35431739102023 0 0 0 0 373.72874301252023 -44.235462434568944 0 -44.235462434568944 -251.8110125249932 0 0 0 0 53.881389160362687 5.724537116274405 0 5.724537116274405 34.38880586419873 0 0 0 0 -23.340796133011281 -1.9275421700622246 0 -1.9275421700622246 55.963021855823172 0 0 0 0 -41.27517312285886 61.414038996959789 0 61.414038996959789 14.507591228741148 0 0 0 0 -3.5400699270148834 -56.525846236390635 0 -56.525846236390635 -17.439530190602454 0 0 0 0 -1.4415728535924934 1.8237284576266983 0 1.8237284576266983 -1.9854582058747532 0 0 0 0 12.887541904547106 91.069417808917933 0 91.069417808917933 140.82798125111094 0 0 0 0 -0.47600474643367763 1.2868635174583947 0 1.2868635174583947 -2.0168231092890849 0 0 0 0 20.582622683600675 -174.49649073225191 0 -174.49649073225191 462.70757656781461 0 0 0 0 138.44299903857382 252.25207460987212 0 252.25207460987212 -86.103793759028122 0 0 0 0 5.2039458430472223 153.44640699015144 0 153.44640699015144 -79.859022414976607 0 0 0 0 17.673130026279807 78.383264900493486 0 78.383264900493486 -147.03455171422866 0 0 0 0 166.22106846958332 -95.204542567859789 0 -95.204542567859789 -42.440917384692966 0 0 0 0 42.755244740840681 0.2159452304434808 0 0.2159452304434808 -79.649708575190743 0 0 0 0 23.217185380548131 -83.391424647162353 0 -83.391424647162353 -182.63146181005322 0 0 0 0 -2.6163455258631529 -102.07550526169348 0 -102.07550526169348 -153.56090395260253 0 0 0 0 64.512789367836376 -123.95547328167822 0 -123.95547328167822 -183.7797645697965 0 0 0 0 62.715023002871021 -3.8661073815969758 0 -3.8661073815969758 -1.0632511920839534 0 0 0 0 -0.32043018760814812 1.8994281691308945 0 1.8994281691308945 -4.8957616541955709 0 0 0 0 120.26603011319798 176.3957226850589 0 176.3957226850589 -384.24581071435387 0 0 0 0 244.58173038310781 53.850512164336124 0 53.850512164336124 -114.34808621138563 0 0 0 0 107.52679845592752 -10.881620939562708 0 -10.881620939562708 -293.09739823692507 0 0 0 0 -7.1603143640934377 123.42688051245523 0 123.42688051245523 -153.04974963688619 0 0 0 0 54.326900012611532 -174.49304342773178 0 -174.49304342773178 -68.567557898491941 0 0 0 0 72.064518066079614 -37.276092696872865 0 -37.276092696872865 -91.48298345758667 0 0 0 0 49.4699107072949 -22.21309697264951 0 -22.21309697264951 -90.11032263866764 0 0 0 0 137.97276418222788 -52.467233845820374 0 -52.467233845820374 -125.93799668025167 0 0 0 0 -1.4779862582372378 -13.207357297127171 0 -13.207357297127171 -81.011940006453599 0 0 0 0 47.178591005953649 -53.685082411658186 0 -53.685082411658186 -83.895556855846735 0 0 0 0 77.21580076849574 15.589277387519815 0 15.589277387519815 -8.9101985111642534 0 0 0 0 64.042201361593925 81.124329711557039 0 81.124329711557039 95.798181533373736 0 0 0 0 16.279852559260007 -24.765367743540082 0 -24.765367743540082 145.82992809769439 0 0 0 0 -0.57057453488079668 1.168815775412094 0 1.168815775412094 -2.2518708348430216 0 0 0 0 -46.056845190975309 -189.56365906142219 0 -189.56365906142219 -212.29718525985118 0 0 0 0 108.37205009695367 102.9733826039369 0 102.9733826039369 18.836611996765896 0 0 0 0 103.69647238789025 81.471015856459871 0 81.471015856459871 -74.975490422351868 0 0 0 0 37.059087122730489 -119.32142839084736 0 -119.32142839084736 -334.80524732295271 0 0 0 0 49.121187179151661 42.212446066502707 0 42.212446066502707 -2.4732894438457151 0 0 0 0 168.56376496477355 -103.84670578367513 0 -103.84670578367513 -235.22081892547158 0 0 0 0 0.6709121839665324 -23.894810692607148 0 -23.894810692607148 -94.477271606917895 0 0 0 0 97.742393689982464 5.6451006891311408 0 5.6451006891311408 -102.674913981391 0 0 0 0 140.36284478741408 -32.937376574158407 0 -32.937376574158407 -199.76981611928204 0 0 0 0 -59.237360139356099 59.444931210966047 0 59.444931210966047 -241.13455887923374 0 0 0 0 17.746564541258067 -213.34983034131074 0 -213.34983034131074 -291.29462331289687 0 0 0 0 -21.365545108280685 26.331488199711202 0 26.331488199711202 -64.194628837790333 0 0 0 0 -9.4867798488890003 -58.84114690325714 0 -58.84114690325714 -128.25936283422516 0 0 0 0 23.73125548673579 -97.777447789324015 0 -97.777447789324015 -80.950778941255521 0 0 0 0 -21.905074062323024 -21.575883878140417 0 -21.575883878140417 -141.74113978489549 0 0 0 0 46.056209404983292 -102.0996905141119 0 -102.0996905141119 -210.36728095740409 0 0 0 0 48.992089381675669 -87.350865050482753 0 -87.350865050482753 -188.47594645835306 0 0 0 0 5.3581607600281131 -98.870374567683939 0 -98.870374567683939 -112.75877318429201 0 0 0 0 -47.467050786320669 -59.21670945039773 0 -59.21670945039773 -13.664977157710837 0 0 0 0 42.572930114153223 -39.650960832934288 0 -39.650960832934288 -111.09840055120058 0 0 0 0 34.030640282391687 -132.4154352710525 0 -132.4154352710525 -185.70904318956309 0 0 0 0 -37.386941410082272 -146.11891748419066 0 -146.11891748419066 -162.01526538029248 0 0 0 0 46.126308614228947 -105.58829494031488 0 -105.58829494031488 -203.49490701390823 0 0 0 0 -33.573911837894229 -140.71298581594283 0 -140.71298581594283 -118.34511868962954 0 0 0 0 19.599435912962008 -106.16168155383548 0 -106.16168155383548 -192.9318662270216 0 0 0 0 49.634762587600108 -112.62184914457225 0 -112.62184914457225 -189.64724896565349 0 0 0 0 -52.778043999790157 4.2701772883592639 0 4.2701772883592639 -91.984847672880278 0 0 0 0 -15.971476210639366 -39.796404093838646 0 -39.796404093838646 -80.452014731061354 0 0 0 0 37.939356553706034 -29.73609189418994 0 -29.73609189418994 -29.357365200703498 0 0 0 0 38.692372404333881 -26.553637265220459 0 -26.553637265220459 -89.228403589411755 0 0 0 0 -25.222453323406171 -46.894537418491382 0 -46.894537418491382 -80.557968869994511 0 0 0 0 -18.629608228723782 -28.694277630587749 0 -28.694277630587749 -34.930933763600478 0 0 0 0 -55.214452103643282 -39.617131229479128 0 -39.617131229479128 -105.30556527624867 0 0 0 0 -55.987430307008253 -12.523019064574328 0 -12.523019064574328 -67.916295091032225 0 0 0 0 -51.186559907122636 -20.820551544428326 0 -20.820551544428326 -129.04175581692834 0 0 0 0 -29.589291021326147 4.7506243844163691 0 4.7506243844163691 -197.4097906221723 0 0 0 0 -24.074490118133383 -3.946414176170947 0 -3.946414176170947 -200.12114053153891 0 0 0 0 -13.282205556671112 12.275352554086567 0 12.275352554086567 -299.18660114943486 0 0 0 0 99.210440691098938 60.545575946896861 0 60.545575946896861 -386.77491528755127 0 0 0 0 19.831017807685953 26.58059762601988 0 26.58059762601988 -378.61263196884829 0 0 0 0 -27.267875110973137 73.524408617075096 0 73.524408617075096 -148.80633939952531 0 0 0 0 130.26218328963353 62.912302643548173 0 62.912302643548173 -663.86489804575103 0 0 0 0 -0.46773234641862699 -1.414999455721702 0 -1.414999455721702 -8.8470087572521265 0 0 0 0 23.797113557112311 -29.366935340517557 0 -29.366935340517557 -34.130558995995671 0 0 0 0 -53.63428604911136 378.50498836562758 0 378.50498836562758 -552.00530432237429 0 0 0 0 -10.030099769232947 238.1198876761373 0 238.1198876761373 -230.68156208212531 0 0 0 0 -661.04663681912893 -221.09380587119267 0 -221.09380587119267 -35.950306224609449 0 0 0 0 213.34844121068295 57.253219778969651 0 57.253219778969651 -151.38840361994335 0 0 0 0 52.891924956640594 -79.475625990493427 0 -79.475625990493427 -74.897379235550034 0 0 0 0 12.455597158746741 -79.926036722732533 0 -79.926036722732533 -71.799677759663609 0 0 0 0 2.0463149132458511 -134.01789497266873 0 -134.01789497266873 -57.153901224584843 0 0 0 0 -0.10857397919493403 -2.7570077079280231 0 -2.7570077079280231 -24.835477842501348 0 0 0 0 -59.771259022025333 -109.08360203369193 0 -109.08360203369193 -34.007530456088716 0 0 0 0 227.95612541235096 -10.944293950986321 0 -10.944293950986321 -95.293601350560493 0 0 0 0 160.8462837854313 -68.721679356363893 0 -68.721679356363893 -94.572025476722047 0 0 0 0 102.82775782492286 0.37783781849520892 0 0.37783781849520892 17.06179316235648 0 0 0 0 0.49337917327295489 -5.4400614608692122 0 -5.4400614608692122 -37.278877481972685 0 0 0 0 56.497888489212073 97.067862329278796 0 97.067862329278796 -118.46480679576325 0 0 0 0 0.79316570596867253 2.2468837498208174 0 2.2468837498208174 -3.8292333389873647 0 0 0 0 91.164105534669488 -46.449779767914151 0 -46.449779767914151 -59.947923417741549 0 0 0 0 115.12813023272986 -47.170983424086444 0 -47.170983424086444 -45.398016295788693 0 0 0 0 72.687623539462948 -58.691488872536866 0 -58.691488872536866 -5.9081757099775132 0 0 0 0 50.420600182918406 -109.29434634406334 0 -109.29434634406334 -44.139276621521276 0 0 0 0 12.000786093142779 -53.55667980603539 0 -53.55667980603539 -120.65852062962767 0 0 0 0 -140.59555604763227 -132.89188704023763 0 -132.89188704023763 -13.041519459133269 0 0 0 0 -60.378165759698732 13.798938239346171 0 13.798938239346171 -74.288000785178156 0 0 0 0 37.028954210242887 2.6864811637642561 0 2.6864811637642561 -1.6441382651973981 0 0 0 0 62.722101296977371 -67.481018512167793 0 -67.481018512167793 -95.186118839148548 0 0 0 0 -0.15359121885606034 -8.80188321881052 0 -8.80188321881052 -62.463055652683508 0 0 0 0 0.41754833450295337 -41.634434503983357 0 -41.634434503983357 -9.4195908652154685 0 0 0 0 -68.383506668455311 -169.4022241536104 0 -169.4022241536104 -55.885431581904413 0 0 0 0 -70.512017526840282 66.431883862325776 0 66.431883862325776 71.319239319278495 0 0 0 0 -125.13936659852357 -49.484118728754765 0 -49.484118728754765 -3.8881797154754167 0 0 0 0 4.5817494639317076 -10.920447502492568 0 -10.920447502492568 -9.923682211350723 0 0 0 0 69.324654458772557 -19.81984287447267 0 -19.81984287447267 -36.196908997422724 0 0 0 0 -36.507450196974332 -36.695049976748123 0 -36.695049976748123 -16.631416373853426 0 0 0 0 13.414041689946941 -32.379236161001245 0 -32.379236161001245 -24.06874703631911 0 0 0 0 28.961390025324818 -57.84070278080253 0 -57.84070278080253 -24.729001527986838 0 0 0 0 71.891862886454561 -47.461549581357531 0 -47.461549581357531 -34.403768590360414 0 0 0 0 -31.427545443300005 -30.521248289962386 0 -30.521248289962386 -21.753621462623414 0 0 0 0 11.042075528836051 -59.236537499027691 0 -59.236537499027691 -43.965315615874715 0 0 0 0 20.261293341908072 -39.705156707590504 0 -39.705156707590504 -7.8060227252062759 0 0 0 0 -50.759770752857094 -39.770100205252675 0 -39.770100205252675 -25.994402539112343 0 0 0 0 -64.261153995404669 -24.344248332521602 0 -24.344248332521602 -36.381191413180204 0 0 0 0 -44.175781702723611 -50.612084436761506 0 -50.612084436761506 -52.157424839864689 0 0 0 0 -28.668864557551615 -55.142155991004984 0 -55.142155991004984 -19.314383549487502 0 0 0 0 -45.441573314064364 -34.261265419685515 0 -34.261265419685515 -20.37738278741017 0 0 0 0 -39.051541802118876 -48.826747260797674 0 -48.826747260797674 -18.622252942775958 0 0 0 0 2.2192949622947036 -0.7404324235876345 0 -0.7404324235876345 -0.95594299423717644 0 0 0 0 17.716669908309086 23.369077016326628 0 23.369077016326628 -0.15722969804346576 0 0 0 0 24.85619565076388 -15.044525056615385 0 -15.044525056615385 -29.998988528812333 0 0 0 0 2.6552716436259516 -40.074168632394503 0 -40.074168632394503 -25.288984514590993 0 0 0 0 3.057715002919676 -5.2466997981746673 0 -5.2466997981746673 -4.4435723014293984 0 0 0 0 0.092516798352064278 -7.6621577369077052 0 -7.6621577369077052 -30.308432801108125 0 0 0 0 7.1698311831886485 -18.378368699956809 0 -18.378368699956809 -9.7645440241976758 0 0 0 0 19.007810629908477 2.2312275107015012 0 2.2312275107015012 -28.182336710036907 0 0 0 0 44.27028380990123 -17.341122201389226 0 -17.341122201389226 -98.636962931363087 0 0 0 0 34.186487798118378 -7.5784457829304301 0 -7.5784457829304301 -39.261810215801233 0 0 0 0 41.44334117980668 -35.876447556249332 0 -35.876447556249332 -38.897951171033583 0 0 0 0 77.422107277807299 81.853851933352416 0 81.853851933352416 -52.38105428720155 0 0 0 0 134.51270442240275 17.139680024078189 0 17.139680024078189 -93.617095261310169 0 0 0 0 1.5508031349785616 -1.4167855060179058 0 -1.4167855060179058 -27.775784224655965 0 0 0 0 -0.34501801173043589 -7.5766718991112594 0 -7.5766718991112594 -24.367645806454334 0 0 0 0 1.5252642086175001 -44.357297210073739 0 -44.357297210073739 72.136691547606461 0 0 0 0 -2.0654176244714222 7.2510322617217753 0 7.2510322617217753 -9.2208469286561012 0 0 0 0 15.826511911668973 -61.6971079059781 0 -61.6971079059781 -25.428202946564852 0 0 0 0 -16.217870945426057 33.12981869014402 0 33.12981869014402 -22.281199226879835 0 0 0 0 0.072472014663614304 -2.2323874770304251 0 -2.2323874770304251 -15.106477817779592 0 0 0 0 -0.1087499422991598 -2.5942439351533961 0 -2.5942439351533961 -35.388146858053723 0 0 0 0 105.06993497072057 -26.936726064353479 0 -26.936726064353479 -88.005119581725012 0 0 0 0 3.6499142072896467 0.55226757555723438 0 0.55226757555723438 -25.579020805900015 0 0 0 0 -14.129360516527157 -54.131813714908276 0 -54.131813714908276 -64.121072499367074 0 0 0 0 72.690247258685346 27.646376096877248 0 27.646376096877248 -61.998000134670292 0 0 0 0 -24.262404149541965 14.958759057855787 0 14.958759057855787 1.0555308655029876 0 0 0 0 1.5842652399356081 -4.2799558976565963 0 -4.2799558976565963 -28.077872548846017 0 0 0 0 32.111920737768287 -1.2490447200780181 0 -1.2490447200780181 -12.107707329414552 0 0 0 0 69.442320145115673 19.665090498168865 0 19.665090498168865 -78.853782650066933 0 0 0 0 17.701926409550424 -15.260076116483106 0 -15.260076116483106 -39.713686109076662 0 0 0 0 4.8534531027139245 -5.6139655842775014 0 -5.6139655842775014 -19.78820995813399 0 0 0 0 4.3249123494299555 -3.4629073253681142 0 -3.4629073253681142 -26.500121653725515 0 0 0 0 43.364622038406537 -1.6633218126389693 0 -1.6633218126389693 -21.149430725345155 0 0 0 0 2.5485696021901276 -6.8225870109145035 0 -6.8225870109145035 -37.325714147336839 0 0 0 0 4.425828482818762 6.3280057636765665 0 6.3280057636765665 -17.679382240075228 0 0 0 0 10.10865322107041 -18.924751207761737 0 -18.924751207761737 -34.003994170557306 0 0 0 0 63.415612122648469 3.1678539700442343 0 3.1678539700442343 -0.38191702272342809 0 0 0 0 61.416399933869457 60.594647275443094 0 60.594647275443094 -18.793529552000109 0 0 0 0 76.643360319250917 -9.8635428401066747 0 -9.8635428401066747 -138.57462161705189 0 0 0 0 -3.99290230483291 -29.165405737392575 0 -29.165405737392575 -46.216526207826973 0 0 0 0 5.7429131218104885 -17.507363740995061 0 -17.507363740995061 -37.176754781765339 0 0 0 0 -7.3693598588456553 -32.250118617746921 0 -32.250118617746921 -26.620599988978938 0 0 0 0 2.2463978486870246 -20.517702948031001 0 -20.517702948031001 -41.953066242786008 0 0 0 0 4.2279900241424002 -8.16046337940179 0 -8.16046337940179 -27.201938034893828 0 0 0 0 21.480919372966355 -12.123195456726535 0 -12.123195456726535 -28.6948463732042 0 0 0 0 6.2012247607357267 -13.473652187412881 0 -13.473652187412881 -28.813969419177738 0 0 0 0 -0.36729858494999879 -6.885331704283395 0 -6.885331704283395 -22.036529650629262 0 0 0 0 10.232017474932036 -12.318704144847288 0 -12.318704144847288 -24.991359471830947 0 0 0 0 10.591408012017496 -6.2272354431770509 0 -6.2272354431770509 -18.908131476680865 0 0 0 0 5.9495423706693771 -3.2598486983661132 0 -3.2598486983661132 -34.726033596685738 0 0 0 0 8.6617511450233451 -7.2711751420638393 0 -7.2711751420638393 -38.495001994611812 0 0 0 0 -2.7916428719873885 -8.3632293093811469 0 -8.3632293093811469 -27.899746815008328 0 0 0 0 3.0013639216839039 -5.9034158684007707 0 -5.9034158684007707 -35.909662847785512 0 0 0 0 -4.3101912958554749 -8.3721832270093728 0 -8.3721832270093728 -37.225201165099861 0 0 0 0 6.9390132737058536 -5.9514609608013416 0 -5.9514609608013416 -40.822858565653974 0 0 0 0 5.3597678140009428 -3.7827002370890561 0 -3.7827002370890561 -25.925343410759126 0 0 0 0 -23.447912168245011 -7.6992952915461501 0 -7.6992952915461501 -19.125858123967191 0 0 0 0 11.949983093116089 -1.180772394669475 0 -1.180772394669475 -16.207410651542887 0 0 0 0 -17.968975387559695 -32.612499055636818 0 -32.612499055636818 -38.926162104726245 0 0 0 0 19.204081390047463 1.699871728225844 0 1.699871728225844 -9.5560410154284909 0 0 0 0 5.7219199042381206 4.1113657418900402 0 4.1113657418900402 -19.859154717752972 0 0 0 0 -1.6158470022918543 0.54837278545986834 0 0.54837278545986834 -5.7067611340494011 0 0 0 0 5.7484578641038171 -11.161224786899567 0 -11.161224786899567 -24.673688718567973 0 0 0 0 -0.16483717660509961 5.6294671426340912 0 5.6294671426340912 -16.273261806804683 0 0 0 0 0.1701093695372613 -5.9609159993521423 0 -5.9609159993521423 -2.9793485100282169 0 0 0 0 -5.6364339772812855 -24.068265430141764 0 -24.068265430141764 -15.097360864152506 0 0 0 0 13.658254758559906 -23.814811879878107 0 -23.814811879878107 -33.681370318110567 0 0 0 0 10.695794584018472 0.80537363591429312 0 0.80537363591429312 -19.492161107889842 0 0 0 0 12.193287925695927 -6.3360229247336974 0 -6.3360229247336974 -12.525900256818204 0 0 0 0 21.44215634233575 1.3373585993231245 0 1.3373585993231245 -19.072776554268785 0 0 0 0 22.431920103343998 -0.71745997045036347 0 -0.71745997045036347 -15.022843156490126 0 0 0 0 17.402246078881603 1.1607159797749773 0 1.1607159797749773 -9.9894231664511608 0 0 0 0 13.78007912417047 -3.6851054550716071 0 -3.6851054550716071 -15.654187992691732 0 0 0 0 -27.220271483958214 -51.022268560683187 0 -51.022268560683187 -51.679206781533139 0 0 0 0 -36.49365458354805 -16.859382853905117 0 -16.859382853905117 -28.595101227561827 0 0 0 0 -17.435227590017348 -9.1254034692829009 0 -9.1254034692829009 -43.113044694267955 0 0 0 0 13.509926716233394 25.145817762655497 0 25.145817762655497 14.135829057060619 0 0 0 0 -0.028872305205898563 -0.0037551235739670119 0 -0.0037551235739670119 -0.022799107070749614 0 0 0 0 34.199112062650784 36.981681082543219 0 36.981681082543219 3.0861724355600018 0 0 0 0 -0.74563814407616036 1.3147666421004587 0 1.3147666421004587 -1.1351185601761813 0 0 0 0 23.809137506483239 30.958986586399988 0 30.958986586399988 52.057840304731144 0 0 0 0 16.305191127303715 -2.4176389077620115 0 -2.4176389077620115 -76.727318787805416 0 0 0 0 14.144901286082955 24.556217924491193 0 24.556217924491193 -33.032541566251894 0 0 0 0 23.069388545558695 3.6753444943296927 0 3.6753444943296927 -36.13346558437479 0 0 0 0 20.801181859623398 3.3659763654541166 0 3.3659763654541166 -17.142347499022435 0 0 0 0 3.6647334150671824 -4.6184637488393037 0 -4.6184637488393037 -28.330684838176239 0 0 0 0 -3.8567513350560603 -0.53901039099218906 0 -0.53901039099218906 -4.4454207025191863 0 0 0 0 4.3561969284301441 5.2020726843163629 0 5.2020726843163629 -32.163306572110741 0 0 0 0 -2.2259900006609996 5.7090469011509413 0 5.7090469011509413 -21.131656818321062 0 0 0 0 3.4711552480275714 4.7207453672290285 0 4.7207453672290285 -46.321722302134731 0 0 0 0 -0.18962416085348188 0.27603790296679165 0 0.27603790296679165 0.0033270532747380344 0 0 0 0 -8.5781226928804699 -0.65893456139747286 0 -0.65893456139747286 -29.289655187896642 0 0 0 0 -6.4417166800369614 7.540750745763944 0 7.540750745763944 -31.569221898936121 0 0 0 0 -0.22621655297915266 0.31971089180937895 0 0.31971089180937895 -0.56541408010699001 0 0 0 0 12.548886165802401 38.267208643136655 0 38.267208643136655 24.795119697275368 0 0 0 0 2.6179838319219471 7.7444460533315578 0 7.7444460533315578 29.389721974523127 0 0 0 0 10.714552355897467 14.833926809344121 0 14.833926809344121 1.0005100518101244 0 0 0 0 2.4914849117767517 13.662539954848398 0 13.662539954848398 14.722070253890706 0 0 0 0 3.328500033472892 5.8147567972810066 0 5.8147567972810066 1.949904002220137 0 0 0 0 24.459136787614398 -4.5367479780616122 0 -4.5367479780616122 -48.436683741112574 0 0 0 0 12.241897337793489 27.031269547287593 0 27.031269547287593 -33.518451813841239 0 0 0 0 4.4481304204282424 -10.753857003535813 0 -10.753857003535813 -64.510726324023835 0 0 0 0 -42.681236335180188 -56.056617328977154 0 -56.056617328977154 -60.296392387705737 0 0 0 0 -12.682850885021935 -22.157179969854042 0 -22.157179969854042 -15.78827509626899 0 0 0 0 17.426934526145942 1.2269713193491043 0 1.2269713193491043 -30.709047735654167 0 0 0 0 4.6394720621572105 -7.726683152062833 0 -7.726683152062833 -38.398199764153105 0 0 0 0 -22.708115118158958 -23.569239361924701 0 -23.569239361924701 -30.979029314119543 0 0 0 0 -6.3177136087746248 -18.258642228614917 0 -18.258642228614917 -54.335463081013586 0 0 0 0 -0.39350686570574567 -1.0363842587244108 0 -1.0363842587244108 -6.0478852989472216 0 0 0 0 -0.034497540036454666 -2.3883914103207644 0 -2.3883914103207644 -5.8612784527504118 0 0 0 0 -0.56134979731450585 -2.455499322139076 0 -2.455499322139076 -4.3279888240358559 0 0 0 0 -1.6779855062832212 -2.4898181801618193 0 -2.4898181801618193 -4.1225047994012129 0 0 0 0 3.3542767095956378 -1.6529252193740831 0 -1.6529252193740831 -6.9934061827880214 0 0 0 0 5.1876685909988112 -3.7030173467883287 0 -3.7030173467883287 -6.3757125090414775 0 0 0 0 6.1527104774075951 -8.8437928800567533 0 -8.8437928800567533 -2.3218813861167291 0 0 0 0 -10.370608754512432 -8.7201067611495091 0 -8.7201067611495091 13.687831961055053 0 0 0 0 -2.7900224874924788 -3.343160587890452 0 -3.343160587890452 -3.565157272896613 0 0 0 0 -0.53796787312694505 -5.4478523443358426 0 -5.4478523443358426 -3.1716781202121638 0 0 0 0 -11.856881382283689 0.77448452995031403 0 0.77448452995031403 2.3317817268689396 0 0 0 0 -28.807290582378585 28.664910477553349 0 28.664910477553349 -34.613036020018626 0 0 0 0 -2.2698001776063848 -2.4988531519356911 0 -2.4988531519356911 -2.7329512246797094 0 0 0 0 -31.083739599242108 30.409031405826681 0 30.409031405826681 7.2619696533074602 0 0 0 0 -0.27394637493785856 -0.6170066344291314 0 -0.6170066344291314 -1.5179949661859098 0 0 0 0 -0.5821545482157644 -1.0756206475274865 0 -1.0756206475274865 -2.5356224170703001 0 0 0 0 -0.48799739693754418 -1.5903139576876129 0 -1.5903139576876129 -4.5025484323159617 0 0 0 0 -0.7749664048633349 -1.5782575458943029 0 -1.5782575458943029 -4.4111380834729061 0 0 0 0 -1.2517643532687543 -1.6182880192136508 0 -1.6182880192136508 -3.1587871824995091 0 0 0 0 -0.70217325322687429 -1.580936605027091 0 -1.580936605027091 -5.8438356594415382 0 0 0 0 -6.845669892188198 8.7397391726626665 0 8.7397391726626665 -21.977613916154951 0 0 0 0 -4.1361286350379487 8.8362228747282643 0 8.8362228747282643 -40.527867807190887 0 0 0 0 0.10590160787192548 0.029651616756780186 0 0.029651616756780186 -0.036351281644826372 0 0 0 0 -21.587863407517546 43.823939440159847 0 43.823939440159847 23.853519187094207 0 0 0 0 3.0408979248691139 4.9456007411499741 0 4.9456007411499741 -62.330176080289675 0 0 0 0 0.95139665795181827 -2.9748829136915447 0 -2.9748829136915447 -37.373679199175967 0 0 0 0 0.97692305392274648 -2.1949199534574291 0 -2.1949199534574291 -32.175173661889858 0 0 0 0 -0.57298967604221929 0.22695397083126068 0 0.22695397083126068 -1.0455881780229177 0 0 0 0 2.0384915553265728 2.069136709360464 0 2.069136709360464 -33.834627110849397 0 0 0 0 2.0579060591107918 1.6033284812147031 0 1.6033284812147031 -37.682946394199462 0 0 0 0 1.3689358819115114 1.4004103136758204 0 1.4004103136758204 -4.7829910207583453 0 0 0 0 6.9610409289325617 1.6598870731540956 0 1.6598870731540956 -8.169126032742497 0 0 0 0 1.0373160235499199 -2.8129426395753399 0 -2.8129426395753399 -10.629006058949017 0 0 0 0 0.02620399017082331 -0.37383111937161573 0 -0.37383111937161573 -0.94120947579499159 0 0 0 0 13.601148872074248 13.899212948516833 0 13.899212948516833 -1.4527607948693912 0 0 0 0 8.0125758355197831 -12.972764503785584 0 -12.972764503785584 -5.9006549185387485 0 0 0 0 23.053344603913274 -5.5546161924321495 0 -5.5546161924321495 -24.347386639044998 0 0 0 0 18.343238393938009 -1.9007369925020612 0 -1.9007369925020612 -26.562206892835093 0 0 0 0 14.595236616140483 12.636641189990769 0 12.636641189990769 -16.757036698851152 0 0 0 0 0.53652982180232955 0.72340416006344554 0 0.72340416006344554 -1.0908664512359394 0 0 0 0 16.355729460658267 -4.7363465884554898 0 -4.7363465884554898 -4.4762493855087087 0 0 0 0 -0.11248905636830564 1.254940776813811 0 1.254940776813811 -4.6670294836322626 0 0 0 0 0.46631765931385871 3.7997028594054427 0 3.7997028594054427 -7.985328108057729 0 0 0 0 -1.0018804125877523 -0.31495715903292876 0 -0.31495715903292876 -6.8592915682311286 0 0 0 0 -0.22029891336205765 -0.55310490851388749 0 -0.55310490851388749 -6.2250289895528113 0 0 0 0 -0.05478245537097548 -1.3305373169783081 0 -1.3305373169783081 -4.984132702202686 0 0 0 0 -0.59238304652512852 -1.1450362928299 0 -1.1450362928299 -7.3241229859777377 0 0 0 0 -0.62767028996677254 -1.0807920209026634 0 -1.0807920209026634 -8.0252077299082885 0 0 0 0 -0.1499831854078213 -0.52318379630312961 0 -0.52318379630312961 -1.3907068481739486 0 0 0 0 -0.8832007629907821 -0.87148703310231213 0 -0.87148703310231213 -7.2000771847942815 0 0 0 0 -0.34967259538072248 -0.49919284317604706 0 -0.49919284317604706 -4.2626884141774042 0 0 0 0 -0.74764068162073727 -0.01360951174137881 0 -0.01360951174137881 -8.6940076784158009 0 0 0 0 1.014508419954814 -0.53544617779451187 0 -0.53544617779451187 -7.8339354238591454 0 0 0 0 -0.96109933876277864 0.98356054722535191 0 0.98356054722535191 -7.2251968005293747 0 0 0 0 -1.8896439840907595 0.50874062546184007 0 0.50874062546184007 -5.5065787064652767 0 0 0 0 -1.9502532333621048 5.8817483929542504 0 5.8817483929542504 -19.391023486896302 0 0 0 0 -1.895851459346261 4.3586169723166677 0 4.3586169723166677 -13.86807293874881 0 0 0 0 0.72097097828439205 -2.0769169683455573 0 -2.0769169683455573 -3.4439033858976416 0 0 0 0 -1.3546210410572712 -0.30454583659957279 0 -0.30454583659957279 -7.630158340158232 0 0 0 0 -0.31717900530441057 -0.41709913107115426 0 -0.41709913107115426 -5.3193860855753883 0 0 0 0 0.56620699038098365 -1.7588681867491331 0 -1.7588681867491331 -4.1484833824162024 0 0 0 0 0.11762996913284951 -1.9411846218572464 0 -1.9411846218572464 -6.9900961494349758 0 0 0 0 -0.6670064204340953 -0.11444982359543587 0 -0.11444982359543587 -1.7545198853689641 0 0 0 0 -2.3226871284794015 19.092161198953363 0 19.092161198953363 -18.774852597685822 0 0 0 0 -5.9271596505459456 10.124742054165836 0 10.124742054165836 1.515434793982422 0 0 0 0 1.4025025774832347 2.3195378437678471 0 2.3195378437678471 -2.5801605012146922 0 0 0 0 -4.2502058657008792 6.7194999989739159 0 6.7194999989739159 -7.7147135675311631 0 0 0 0 -3.5600614365244638 7.0869023819639096 0 7.0869023819639096 -13.528093215994886 0 0 0 0 -4.1387888077970274 8.7465615980690927 0 8.7465615980690927 -12.403356108407024 0 0 0 0 3.298115020737896 1.7517735393776093 0 1.7517735393776093 -8.2393247563450132 0 0 0 0 0.97359137709645438 7.9378033971515833 0 7.9378033971515833 -5.4560734999831766 0 0 0 0 -0.20949173161151169 2.0639396662893716 0 2.0639396662893716 -2.4165267115429145 0 0 0 0 -4.8245037138244697 8.465814271254203 0 8.465814271254203 -5.6345477570575895 0 0 0 0 -2.3954416650256007 13.88429016957889 0 13.88429016957889 -10.288317908358295 0 0 0 0 -2.793147391274033 12.767420601077902 0 12.767420601077902 -13.4241554795517 0 0 0 0 1.4128023792338809 10.835645913721237 0 10.835645913721237 -22.206244618602796 0 0 0 0 -7.5118004715022835 8.2247775122996245 0 8.2247775122996245 -18.239643079898087 0 0 0 0 -13.613915654166703 -2.8682330942065164 0 -2.8682330942065164 -25.6144110484598 0 0 0 0 -3.879360015412999 14.184953388079521 0 14.184953388079521 -25.440056638770329 0 0 0 0 -1.597900922718984 -2.88846632551423 0 -2.88846632551423 -3.1593655666060627 0 0 0 0 -10.896918436477335 -1.6653927303432283 0 -1.6653927303432283 17.518353338527959 0 0 0 0 1.0270976381664241 6.5571644806732365 0 6.5571644806732365 2.0699700686673168 0 0 0 0 -5.836296846296591 13.382374407399766 0 13.382374407399766 -1.6488763481829665 0 0 0 0 3.284876603885607 1.4611626423038615 0 1.4611626423038615 -1.718672072456684 0 0 0 0 -13.169847378109353 18.845334484652994 0 18.845334484652994 14.496833869737202 0 0 0 0 17.235442512486543 -9.7863230874172586 0 -9.7863230874172586 -19.33829191908444 0 0 0 0 9.1671489497722405 0.9099981224635485 0 0.9099981224635485 -123.7978639269495 0 0 0 0 -58.04181229896767 62.160024589575187 0 62.160024589575187 -138.51698799162295 0 0 0 0 74.95494121347059 -50.321372054979292 0 -50.321372054979292 -451.10335350472087 0 0 0 0 34.43539019322634 58.844089340582286 0 58.844089340582286 -448.50161403001391 0 0 0 0 2.7279563180524065 32.399820200175782 0 32.399820200175782 -166.56619247015624 0 0 0 0 0.68221438740267715 0.11257937109780869 0 0.11257937109780869 0.20013431808594362 0 0 0 0 -38.834565608341507 41.993005881749013 0 41.993005881749013 -20.620214458918781 0 0 0 0 -11.803717105077794 -50.783171190683788 0 -50.783171190683788 -121.38284947294596 0 0 0 0 -25.33143177177999 -212.9008640060747 0 -212.9008640060747 -528.04008397918369 0 0 0 0 -1.9977629109866433 -2.2979512401223587 0 -2.2979512401223587 -2.2660977608492914 0 0 0 0 -39.786738863459874 -87.789577023618449 0 -87.789577023618449 -3.5935470407785033 0 0 0 0 118.05516904809156 171.69731432685512 0 171.69731432685512 -1014.2063396574122 0 0 0 0 35.181509170246954 4.1160223092520027 0 4.1160223092520027 -36.140161712857662 0 0 0 0 18.533914413799948 26.79343240493472 0 26.79343240493472 -65.840649367852166 0 0 0 0 -7.9197224969401248 -8.6044089807191995 0 -8.6044089807191995 20.001142876411905 0 0 0 0 2.1099610125516692 -1.2659048965661128 0 -1.2659048965661128 -2.5248760732338908 0 0 0 0 -73.966781977780727 -23.812103827098326 0 -23.812103827098326 -12.852821447464521 0 0 0 0 8.8351820194792481 16.723124034677312 0 16.723124034677312 8.3152723468083423 0 0 0 0 1.7212391678856303 -0.47279242113374664 0 -0.47279242113374664 -3.4283909565591273 0 0 0 0 -55.551316497266939 -12.455953261171089 0 -12.455953261171089 -22.266290091820338 0 0 0 0 -63.542754940368042 -45.784672206362302 0 -45.784672206362302 -70.428291113712476 0 0 0 0 -9.0174446673674993 2.6463370706842397 0 2.6463370706842397 9.3398715889707091 0 0 0 0 -6.1252801294751862 22.787871342730796 0 22.787871342730796 -7.5934671799150237 0 0 0 0 -24.68626450606132 -33.059740142325609 0 -33.059740142325609 13.178059722133185 0 0 0 0 -0.22580048034774736 -2.6100930030215892 0 -2.6100930030215892 -2.0280918354705264 0 0 0 0 -51.697856144780872 4.7059445732811582 0 4.7059445732811582 29.377745103563939 0 0 0 0 -38.988794732787483 43.669573906190635 0 43.669573906190635 -30.798986429640536 0 0 0 0 -32.565322536449059 -33.349438750827176 0 -33.349438750827176 42.029939746491436 0 0 0 0 8.2465094841940072 -33.285008338196349 0 -33.285008338196349 6.691131918632891 0 0 0 0 22.745705486596478 -13.617826697665805 0 -13.617826697665805 -43.425478878772992 0 0 0 0 3.7376081991676813 -34.854041512357071 0 -34.854041512357071 -18.368635252059903 0 0 0 0 -91.060604935560605 50.657910959896981 0 50.657910959896981 -48.745022737556155 0 0 0 0 -16.73971459646873 -1.1716735703057566 0 -1.1716735703057566 -219.71079510297568 0 0 0 0 14.771367955149344 185.31593534904459 0 185.31593534904459 -458.27299844044683 0 0 0 0 -0.80323940689238282 0.92385509554944178 0 0.92385509554944178 -1.8706541890640693 0 0 0 0 -56.633118717084159 157.7478330242584 0 157.7478330242584 -58.386339725308062 0 0 0 0 -90.029183650381952 -89.745566798412256 0 -89.745566798412256 -119.06307334957819 0 0 0 0 -142.87298509734921 -275.75912022278135 0 -275.75912022278135 -550.18587072531045 0 0 0 0 -35.765879016214086 -49.128762893749808 0 -49.128762893749808 -152.70629207302409 0 0 0 0 -0.39869652471200867 2.6714203857921888 0 2.6714203857921888 -4.7369161010882266 0 0 0 0 70.842870897251828 3.2429486165056005 0 3.2429486165056005 -18.790224335094535 0 0 0 0 -70.759742504539744 -51.024834742231178 0 -51.024834742231178 -71.108094695257023 0 0 0 0 -60.837185123190523 -35.09031342707749 0 -35.09031342707749 -86.941644412523601 0 0 0 0 -61.960997784029757 -88.813912528676155 0 -88.813912528676155 -68.638941123295808 0 0 0 0 -43.885498492009617 -72.062111314538924 0 -72.062111314538924 -137.7629972855284 0 0 0 0 -83.898229655228874 -65.997181955754058 0 -65.997181955754058 -26.800504649807408 0 0 0 0 -53.796550591886714 -54.379055547960888 0 -54.379055547960888 -144.28174889303773 0 0 0 0 -40.830491273949988 -76.541928195965738 0 -76.541928195965738 -200.60053594504643 0 0 0 0 -43.447463972639177 -118.35199295987877 0 -118.35199295987877 -311.70250343969383 0 0 0 0 14.773159716727974 -32.644673296810652 0 -32.644673296810652 -407.04007890068897 0 0 0 0 13.104179160887725 -53.382590890854772 0 -53.382590890854772 -369.22741847412908 0 0 0 0 3.5223597498274444 -44.403595776857401 0 -44.403595776857401 -416.02464875868463 0 0 0 0 -9.1114180363043715 49.008802584001387 0 49.008802584001387 -418.63843426934181 0 0 0 0 23.137391612896444 -5.6914166381900202 0 -5.6914166381900202 -472.28375127538311 0 0 0 0 23.15512240990056 -3.8393284037944113 0 -3.8393284037944113 -386.15039838098892 0 0 0 0 -4.6322099142542967 28.896907260755142 0 28.896907260755142 -305.26532083466009 0 0 0 0 -9.5965096916339974 54.184146212566702 0 54.184146212566702 -424.10387191574409 0 0 0 0 -24.711037697150573 93.694679426014773 0 93.694679426014773 -327.33456187739648 0 0 0 0 -34.035021852525233 158.29039884311715 0 158.29039884311715 -542.41784976343843 0 0 0 0 -48.720539880705928 157.23199722266145 0 157.23199722266145 -344.95624242275517 0 0 0 0 -25.616475387023996 111.21428136175837 0 111.21428136175837 -468.81715518931742 0 0 0 0 -13.019396281801392 36.07096779114363 0 36.07096779114363 -461.09031306798443 0 0 0 0 -99.952779462026228 61.985036594684061 0 61.985036594684061 -502.66567707352806 0 0 0 0 -26.14207294641551 1.3842443301036838 0 1.3842443301036838 -670.99069811410482 0 0 0 0 -62.939350730736294 12.972100768869495 0 12.972100768869495 -562.31256053099059 0 0 0 0 -37.137068886653083 65.056290304601134 0 65.056290304601134 -492.97470778373827 0 0 0 0 6.4800118449877289 -54.085496013069132 0 -54.085496013069132 -580.01139719529601 0 0 0 0 -167.63336028739775 -15.404599551303363 0 -15.404599551303363 -588.87275803874218 0 0 0 0 -128.93024534568917 54.452544862215291 0 54.452544862215291 -566.76835942161415 0 0 0 0 -129.3775707663234 -64.260764587845188 0 -64.260764587845188 -533.01579942234821 0 0 0 0 -1.2435630124160917 -1.4006364493118895 0 -1.4006364493118895 -1.4526941238186808 0 0 0 0 -69.779085331054944 100.31229902693303 0 100.31229902693303 -634.34062992197414 0 0 0 0 -106.09818258734776 91.841699935415818 0 91.841699935415818 -114.13314723445365 0 0 0 0 -102.32773303796944 28.11026082632452 0 28.11026082632452 -637.0851776151685 0 0 0 0 -160.40923571567191 19.787247839281918 0 19.787247839281918 -190.99426915689401 0 0 0 0 -149.37988445880183 130.79583630734851 0 130.79583630734851 -181.76789630443818 0 0 0 0 -205.57988375396508 99.83947895460733 0 99.83947895460733 -196.90783730083058 0 0 0 0 -20.4708582051544 117.14093596079329 0 117.14093596079329 -254.69012033643958 0 0 0 0 -162.49805485420052 -0.9629629699711586 0 -0.9629629699711586 -291.87252137670293 0 0 0 0 -87.957709379420976 75.053388043081213 0 75.053388043081213 -313.05981222165428 0 0 0 0 -161.56863399576309 127.22536154474074 0 127.22536154474074 -335.43795044919534 0 0 0 0 -58.850181480639094 98.550080589331628 0 98.550080589331628 -372.10751649947269 0 0 0 0 -1.0940420869833645 0.45168845660775503 0 0.45168845660775503 -0.41591894195200751 0 0 0 0 -173.95089369675225 106.41100503237794 0 106.41100503237794 -81.380433006648673 0 0 0 0 -140.14402977631335 35.05375676251424 0 35.05375676251424 -307.82467264807201 0 0 0 0 -6.5382571708884996 135.93708843959121 0 135.93708843959121 -260.54234007945342 0 0 0 0 -0.57936339910747847 95.491151337333577 0 95.491151337333577 -389.55652737796117 0 0 0 0 -121.73521907520353 87.948319184282809 0 87.948319184282809 -257.044641512206 0 0 0 0 -6.7892931698397661 125.07661652922616 0 125.07661652922616 -244.32319701689994 0 0 0 0 -5.7795195823464383 103.18163513124455 0 103.18163513124455 -324.23261915374314 0 0 0 0 -14.421613929265277 114.234134335813 0 114.234134335813 -232.55007536345875 0 0 0 0 -1.270871991840977 145.71365997668545 0 145.71365997668545 -238.90391702235138 0 0 0 0 -38.491570096579835 135.36266712616452 0 135.36266712616452 -146.33763097666088 0 0 0 0 -39.670192915019015 128.12705982145781 0 128.12705982145781 -187.91796195103052 0 0 0 0 -46.11935970499087 117.16129415963769 0 117.16129415963769 -158.26367217104416 0 0 0 0 -28.693195378940345 81.714779765407002 0 81.714779765407002 -214.86812202354849 0 0 0 0 -11.035541958543945 1.5154531366715673 0 1.5154531366715673 -28.747683634181158 0 0 0 0 -39.310848932049552 111.93965181766907 0 111.93965181766907 -334.92004584501592 0 0 0 0 -3.8657012504314658 -2.7346565462448211 0 -2.7346565462448211 -3.524953986990198 0 0 0 0 0.21915658985767639 0.70099102541456659 0 0.70099102541456659 -3.0303321192493797 0 0 0 0 -14.868080053214499 91.404571874445537 0 91.404571874445537 -234.55868998030201 0 0 0 0 -46.505572278608668 106.98244087718012 0 106.98244087718012 -300.43125893933757 0 0 0 0 -58.8186629857762 112.99588311073603 0 112.99588311073603 -311.97990007724002 0 0 0 0 0.098289887662314612 0.23401159629068502 0 0.23401159629068502 -0.25708405188537498 0 0 0 0 50.602034715062473 -3.4841784245654708 0 -3.4841784245654708 -69.838406209732057 0 0 0 0 -8.8040707609461606 85.556626988298376 0 85.556626988298376 -315.52296325005591 0 0 0 0 7.2690039449346386 90.819788258861081 0 90.819788258861081 -326.40742513017176 0 0 0 0 -21.230865068801904 68.105232568181236 0 68.105232568181236 -290.33426919989142 0 0 0 0 -58.692850922815069 49.679688267615347 0 49.679688267615347 -282.11797818323248 0 0 0 0 -100.76820689186889 266.82450509282353 0 266.82450509282353 -469.87826772873086 0 0 0 0 -46.198827448992802 -22.489919221899072 0 -22.489919221899072 -707.38523092391551 0 0 0 0 144.46993142128076 89.416595866441639 0 89.416595866441639 -996.97620289252518 0 0 0 0 -125.82095930541755 80.281821527603825 0 80.281821527603825 -474.19259203991533 0 0 0 0 24.910273678993462 173.21221721508846 0 173.21221721508846 -720.91454842730855 0 0 0 0 -4.3334404299048401 89.895137982472079 0 89.895137982472079 -490.15045560041654 0 0 0 0 46.87196046784311 106.81908468385882 0 106.81908468385882 -515.47834214012619 0 0 0 0 -27.351489739693307 93.44150496637485 0 93.44150496637485 -340.13616641406406 0 0 0 0 61.927958716627472 78.758399614140217 0 78.758399614140217 -535.72306536890028 0 0 0 0 75.369151574888633 63.862565668438037 0 63.862565668438037 -523.5608994830327 0 0 0 0 -10.577832756695216 114.20212660509969 0 114.20212660509969 -510.12632929867686 0 0 0 0 63.239514505954048 80.427536501410941 0 80.427536501410941 -563.60683061177406 0 0 0 0 0.2320655527666986 -10.933139250471868 0 -10.933139250471868 -538.74099553298674 0 0 0 0 34.070835811085999 60.028212783745403 0 60.028212783745403 -356.96489968533206 0 0 0 0 12.284137645659939 57.518372608012214 0 57.518372608012214 -357.17830626296927 0 0 0 0 6.4912155583267577 64.855784672530717 0 64.855784672530717 -367.06082586225966 0 0 0 0 19.323081308798237 -55.251057547304072 0 -55.251057547304072 -206.08784794218082 0 0 0 0 -1.9943255227135612 0.80579098314608189 0 0.80579098314608189 -0.45615353393283442 0 0 0 0 -40.217588112683416 46.475007685388846 0 46.475007685388846 -60.195476204524311 0 0 0 0 41.402694626248831 48.947149026462284 0 48.947149026462284 -187.94574185534293 0 0 0 0 25.099232183985123 56.536363469509524 0 56.536363469509524 -339.29299802421156 0 0 0 0 -7.4677053252185033 22.752840188342816 0 22.752840188342816 -189.91186892542009 0 0 0 0 -35.942097214723617 21.151085191728271 0 21.151085191728271 -211.33612104497297 0 0 0 0 -62.992409761154249 48.174578621061301 0 48.174578621061301 -151.78789780525403 0 0 0 0 -83.529481729308372 4.5216307257269364 0 4.5216307257269364 26.84615082165692 0 0 0 0 18.506170416253383 -49.732978789328172 0 -49.732978789328172 -100.77837670690496 0 0 0 0 -85.656797747438759 41.947866522419645 0 41.947866522419645 -67.918725990282837 0 0 0 0 -50.270105902454816 4.8883660880128446 0 4.8883660880128446 -55.250046630524594 0 0 0 0 -47.394530166342747 -15.763885413436583 0 -15.763885413436583 -96.869553090909903 0 0 0 0 -107.84289443120429 114.42008467496998 0 114.42008467496998 -245.5354483785195 0 0 0 0 -109.08479908627169 96.8414588382293 0 96.8414588382293 -148.41088538186887 0 0 0 0 -1.5434879425495183 -10.881819463489592 0 -10.881819463489592 -38.671772311899986 0 0 0 0 -0.25416590520524096 -12.285641873768327 0 -12.285641873768327 -37.375594741773966 0 0 0 0 -108.5004170441257 -103.68780686291211 0 -103.68780686291211 -48.08429825388157 0 0 0 0 -43.045610080111828 15.806259642577061 0 15.806259642577061 -62.271072015741083 0 0 0 0 -5.9645397268231921 -9.8247217270646559 0 -9.8247217270646559 3.4981167745182518 0 0 0 0 -1.0238285207424695 0.068101520197345167 0 0.068101520197345167 -0.10269724283664772 0 0 0 0 56.873682584892322 30.267089132059482 0 30.267089132059482 -201.37965962301678 0 0 0 0 -30.258567974590733 -11.609535271643836 0 -11.609535271643836 -61.695370244753576 0 0 0 0 -9.582037638676411 -13.906924789120239 0 -13.906924789120239 -34.679870540478987 0 0 0 0 -8.4674424553031713 -13.353311181574099 0 -13.353311181574099 -38.238575712788588 0 0 0 0 1.5322028078767289 -1.8323920650400396 0 -1.8323920650400396 -119.47388517455511 0 0 0 0 -12.025222010003695 -10.398815674952687 0 -10.398815674952687 0.10368011840973423 0 0 0 0 24.237202487874129 -21.290691622516533 0 -21.290691622516533 -105.02408904810727 0 0 0 0 8.4996878657769948 0.48835154852315554 0 0.48835154852315554 -21.93883860578093 0 0 0 0 -19.081565365368988 -19.265774076062371 0 -19.265774076062371 -35.491823020754964 0 0 0 0 88.7781550303514 79.653693498323264 0 79.653693498323264 20.493343654452474 0 0 0 0 19.357885314052282 49.405568758958907 0 49.405568758958907 31.491440109767609 0 0 0 0 7.3818293427956707 5.2462319923769911 0 5.2462319923769911 -27.770790098645278 0 0 0 0 -17.147987912789176 -16.819542903022011 0 -16.819542903022011 -37.673499036507565 0 0 0 0 8.2056123499900018 3.6388482128815909 0 3.6388482128815909 -24.249018894506492 0 0 0 0 -7.3053657346040382 -10.639094507156187 0 -10.639094507156187 -40.652916103455937 0 0 0 0 -11.372759547157784 -12.897225326902117 0 -12.897225326902117 -40.336954052863803 0 0 0 0 -0.93749774572154365 -9.5963679170836258 0 -9.5963679170836258 -39.264023833733518 0 0 0 0 -3.985404833822713 -13.448026411411774 0 -13.448026411411774 -38.824706550898554 0 0 0 0 -20.750999174182596 29.01388749225498 0 29.01388749225498 -114.59733473510278 0 0 0 0 -25.994121506858619 29.122997799564473 0 29.122997799564473 -106.61276791906857 0 0 0 0 -44.904302653569289 79.457090489318944 0 79.457090489318944 -240.39201335039979 0 0 0 0 -46.871482178530869 115.37012271803906 0 115.37012271803906 -147.50274596868076 0 0 0 0 -59.619386850655019 100.77550227038591 0 100.77550227038591 -156.43144697843672 0 0 0 0 -33.644631079668216 101.38379511276435 0 101.38379511276435 -139.42307132414135 0 0 0 0 -45.91111359619515 81.884155646587715 0 81.884155646587715 1.7376155602032668 0 0 0 0 0.93249489387926587 213.72830804224213 0 213.72830804224213 -103.01548558770446 0 0 0 0 0.68813455450660665 -2.1250381580896089 0 -2.1250381580896089 -4.4040386321286391 0 0 0 0 -104.71522013874596 62.332387148455382 0 62.332387148455382 -62.911976688854338 0 0 0 0 55.615616242001579 117.5479479545902 0 117.5479479545902 -256.55479253581802 0 0 0 0 -41.832766390464712 -77.969865848266636 0 -77.969865848266636 -126.35547897087781 0 0 0 0 -2.2530456906532477 -1.8363019091545993 0 -1.8363019091545993 -3.1331040682568698 0 0 0 0 50.467717537781141 67.630789392678707 0 67.630789392678707 13.113567987500574 0 0 0 0 21.977677670012326 54.352162944156589 0 54.352162944156589 79.39266885959978 0 0 0 0 37.214260694621771 67.595443712878478 0 67.595443712878478 -65.619311832979292 0 0 0 0 -19.735185239971543 14.168914452551689 0 14.168914452551689 -10.250102579564555 0 0 0 0 5.3333953899053483 -6.8703788818934299 0 -6.8703788818934299 -34.86519085047621 0 0 0 0 39.596655859961174 25.675101547170925 0 25.675101547170925 15.928957284351782 0 0 0 0 14.169484722129027 38.814425523705722 0 38.814425523705722 16.696396266102965 0 0 0 0 12.939299313146648 3.3402884963998076 0 3.3402884963998076 -0.39208732807583146 0 0 0 0 -64.235865137233986 -30.449980945191783 0 -30.449980945191783 3.6916935930676118 0 0 0 0 -41.549452486412747 -17.25986086512421 0 -17.25986086512421 8.2175855908262747 0 0 0 0 -49.88940702092674 -36.093798034446081 0 -36.093798034446081 -18.663708822139597 0 0 0 0 -38.446183231402756 -62.130224443598308 0 -62.130224443598308 -156.57641246267303 0 0 0 0 -49.88768096683043 -55.287978803695296 0 -55.287978803695296 -34.611704668866878 0 0 0 0 -57.413618615320956 -50.778509217348983 0 -50.778509217348983 1.0668802592990687 0 0 0 0 -29.657624729798044 -5.9313952129923564 0 -5.9313952129923564 3.2308213050730501 0 0 0 0 29.040920841397281 -27.999831460778069 0 -27.999831460778069 -14.167328095827543 0 0 0 0 28.375380530375651 -21.494474148696099 0 -21.494474148696099 1.5595976588592748 0 0 0 0 -0.6656476572554304 -1.2491480152054777 0 -1.2491480152054777 -2.9605874384124036 0 0 0 0 -6.5149202186399862 -37.41922367913503 0 -37.41922367913503 -9.5434800191405884 0 0 0 0 10.647518544522882 64.632791956752044 0 64.632791956752044 -252.09937702367461 0 0 0 0 -70.088853396324566 -6.5124627921250067 0 -6.5124627921250067 -16.517740540512023 0 0 0 0 -68.881451102029132 -69.700606906659232 0 -69.700606906659232 6.5875171982656866 0 0 0 0 14.589135121263553 44.074342413756312 0 44.074342413756312 -302.29647232806747 0 0 0 0 -0.35358241843495009 -0.66975674579350652 0 -0.66975674579350652 -1.1994697961858236 0 0 0 0 -34.940587761895131 25.42030303575666 0 25.42030303575666 -293.87465054189033 0 0 0 0 -100.9051619493805 73.29198584957885 0 73.29198584957885 -157.68217275079223 0 0 0 0 26.295793185924367 12.766923344945099 0 12.766923344945099 -333.70152501425036 0 0 0 0 4.1941454870021744 88.568989477429568 0 88.568989477429568 -397.09599377083214 0 0 0 0 -27.635693668400478 123.77847711593904 0 123.77847711593904 -213.30901164743409 0 0 0 0 1.4399589871296712 70.160336332134648 0 70.160336332134648 -251.57801433430723 0 0 0 0 -98.919237299622637 154.32094322516059 0 154.32094322516059 -234.02781678218162 0 0 0 0 -42.095175688261719 72.76649086924499 0 72.76649086924499 -164.40184811064682 0 0 0 0 -56.198591966354343 87.556689706238103 0 87.556689706238103 -147.11475526612048 0 0 0 0 6.9538702094926066 32.751188582467876 0 32.751188582467876 -111.48220202905941 0 0 0 0 -25.298987321883033 87.874117072700756 0 87.874117072700756 -180.83198700498178 0 0 0 0 -47.319884181542875 109.54437600616802 0 109.54437600616802 -168.22870622984192 0 0 0 0 -49.167283458811085 94.609834422533822 0 94.609834422533822 -184.4619016832512 0 0 0 0 -7.9917002654651972 -10.699267374104231 0 -10.699267374104231 -7.7238315080443769 0 0 0 0 -31.823940570331949 -53.499091334770355 0 -53.499091334770355 -161.41637424704822 0 0 0 0 -9.81578268541341 -87.402089698885902 0 -87.402089698885902 -163.21777885863412 0 0 0 0 105.65448143474362 -23.769927025214201 0 -23.769927025214201 -257.55062347955391 0 0 0 0 -39.878208229043523 44.668706003059924 0 44.668706003059924 -262.63943886651577 0 0 0 0 -177.68210554708753 64.91466894322366 0 64.91466894322366 39.064127156012546 0 0 0 0 -175.55299950065319 140.88510809429863 0 140.88510809429863 -11.910870451531082 0 0 0 0 -77.462554653467123 25.07174910401227 0 25.07174910401227 -73.376450810643291 0 0 0 0 -119.94407865749849 142.02434970494505 0 142.02434970494505 -153.15823209874361 0 0 0 0 -94.637404964911411 80.414584166272107 0 80.414584166272107 -207.31285986943112 0 0 0 0 -164.60090998139054 -135.29695793301744 0 -135.29695793301744 -455.10392122451594 0 0 0 0 -305.72564934388743 240.8249317969894 0 240.8249317969894 -321.08775779242569 0 0 0 0 22.091043002310585 59.319056371510896 0 59.319056371510896 -610.50134884705767 0 0 0 0 -10.71441910546578 164.69184967974797 0 164.69184967974797 -584.62300431700714 0 0 0 0 25.090051568943096 82.845140650650137 0 82.845140650650137 -404.58624219993362 0 0 0 0 14.961929164686865 85.263318944955245 0 85.263318944955245 -282.37697275110258 0 0 0 0 -17.28819957415368 131.35090825102088 0 131.35090825102088 -217.2366772495443 0 0 0 0 -85.790118940899333 228.13855468530528 0 228.13855468530528 -331.80630400617883 0 0 0 0 -177.27808373188407 161.91730812823334 0 161.91730812823334 -126.91029948597134 0 0 0 0 -153.59020387107694 105.75465779610386 0 105.75465779610386 -24.17597296423628 0 0 0 0 -114.89450579366917 -49.7546620783869 0 -49.7546620783869 -250.8186403248983 0 0 0 0 -211.73835862422754 261.50718227079415 0 261.50718227079415 -320.36897216890065 0 0 0 0 0.020505708655186528 0.01267089720661474 0 0.01267089720661474 -4.6089029013216134 0 0 0 0 -118.47307913968234 -93.506242365419894 0 -93.506242365419894 -257.2140879036815 0 0 0 0 -78.864099468116393 68.91141931987454 0 68.91141931987454 -66.789580532968102 0 0 0 0 7.5549508986908904 18.715900176177456 0 18.715900176177456 -38.760912824051047 0 0 0 0 -192.40985290741554 -38.959502512460404 0 -38.959502512460404 55.122451962153718 0 0 0 0 -174.76403205840438 100.20963006495367 0 100.20963006495367 215.0159704309408 0 0 0 0 -0.37303633803209801 0.37580445221620096 0 0.37580445221620096 -0.39593400508339016 0 0 0 0 -66.759621465320492 -12.109961266927712 0 -12.109961266927712 -23.67652738376637 0 0 0 0 -0.34839723854783766 -2.0967552236615425 0 -2.0967552236615425 -10.745413093169418 0 0 0 0 19.27867898489859 -27.650659572536824 0 -27.650659572536824 -45.453242590658192 0 0 0 0 -74.102728446474941 62.276529004047916 0 62.276529004047916 -79.843538512963278 0 0 0 0 -31.899471350134604 -20.284465175871446 0 -20.284465175871446 14.591888443039352 0 0 0 0 0.48158661261322777 -10.541846555992379 0 -10.541846555992379 -67.460869982940494 0 0 0 0 7.2870748802011462 14.486816375581839 0 14.486816375581839 -27.73344888810243 0 0 0 0 29.066460858779692 -3.9756729706750775 0 -3.9756729706750775 -149.31408933910598 0 0 0 0 -2.2792127702441576 71.002686627467483 0 71.002686627467483 -157.46586411874523 0 0 0 0 -18.597914509439875 -10.778578321018358 0 -10.778578321018358 -12.069000879295345 0 0 0 0 38.12157687608169 -73.660982230630907 0 -73.660982230630907 -260.9999870839365 0 0 0 0 -21.812566818159553 -6.0655943158453738 0 -6.0655943158453738 -27.032769862416899 0 0 0 0 18.95492414263731 113.00047599745812 0 113.00047599745812 -344.63388337756624 0 0 0 0 55.728507587115303 52.734680747467792 0 52.734680747467792 -263.68861953599844 0 0 0 0 13.8571212399047 112.66091499851245 0 112.66091499851245 -269.61017061751318 0 0 0 0 -19.899412649880986 139.9390093303391 0 139.9390093303391 -218.67219420463516 0 0 0 0 30.04342822055446 80.962734219690901 0 80.962734219690901 -283.69714713956273 0 0 0 0 13.884094277610984 55.184795798064442 0 55.184795798064442 -165.49716998168878 0 0 0 0 -54.233508126690424 113.17264807144124 0 113.17264807144124 -426.01512875889603 0 0 0 0 -49.143769576796785 167.83914326775994 0 167.83914326775994 -430.35846268639307 0 0 0 0 -34.67428895951889 -15.690834089764394 0 -15.690834089764394 -5.9399681541253813 0 0 0 0 0.59447866224381229 -0.94317516909242727 0 -0.94317516909242727 -2.2366745980121152 0 0 0 0 -72.838531610545488 131.5113781403179 0 131.5113781403179 -263.73053753068962 0 0 0 0 -73.9704084905743 49.967462846998387 0 49.967462846998387 -386.19171412097421 0 0 0 0 -91.781075372414307 87.313619236341765 0 87.313619236341765 -236.48034294658282 0 0 0 0 -14.568447576858489 140.69515065878295 0 140.69515065878295 -412.27549276682839 0 0 0 0 -22.335155514425423 -64.355589101151054 0 -64.355589101151054 11.692483133763744 0 0 0 0 -10.62300245105927 -10.540246006603446 0 -10.540246006603446 -7.2091878665994429 0 0 0 0 3.7701926137578994 44.992627823965449 0 44.992627823965449 -62.006878256896016 0 0 0 0 51.619881834083571 17.197508131564973 0 17.197508131564973 -138.24922773545404 0 0 0 0 25.124676072275179 -7.8169684586755466 0 -7.8169684586755466 -251.9240540151286 0 0 0 0 -1.4289793629193639 -1.3428446800548102 0 -1.3428446800548102 -0.62384382462048293 0 0 0 0 37.712618186968029 16.6138087460713 0 16.6138087460713 -214.02407253625279 0 0 0 0 14.334912227155655 -34.955276882807084 0 -34.955276882807084 -107.83094073826214 0 0 0 0 -23.645221176850555 38.300606991961104 0 38.300606991961104 -137.41290442244645 0 0 0 0 -22.357726306956465 -40.439972480806318 0 -40.439972480806318 -127.923957577088 0 0 0 0 113.78716045617693 -127.58472230270127 0 -127.58472230270127 -382.27684295747895 0 0 0 0 153.42563833869372 -159.65949379417361 0 -159.65949379417361 -499.04867368913256 0 0 0 0 162.19907526432507 -120.46126218093559 0 -120.46126218093559 -480.97766837535892 0 0 0 0 -40.341105012179469 37.312972041867397 0 37.312972041867397 -150.74704220415151 0 0 0 0 22.781359043025986 78.517484285726823 0 78.517484285726823 -287.93075251364826 0 0 0 0 14.370297579481075 86.113825396347238 0 86.113825396347238 -278.16537689627057 0 0 0 0 38.073695382877077 100.11033074419811 0 100.11033074419811 -274.42809587977536 0 0 0 0 -22.359027509381121 93.921582653594669 0 93.921582653594669 -250.68882622635283 0 0 0 0 -9.9762727398790556 -11.136056234887675 0 -11.136056234887675 -7.8707586085693109 0 0 0 0 3.9421256097193691 80.694927402975736 0 80.694927402975736 -245.81880159353204 0 0 0 0 -0.36765549263819963 -1.4530998580254177 0 -1.4530998580254177 -0.44199420597085304 0 0 0 0 -43.663930977444579 -43.702855993589765 0 -43.702855993589765 -70.559430634253658 0 0 0 0 19.223005616197952 -3.7750840593689645 0 -3.7750840593689645 -217.63157262115055 0 0 0 0 -54.554578485591719 -19.182363476377759 0 -19.182363476377759 -100.80898705895379 0 0 0 0 48.754266787504093 91.236498432619555 0 91.236498432619555 -131.32632234282937 0 0 0 0 -69.714387786917541 11.457704772223224 0 11.457704772223224 -62.576795843433501 0 0 0 0 -0.38450497889030366 -0.6907668396790001 0 -0.6907668396790001 -0.81800744947224047 0 0 0 0 -274.97888997683003 119.87282986546052 0 119.87282986546052 -219.51091546082171 0 0 0 0 152.08841699164623 135.51275315378916 0 135.51275315378916 -608.41180277880994 0 0 0 0 -25.666981339774793 196.69401048520376 0 196.69401048520376 -217.50458260244341 0 0 0 0 -34.386002394904381 26.259560160409819 0 26.259560160409819 -0.56190184865045012 0 0 0 0 -65.574338668622659 52.409731266649032 0 52.409731266649032 -133.09856634057451 0 0 0 0 3.2525500754425707 1.1083537090443443 0 1.1083537090443443 -0.42878490368936895 0 0 0 0 13.48004365851375 7.5411197882167471 0 7.5411197882167471 -87.79495290092018 0 0 0 0 -67.364487293729326 68.173580092257907 0 68.173580092257907 -324.35377136069656 0 0 0 0 21.720226766332416 -27.899171075332561 0 -27.899171075332561 -257.58178112415771 0 0 0 0 8.8569955308339559 14.623072987564228 0 14.623072987564228 -76.090011533283359 0 0 0 0 9.9274360095366205 6.581359188017359 0 6.581359188017359 -70.877737474176683 0 0 0 0 10.574040494233486 1.3589232808953966 0 1.3589232808953966 -73.476274068383645 0 0 0 0 9.8097991025792339 5.5455580072975863 0 5.5455580072975863 -65.820927206921624 0 0 0 0 9.2500077101170177 -1.8748284310163399 0 -1.8748284310163399 -61.603646776973619 0 0 0 0 10.619506312628801 -1.8885943582499749 0 -1.8885943582499749 -60.026759149535792 0 0 0 0 9.0144929842226702 0.091563444846542552 0 0.091563444846542552 -66.539206451278005 0 0 0 0 5.0541498133347886 6.4646258434986521 0 6.4646258434986521 -61.043205845839111 0 0 0 0 9.1568977085889856 9.0642405599628546 0 9.0642405599628546 -65.551386663493759 0 0 0 0 9.6323740121588344 8.9816976554357097 0 8.9816976554357097 -66.904267920381244 0 0 0 0 -8.7819699690926427 5.7866861565307772 0 5.7866861565307772 -67.455815109962714 0 0 0 0 3.3866638806211995 -2.6780780732369749 0 -2.6780780732369749 -79.341849544118304 0 0 0 0 9.338541290615467 -12.095818724905257 0 -12.095818724905257 -54.702948708923941 0 0 0 0 9.4305994612877839 -13.060505034765811 0 -13.060505034765811 -57.491050567230559 0 0 0 0 -0.88385333277386291 2.7524926703757053 0 2.7524926703757053 1.0451937052821734 0 0 0 0 -315.03998047942878 510.77497896875138 0 510.77497896875138 -1041.568618713296 0 0 0 0 -13.694175058946712 82.396136076727998 0 82.396136076727998 -446.72157145279925 0 0 0 0 60.365720777575916 -36.893781618477078 0 -36.893781618477078 -352.76066541836917 0 0 0 0 70.069286835188905 29.824680708683445 0 29.824680708683445 -367.79776873696756 0 0 0 0 5.8604229862594366 -5.1432776937508606 0 -5.1432776937508606 -44.878738795767276 0 0 0 0 6.0011413596703136 1.5574406980463067 0 1.5574406980463067 1.5006045830665897 0 0 0 0 11.25245573234497 79.133924572786782 0 79.133924572786782 -310.12905915737792 0 0 0 0 -1.2764216879322703 6.7297960015639546 0 6.7297960015639546 -60.305272510689974 0 0 0 0 14.995068229145545 -1.9235895843521575 0 -1.9235895843521575 -64.178191944331047 0 0 0 0 16.193199741888748 -4.8494303074185154 0 -4.8494303074185154 -60.504788784004631 0 0 0 0 15.730595040731714 1.847770396641863 0 1.847770396641863 -59.886859470541822 0 0 0 0 12.866814760694979 -2.2811206142650917 0 -2.2811206142650917 -62.286242843238142 0 0 0 0 14.352790402743722 -5.8348417118340876 0 -5.8348417118340876 -56.656774956398294 0 0 0 0 9.8713071631427738 -11.962055224430514 0 -11.962055224430514 -60.691596875709365 0 0 0 0 12.626456403811972 -9.1139221313896996 0 -9.1139221313896996 -62.808274108581827 0 0 0 0 9.8931358576755883 -3.592560633267567 0 -3.592560633267567 -59.641471567832923 0 0 0 0 10.696633668243066 -9.8614012817124603 0 -9.8614012817124603 -67.777826588411699 0 0 0 0 11.521670781914509 -2.3066420766408555 0 -2.3066420766408555 -71.767396979557816 0 0 0 0 10.148989969657123 -8.9477945603830449 0 -8.9477945603830449 -57.573640409624204 0 0 0 0 10.507984506972207 9.0425259939402167 0 9.0425259939402167 -80.054867081224074 0 0 0 0 12.492787236050898 13.983171608728149 0 13.983171608728149 -19.082091941995948 0 0 0 0 -10.910052124877438 31.484398336186132 0 31.484398336186132 -345.22961779981415 0 0 0 0 12.008477120604768 -14.41666775142086 0 -14.41666775142086 -34.720634731434551 0 0 0 0 15.758257266718758 -14.515237244028839 0 -14.515237244028839 -24.742882811578824 0 0 0 0 53.619785573013132 16.245114720397396 0 16.245114720397396 -500.97846564472275 0 0 0 0 19.080314468733377 -10.037809289980942 0 -10.037809289980942 -55.276325317474402 0 0 0 0 24.729913749900334 -1.3424491243367811 0 -1.3424491243367811 -59.065904472881812 0 0 0 0 18.035646816138069 4.3460383246110723 0 4.3460383246110723 -49.609337137415423 0 0 0 0 2.6302249547880128 -1.6229630020512786 0 -1.6229630020512786 -2.1555192085768056 0 0 0 0 43.44838828744804 -22.74095751981622 0 -22.74095751981622 -569.00855883189797 0 0 0 0 60.084411676084983 11.686771401011356 0 11.686771401011356 -498.58049508414115 0 0 0 0 -33.167038945516566 -10.44788679373778 0 -10.44788679373778 -414.18191016663332 0 0 0 0 20.747560440165728 -64.237737865194504 0 -64.237737865194504 -544.24846910844644 0 0 0 0 29.064973860909106 75.946936647884286 0 75.946936647884286 -406.18432874735299 0 0 0 0 11.943980107023663 14.50065583914693 0 14.50065583914693 -389.22842413560284 0 0 0 0 -10.886282640513897 -49.896809093683167 0 -49.896809093683167 -5.8700485312040946 0 0 0 0 9.219028442535091 6.6201615234313067 0 6.6201615234313067 -371.50479845763402 0 0 0 0 -6.5094934483968245 21.046384056291572 0 21.046384056291572 -378.99017424285557 0 0 0 0 8.5313824448222029 -4.5066053077234329 0 -4.5066053077234329 -1.2506666811538221 0 0 0 0 8.0417243057991072 -0.73172115510169533 0 -0.73172115510169533 -47.324366964494402 0 0 0 0 11.375983088274552 4.6057912535652576 0 4.6057912535652576 -53.692788831067446 0 0 0 0 12.346612034845407 5.8164622027661608 0 5.8164622027661608 -67.222606912997435 0 0 0 0 10.679302980834791 0.57921655687005114 0 0.57921655687005114 -57.683952813691576 0 0 0 0 8.560386458281755 3.5028401136551111 0 3.5028401136551111 -57.194856626243563 0 0 0 0 11.265528336528405 -4.8808221643048455 0 -4.8808221643048455 -48.824060304261366 0 0 0 0 15.539126719291744 -1.6530057310628763 0 -1.6530057310628763 -56.885964743493332 0 0 0 0 15.335430262190039 -4.0259452447453512 0 -4.0259452447453512 -4.8583652982167109 0 0 0 0 14.874853423297054 3.1367788335519435 0 3.1367788335519435 -513.11115769030221 0 0 0 0 9.7218205874069099 -0.69156900752568617 0 -0.69156900752568617 -42.777157998163602 0 0 0 0 12.414336174844721 -2.3226686378693557 0 -2.3226686378693557 -56.479646820498601 0 0 0 0 11.850779390340904 2.1380478343708091 0 2.1380478343708091 -54.707677424987196 0 0 0 0 -135.9786889309855 77.201762437945376 0 77.201762437945376 -570.3832046600437 0 0 0 0 13.716289505224267 -51.410163708827895 0 -51.410163708827895 -557.53936815918132 0 0 0 0 -56.088863710879195 -36.895199826537464 0 -36.895199826537464 -0.33019777783692916 0 0 0 0 -45.082366702416493 -66.290865325012419 0 -66.290865325012419 -560.52052544258731 0 0 0 0 -4.4312866626286551 -51.7757160749224 0 -51.7757160749224 -9.4239626794872056 0 0 0 0 -64.41252615308963 12.760685608795029 0 12.760685608795029 -513.03162068642132 0 0 0 0 50.971935372554071 -186.60346512320393 0 -186.60346512320393 -860.42322957313445 0 0 0 0 -7.585970506569975 -16.303371879317151 0 -16.303371879317151 9.1013537836360001 0 0 0 0 165.35688672191395 -14.380424887564004 0 -14.380424887564004 -818.16266271853601 0 0 0 0 5.3623723299551873 -1.0772067092778883 0 -1.0772067092778883 -17.981605628002505 0 0 0 0 -127.40734344817002 247.98737449080181 0 247.98737449080181 -758.54751927996404 0 0 0 0 111.67328591981038 52.162718529769336 0 52.162718529769336 -38.615689536280115 0 0 0 0 58.488188002767856 -15.998881451687339 0 -15.998881451687339 -526.09185741733745 0 0 0 0 407.94287206581703 -75.720798689544608 0 -75.720798689544608 -802.90987220448733 0 0 0 0 -130.49886209868637 -60.963611748416952 0 -60.963611748416952 -725.78098149565631 0 0 0 0 -3.6241978265020407 -29.408371287921909 0 -29.408371287921909 -791.85423373568483 0 0 0 0 9.0324093563035035 24.369919356332503 0 24.369919356332503 -687.3394311999582 0 0 0 0 330.10646615171572 -132.32941292632313 0 -132.32941292632313 -614.01155306801593 0 0 0 0 55.342196041776106 -635.99145352084179 0 -635.99145352084179 -411.91262664656824 0 0 0 0 482.36295921626208 188.81030538263576 0 188.81030538263576 -1109.802493782925 0 0 0 0 562.20295788506655 -150.17703663544671 0 -150.17703663544671 -768.42164141293324 0 0 0 0 17.779475617619937 -4.6536033604970726 0 -4.6536033604970726 -57.860417902156769 0 0 0 0 20.199155760763574 2.9681705831471845 0 2.9681705831471845 -57.994999689748511 0 0 0 0 23.761863361303767 -18.315592476763413 0 -18.315592476763413 -80.029807135944793 0 0 0 0 -5.1014630981414939 -29.391705673038814 0 -29.391705673038814 0.49007779733437928 0 0 0 0 18.081527765674764 3.113080619397806 0 3.113080619397806 -163.92807731547509 0 0 0 0 7.2028407700790922 -28.455987159119104 0 -28.455987159119104 -107.62195055479242 0 0 0 0 26.354732731609147 -3.6249448356466019 0 -3.6249448356466019 -88.258315548831888 0 0 0 0 19.500175116104629 -61.587688447594701 0 -61.587688447594701 -52.018902618461652 0 0 0 0 270.92830079304076 171.97850317513803 0 171.97850317513803 -952.39883196152368 0 0 0 0 -977.95865453731358 101.80435612736983 0 101.80435612736983 -675.27109298666619 0 0 0 0 2.4313201551235455 -3.1440235251387207 0 -3.1440235251387207 -1.2785200317121586 0 0 0 0 221.63838480327769 -21.379273451928384 0 -21.379273451928384 -774.08728688644987 0 0 0 0 -0.026737524638978272 -1.7126815201932573 0 -1.7126815201932573 -0.7820916766018744 0 0 0 0 294.55687316273088 68.031049460099894 0 68.031049460099894 -667.93546652088662 0 0 0 0 14.423327512436714 -113.32391168568211 0 -113.32391168568211 -577.44269705551778 0 0 0 0 -4.0103219254949067 -21.154900404821092 0 -21.154900404821092 -396.97232578986586 0 0 0 0 31.749851928715259 16.913567115218029 0 16.913567115218029 -397.31172123499346 0 0 0 0 69.32298486663538 -92.620833176007181 0 -92.620833176007181 -155.62269963321887 0 0 0 0 -11.586114128170038 85.893430648648064 0 85.893430648648064 -263.19634902997495 0 0 0 0 -59.348615426104743 -58.7190542003882 0 -58.7190542003882 96.829241839789574 0 0 0 0 62.950041559093279 -18.337859882414705 0 -18.337859882414705 -98.35368329451012 0 0 0 0 2.7489396647197282 44.154331294361327 0 44.154331294361327 -56.626097513435525 0 0 0 0 20.069036219419559 14.937610932047392 0 14.937610932047392 -198.57126214176242 0 0 0 0 -39.975974331093994 4.3365263465930184 0 4.3365263465930184 -71.953508916994906 0 0 0 0 -29.997719415819574 -17.783018169575371 0 -17.783018169575371 -97.901782570004798 0 0 0 0 -0.98545889798606368 17.299841485313664 0 17.299841485313664 -163.5029720197781 0 0 0 0 -24.87919453653285 37.183058687707671 0 37.183058687707671 -261.38894708870794 0 0 0 0 -53.289077074295164 14.895373171697429 0 14.895373171697429 -163.42057452932022 0 0 0 0 -13.914800465834958 89.240697577850369 0 89.240697577850369 -286.69470022064343 0 0 0 0 -113.91976070418809 113.99112029077514 0 113.99112029077514 -278.66354155303998 0 0 0 0 -2.2463413209727605 -29.779624899962073 0 -29.779624899962073 -432.43078504559526 0 0 0 0 -136.11170941028354 -5.2055592913457076 0 -5.2055592913457076 -277.49784867560811 0 0 0 0 -16.157174743785362 61.580421935446793 0 61.580421935446793 -309.08107701447443 0 0 0 0 -6.4758329308732439 1.3572119340439173 0 1.3572119340439173 -1.4875752967140237 0 0 0 0 -12.764064295096887 126.16010093213117 0 126.16010093213117 -368.25409714048874 0 0 0 0 -52.2934219582217 94.389847133683361 0 94.389847133683361 -133.89336298443959 0 0 0 0 1.2406207060004695 -5.3572097100597844 0 -5.3572097100597844 -6.1070921146488786 0 0 0 0 -41.878114762275118 73.922853737174592 0 73.922853737174592 -124.84204438368761 0 0 0 0 -26.101898022930186 69.325678672665163 0 69.325678672665163 -157.91533652616636 0 0 0 0 -52.011946284587111 108.01537357628877 0 108.01537357628877 -160.00534685576713 0 0 0 0 -16.068740143990681 45.247990188952826 0 45.247990188952826 -53.433017678169563 0 0 0 0 51.345166035980128 74.020950516714947 0 74.020950516714947 -135.00408123608213 0 0 0 0 -19.672560895507559 106.87386668681575 0 106.87386668681575 -130.34589183384196 0 0 0 0 -33.012576108046687 102.39615289721405 0 102.39615289721405 -134.73601411592972 0 0 0 0 56.847474289862191 13.527250588354946 0 13.527250588354946 -123.84307502873708 0 0 0 0 -1.023182705752788 34.611457048802549 0 34.611457048802549 -52.344959033769555 0 0 0 0 -4.1204581854306062 -8.8025409977375872 0 -8.8025409977375872 -6.5584026664294655 0 0 0 0 122.70171482979367 202.62932345089212 0 202.62932345089212 -525.44507100569172 0 0 0 0 -12.004846066137887 -21.244024011883994 0 -21.244024011883994 -50.699911496558343 0 0 0 0 -2.6593155896673721 0.44119949703215866 0 0.44119949703215866 -0.15612994088397159 0 0 0 0 -93.804350150508981 -21.491011210186116 0 -21.491011210186116 15.25553995968221 0 0 0 0 -146.06711499891344 77.584106206581055 0 77.584106206581055 -569.79680496543915 0 0 0 0 2.206998655154166 -18.103434872526122 0 -18.103434872526122 -59.081187725741074 0 0 0 0 0.9901245115302455 -0.22214376718221729 0 -0.22214376718221729 -0.57441448583645283 0 0 0 0 7.4663185202246041 34.226260409170209 0 34.226260409170209 -57.321415764312405 0 0 0 0 -0.37061586652293954 21.281955570670107 0 21.281955570670107 -72.477115163288545 0 0 0 0 23.291759779055155 16.611591035216406 0 16.611591035216406 -72.087429744417022 0 0 0 0 24.011783106922394 15.368118315614993 0 15.368118315614993 -87.796194211950024 0 0 0 0 40.980028146355835 18.871612647169968 0 18.871612647169968 -102.29731410369277 0 0 0 0 23.0548352214646 64.727304995736631 0 64.727304995736631 -75.657699292187317 0 0 0 0 45.027777555315538 13.432694944210198 0 13.432694944210198 -181.39104112800851 0 0 0 0 -49.626553551217739 -12.738779819599586 0 -12.738779819599586 -164.62841395083524 0 0 0 0 39.371583711930271 66.673789587232022 0 66.673789587232022 -327.0158986786555 0 0 0 0 38.852878264604897 74.701561405716348 0 74.701561405716348 -132.52290606009774 0 0 0 0 55.325849264560503 49.815329631317582 0 49.815329631317582 -417.70222102391745 0 0 0 0 56.00904294153996 34.591154133566306 0 34.591154133566306 -300.66854897755911 0 0 0 0 10.970131585725959 -48.839967842548504 0 -48.839967842548504 -183.84616109797207 0 0 0 0 0.029197760767451127 27.584115002517528 0 27.584115002517528 -275.58400231347332 0 0 0 0 -1.9238492736908626 -19.373544181424222 0 -19.373544181424222 -131.55633020282403 0 0 0 0 -2.1916550252657885 -121.2579132696701 0 -121.2579132696701 -333.8001565176055 0 0 0 0 -91.489552111675735 -60.160078926830465 0 -60.160078926830465 -73.793825414933963 0 0 0 0 85.212939657261586 -12.803566018337733 0 -12.803566018337733 -89.401483138011827 0 0 0 0 -20.619627689657023 9.6247292898224259 0 9.6247292898224259 -85.269303978755488 0 0 0 0 -0.066131380672198203 0.60773537125785992 0 0.60773537125785992 -10.320613747741703 0 0 0 0 -161.29449732681917 -343.1293145754571 0 -343.1293145754571 -345.99922129570768 0 0 0 0 74.914703969907507 70.10375008828305 0 70.10375008828305 -397.9850017184508 0 0 0 0 49.738163710738291 213.22346771448065 0 213.22346771448065 -1202.3750124823855 0 0 0 0 -796.11570224798766 250.92275042222536 0 250.92275042222536 -171.67464992235182 0 0 0 0 16.363859999589707 29.23111468697789 0 29.23111468697789 -174.47648783367185 0 0 0 0 -3.0557086183586932 189.46484580374818 0 189.46484580374818 -428.133034413926 0 0 0 0 -152.27977437985174 269.34798245572892 0 269.34798245572892 41.831704160518711 0 0 0 0 0.89613558212090538 151.1962848904659 0 151.1962848904659 -191.2093923599241 0 0 0 0 0.11758026017277859 61.644386181236769 0 61.644386181236769 -313.42422057501244 0 0 0 0 -5.6382632998901556 62.559375189532147 0 62.559375189532147 -168.65182673343224 0 0 0 0 -0.14955408030213638 58.870952191275137 0 58.870952191275137 -167.91883097791288 0 0 0 0 -62.484251547219486 73.313041786903341 0 73.313041786903341 -123.73767270376993 0 0 0 0 -3.7910094495948954 -6.1725024199986365 0 -6.1725024199986365 -104.23260781816498 0 0 0 0 -8.8134862534632816 5.2449902627122356 0 5.2449902627122356 -88.384069438747247 0 0 0 0 -12.050037730812882 20.062842059094692 0 20.062842059094692 -130.83767427419662 0 0 0 0 -2.3948819233721035 32.008694008301973 0 32.008694008301973 -211.22116140708386 0 0 0 0 -13.382990729483614 -72.801592087882455 0 -72.801592087882455 -168.12680112464295 0 0 0 0 -29.912431730461179 -27.136333834532707 0 -27.136333834532707 -89.736175494792406 0 0 0 0 0.43767423714812659 -0.41195458795628781 0 -0.41195458795628781 0.22979016048105905 0 0 0 0 -14.230416195689401 -23.765646743107936 0 -23.765646743107936 -90.34304452989727 0 0 0 0 -6.3490721296399926 -15.547543950673571 0 -15.547543950673571 -83.263742610346526 0 0 0 0 -6.3048120969896502 -28.568722789219464 0 -28.568722789219464 -129.46810828921139 0 0 0 0 -8.1001645046082089 -40.759522180005661 0 -40.759522180005661 -73.604735959495883 0 0 0 0 0.15999477174927657 -0.074945673677405011 0 -0.074945673677405011 -0.039187295855668935 0 0 0 0 -1.6592186278477925 -2.8248608166177291 0 -2.8248608166177291 -2.5455404254544192 0 0 0 0 -1.2955394024832003 -0.7004068827309311 0 -0.7004068827309311 -0.70693129979190417 0 0 0 0 -1.802395239672552 26.568243533714849 0 26.568243533714849 -6.4807174129932719 0 0 0 0 2.889158241155144 -1.116318678992684 0 -1.116318678992684 -2.6418896535324166 0 0 0 0 -0.07128208459587633 0.4426102587850167 0 0.4426102587850167 -1.2840273029908928 0 0 0 0 3.2053120819572172 -1.5987835361229372 0 -1.5987835361229372 -1.9871392596105579 0 0 0 0 1.7793227538939504 -0.57716755739238579 0 -0.57716755739238579 2.2896824853523867 0 0 0 0 -3.8395940290128294 -12.615757184117683 0 -12.615757184117683 -61.297917747142492 0 0 0 0 0.045057906866517783 -23.806460427011189 0 -23.806460427011189 -42.387261932584806 0 0 0 0 5.5570525235789603 -25.271821409889526 0 -25.271821409889526 -62.864134877432662 0 0 0 0 -2.0430395986231247 -9.3219876257389842 0 -9.3219876257389842 -29.779451942005835 0 0 0 0 10.143987186385203 -19.823929139529355 0 -19.823929139529355 -67.843285251343332 0 0 0 0 10.190624695270056 -17.373631836609604 0 -17.373631836609604 -72.033064737406676 0 0 0 0 7.2066523022286049 -17.94391989948781 0 -17.94391989948781 -69.799793530888564 0 0 0 0 16.977066101729307 -8.0497789259588899 0 -8.0497789259588899 -60.339421465949272 0 0 0 0 -6.53313970973241 -27.016352086367988 0 -27.016352086367988 -70.079963355143263 0 0 0 0 24.643197893066997 -28.222370229857916 0 -28.222370229857916 -79.179322144620528 0 0 0 0 -13.13177600955575 -44.159064679923176 0 -44.159064679923176 49.025257410277845 0 0 0 0 -47.782925982850728 9.7514633785658589 0 9.7514633785658589 -17.760802113072714 0 0 0 0 39.557910389754568 -16.212783429815318 0 -16.212783429815318 -58.20646424122242 0 0 0 0 3.3057884196439318 3.672084278157854 0 3.672084278157854 -39.20561846482633 0 0 0 0 7.6860936095985153 4.0915136450166756 0 4.0915136450166756 -58.825170193056692 0 0 0 0 4.6297774808947736 4.7697819368277123 0 4.7697819368277123 -44.090556005088729 0 0 0 0 0.19272015483630867 -16.582455853917054 0 -16.582455853917054 -72.340149588577333 0 0 0 0 -6.0117427076593799 -16.614519942260813 0 -16.614519942260813 -44.274102976814902 0 0 0 0 9.4854471129246534 -9.0235726093196718 0 -9.0235726093196718 -72.653512182354461 0 0 0 0 -6.6301071453219151 -8.5029197113835835 0 -8.5029197113835835 -68.854964146165003 0 0 0 0 4.431794169535948 3.9323383524715609 0 3.9323383524715609 -112.05237388104433 0 0 0 0 5.5789665839186569 -18.75122633731371 0 -18.75122633731371 -73.74386154836975 0 0 0 0 -22.034935271316144 32.929767315905337 0 32.929767315905337 -81.884905274404446 0 0 0 0 -27.773170271783556 22.42041059127223 0 22.42041059127223 -72.325907994949375 0 0 0 0 -76.777616522634531 41.355585543347843 0 41.355585543347843 16.096873706177576 0 0 0 0 -83.097421133186515 8.8567460710664818 0 8.8567460710664818 -69.592296409391565 0 0 0 0 -2.3921984557672786 -4.0205019156483104 0 -4.0205019156483104 -77.066633019072469 0 0 0 0 -29.525393940595848 -4.3839569651245256 0 -4.3839569651245256 -58.712830469539767 0 0 0 0 56.212839238761319 -29.667857431661105 0 -29.667857431661105 -85.306046995625366 0 0 0 0 -34.054426165055702 -27.015276489793905 0 -27.015276489793905 76.41679698038206 0 0 0 0 -210.46642248325043 150.68295873157331 0 150.68295873157331 -65.41219383222051 0 0 0 0 -40.776376010359058 3.1116338359424844 0 3.1116338359424844 -31.909473928186344 0 0 0 0 -95.50539325903631 142.15711737530273 0 142.15711737530273 -136.13554504296917 0 0 0 0 -12.352763058582241 -95.3232911175146 0 -95.3232911175146 93.65546638451633 0 0 0 0 -0.45279023219533765 -0.81654728395404419 0 -0.81654728395404419 -1.8929368602329362 0 0 0 0 -200.2743399463979 -111.52542245477525 0 -111.52542245477525 162.35188524861587 0 0 0 0 -361.95891139450151 23.463235711948073 0 23.463235711948073 191.95515694309142 0 0 0 0 -2.575367177405866 68.993591936374287 0 68.993591936374287 -134.3513324491214 0 0 0 0 -85.90962252699569 108.54857001263008 0 108.54857001263008 -47.900543431365804 0 0 0 0 -44.063217549269837 124.63311437520679 0 124.63311437520679 -203.13685229994007 0 0 0 0 52.74185319511048 18.399807096517179 0 18.399807096517179 -265.77306721147761 0 0 0 0 190.93569675705817 -45.276665903269532 0 -45.276665903269532 -85.248192010330968 0 0 0 0 1.5272050815749481 -0.1980191899347119 0 -0.1980191899347119 91.573265258139145 0 0 0 0 3.4799463941000113 168.70297198277694 0 168.70297198277694 -295.87559092957235 0 0 0 0 2.586762896168131 11.85085136168054 0 11.85085136168054 -60.925178355306969 0 0 0 0 6.2471699518907826 -16.544535496021126 0 -16.544535496021126 -54.412492083683901 0 0 0 0 -32.248543110024343 -21.841453863140487 0 -21.841453863140487 34.298872384460992 0 0 0 0 92.177366827360729 -132.04088987023988 0 -132.04088987023988 -117.55184182910307 0 0 0 0 5.0934564880533202 7.5083392634540971 0 7.5083392634540971 -53.513323875914978 0 0 0 0 24.603579141907232 38.148534386542451 0 38.148534386542451 -4.4300914129125886 0 0 0 0 16.682018952983981 -13.025649070252257 0 -13.025649070252257 -61.97816067770691 0 0 0 0 0.50084670353648963 -11.427164522036762 0 -11.427164522036762 -9.8791970805237668 0 0 0 0 8.3430468373521762 0.63652854090832989 0 0.63652854090832989 -73.517506671778392 0 0 0 0 -106.60787687221421 64.040266490417707 0 64.040266490417707 13.593073556781746 0 0 0 0 112.86431545799849 152.70954120052011 0 152.70954120052011 12.953183662029915 0 0 0 0 -274.09837851428392 35.561830137718061 0 35.561830137718061 91.882076714919094 0 0 0 0 -36.859108493233293 -107.11660774319898 0 -107.11660774319898 -302.41485557545093 0 0 0 0 -98.610170227629624 -42.572210104954138 0 -42.572210104954138 131.94595656802267 0 0 0 0 257.22814182844513 -109.5079701630857 0 -109.5079701630857 6.6183527252451313 0 0 0 0 9.4470249103166086 0.27976080025098327 0 0.27976080025098327 -11.146442448681839 0 0 0 0 -323.65365812365758 -55.932170533451426 0 -55.932170533451426 456.64208336907905 0 0 0 0 2.6006106576095545 -0.38174833786885642 0 -0.38174833786885642 0.87800105413506913 0 0 0 0 138.98446458696856 -280.26155932130314 0 -280.26155932130314 -198.07739447375934 0 0 0 0 -212.84718557760607 75.578437248637783 0 75.578437248637783 125.87613742712711 0 0 0 0 -171.05834942944773 -191.40902144748907 0 -191.40902144748907 -1347.2250906243135 0 0 0 0 -2.4025558749069273 6.738909448979534 0 6.738909448979534 -22.655984280119412 0 0 0 0 -1.9833651824172764 4.542232307734281 0 4.542232307734281 -8.1273678146139048 0 0 0 0 127.89119850210375 -260.05409363946819 0 -260.05409363946819 -771.89183311950183 0 0 0 0 -45.526977954724998 244.68794965049165 0 244.68794965049165 -1265.8886047828182 0 0 0 0 181.21436705560154 797.33912746986607 0 797.33912746986607 -671.96655567556445 0 0 0 0 -554.963572673351 736.43483393956558 0 736.43483393956558 -716.59308663113916 0 0 0 0 -132.20717068344516 901.80118029040023 0 901.80118029040023 -1012.0057069765207 0 0 0 0 80.838297872379371 610.34860743339232 0 610.34860743339232 -957.31250840252324 0 0 0 0 1.3734829126542194 -6.0742247168391259 0 -6.0742247168391259 0.0030610206576966448 0 0 0 0 191.82852659528169 -241.09596198557119 0 -241.09596198557119 -134.81745287289959 0 0 0 0 -83.821737169535197 152.01386086240382 0 152.01386086240382 102.40957741256307 0 0 0 0 1.6944334864912358 -2.637562424543642 0 -2.637562424543642 -25.141834165465099 0 0 0 0 -257.50216450985329 206.10694166760368 0 206.10694166760368 156.63447536197782 0 0 0 0 -195.13399928780689 164.7896360495688 0 164.7896360495688 -1282.9197457163536 0 0 0 0 -972.29848787264564 -150.85754038072628 0 -150.85754038072628 142.71456013742136 0 0 0 0 54.324836101805204 -111.77759266679641 0 -111.77759266679641 -441.39080768405984 0 0 0 0 396.75897979094952 860.12677537075069 0 860.12677537075069 -1094.4927686553492 0 0 0 0 -39.925613107561276 75.141806897743663 0 75.141806897743663 -159.9871132285698 0 0 0 0 -55.621987325610917 575.43709147765912 0 575.43709147765912 -1277.628245950611 0 0 0 0 -1.4791611585194429 -2.1939008980430259 0 -2.1939008980430259 -3.4715871985770264 0 0 0 0 52.619305202866443 -128.89377344652485 0 -128.89377344652485 -16.06079905959632 0 0 0 0 -292.41279938867262 249.68036644016865 0 249.68036644016865 -517.48265942959551 0 0 0 0 12.967377768048095 -14.48781558826704 0 -14.48781558826704 -619.96346352800902 0 0 0 0 -185.91990424561794 151.27580324820883 0 151.27580324820883 -409.21420818690967 0 0 0 0 203.76018174415549 -73.085429852093512 0 -73.085429852093512 -1101.8458715086945 0 0 0 0 1.1231991697978225 0.74143172613868114 0 0.74143172613868114 -46.027173907037849 0 0 0 0 -12.165840006045755 -24.360641732258955 0 -24.360641732258955 -77.543536026983929 0 0 0 0 -46.317108782434161 118.16020682545059 0 118.16020682545059 -237.95861892228277 0 0 0 0 -255.80869437383762 354.89172778081411 0 354.89172778081411 -168.14990072836736 0 0 0 0 130.37758679249146 108.37187816739606 0 108.37187816739606 -338.10528038096527 0 0 0 0 5.149909696998634 -1270.6802726820679 0 -1270.6802726820679 -299.04135382012828 0 0 0 0 1441.3619399359468 367.71302748265316 0 367.71302748265316 -1175.2266768198897 0 0 0 0 186.72524654444533 77.542930332558171 0 77.542930332558171 -1433.8577517532176 0 0 0 0 70.64094639764744 406.76829788067698 0 406.76829788067698 -1204.2821295874164 0 0 0 0 -384.73760930201195 -566.85865090058587 0 -566.85865090058587 -681.66335234436701 0 0 0 0 -274.30698144322787 -36.828226849673229 0 -36.828226849673229 -151.68344454357793 0 0 0 0 -662.79001671528931 271.18100621716076 0 271.18100621716076 20.515614315656421 0 0 0 0 358.37955005695926 523.32094932351538 0 523.32094932351538 -14.873682952562376 0 0 0 0 398.31140254847742 366.72062468856529 0 366.72062468856529 267.51670018284494 0 0 0 0 4.977444785621393 2.3303094990993287 0 2.3303094990993287 -14.467151154212921 0 0 0 0 -132.39503824313147 325.68792481532728 0 325.68792481532728 435.57763675937167 0 0 0 0 -280.12555470197969 -260.11236234249554 0 -260.11236234249554 223.23789695858432 0 0 0 0 111.94456073331503 48.998566732741892 0 48.998566732741892 -225.12437276574929 0 0 0 0 -283.80772241853947 174.61395274882307 0 174.61395274882307 284.89698277317075 0 0 0 0 73.508646844954683 10.696611276440308 0 10.696611276440308 -89.99665235192515 0 0 0 0 232.72852242089334 -108.84986809578822 0 -108.84986809578822 -13.583865802880609 0 0 0 0 371.93420649684958 280.26308014298047 0 280.26308014298047 -19.971861456731858 0 0 0 0 2.508342971173227 -4.5708439565854047 0 -4.5708439565854047 -32.652374572311771 0 0 0 0 17.898562083035358 -4.7247891148217604 0 -4.7247891148217604 -49.476625315917772 0 0 0 0 6.1266851845255683 0.33363517995326974 0 0.33363517995326974 -59.671361482613577 0 0 0 0 139.36854248909574 -47.106773784387769 0 -47.106773784387769 -122.47747271535627 0 0 0 0 50.284654619816592 -111.75558138448832 0 -111.75558138448832 -176.31161104680359 0 0 0 0 2.2551914235076538 -84.854080043496651 0 -84.854080043496651 30.32560900356475 0 0 0 0 13.74965628746402 -8.5687500832922581 0 -8.5687500832922581 -13.531539274791768 0 0 0 0 18.055027371227425 -8.9511783628840931 0 -8.9511783628840931 -58.33632245894114 0 0 0 0 3.3051755714614615 -11.566734493379045 0 -11.566734493379045 -49.258541369868908 0 0 0 0 9.6745718523293363 -24.16312334054237 0 -24.16312334054237 -29.088989802517062 0 0 0 0 11.963775174480816 -10.034609653426742 0 -10.034609653426742 -49.863998021799489 0 0 0 0 11.480921554639508 -23.369687042875739 0 -23.369687042875739 -45.52404292247229 0 0 0 0 10.287521911302292 -10.60042336677725 0 -10.60042336677725 -30.724919934022182 0 0 0 0 -12.899486051092225 19.55119100558386 0 19.55119100558386 2.6148143454702222 0 0 0 0 -0.56784130931903398 -1.9490649955149042 0 -1.9490649955149042 -19.827355496540434 0 0 0 0 -34.737212323915173 -42.683283867016144 0 -42.683283867016144 -35.043838786481501 0 0 0 0 35.971241786906546 -65.490608620040803 0 -65.490608620040803 -47.434954706397548 0 0 0 0 28.707664627930399 -14.63276704299642 0 -14.63276704299642 -54.367410979442525 0 0 0 0 -101.22728506216163 -8.863066091107612 0 -8.863066091107612 -33.020525467884909 0 0 0 0 -36.533890934138071 -125.27852218673434 0 -125.27852218673434 -8.3414028028710163 0 0 0 0 -142.98778931620475 113.95038556182635 0 113.95038556182635 -110.46946705767914 0 0 0 0 -0.38271512751385717 -1.1127894255504991 0 -1.1127894255504991 -6.5215829363559692 0 0 0 0 -312.43907078987809 -133.43522316232338 0 -133.43522316232338 31.097032253659563 0 0 0 0 371.65649955690628 279.04947508328769 0 279.04947508328769 -188.89521216774301 0 0 0 0 315.3309826190864 -39.314999141100998 0 -39.314999141100998 -720.14070117878146 0 0 0 0 1.3393845125192474 14.309399834382731 0 14.309399834382731 -64.324992858423428 0 0 0 0 -8.1865762000751374 22.970447719989352 0 22.970447719989352 -87.346389338141307 0 0 0 0 -0.83816820558740801 -6.5574361852595757 0 -6.5574361852595757 -206.62140420564629 0 0 0 0 9.8163984108900877 -48.218533133909659 0 -48.218533133909659 -199.64608118193428 0 0 0 0 -33.979592047382539 89.973681258725264 0 89.973681258725264 -328.55898997124132 0 0 0 0 24.524936343507761 -63.675828850620746 0 -63.675828850620746 -412.88929580667536 0 0 0 0 -30.757783406838485 31.551064050150671 0 31.551064050150671 -88.860043861888698 0 0 0 0 -109.5244026908681 23.34887157704361 0 23.34887157704361 -5.1013300974373124 0 0 0 0 6.2935113486485079 68.087666158375214 0 68.087666158375214 -83.519673697170219 0 0 0 0 -51.760185818454374 43.923112419241079 0 43.923112419241079 28.195252457793686 0 0 0 0 -40.054305123419681 78.201655361852318 0 78.201655361852318 54.794224319964997 0 0 0 0 -64.854764417443221 109.48214479128001 0 109.48214479128001 91.474127657420468 0 0 0 0 -50.235136914353461 54.771301730252162 0 54.771301730252162 129.49466377242425 0 0 0 0 -30.368837043385383 85.318714872448254 0 85.318714872448254 49.525947393485694 0 0 0 0 34.301739223507866 41.726267237445427 0 41.726267237445427 -2.7537177403146416 0 0 0 0 -25.733128520963419 35.219756493526802 0 35.219756493526802 -14.302438891165366 0 0 0 0 5.4976459246813647 -24.83824544187155 0 -24.83824544187155 85.667303850816097 0 0 0 0 42.753659119110864 250.22228634439671 0 250.22228634439671 -258.41371025754052 0 0 0 0 -0.037845204988094849 0.44947873658784943 0 0.44947873658784943 0.34324962539596982 0 0 0 0 -39.954894973012415 16.885536821107962 0 16.885536821107962 0.55760807908518473 0 0 0 0 6.6415127585931373 18.721884928440659 0 18.721884928440659 -22.915917196572991 0 0 0 0 -13.644480240061966 14.109739552310202 0 14.109739552310202 -29.870203077862243 0 0 0 0 2.7588869163923846 -5.6714573650751845 0 -5.6714573650751845 -113.37423310966551 0 0 0 0 -44.225371634370234 54.01877717588286 0 54.01877717588286 -50.777925519985729 0 0 0 0 -39.621360937986083 1.8737821527756751 0 1.8737821527756751 -20.314162866881816 0 0 0 0 -15.932192366961772 17.373835568163486 0 17.373835568163486 -17.126524232080556 0 0 0 0 1.9994134657458744 -0.74361382413189858 0 -0.74361382413189858 -43.161172897314827 0 0 0 0 8.3084333054969193 0.93354573066608282 0 0.93354573066608282 -45.08117770908575 0 0 0 0 -0.20276223618770928 -0.86002011339951423 0 -0.86002011339951423 -2.6683285167528084 0 0 0 0 66.809047611167102 122.0049610790611 0 122.0049610790611 70.346131191952736 0 0 0 0 120.00323276678103 35.246546381031294 0 35.246546381031294 5.5966843948117457 0 0 0 0 -0.47291382193871989 -0.48998795165638853 0 -0.48998795165638853 -0.42418864962594682 0 0 0 0 0.79594263441049407 5.8494760745852545 0 5.8494760745852545 -35.832458394379501 0 0 0 0 -0.037679245899721714 0.73796128971323327 0 0.73796128971323327 -1.3709045253227998 0 0 0 0 -14.106128273273498 116.31695398775628 0 116.31695398775628 -25.106654893411815 0 0 0 0 -21.616297491319528 61.810624736986938 0 61.810624736986938 94.64365378459479 0 0 0 0 -58.861267313397548 131.34469145822368 0 131.34469145822368 81.748965032558772 0 0 0 0 64.142480394795712 35.968728084451868 0 35.968728084451868 18.227614220231771 0 0 0 0 -0.53055795973139563 0.12560143247134192 0 0.12560143247134192 -0.11480740080646967 0 0 0 0 50.301351203190734 110.79063246925216 0 110.79063246925216 103.61500080317091 0 0 0 0 0.13481661184367688 -0.14242509591480257 0 -0.14242509591480257 -0.2458248151413116 0 0 0 0 56.78936622904348 95.707757855920136 0 95.707757855920136 76.525588406148017 0 0 0 0 -38.634707161375445 90.551689811523829 0 90.551689811523829 92.741792282031383 0 0 0 0 -42.294525059660373 97.324928968351742 0 97.324928968351742 76.597107882626005 0 0 0 0 -35.461919321267487 64.390315093063691 0 64.390315093063691 73.461751040359559 0 0 0 0 -45.236029175066733 -17.317030563255685 0 -17.317030563255685 -32.288302966542687 0 0 0 0 -63.686623657329392 48.865168518903374 0 48.865168518903374 141.0142874426565 0 0 0 0 34.093137271406022 131.2557652055948 0 131.2557652055948 96.58515668821201 0 0 0 0 1.0196434737748512 0.39380037475316954 0 0.39380037475316954 -1.4209251173604542 0 0 0 0 95.157615946138549 118.19020482131236 0 118.19020482131236 185.10163994328468 0 0 0 0 67.404880072909009 186.06664410873782 0 186.06664410873782 88.760458424156241 0 0 0 0 83.26586892523197 30.088400935910158 0 30.088400935910158 -14.434657969031832 0 0 0 0 297.66421342563217 182.37698317990544 0 182.37698317990544 -149.55428434003261 0 0 0 0 5.911919166878306 345.38491769854591 0 345.38491769854591 -149.86800236505223 0 0 0 0 -275.52073512593881 -31.166196667349141 0 -31.166196667349141 17.613069317783811 0 0 0 0 -34.168594060121222 -114.4352701127973 0 -114.4352701127973 -371.1395093921783 0 0 0 0 -25.906392999423474 -65.762215440003274 0 -65.762215440003274 -156.46628992935439 0 0 0 0 7.4197148781001943 -17.750910391903744 0 -17.750910391903744 -0.1003270123837865 0 0 0 0 -0.5708177697816148 -2.5144166479491048 0 -2.5144166479491048 -6.150136092152394 0 0 0 0 0.05055552596581947 3.8423739451500296 0 3.8423739451500296 17.331660855847076 0 0 0 0 0.20186978097301633 -0.74428628352116988 0 -0.74428628352116988 -1.7326351985881132 0 0 0 0 2.6712446968160748 -2.7344345613091718 0 -2.7344345613091718 -7.7680593393088202 0 0 0 0 0.23535854358759178 -1.3767110310949064 0 -1.3767110310949064 -8.0185206551409749 0 0 0 0 336.81427165494017 69.880768958535555 0 69.880768958535555 -41.819489721892751 0 0 0 0 1.1191515704682962 -0.7544813658706957 0 -0.7544813658706957 -4.129200856630348 0 0 0 0 0.51195724334502302 -1.2051421242504148 0 -1.2051421242504148 -7.7956391333282227 0 0 0 0 29.379753109881676 -20.22871988654515 0 -20.22871988654515 69.901736811327282 0 0 0 0 1.0584699165091704 0.46484826777458466 0 0.46484826777458466 -5.2808714998835029 0 0 0 0 1.5319420342088961 -0.1233556959341513 0 -0.1233556959341513 -3.167610591306584 0 0 0 0 1.0558633416189025 -0.41580019967937965 0 -0.41580019967937965 -5.3482131944033142 0 0 0 0 0.57457163588381643 0.16918010132783934 0 0.16918010132783934 -3.7798721324605395 0 0 0 0 -0.56185472365586975 -1.0411378150456585 0 -1.0411378150456585 -7.7227253164055583 0 0 0 0 -0.080071545627954599 -1.7469722429569217 0 -1.7469722429569217 -5.2744570500523764 0 0 0 0 0.9000851706530284 -1.8023244247742696 0 -1.8023244247742696 -7.4754737360563013 0 0 0 0 0.25555237899356698 -0.010012304758745927 0 -0.010012304758745927 -3.4774256586847052 0 0 0 0 0.10020755505092893 -1.2804525778265088 0 -1.2804525778265088 -6.8442179837729782 0 0 0 0 2.2489218269286084 -1.9165136603041901 0 -1.9165136603041901 -31.428752795240143 0 0 0 0 -0.1876391377913933 -0.89926300180377439 0 -0.89926300180377439 -2.8038265248615062 0 0 0 0 -0.23542381966617654 -1.0590863534621828 0 -1.0590863534621828 -1.5134256274137385 0 0 0 0 0.30048043594541696 -0.99977149343794736 0 -0.99977149343794736 -7.9921162358077709 0 0 0 0 0.055919700162866626 -1.1908216512869529 0 -1.1908216512869529 -1.9118951060778571 0 0 0 0 -0.12669850241263703 -0.47764316184475319 0 -0.47764316184475319 -2.2210699738716357 0 0 0 0 -0.054410526947413107 -1.4721338905978314 0 -1.4721338905978314 -2.2909778035577517 0 0 0 0 -0.13005922242102119 -0.32152656345814634 0 -0.32152656345814634 -0.031749649175765171 0 0 0 0 -2.4393883195634771 -14.880541847285713 0 -14.880541847285713 -32.640797657310031 0 0 0 0 -2.7219631489365383 0.057562087211408652 0 0.057562087211408652 -0.67411376557356562 0 0 0 0 -6.6546686994540778 15.224036952873576 0 15.224036952873576 -47.132635707981535 0 0 0 0 10.876630188623722 5.4777477330208058 0 5.4777477330208058 -48.163461617264147 0 0 0 0 0.71411257934460082 15.017937821910891 0 15.017937821910891 -50.972281857855705 0 0 0 0 -18.133220816500852 15.209442737217614 0 15.209442737217614 -16.779700624494581 0 0 0 0 -3.4369673530713953 12.039485663961386 0 12.039485663961386 -22.77193828939744 0 0 0 0 0.46185818676485724 -0.12696437295016949 0 -0.12696437295016949 -16.379295076490962 0 0 0 0 1.2292320056708377 7.2556643127682037 0 7.2556643127682037 -20.434944417822408 0 0 0 0 -3.667333786264976 7.7483606404548482 0 7.7483606404548482 -14.186672152922256 0 0 0 0 -0.017054393714663441 1.4575216012381276 0 1.4575216012381276 -3.1134728602876578 0 0 0 0 -1.6307462096642666 8.2228117664853926 0 8.2228117664853926 -14.781641246710933 0 0 0 0 -3.9588158914539235 5.1898594414524268 0 5.1898594414524268 -9.0249485313834157 0 0 0 0 -2.4963131183915266 7.5199996007650043 0 7.5199996007650043 -14.837831827808259 0 0 0 0 -2.1213518241475366 6.6262503774041974 0 6.6262503774041974 -8.2287089848713606 0 0 0 0 -4.6644686021959387 6.914169931638753 0 6.914169931638753 -12.109970677302044 0 0 0 0 -6.4860365040151464 8.240681225892331 0 8.240681225892331 -9.5731927760170947 0 0 0 0 -6.8637865067639723 7.7336359547989559 0 7.7336359547989559 -8.0737922851840267 0 0 0 0 -3.4760476737687593 -0.83374123261329203 0 -0.83374123261329203 -1.0810380494420144 0 0 0 0 -6.642611310092434 5.5303575028083287 0 5.5303575028083287 -12.359710442560754 0 0 0 0 -4.5353258556317542 8.1932322966058564 0 8.1932322966058564 -14.843173705674417 0 0 0 0 -0.93609165573775499 8.9963675178296398 0 8.9963675178296398 -15.105655357023352 0 0 0 0 0.22358477148143718 -0.033194841002767816 0 -0.033194841002767816 0.071694348814432374 0 0 0 0 -3.141984052302405 14.290650320236637 0 14.290650320236637 -16.523851073805417 0 0 0 0 -11.167344176966481 14.613044999721751 0 14.613044999721751 -12.363581970021187 0 0 0 0 -326.19319262496413 37.782670953057277 0 37.782670953057277 -6.7564496042832616 0 0 0 0 -18.075088039850243 2.9699911002899171 0 2.9699911002899171 -2.2265055456318805 0 0 0 0 -2.0797418844348829 -0.066576730831442887 0 -0.066576730831442887 1.4531162640630697 0 0 0 0 -1.0377788800125689 -0.23491115325096246 0 -0.23491115325096246 0.18158357680772497 0 0 0 0 10.246767945363899 27.819609217149264 0 27.819609217149264 -22.002094603947626 0 0 0 0 5.5389190699845301 -12.356706361177658 0 -12.356706361177658 -15.147877695198986 0 0 0 0 -4.9299674334233714 10.09713737678976 0 10.09713737678976 -9.1157397775314166 0 0 0 0 -28.328388156905092 -0.69677122077445119 0 -0.69677122077445119 -8.9880826816734043 0 0 0 0 -0.66926852921335644 -0.27154328116054671 0 -0.27154328116054671 -2.7648194797213108 0 0 0 0 -34.950369636875166 283.6611174658392 0 283.6611174658392 -547.52961125437287 0 0 0 0 -283.90563820844454 -94.350659388590429 0 -94.350659388590429 88.281848171805905 0 0 0 0 144.75675907444895 89.939748058658552 0 89.939748058658552 -920.44172678127507 0 0 0 0 149.02886776579999 273.99875562285888 0 273.99875562285888 -955.38690939385651 0 0 0 0 -1.5991696014710097 0.37324140249216953 0 0.37324140249216953 -2.8169583645332494 0 0 0 0 142.28830500765707 82.150612211411499 0 82.150612211411499 -762.88024302999975 0 0 0 0 -512.27445602331863 362.01089910664086 0 362.01089910664086 -777.71645801179125 0 0 0 0 -298.19980211062011 -232.02582637537125 0 -232.02582637537125 -250.92071114571445 0 0 0 0 48.697349256228335 184.08934298710665 0 184.08934298710665 -445.25683556203694 0 0 0 0 -8.5969903753193648 -13.763455623833579 0 -13.763455623833579 -12.409596036159201 0 0 0 0 -5.1342502121407199 -4.8259102037376209 0 -4.8259102037376209 -5.4831108534924482 0 0 0 0 26.073987196443341 -15.017840932683612 0 -15.017840932683612 -27.600750816251093 0 0 0 0 16.373225931662091 6.9530796438994003 0 6.9530796438994003 -36.258446159983578 0 0 0 0 -2.3698643412844191 4.9535450697434555 0 4.9535450697434555 -8.9209716247641779 0 0 0 0 3.0124533189150497 -11.700708999305789 0 -11.700708999305789 -27.897134008642752 0 0 0 0 -10.30782995598156 -2.3319269562380214 0 -2.3319269562380214 -18.871938565018354 0 0 0 0 -6.7860328625447437 7.7085647279454861 0 7.7085647279454861 -9.0928648192737 0 0 0 0 -0.92045072940163664 4.223216020676773 0 4.223216020676773 -4.7546202392259147 0 0 0 0 2.4419281013033096 0.86102508945955947 0 0.86102508945955947 -5.2251785402241637 0 0 0 0 1.2344030417143586 10.35080974867742 0 10.35080974867742 -2.496991640975466 0 0 0 0 -1.3670784811435333 0.90143784074634681 0 0.90143784074634681 -8.2435071097985002 0 0 0 0 -439.66088839933991 47.706419297308457 0 47.706419297308457 -210.76728967553936 0 0 0 0 -0.60955881933346978 -1.0690925077252551 0 -1.0690925077252551 -8.9265573918487178 0 0 0 0 -251.41009641768233 -235.87373128677427 0 -235.87373128677427 -488.482995068116 0 0 0 0 241.50980305436497 326.25326345166104 0 326.25326345166104 -238.13951644394547 0 0 0 0 217.66257097611106 -287.05538668009831 0 -287.05538668009831 -78.286492571154668 0 0 0 0 -114.11992638025936 114.06891400277641 0 114.06891400277641 -115.3632111679326 0 0 0 0 -201.79295111541978 468.13158216014381 0 468.13158216014381 -630.21381898524487 0 0 0 0 161.47675875916116 107.63593228595528 0 107.63593228595528 -1091.406854245135 0 0 0 0 -55.952344735860606 -136.8648048068244 0 -136.8648048068244 -960.08689242915716 0 0 0 0 17.206991335015118 -166.01044529946375 0 -166.01044529946375 -978.0886529218933 0 0 0 0 57.358800183730636 309.62587545235147 0 309.62587545235147 -1132.9856775859953 0 0 0 0 44.196092644387306 178.13245571565585 0 178.13245571565585 -705.34417615414714 0 0 0 0 -11.677915958453013 -74.182053906646615 0 -74.182053906646615 -389.46039180218941 0 0 0 0 53.926441887389956 314.49270738263658 0 314.49270738263658 -581.84496249342919 0 0 0 0 94.870495574582492 129.20451152513124 0 129.20451152513124 -740.76008432281014 0 0 0 0 3.7027621670972621 171.19299095388124 0 171.19299095388124 -242.76576210783969 0 0 0 0 40.365745993760129 201.00484216560653 0 201.00484216560653 -577.65580069657881 0 0 0 0 63.347610914125653 -154.21691592052957 0 -154.21691592052957 3.9235860058979597 0 0 0 0 25.198971089308998 -18.249297061107427 0 -18.249297061107427 -107.52501787051733 0 0 0 0 51.584039110073718 -66.416422646718274 0 -66.416422646718274 -302.34728702202847 0 0 0 0 -36.358579267121058 -52.590688339696499 0 -52.590688339696499 -130.70334630834986 0 0 0 0 -1.9344824126847016 -89.334718270634767 0 -89.334718270634767 0.69581203945563175 0 0 0 0 -7.6176357100475798 -135.28511227092531 0 -135.28511227092531 -132.11992818313968 0 0 0 0 88.82923558296352 -158.91960363703402 0 -158.91960363703402 -98.236001361468425 0 0 0 0 144.20046989649927 -128.22336361554335 0 -128.22336361554335 -43.416509859294365 0 0 0 0 142.431882209984 -92.745063296046283 0 -92.745063296046283 -45.244629217399051 0 0 0 0 3.8736657000672494 -121.66621478676097 0 -121.66621478676097 -402.46532574320918 0 0 0 0 -34.152871663754922 -18.145443468019948 0 -18.145443468019948 -377.09903640160337 0 0 0 0 1.016073943079391 -31.94351941795685 0 -31.94351941795685 -355.40398178520263 0 0 0 0 -15.722073466999063 -147.68603252455796 0 -147.68603252455796 -157.31088929448742 0 0 0 0 -68.042900742238999 -176.9906382055924 0 -176.9906382055924 20.081001979779103 0 0 0 0 -35.88249088084649 -84.482759171867656 0 -84.482759171867656 -74.12469160942419 0 0 0 0 -63.765874800325037 -100.97393637735513 0 -100.97393637735513 -17.602082083714777 0 0 0 0 -56.918590797397883 -253.246432986125 0 -253.246432986125 -97.065197926654946 0 0 0 0 -56.923868148545807 -21.233468994461873 0 -21.233468994461873 -276.39567199641897 0 0 0 0 -71.979218326421233 35.374272469080097 0 35.374272469080097 305.75273561182985 0 0 0 0 -88.212362304275302 -247.11773429590176 0 -247.11773429590176 300.84698580492841 0 0 0 0 4.3462944564092041 -2.0623138472813451 0 -2.0623138472813451 1.6138133374606412 0 0 0 0 18.737439875330892 27.495088752435549 0 27.495088752435549 -38.765561581740712 0 0 0 0 -52.904861834902476 -73.939642414872651 0 -73.939642414872651 131.76519012707286 0 0 0 0 -34.152137619244968 -30.370703547123412 0 -30.370703547123412 87.938139220801531 0 0 0 0 50.383833959036565 -69.391037359589973 0 -69.391037359589973 49.919737643795088 0 0 0 0 95.795061318312946 -62.100689536062418 0 -62.100689536062418 31.982213516137563 0 0 0 0 97.778700454426797 -12.136172340196254 0 -12.136172340196254 55.991299559245817 0 0 0 0 -53.596634706532313 -81.772265524814429 0 -81.772265524814429 71.790412396745523 0 0 0 0 32.917979437313988 -117.30779763515602 0 -117.30779763515602 -4.2035993300805785 0 0 0 0 -33.281241070124452 -34.192172553259297 0 -34.192172553259297 58.757456055082002 0 0 0 0 26.154761701721171 -51.475326022396416 0 -51.475326022396416 -13.785862149685272 0 0 0 0 25.740069567780665 -59.101362387620611 0 -59.101362387620611 19.287939987552818 0 0 0 0 45.70477024671618 -79.499847980863706 0 -79.499847980863706 35.183362720214063 0 0 0 0 56.309435782293122 -35.145428009946045 0 -35.145428009946045 48.484063089068513 0 0 0 0 40.481929721260258 -75.712750129794586 0 -75.712750129794586 -10.776786049631482 0 0 0 0 38.13111450774818 -71.711200515655946 0 -71.711200515655946 -15.274124297313392 0 0 0 0 39.126736786828985 -62.586031869325325 0 -62.586031869325325 8.4851787007210078 0 0 0 0 -1.1479607297692951 -36.061033407379 0 -36.061033407379 -43.110051443349221 0 0 0 0 9.0228694345300315 -11.2804740242604 0 -11.2804740242604 -2.2906367716151692 0 0 0 0 54.034361927225348 -49.840287856478426 0 -49.840287856478426 -63.638415836379863 0 0 0 0 28.307671873153595 -35.443895979478839 0 -35.443895979478839 -44.558818358204462 0 0 0 0 10.633407136069508 -56.534632597420568 0 -56.534632597420568 -43.461987558373949 0 0 0 0 52.87732758082484 -56.32407132863591 0 -56.32407132863591 -85.073931917646405 0 0 0 0 105.65306815554413 -317.95216904803965 0 -317.95216904803965 325.68965940663475 0 0 0 0 -150.87458936563053 -9.2015252688761393 0 -9.2015252688761393 49.684143611852051 0 0 0 0 -0.89219457614224318 -4.2349736553383988 0 -4.2349736553383988 -27.114978480288613 0 0 0 0 -14.285956219066975 -45.639555844951246 0 -45.639555844951246 -87.102987496229616 0 0 0 0 134.9275791639829 -17.155055698440719 0 -17.155055698440719 -129.73404046149517 0 0 0 0 19.207915529156708 -49.716610877610947 0 -49.716610877610947 -9.9875571721131564 0 0 0 0 -10.252197269849603 34.112048784845683 0 34.112048784845683 -30.046881202120858 0 0 0 0 73.342976954119877 -57.972462071902555 0 -57.972462071902555 -76.670143892148189 0 0 0 0 -1.6532192041827329 -29.163153532834258 0 -29.163153532834258 2.3906105473797652 0 0 0 0 -15.131953784347843 -35.222808492115291 0 -35.222808492115291 -43.438010349760589 0 0 0 0 0.62458736502632206 -8.531243897947963 0 -8.531243897947963 -45.390023721202851 0 0 0 0 88.954789983025876 1.944411586429851 0 1.944411586429851 -78.817916290645371 0 0 0 0 114.75167572535247 -114.6656515522991 0 -114.6656515522991 -40.703903760877438 0 0 0 0 100.62412905685323 -130.55950193211902 0 -130.55950193211902 75.814951572038808 0 0 0 0 0.84371946647862828 -1.2115201884631688 0 -1.2115201884631688 -14.094127885329044 0 0 0 0 -1.5360634990623239 -11.274632771996053 0 -11.274632771996053 -36.228143500155767 0 0 0 0 0.8173586650152096 -12.165428258451442 0 -12.165428258451442 -6.2831691280428359 0 0 0 0 6.4206201130123191 -11.690998833222693 0 -11.690998833222693 -39.852275669207302 0 0 0 0 106.04468725609286 -88.790451019511238 0 -88.790451019511238 37.789349497561489 0 0 0 0 97.503814713377437 -139.12056675154872 0 -139.12056675154872 -65.947181399780675 0 0 0 0 153.8403406572034 -135.72842805034588 0 -135.72842805034588 -12.865956021356396 0 0 0 0 440.69954021653302 -141.90179043322496 0 -141.90179043322496 -157.34172752414452 0 0 0 0 -0.89197367662766047 -8.7182300757415909 0 -8.7182300757415909 -44.264846347179656 0 0 0 0 2.8255415042781351 -13.100500573018508 0 -13.100500573018508 -43.070772620423668 0 0 0 0 -78.441267354865545 10.986162281747966 0 10.986162281747966 35.439501795483011 0 0 0 0 -0.29419164358202327 -1.1103922260224728 0 -1.1103922260224728 -0.56478383639208118 0 0 0 0 -1.3961069980911818 -2.8865092387735594 0 -2.8865092387735594 -4.0889748275983777 0 0 0 0 -536.25189937294567 -29.923094304765982 0 -29.923094304765982 26.877165149053326 0 0 0 0 -176.79242328068221 -184.1896293616519 0 -184.1896293616519 10.231988675157481 0 0 0 0 -219.08185800925185 35.306204348402389 0 35.306204348402389 -67.380039670453698 0 0 0 0 -203.78919484007292 -15.772265049810812 0 -15.772265049810812 33.177855110261589 0 0 0 0 -98.882029755568965 -73.983503561037651 0 -73.983503561037651 -27.592911345504035 0 0 0 0 -92.849078930083579 -57.152097128291643 0 -57.152097128291643 16.162330929917516 0 0 0 0 -26.974960872557858 9.9416829836227407 0 9.9416829836227407 13.425882850133348 0 0 0 0 55.89403171362892 -4.0035448569251457 0 -4.0035448569251457 -19.158116729086032 0 0 0 0 -2.1583879772230148 -55.645935942313372 0 -55.645935942313372 -8.4386070237669628 0 0 0 0 -219.31293897981809 29.036018737764607 0 29.036018737764607 38.701566257499508 0 0 0 0 -2.7401226505447793 -6.1876445135326676 0 -6.1876445135326676 -13.063497679415548 0 0 0 0 -27.094264238909929 -5.328504710480729 0 -5.328504710480729 -33.648443591489922 0 0 0 0 -39.648242768160344 -15.081402202544268 0 -15.081402202544268 11.443996352067188 0 0 0 0 -26.355235833668985 23.645103173116013 0 23.645103173116013 9.3422769755998161 0 0 0 0 -110.00825615038411 30.771101200938574 0 30.771101200938574 -49.867558734164049 0 0 0 0 -62.020988083354496 -63.273925242196128 0 -63.273925242196128 -6.8586312247643946 0 0 0 0 -76.363408514899902 -54.897555259733053 0 -54.897555259733053 0.48372296868183184 0 0 0 0 -60.054442955771492 -63.371017248005955 0 -63.371017248005955 -76.384956367081031 0 0 0 0 -30.996766205624454 -22.052901901814039 0 -22.052901901814039 52.346760641215951 0 0 0 0 115.59387864644242 -96.047424760703507 0 -96.047424760703507 -5.0120564840326551 0 0 0 0 -52.213622607829393 -62.019773861888098 0 -62.019773861888098 11.950021736054623 0 0 0 0 -37.026189369545818 -55.71924164541997 0 -55.71924164541997 -14.540964742307551 0 0 0 0 13.042421205746905 -130.63039055213449 0 -130.63039055213449 61.956806890523694 0 0 0 0 -42.441073154112587 -69.551650682366017 0 -69.551650682366017 1.0102424455399159 0 0 0 0 -6.4429734402816052 -52.595407262262597 0 -52.595407262262597 -43.643453543118085 0 0 0 0 38.550160527751814 -91.068580669503717 0 -91.068580669503717 -23.911744908484252 0 0 0 0 47.277955386127815 -64.672061794713954 0 -64.672061794713954 -77.737060869156267 0 0 0 0 -85.997070916153177 -28.338038390837028 0 -28.338038390837028 -1.7622605533979367 0 0 0 0 21.19643875979768 -7.19721173181415 0 -7.19721173181415 -20.732675050909165 0 0 0 0 22.53492359848849 -41.687463950016536 0 -41.687463950016536 -29.080434803239768 0 0 0 0 0.38973639688082451 -10.10028257959657 0 -10.10028257959657 -21.734884628328757 0 0 0 0 -59.905899362032415 -40.2234567015621 0 -40.2234567015621 -11.331965629840852 0 0 0 0 -43.975274632793287 -21.972733680755482 0 -21.972733680755482 -41.076942283383687 0 0 0 0 -15.6802983842 -59.426215832070739 0 -59.426215832070739 -13.842666906811246 0 0 0 0 2.7351215608134058 -20.180699845817188 0 -20.180699845817188 -32.733535342436312 0 0 0 0 1.6701068736720175 -8.1713206263813287 0 -8.1713206263813287 -25.068262429169295 0 0 0 0 0.86051422979926429 -21.645261590845621 0 -21.645261590845621 -51.531242519515217 0 0 0 0 196.70784658384946 60.439542875101324 0 60.439542875101324 0.35990151959231298 0 0 0 0 117.08489041176017 59.464389307431702 0 59.464389307431702 0.59324153376564936 0 0 0 0 0.44041964719383841 -4.3252897039807578 0 -4.3252897039807578 -8.1672094872940875 0 0 0 0 10.187794325323011 5.2107172125688521 0 5.2107172125688521 -15.423419763905258 0 0 0 0 107.17241731912691 79.134994393687521 0 79.134994393687521 9.1102702643402154 0 0 0 0 67.692681272787013 57.307145605765982 0 57.307145605765982 20.261015472133295 0 0 0 0 54.050618806224975 57.540051103736914 0 57.540051103736914 70.980627803350217 0 0 0 0 65.735433351155734 84.484163595239806 0 84.484163595239806 -26.640984218640369 0 0 0 0 21.466905286440124 -4.7854343310755212 0 -4.7854343310755212 -80.452511335195595 0 0 0 0 10.731761495525561 8.7810947696725776 0 8.7810947696725776 -10.874734387597741 0 0 0 0 83.279148538176742 155.00444723984401 0 155.00444723984401 84.88280006320565 0 0 0 0 1.4165127046662001 0.086438349740873832 0 0.086438349740873832 -1.1362552963203996 0 0 0 0 -9.2990563922546556 11.83598663455632 0 11.83598663455632 24.260660959713277 0 0 0 0 -18.326029784073398 -45.273996442665521 0 -45.273996442665521 -72.68268668591918 0 0 0 0 18.922465942832559 -11.265355075760453 0 -11.265355075760453 -18.225690759369172 0 0 0 0 -0.18838067252498769 -0.67041529881014128 0 -0.67041529881014128 -2.7615900533638467 0 0 0 0 20.627400629584457 3.3636621687919614 0 3.3636621687919614 7.8325412750855321 0 0 0 0 1.0514451507813281 0.68700506160906727 0 0.68700506160906727 -2.2141768010843066 0 0 0 0 -17.642822115823719 -11.262997760641156 0 -11.262997760641156 10.203818692701134 0 0 0 0 -9.8505036214144184 4.5359781102597481 0 4.5359781102597481 22.389765266911127 0 0 0 0 21.616640937008697 6.8800094642901968 0 6.8800094642901968 -1.7993427013570908 0 0 0 0 -8.5877765717801822 12.951362079009414 0 12.951362079009414 -2.5008641296008136 0 0 0 0 -0.28090310194170343 12.352884160878602 0 12.352884160878602 -22.829465244138191 0 0 0 0 -18.578819903374537 23.428048111498015 0 23.428048111498015 3.3861733744561207 0 0 0 0 -13.660569651670471 -1.1532004316322855 0 -1.1532004316322855 -24.062195841070206 0 0 0 0 -14.361341452668441 29.302345635825361 0 29.302345635825361 -16.470563762253732 0 0 0 0 -12.417046714889807 42.617538247948687 0 42.617538247948687 -119.94636839620944 0 0 0 0 -23.560554968628594 56.24192438569662 0 56.24192438569662 -121.85908614308573 0 0 0 0 -28.594880610742848 15.386048577682232 0 15.386048577682232 6.6097692776193071 0 0 0 0 47.15883623634204 3.1792004304516013 0 3.1792004304516013 -23.114696616365109 0 0 0 0 -38.576047323737157 38.243207089879434 0 38.243207089879434 -33.99345275691303 0 0 0 0 0.97787024928837274 -0.6514009320516152 0 -0.6514009320516152 -13.236059191617898 0 0 0 0 32.859637943010569 26.477277952846634 0 26.477277952846634 -60.405559603386791 0 0 0 0 14.700791414126456 32.577215876302944 0 32.577215876302944 -8.4280124126235023 0 0 0 0 8.0263905700995384 11.327167160497737 0 11.327167160497737 -9.4793355222201967 0 0 0 0 0.9673687739405068 20.707401533451048 0 20.707401533451048 4.1651729271325166 0 0 0 0 26.925949641410618 27.181762934482322 0 27.181762934482322 -14.939673657616368 0 0 0 0 17.345083558952467 31.43612517802103 0 31.43612517802103 -16.767667983513093 0 0 0 0 -5.9998319063008694 16.127127204068529 0 16.127127204068529 17.547405526289367 0 0 0 0 3.9548615073776716 0.70781185225132504 0 0.70781185225132504 35.722939706131001 0 0 0 0 0.75942612638268059 2.588872167475472 0 2.588872167475472 3.3361386251237093 0 0 0 0 -34.507936249483905 16.586301267977433 0 16.586301267977433 66.200546325533651 0 0 0 0 12.740373566653631 40.966692945656177 0 40.966692945656177 17.694230297842296 0 0 0 0 -9.5620662826322587 34.610860619206505 0 34.610860619206505 22.771522159113374 0 0 0 0 -8.9465012856276189 31.189635265662218 0 31.189635265662218 32.823789368834696 0 0 0 0 -26.642312179618386 42.192683004745959 0 42.192683004745959 26.293811805779114 0 0 0 0 92.004251237925047 65.040141325672721 0 65.040141325672721 12.56523109972477 0 0 0 0 -2.7102847718413159 46.289240411173523 0 46.289240411173523 -77.563661749110906 0 0 0 0 -96.051113054134476 -44.697477201378206 0 -44.697477201378206 -84.80487335430189 0 0 0 0 -28.636394771690902 45.575979978595569 0 45.575979978595569 37.735474891509512 0 0 0 0 148.69683789354053 54.351186193583999 0 54.351186193583999 -198.24423728729016 0 0 0 0 -52.638840901901631 68.606334820127813 0 68.606334820127813 32.863770473310069 0 0 0 0 -54.08601397791017 43.177168355054164 0 43.177168355054164 60.858301361409758 0 0 0 0 -83.476008322404709 -104.26153994950437 0 -104.26153994950437 -241.61348034424373 0 0 0 0 -93.729841264911556 -15.553522465066635 0 -15.553522465066635 -6.0468163647892652 0 0 0 0 -36.885988430768066 -139.03980998129555 0 -139.03980998129555 -402.96821325634664 0 0 0 0 1.1710281050012066 0.48348279088577328 0 0.48348279088577328 -3.0830820785140816 0 0 0 0 -1.0470941757079562 0.58119632043779745 0 0.58119632043779745 -1.1546701134972608 0 0 0 0 -2.9045854785729972 -9.4576062523410656 0 -9.4576062523410656 -19.054824001155794 0 0 0 0 -3.6868301386130042 -7.193896434178896 0 -7.193896434178896 -19.135988182330038 0 0 0 0 -8.5466451321360637 -7.8311372337702778 0 -7.8311372337702778 -16.971284800340072 0 0 0 0 -1.9739922232783442 -8.9964506656178855 0 -8.9964506656178855 -17.911330325194285 0 0 0 0 -2.7892816942021859 1.1221435054209792 0 1.1221435054209792 -7.3713229809562222 0 0 0 0 -58.75841458958439 -41.101950629774365 0 -41.101950629774365 -100.57590419416647 0 0 0 0 -67.101065486466041 -184.0054321896605 0 -184.0054321896605 -168.50140221160837 0 0 0 0 -59.18477866322246 -135.11675217779703 0 -135.11675217779703 -95.009230218995981 0 0 0 0 -7.5626788791399804 -84.15636106146485 0 -84.15636106146485 -138.83096746186493 0 0 0 0 -138.48964909900815 -22.305242905775231 0 -22.305242905775231 -95.220027227973333 0 0 0 0 -10.600783643444629 -104.28592900621152 0 -104.28592900621152 -269.47543075481371 0 0 0 0 -88.268888500005914 20.964503229279217 0 20.964503229279217 -170.64686801967036 0 0 0 0 0.35759711180583054 28.660427303947017 0 28.660427303947017 -56.227991548759746 0 0 0 0 -7.2069898878053209 -32.658362226458848 0 -32.658362226458848 -137.42822287298623 0 0 0 0 -18.598347708812071 -32.989878148946445 0 -32.989878148946445 -3.888386139224167 0 0 0 0 53.10388173236106 71.708611898797244 0 71.708611898797244 8.9228442927706055 0 0 0 0 -8.4759893076115986 -41.316470051096985 0 -41.316470051096985 2.9591406596155139 0 0 0 0 8.0976682623304441 -128.41673782673024 0 -128.41673782673024 -136.0208128929371 0 0 0 0 -10.46483076477125 -94.07499985301547 0 -94.07499985301547 -118.31143629097278 0 0 0 0 1.9783154674255998 -6.6076226384384373 0 -6.6076226384384373 -27.927200300772114 0 0 0 0 42.499833303095329 -8.8318965447615483 0 -8.8318965447615483 -29.719333888118854 0 0 0 0 0.51460313360836674 -8.6217527356848294 0 -8.6217527356848294 -32.277619731336245 0 0 0 0 35.527444495023701 -15.262260726041859 0 -15.262260726041859 -26.869912112924794 0 0 0 0 278.50838688382737 130.68725365431601 0 130.68725365431601 42.960807575684157 0 0 0 0 109.71725022889677 117.37368371806951 0 117.37368371806951 59.766194723284571 0 0 0 0 100.77719932550281 63.679834677051986 0 63.679834677051986 65.1630300005545 0 0 0 0 153.70201377817375 181.84176740561816 0 181.84176740561816 254.75376231834525 0 0 0 0 -11.434725628405431 10.46765433101973 0 10.46765433101973 400.94946585065918 0 0 0 0 42.483499078584828 74.560394357340556 0 74.560394357340556 134.22356586743263 0 0 0 0 -95.775125867583483 -136.26376395885018 0 -136.26376395885018 148.09762440023042 0 0 0 0 184.75597695802662 -202.4255673505977 0 -202.4255673505977 -486.0739717802353 0 0 0 0 43.674543989236781 -18.647443841640779 0 -18.647443841640779 -20.61061732028611 0 0 0 0 36.83075335155263 226.21489412497613 0 226.21489412497613 -54.3005542197061 0 0 0 0 -1.4447286163329511 -11.882659789912516 0 -11.882659789912516 -29.64357568420246 0 0 0 0 50.93356003775898 -231.60862467346305 0 -231.60862467346305 -1623.510461297119 0 0 0 0 -18.409890607182888 -519.44650223427107 0 -519.44650223427107 -9.1208950680593261 0 0 0 0 311.39466658285255 14.348124470936455 0 14.348124470936455 106.08106778358342 0 0 0 0 -64.988772923684962 470.98945874857964 0 470.98945874857964 890.80831087284605 0 0 0 0 225.38249984023651 -6.5964016922007431 0 -6.5964016922007431 1.2137192088412121 0 0 0 0 4.5212914279376051 8.3333329058579935 0 8.3333329058579935 -33.167614677825611 0 0 0 0 -8.3343847486164808 -1.3549697541187982 0 -1.3549697541187982 -0.22232948406022501 0 0 0 0 61.81355953211596 47.108044928390882 0 47.108044928390882 -461.86823114768958 0 0 0 0 10.027004146625586 -121.45750357386714 0 -121.45750357386714 -205.70762707114045 0 0 0 0 -45.0834477312942 -128.88545882928884 0 -128.88545882928884 -140.06238827363995 0 0 0 0 -20.181933242032756 -113.20148588392476 0 -113.20148588392476 -139.10429877952265 0 0 0 0 -69.827608549574961 -2.6613998630855349 0 -2.6613998630855349 -217.02183333155654 0 0 0 0 83.632092046203979 -139.1651502547611 0 -139.1651502547611 -155.31373627612265 0 0 0 0 496.26585403799965 1157.0805029623443 0 1157.0805029623443 28.361280932222144 0 0 0 0 -267.07706726777451 -280.38504366607958 0 -280.38504366607958 -45.021114915129147 0 0 0 0 0.2170641559840063 -1.9166677557031306 0 -1.9166677557031306 -5.5266575584588509 0 0 0 0 797.942845616461 1234.1717079624868 0 1234.1717079624868 -1917.0338923114032 0 0 0 0 -2.1899089355864092 -13.158795032962068 0 -13.158795032962068 -45.161835340611134 0 0 0 0 385.74196025376409 -256.43537471518266 0 -256.43537471518266 -144.01496859970212 0 0 0 0 491.909485692624 -5.5253703457638039 0 -5.5253703457638039 -122.53240151514183 0 0 0 0 312.5528990107864 -94.598795666377555 0 -94.598795666377555 -91.329052845365368 0 0 0 0 185.99021330628193 -189.48995136502344 0 -189.48995136502344 -58.048266276106006 0 0 0 0 80.72002839108427 -171.35422382336401 0 -171.35422382336401 126.56586935928499 0 0 0 0 -307.69197205681303 568.6863250019087 0 568.6863250019087 226.59105525448103 0 0 0 0 249.40820833346856 -319.27693131055639 0 -319.27693131055639 74.827470754869864 0 0 0 0 184.95436883615275 -109.42207400388725 0 -109.42207400388725 -93.431011613061855 0 0 0 0 -199.48427259848563 437.17125281819608 0 437.17125281819608 -602.21337155409856 0 0 0 0 -2.2389056623362609 -6.3271261345554386 0 -6.3271261345554386 -18.066710544129648 0 0 0 0 -493.41479843909065 -598.00358754871922 0 -598.00358754871922 -28.986357308604056 0 0 0 0 -127.99937615740146 258.59632828472968 0 258.59632828472968 27.594744949121377 0 0 0 0 -125.7537375578795 122.8804459170351 0 122.8804459170351 210.4280710694693 0 0 0 0 68.73784151442851 -14.154819536357536 0 -14.154819536357536 -160.56209822266828 0 0 0 0 0.99399447167570543 -148.55373063424486 0 -148.55373063424486 333.70877073265729 0 0 0 0 343.38380859108565 -343.36341993075621 0 -343.36341993075621 -283.43520105857897 0 0 0 0 -372.3774245665677 -1010.7138403050321 0 -1010.7138403050321 -240.22568659517856 0 0 0 0 532.56953785384621 -1146.064848494716 0 -1146.064848494716 -642.16448420131928 0 0 0 0 404.1259825896044 -860.20463982795809 0 -860.20463982795809 -1185.6305374888325 0 0 0 0 414.07194197779927 -757.02404129061324 0 -757.02404129061324 -162.40176638111006 0 0 0 0 -103.79441664822207 -639.53705996295321 0 -639.53705996295321 115.93814742414452 0 0 0 0 -256.09808935449428 772.35061802710334 0 772.35061802710334 -605.24552557359857 0 0 0 0 -797.5999858805751 632.48891114849539 0 632.48891114849539 -243.40143083284056 0 0 0 0 -0.027891762047599022 -1.8218381940631625 0 -1.8218381940631625 -18.241963178935606 0 0 0 0 184.21958551914395 472.20544181844889 0 472.20544181844889 -530.10262175782555 0 0 0 0 -5.3656000262697967 -8.3250611872127536 0 -8.3250611872127536 -8.9102198422962289 0 0 0 0 143.83538785391511 302.49828205218 0 302.49828205218 -745.54565661199376 0 0 0 0 -6.3106551848044319 -6.3135170488785661 0 -6.3135170488785661 -15.859723624380422 0 0 0 0 -2.2010364186338478 -9.632673667591007 0 -9.632673667591007 -14.626374896790367 0 0 0 0 -1.3361924810505599 -7.1553048080968438 0 -7.1553048080968438 -17.861633494088892 0 0 0 0 -3.4411954289543019 -9.4260823616023117 0 -9.4260823616023117 -17.338269294981728 0 0 0 0 -6.8868528912908005 -7.9575395205029054 0 -7.9575395205029054 -19.39275833901047 0 0 0 0 -9.7466244894347938 -11.390411049098475 0 -11.390411049098475 -19.237893527941196 0 0 0 0 -423.98550320749297 -1216.9861731781166 0 -1216.9861731781166 -923.73931198708306 0 0 0 0 -11.299814824501825 -10.91408043464024 0 -10.91408043464024 -9.8365144000157017 0 0 0 0 1.0510020301602481 6.8916676751250634 0 6.8916676751250634 -15.051661297231476 0 0 0 0 -9.8907075586475912 0.57754949177251547 0 0.57754949177251547 -12.485136585171858 0 0 0 0 -10.531744335532494 8.20714518189925 0 8.20714518189925 -14.994612241036521 0 0 0 0 14.149864324319338 -0.68091707115308964 0 -0.68091707115308964 -19.417728812491987 0 0 0 0 6.2778285296005691 -10.701967074797722 0 -10.701967074797722 -17.745785022016207 0 0 0 0 23.416774837838631 -19.008693698589923 0 -19.008693698589923 -11.986638876085635 0 0 0 0 -13.830643427388623 -4.1542311083903769 0 -4.1542311083903769 5.5626038975242409 0 0 0 0 23.371802592372966 13.383361906991706 0 13.383361906991706 -16.454356886351889 0 0 0 0 -15.881790869338602 -17.649881207295039 0 -17.649881207295039 -55.386192846359336 0 0 0 0 -37.756811706148028 18.206199982167163 0 18.206199982167163 -25.50701428625689 0 0 0 0 -50.021110280458714 29.462603213814418 0 29.462603213814418 -30.404664522240637 0 0 0 0 -29.45919137123019 -25.248343434504932 0 -25.248343434504932 -8.7434045621921541 0 0 0 0 16.687679126491361 -32.4332496045281 0 -32.4332496045281 -20.960549390641972 0 0 0 0 7.0267164561082609 -18.060679211532261 0 -18.060679211532261 -16.636039517783502 0 0 0 0 -0.38680821327768111 -5.9252625830066776 0 -5.9252625830066776 -16.102308875084958 0 0 0 0 -13.330825353676119 -3.77362156487834 0 -3.77362156487834 -9.4673188116721576 0 0 0 0 -12.902108255638097 -0.20509731104084494 0 -0.20509731104084494 -11.877025249021244 0 0 0 0 -10.605385372849923 0.56317989149101777 0 0.56317989149101777 -11.632343767279963 0 0 0 0 -8.0510427894778971 -5.3299407976971054 0 -5.3299407976971054 -9.1231273206649348 0 0 0 0 -8.0263073938863059 -2.7366891090389345 0 -2.7366891090389345 -13.606755156739382 0 0 0 0 11.157940493203796 20.371154293603468 0 20.371154293603468 -31.586709067050833 0 0 0 0 33.781163828110138 -0.23010216041620879 0 -0.23010216041620879 -33.093515756379929 0 0 0 0 -4.3070956278281756 -6.3309154508388019 0 -6.3309154508388019 -13.02189909874869 0 0 0 0 -1.3464901989738038 -5.2485048330156108 0 -5.2485048330156108 -13.454410173755775 0 0 0 0 -2.9027023449313463 -1.4880554905146681 0 -1.4880554905146681 -1.7015915801059975 0 0 0 0 -4.7302443534090912 -5.0438778462121263 0 -5.0438778462121263 -15.855079840461258 0 0 0 0 -3.3874987434491217 -3.6233220320873443 0 -3.6233220320873443 -16.086116052829311 0 0 0 0 -3.2674256077532391 -3.0318783339607762 0 -3.0318783339607762 -13.597261462331517 0 0 0 0 -3.9784560819201715 -0.16801239702181192 0 -0.16801239702181192 -12.44899534698925 0 0 0 0 -1.792340222607379 -2.0801175015658373 0 -2.0801175015658373 -16.370566739307833 0 0 0 0 -0.016144573466021939 -2.1318531130164047 0 -2.1318531130164047 -19.327556568502587 0 0 0 0 3.9339372458196635 -5.6873910411632096 0 -5.6873910411632096 -18.777626396520645 0 0 0 0 -3.5032670442729987 -6.3202537906799989 0 -6.3202537906799989 -17.953740571218077 0 0 0 0 -2.2252313502231744 -1.1592109613125814 0 -1.1592109613125814 0.18564497129816004 0 0 0 0 -1.989338883882624 -4.4629851933568716 0 -4.4629851933568716 -15.951821069920697 0 0 0 0 -3.6590681487805341 -7.0507489245937904 0 -7.0507489245937904 -1.2262790054301149 0 0 0 0 -50.119282625919581 -323.03887294553715 0 -323.03887294553715 -314.75558861337777 0 0 0 0 1.5830747096497597 -0.25857690332742322 0 -0.25857690332742322 -3.1204187283064471 0 0 0 0 -181.68807440424149 -111.31691883548046 0 -111.31691883548046 -282.43357178093902 0 0 0 0 134.70180680202864 -345.84931916076312 0 -345.84931916076312 -128.02807043108623 0 0 0 0 13.340661191137002 1.156942186778906 0 1.156942186778906 -31.163118339783978 0 0 0 0 17.529766888701282 -12.378346318626427 0 -12.378346318626427 -12.416520795639371 0 0 0 0 6.7375969267656615 2.1627214272157289 0 2.1627214272157289 -16.25595747749685 0 0 0 0 0.95679598209874273 -0.1961965560094967 0 -0.1961965560094967 -1.0682332411883806 0 0 0 0 -168.4501582919286 -398.83038054228155 0 -398.83038054228155 -258.00742836105928 0 0 0 0 12.154778272875916 11.19619801006229 0 11.19619801006229 -34.477504669121117 0 0 0 0 -175.92891230860283 47.40322275062681 0 47.40322275062681 -266.6450169509335 0 0 0 0 47.298139236124371 -152.25538149100612 0 -152.25538149100612 -345.32524185228976 0 0 0 0 -289.7779162736781 -246.03575417588581 0 -246.03575417588581 -207.56475396836686 0 0 0 0 71.078761157588303 -119.31199015643506 0 -119.31199015643506 -382.82321252272232 0 0 0 0 359.6665269321357 79.431829323870261 0 79.431829323870261 -157.47526640749129 0 0 0 0 79.404219351820444 140.26856298374332 0 140.26856298374332 43.953251988539705 0 0 0 0 -53.12859501037866 -153.17369298211997 0 -153.17369298211997 -452.62150292487786 0 0 0 0 35.027193232543482 205.28251916022418 0 205.28251916022418 -241.94487379101338 0 0 0 0 42.812053022450357 209.09602520229964 0 209.09602520229964 160.0427750254363 0 0 0 0 124.94753988674989 36.020352898885903 0 36.020352898885903 75.723414648455218 0 0 0 0 -15.398880696643005 116.20303155313013 0 116.20303155313013 158.75267640705715 0 0 0 0 94.507705922343732 -148.09784943277191 0 -148.09784943277191 -348.14201490148844 0 0 0 0 -135.94912755780786 81.572613728130818 0 81.572613728130818 54.136589423200348 0 0 0 0 -70.047017229961114 212.25749442625238 0 212.25749442625238 -6.6395067733392352 0 0 0 0 -0.078614733358637889 0.65720125904375593 0 0.65720125904375593 -4.2552859951556741 0 0 0 0 254.00007077230262 61.533373290189047 0 61.533373290189047 -49.560467509767477 0 0 0 0 147.52996858674163 46.396870044820389 0 46.396870044820389 -16.213055475876899 0 0 0 0 0.13734292244754359 2.1703946918635495 0 2.1703946918635495 -10.389246921335172 0 0 0 0 297.23447634177978 27.146306758379069 0 27.146306758379069 -61.30764724923938 0 0 0 0 7.6297568866618803 18.944350114586996 0 18.944350114586996 -108.91823185892281 0 0 0 0 0.60692203427414182 0.12328069549731424 0 0.12328069549731424 -1.1535523369614111 0 0 0 0 24.946511194043808 60.940460890931718 0 60.940460890931718 -78.7819121606517 0 0 0 0 -93.337495603120786 -168.01625103419337 0 -168.01625103419337 -159.22083498490974 0 0 0 0 -108.06440425670644 -76.637603452072653 0 -76.637603452072653 -53.811120137193939 0 0 0 0 -19.124224952119391 102.90995022865536 0 102.90995022865536 92.450651445775293 0 0 0 0 -31.756178462086098 -128.36484198696417 0 -128.36484198696417 -23.026573542158076 0 0 0 0 -292.20116859963161 -211.3851220525321 0 -211.3851220525321 -120.78992742316041 0 0 0 0 12.202464500696607 -197.56411624009343 0 -197.56411624009343 -23.081407062258222 0 0 0 0 -51.304318070804243 -7.6440288705052808 0 -7.6440288705052808 -402.63306158139312 0 0 0 0 74.317014026140797 -197.2042779099362 0 -197.2042779099362 -451.0698181270418 0 0 0 0 -49.297340357523808 -229.82703294279054 0 -229.82703294279054 -458.2134567953035 0 0 0 0 19.248698318112304 -95.873909850673954 0 -95.873909850673954 -198.81700399168767 0 0 0 0 -20.405796697419277 15.687012101381697 0 15.687012101381697 -27.394695924071129 0 0 0 0 19.436736409114246 92.88016487655841 0 92.88016487655841 -325.32628461058994 0 0 0 0 -205.29779093481767 -229.11902077556988 0 -229.11902077556988 -159.46501544196508 0 0 0 0 -0.20912054403469033 -0.6873361499769608 0 -0.6873361499769608 -2.8095634160816871 0 0 0 0 -40.775748974312819 -233.21768027282087 0 -233.21768027282087 -401.50495682518522 0 0 0 0 38.97197811913513 -11.60038395707943 0 -11.60038395707943 -27.617306685569929 0 0 0 0 -42.725142889656354 6.1630534996947972 0 6.1630534996947972 5.9425022302857542 0 0 0 0 -78.118794200475065 -95.067478847711754 0 -95.067478847711754 -127.93838595865964 0 0 0 0 -63.073417991001918 23.142111596811446 0 23.142111596811446 -11.926120904830896 0 0 0 0 -0.5820140800513951 -2.0026126355803271 0 -2.0026126355803271 -7.0835303561133287 0 0 0 0 22.633144621613241 -19.09314732378698 0 -19.09314732378698 -28.18622428078379 0 0 0 0 57.260706732789487 -31.11277925138711 0 -31.11277925138711 -72.5759944422025 0 0 0 0 0.86158450307838863 -0.99016485328063197 0 -0.99016485328063197 -2.5175728161257069 0 0 0 0 -18.444197686030577 -15.140932180082018 0 -15.140932180082018 20.635530823605222 0 0 0 0 17.929281723548172 29.37336615093227 0 29.37336615093227 -39.702347596565232 0 0 0 0 21.741963592585659 -2.5474735201378564 0 -2.5474735201378564 -118.19854996836511 0 0 0 0 -4.9047048380249549 -8.4242261750296166 0 -8.4242261750296166 -97.17798130895244 0 0 0 0 21.93888187641744 -34.267869383445941 0 -34.267869383445941 -167.42024742057401 0 0 0 0 9.023530158408164 15.384392284540809 0 15.384392284540809 -94.09701757628136 0 0 0 0 23.882093260262053 23.575891581902397 0 23.575891581902397 -209.13008371515025 0 0 0 0 6.5206602959042925 -78.629104582738364 0 -78.629104582738364 -221.05775394575357 0 0 0 0 16.706614113697235 -47.006930192923392 0 -47.006930192923392 -147.22312747403339 0 0 0 0 -9.4223331289942394 -63.041879931573931 0 -63.041879931573931 -156.14845942214015 0 0 0 0 -11.491744276186378 -31.133414748712539 0 -31.133414748712539 -131.5028832378739 0 0 0 0 6.3815087312922003 -21.628700022258272 0 -21.628700022258272 -138.0697569066906 0 0 0 0 -63.892873353858249 -75.558723418573209 0 -75.558723418573209 -114.99525037873536 0 0 0 0 -59.10023888867363 -96.486352137530048 0 -96.486352137530048 -46.204381884876057 0 0 0 0 -6.0377241977532989 -29.260131916435057 0 -29.260131916435057 -131.5751276207302 0 0 0 0 -6.8786842596303472 -23.278537548329041 0 -23.278537548329041 -128.60796564674638 0 0 0 0 -6.3377851540439636 -14.960144807817414 0 -14.960144807817414 -109.63740350732405 0 0 0 0 -8.4937248961488478 -19.999337127672334 0 -19.999337127672334 -115.70247535452654 0 0 0 0 -5.4273362584446687 -26.464388924767263 0 -26.464388924767263 -127.18571047585283 0 0 0 0 -0.022161527373930033 -32.74270409102246 0 -32.74270409102246 -120.86240348686988 0 0 0 0 -27.617890949781014 -42.295679155446123 0 -42.295679155446123 -113.14202264591586 0 0 0 0 -13.618082310748232 -35.409622537985342 0 -35.409622537985342 -116.57142520834168 0 0 0 0 -19.1498371727209 -25.997154099084582 0 -25.997154099084582 -109.467861713405 0 0 0 0 -29.592913018791368 -50.557465773122203 0 -50.557465773122203 -120.78127438362571 0 0 0 0 38.212980489331635 -24.346040760632604 0 -24.346040760632604 -115.93948873599675 0 0 0 0 -5.3398341627752863 -6.3834557570917241 0 -6.3834557570917241 -93.468163361263578 0 0 0 0 -13.423865642295681 -18.775389823218575 0 -18.775389823218575 -110.25323311216744 0 0 0 0 -13.425898996176471 -19.054877135364222 0 -19.054877135364222 -103.46661547455005 0 0 0 0 -34.380493486606746 -33.657641499747115 0 -33.657641499747115 -78.129543906194158 0 0 0 0 -51.452105815333198 -32.575318529961805 0 -32.575318529961805 -24.445956025439955 0 0 0 0 -55.375761199116084 -55.237059282728296 0 -55.237059282728296 -89.670952665852383 0 0 0 0 0.097768008690366073 -0.028421255239337029 0 -0.028421255239337029 -0.28908546761439879 0 0 0 0 0.061806897609257325 -4.9411677455755125 0 -4.9411677455755125 -5.9858781664224807 0 0 0 0 -46.439696644507308 -64.949700397708511 0 -64.949700397708511 -103.59614657824568 0 0 0 0 2.8932314902206109 0.4637770434783306 0 0.4637770434783306 1.875327875612129 0 0 0 0 11.924229387643202 4.2071364271541825 0 4.2071364271541825 -6.5640903028834146 0 0 0 0 0.11845669609016087 0.067211302199751799 0 0.067211302199751799 0.01616779083082065 0 0 0 0 0.26292179957780037 -2.5900289796991274 0 -2.5900289796991274 0.2272559307712072 0 0 0 0 -0.031162805673119336 24.724027209726046 0 24.724027209726046 44.299945256800129 0 0 0 0 15.435790774168737 17.799202392357074 0 17.799202392357074 4.4119151434133528 0 0 0 0 0.58648394747260113 31.748375801576913 0 31.748375801576913 57.943762279654038 0 0 0 0 -31.266580068356546 -40.571292426648142 0 -40.571292426648142 -39.462674662820064 0 0 0 0 0.57450446252030851 -0.3098124993057354 0 -0.3098124993057354 -2.4399740251683397 0 0 0 0 0.28706619617995688 -0.14046162376291704 0 -0.14046162376291704 -0.48852695369093624 0 0 0 0 0.32507537902929773 0.017751943439265006 0 0.017751943439265006 -0.78249513123463998 0 0 0 0 19.748199593562649 -17.38911845610437 0 -17.38911845610437 -55.280657206458272 0 0 0 0 -30.348068813003835 -47.95852445617129 0 -47.95852445617129 19.697751826221065 0 0 0 0 4.9915434026794401 6.5299932749840082 0 6.5299932749840082 10.031524810023257 0 0 0 0 11.157877120861031 16.996836064165109 0 16.996836064165109 -21.891821282013552 0 0 0 0 -3.0703564158450618 -42.486672833591001 0 -42.486672833591001 -23.203322353079784 0 0 0 0 -6.6315802635564012 -50.256529434451295 0 -50.256529434451295 -77.871603327716002 0 0 0 0 -18.326889014607332 1.4134955284607713 0 1.4134955284607713 -3.5208453768063919 0 0 0 0 -34.779817173069205 -19.091252620833984 0 -19.091252620833984 -26.942028866430519 0 0 0 0 1.4271756715018469 0.09947449092719296 0 0.09947449092719296 -1.1772169510006734 0 0 0 0 28.532208171873961 55.38938284989672 0 55.38938284989672 29.008549345002393 0 0 0 0 -0.48299610198132115 -0.06699333758754733 0 -0.06699333758754733 -0.38824766195610039 0 0 0 0 25.15943735744483 10.859300025200355 0 10.859300025200355 24.93553788348072 0 0 0 0 -3.3659579176306806 17.373357758475322 0 17.373357758475322 45.576808904486825 0 0 0 0 18.928738404383822 16.186310646360653 0 16.186310646360653 -28.984266709041549 0 0 0 0 0.82480621798017217 -2.4488231221175738 0 -2.4488231221175738 -5.7117615187628417 0 0 0 0 7.7640308650238268 -18.195425292022264 0 -18.195425292022264 -8.3954597811534768 0 0 0 0 30.70690777348517 -6.2857087109587155 0 -6.2857087109587155 -9.0077895543945488 0 0 0 0 -34.019982111338948 -24.760672165553842 0 -24.760672165553842 -9.3322510710568167 0 0 0 0 49.524385279808996 52.266789554367278 0 52.266789554367278 -17.719432338199113 0 0 0 0 6.5671556510329765 0.21382650617306354 0 0.21382650617306354 -13.873413084453205 0 0 0 0 3.5907980889893025 29.404070888842398 0 29.404070888842398 -55.952968996964046 0 0 0 0 -28.502143608653178 -11.929800991581942 0 -11.929800991581942 -17.414357274727081 0 0 0 0 19.29696246571946 -28.070346415603126 0 -28.070346415603126 -122.50103236801806 0 0 0 0 7.373569642370569 -23.026468693147763 0 -23.026468693147763 -130.197036670339 0 0 0 0 -0.0062828406545804251 21.457136983844975 0 21.457136983844975 -112.76800381373323 0 0 0 0 -23.316982283465322 -1.1375381274374377 0 -1.1375381274374377 -15.904079942403769 0 0 0 0 4.2862865287060998 -11.256257022869249 0 -11.256257022869249 -12.335112993358052 0 0 0 0 -16.138898576580118 28.061350949261396 0 28.061350949261396 18.505937148984231 0 0 0 0 -0.10814372447569304 -6.2799729422331438 0 -6.2799729422331438 -123.5829192579331 0 0 0 0 -6.2772439259908097 -8.9602315728261601 0 -8.9602315728261601 -105.77034341322724 0 0 0 0 -12.172517004638804 5.6877305083289684 0 5.6877305083289684 -94.936344137880951 0 0 0 0 -15.028272456032521 -15.407595007774944 0 -15.407595007774944 -124.17287294676498 0 0 0 0 21.804597261535491 -0.74227528157643974 0 -0.74227528157643974 -118.38358287008668 0 0 0 0 59.746143484795923 9.2931868905379815 0 9.2931868905379815 -222.76862899991829 0 0 0 0 22.926617942484981 -0.0075859614662476815 0 -0.0075859614662476815 -126.0695376571457 0 0 0 0 13.673364871849863 14.290022418810622 0 14.290022418810622 -62.817140169107006 0 0 0 0 20.573390261068454 25.530840280538541 0 25.530840280538541 -120.89133947013033 0 0 0 0 2.0459346668215481 10.766134382556629 0 10.766134382556629 -68.129196156514809 0 0 0 0 -4.9388082551403034 -3.1685127892906166 0 -3.1685127892906166 -70.85459665201779 0 0 0 0 4.3988958869967121 16.36965051034349 0 16.36965051034349 -30.574733438275871 0 0 0 0 31.963312499907559 -13.068939989570936 0 -13.068939989570936 -40.804643591800414 0 0 0 0 -12.890642068140771 -13.209308743160364 0 -13.209308743160364 -51.418369199418521 0 0 0 0 -12.677983120366566 -14.724182245419797 0 -14.724182245419797 -76.944581083524099 0 0 0 0 0.013702602000801024 -13.698781839670119 0 -13.698781839670119 -82.266096515028039 0 0 0 0 -0.03065833924559308 -0.089050073505518412 0 -0.089050073505518412 -0.13882739015754453 0 0 0 0 -0.034500396352614565 -21.486791340732452 0 -21.486791340732452 -98.064723577621407 0 0 0 0 -7.3013033235248805 -28.901562739726614 0 -28.901562739726614 -98.192391573669738 0 0 0 0 -3.7197273463623572 -36.277641563272482 0 -36.277641563272482 -121.85974154278665 0 0 0 0 -3.3642617151740595 -28.656879665264569 0 -28.656879665264569 -122.71142924896048 0 0 0 0 0.01617413962817241 -24.939961714408128 0 -24.939961714408128 -134.48211360046116 0 0 0 0 -6.1217647635926689 -19.238957793766531 0 -19.238957793766531 -140.47184346028371 0 0 0 0 1.6656110677324492 -29.821930352041818 0 -29.821930352041818 -140.82005881224177 0 0 0 0 -0.0012104472888656709 -25.535167140384146 0 -25.535167140384146 -136.67561341977853 0 0 0 0 -1.2514132397469011 -26.466119576065466 0 -26.466119576065466 -135.84297922121186 0 0 0 0 -42.49420884536363 -40.215714291043696 0 -40.215714291043696 -95.085853255615802 0 0 0 0 -73.888888047207956 -24.881986001151745 0 -24.881986001151745 -95.084826443417114 0 0 0 0 -85.988617945982412 4.1228965201662504 0 4.1228965201662504 -90.016050901329436 0 0 0 0 -37.496544304080132 -20.201059064318542 0 -20.201059064318542 -131.18476296833251 0 0 0 0 -10.395036701628271 -19.510223617609881 0 -19.510223617609881 -132.13061608464341 0 0 0 0 13.98550166637925 -18.151406579294417 0 -18.151406579294417 -157.29266211063168 0 0 0 0 -40.240582312505325 12.199704991275212 0 12.199704991275212 -159.96551749495848 0 0 0 0 -40.103630871817785 71.971412947939825 0 71.971412947939825 -286.04368750790309 0 0 0 0 -105.22128393569122 19.707195126102306 0 19.707195126102306 -97.069443898682948 0 0 0 0 -210.20396864418248 96.135110051174706 0 96.135110051174706 -112.96106511591643 0 0 0 0 103.39792244318885 -139.34907550532807 0 -139.34907550532807 -216.41583119989082 0 0 0 0 -18.52322129941447 -31.42627520332826 0 -31.42627520332826 -67.65480791398295 0 0 0 0 -6.910576240156459 -22.571671359066386 0 -22.571671359066386 -142.4299715920497 0 0 0 0 -4.2211672706657879 -51.567236618830066 0 -51.567236618830066 -135.64934120347061 0 0 0 0 0.014891257508449607 -0.14672121887055312 0 -0.14672121887055312 -0.1209353102277646 0 0 0 0 -23.167145410117101 -32.786888837152219 0 -32.786888837152219 -68.115418149791367 0 0 0 0 0.061275181899852232 -0.059762504507745007 0 -0.059762504507745007 -0.13836086459531316 0 0 0 0 37.663219196858762 -69.338201700418722 0 -69.338201700418722 -98.655635852126579 0 0 0 0 -16.840535143249312 -4.410890393023692 0 -4.410890393023692 -31.536343610088807 0 0 0 0 104.50284664962817 7.9342460133702843 0 7.9342460133702843 -10.674983228018391 0 0 0 0 31.850747338740632 -70.375361276150215 0 -70.375361276150215 76.568470408848953 0 0 0 0 0.019959099829958138 0.94695957084102034 0 0.94695957084102034 -5.2849586474336263 0 0 0 0 -23.405627255374156 210.49046533841829 0 210.49046533841829 -35.620977695503825 0 0 0 0 -0.17991089062024912 -47.687190493375965 0 -47.687190493375965 44.470355875297173 0 0 0 0 -149.12563926566338 294.70297804270376 0 294.70297804270376 -76.625929396468564 0 0 0 0 102.4378884413232 -131.53094512307871 0 -131.53094512307871 -63.126898777525639 0 0 0 0 0.12151819420156701 -0.58154028917164879 0 -0.58154028917164879 -3.4706190998876423 0 0 0 0 -168.94905949206839 357.99281309723938 0 357.99281309723938 -111.15673031999904 0 0 0 0 -205.51528834878678 9.5360881077808699 0 9.5360881077808699 -28.294632160483161 0 0 0 0 -173.77627628955355 -44.517649351204454 0 -44.517649351204454 -4.4180056151380995 0 0 0 0 6.7981075950447121 64.392749991820892 0 64.392749991820892 -460.33956835886056 0 0 0 0 295.32621788807 73.897002976762451 0 73.897002976762451 -114.27587873995071 0 0 0 0 -43.895128306836654 -4.3832130546179542 0 -4.3832130546179542 25.985963207678651 0 0 0 0 33.832424147692876 -95.731702850447618 0 -95.731702850447618 41.837984998943284 0 0 0 0 -74.907371397081334 -70.645009308915178 0 -70.645009308915178 -45.207574060521438 0 0 0 0 -98.372622794082503 -49.625759618938901 0 -49.625759618938901 -55.974180497143607 0 0 0 0 -22.665313655061311 77.843088998415624 0 77.843088998415624 17.74854687268089 0 0 0 0 -153.14932275678018 39.82290719098819 0 39.82290719098819 20.317825510413968 0 0 0 0 141.88668621598049 184.95092262459002 0 184.95092262459002 0.044404812731954735 0 0 0 0 63.521585513185798 27.357334909727797 0 27.357334909727797 65.278938760638994 0 0 0 0 0.30748659451489502 2.1682814310489018 0 2.1682814310489018 -11.497330312109398 0 0 0 0 431.24712456061491 52.27171082134646 0 52.27171082134646 -189.04645938285103 0 0 0 0 -125.31764532561803 -41.817938139327453 0 -41.817938139327453 -79.08205038975575 0 0 0 0 4.5836616923531324 136.51015444617587 0 136.51015444617587 -115.14666961401235 0 0 0 0 126.36664691323345 155.81465271539491 0 155.81465271539491 -144.69173827840132 0 0 0 0 4.7810438205134744 -274.49601416988298 0 -274.49601416988298 -172.35356441404338 0 0 0 0 81.796148825664432 -23.459951322562119 0 -23.459951322562119 -410.59702074884262 0 0 0 0 162.55818767279794 -222.47527964385517 0 -222.47527964385517 -250.29594196427206 0 0 0 0 -9.8258339536347989 -79.712052430797485 0 -79.712052430797485 -64.604350159932437 0 0 0 0 -170.15063692975966 -156.84981591669202 0 -156.84981591669202 -44.646685707790311 0 0 0 0 -3.8689206831887759 8.1988408313045511 0 8.1988408313045511 -44.554774626507424 0 0 0 0 33.649548788819629 80.424492282738356 0 80.424492282738356 -56.191500909095339 0 0 0 0 38.237100987815836 -37.791130009711196 0 -37.791130009711196 -28.687395694061706 0 0 0 0 -0.37470571819655429 0.43826399423527107 0 0.43826399423527107 -0.13032453798996357 0 0 0 0 7.3277749662116776 -31.402930546893913 0 -31.402930546893913 -119.87673657575942 0 0 0 0 -21.595497276462737 -69.137985762254175 0 -69.137985762254175 -57.62920008241781 0 0 0 0 5.6900244344639077 -16.02523039503285 0 -16.02523039503285 70.315663034224599 0 0 0 0 14.306615764861704 -51.31647884756967 0 -51.31647884756967 107.25598512830766 0 0 0 0 -0.26966591305688636 -0.43229100511473462 0 -0.43229100511473462 -0.61412907304492137 0 0 0 0 -31.3402587504686 -35.154706877246099 0 -35.154706877246099 -82.119117623151396 0 0 0 0 -44.016412540287746 -0.68932054275501287 0 -0.68932054275501287 159.51391772113857 0 0 0 0 -67.595147156889027 52.365494312696683 0 52.365494312696683 81.481593873279962 0 0 0 0 0.06734943554008796 -2.1568997669541048 0 -2.1568997669541048 -7.7203214619336791 0 0 0 0 123.53981436486038 -188.3668163106413 0 -188.3668163106413 -588.32853195662028 0 0 0 0 -104.79074727887962 284.46072298185027 0 284.46072298185027 -52.234318835500744 0 0 0 0 138.15139786823079 -58.096735321960296 0 -58.096735321960296 -15.320578782368102 0 0 0 0 31.280002247279867 -15.705735846451716 0 -15.705735846451716 1.3456041989848018 0 0 0 0 62.96649404947064 -33.287577719434921 0 -33.287577719434921 18.943728033569641 0 0 0 0 70.521924305295443 5.8279927594485343 0 5.8279927594485343 -31.830724793653644 0 0 0 0 43.586891974415238 25.036605939538276 0 25.036605939538276 -59.250551620309125 0 0 0 0 33.602873432113611 -9.4603032072263886 0 -9.4603032072263886 -33.392543686699355 0 0 0 0 42.959398975798166 -11.939869599584199 0 -11.939869599584199 -21.554309625149472 0 0 0 0 80.687466786116204 -26.466240630707034 0 -26.466240630707034 -12.662801278594998 0 0 0 0 -0.51269360454099777 -2.2187752413264903 0 -2.2187752413264903 -7.3447601724840581 0 0 0 0 68.500968204249602 1.1140793275044416 0 1.1140793275044416 -17.191393000808603 0 0 0 0 33.277151677856523 67.196916253960808 0 67.196916253960808 -37.377996249131684 0 0 0 0 55.523600901133157 -0.44550557563956561 0 -0.44550557563956561 16.273361315921647 0 0 0 0 39.731814240836712 50.81038839026769 0 50.81038839026769 -8.3780629134271294 0 0 0 0 -138.18231958782201 -189.17066496859479 0 -189.17066496859479 -264.69825124999625 0 0 0 0 -0.39506324367276402 0.66846462642389781 0 0.66846462642389781 -2.5196514627930355 0 0 0 0 55.524188329835404 17.576453768784184 0 17.576453768784184 -69.235875773156295 0 0 0 0 49.286892065554866 77.239468864823721 0 77.239468864823721 -153.2608587758732 0 0 0 0 -21.130842195236951 -171.45312691482104 0 -171.45312691482104 -351.80802022712487 0 0 0 0 12.538477225351699 23.987422466125281 0 23.987422466125281 -319.68629828081612 0 0 0 0 8.2872263972200813 -79.492232446806156 0 -79.492232446806156 -193.97464271921854 0 0 0 0 19.943008738116021 -40.468393079390808 0 -40.468393079390808 -141.68187431064871 0 0 0 0 24.394462911520691 -29.004880565167696 0 -29.004880565167696 -182.22473040282784 0 0 0 0 5.9065409438194934 -68.617303219092719 0 -68.617303219092719 -161.28410476853605 0 0 0 0 -72.828830640273509 -57.022143844922539 0 -57.022143844922539 -178.43242854472192 0 0 0 0 4.15079464884899 -77.472491650256416 0 -77.472491650256416 -205.76229984741076 0 0 0 0 -140.61266755098796 -120.98485455931223 0 -120.98485455931223 -33.673277484369464 0 0 0 0 -0.27019479374765465 0.26174656773815741 0 0.26174656773815741 -0.41076700477077566 0 0 0 0 -1.6031711160652549 -16.880970955986413 0 -16.880970955986413 -160.97265249488373 0 0 0 0 15.506653202286998 -55.159892351610324 0 -55.159892351610324 -187.11014458056889 0 0 0 0 83.839365428389897 105.23990368364048 0 105.23990368364048 64.410928623830841 0 0 0 0 -0.77943773639125702 3.1239314331724728 0 3.1239314331724728 -3.9238320766919514 0 0 0 0 60.490269460257878 54.109211224822502 0 54.109211224822502 88.356335392085384 0 0 0 0 -0.53156403323851009 161.45909889486211 0 161.45909889486211 29.616214864376161 0 0 0 0 94.641203223432967 -37.653038375501637 0 -37.653038375501637 -195.0887288278609 0 0 0 0 33.763096409522859 154.36720911140583 0 154.36720911140583 31.019357198307262 0 0 0 0 19.518692548898571 106.45895074862347 0 106.45895074862347 -85.716172175612883 0 0 0 0 13.111312582934715 187.09550033515552 0 187.09550033515552 151.74362442706661 0 0 0 0 12.330508985163306 -91.536931630103936 0 -91.536931630103936 -421.17652720586193 0 0 0 0 -0.24013464777983984 1.1746045190443368 0 1.1746045190443368 -1.5833729686078755 0 0 0 0 -34.344879993956056 78.043277967259201 0 78.043277967259201 -103.16368206685001 0 0 0 0 12.710072770883869 -38.691242333246009 0 -38.691242333246009 -190.20062556942867 0 0 0 0 -47.838441275850869 9.0912425366332172 0 9.0912425366332172 18.109164744164445 0 0 0 0 -11.004030776382479 -25.863904528327112 0 -25.863904528327112 9.652213632609346 0 0 0 0 -22.940092190641508 -51.358677888089005 0 -51.358677888089005 1.7776439280023624 0 0 0 0 -4.1758511513693861 -2.4302534677616165 0 -2.4302534677616165 -1.3361174665966757 0 0 0 0 -13.944440696439642 -1.1773136457268265 0 -1.1773136457268265 0.26645677904343756 0 0 0 0 4.0562026735389054 40.002003976976084 0 40.002003976976084 -131.89760166732594 0 0 0 0 -36.450370022279515 -58.192627381480634 0 -58.192627381480634 -136.14923595900473 0 0 0 0 -9.6292477763658297 23.532042926804479 0 23.532042926804479 -91.86227833594603 0 0 0 0 8.2735133981922218 -48.268035408244032 0 -48.268035408244032 -106.64191103616031 0 0 0 0 -7.1435463180848728 -19.920344592123001 0 -19.920344592123001 -11.608898181584664 0 0 0 0 -94.955507021645815 -31.069306626857724 0 -31.069306626857724 2.7656044316390762 0 0 0 0 -2.7862606882335967 10.71496669955377 0 10.71496669955377 -6.5169207365797774 0 0 0 0 33.784605129367804 49.157986897562296 0 49.157986897562296 -6.9160869396000635 0 0 0 0 -1.0125297858885296 -0.74406372852750735 0 -0.74406372852750735 -0.9794318409878997 0 0 0 0 2.9509761497333002 -45.792806886114704 0 -45.792806886114704 15.017742431504303 0 0 0 0 -12.326473112603935 -15.607130151191086 0 -15.607130151191086 5.7051868248436222 0 0 0 0 -5.2505771843622613 -3.1787491879889558 0 -3.1787491879889558 -1.6732574134326228 0 0 0 0 -84.305624092115522 225.2488014524788 0 225.2488014524788 -424.705723295192 0 0 0 0 -13.327123292456214 31.226543597345881 0 31.226543597345881 -10.974094729408534 0 0 0 0 -0.4008143858667772 -0.88355286426860857 0 -0.88355286426860857 -1.0962845197244633 0 0 0 0 8.7974675027883791 -260.38757133825129 0 -260.38757133825129 -415.92981209506979 0 0 0 0 -2.3905371049761777 -1.4067636986804928 0 -1.4067636986804928 -0.81253055792012674 0 0 0 0 -0.57062009017976112 -1.1584977109768602 0 -1.1584977109768602 -4.4889907922255929 0 0 0 0 -165.45249473666183 128.04387032996965 0 128.04387032996965 -180.02378644245618 0 0 0 0 -54.295886549490973 -62.075407382528283 0 -62.075407382528283 -493.5122358153676 0 0 0 0 -107.25974777769119 -166.54246580326435 0 -166.54246580326435 -145.82255928877566 0 0 0 0 24.457337083395856 -189.73422026723711 0 -189.73422026723711 -381.71784860682828 0 0 0 0 -59.847638363953195 -45.103850531302669 0 -45.103850531302669 -0.27586545383383054 0 0 0 0 22.49496706166363 -38.480795815752572 0 -38.480795815752572 -280.66449195754831 0 0 0 0 25.674385646179296 -16.06846260657403 0 -16.06846260657403 -230.89051175852364 0 0 0 0 -24.603921314975651 -39.824270121651352 0 -39.824270121651352 -245.42814609639026 0 0 0 0 16.905007251236441 -50.45741159274985 0 -50.45741159274985 -206.69388458727917 0 0 0 0 16.033073169234967 -45.858548888012592 0 -45.858548888012592 -123.6336997917092 0 0 0 0 38.279079039404223 -84.701739406853449 0 -84.701739406853449 -222.32215794867989 0 0 0 0 60.868559752199914 -105.96027069412958 0 -105.96027069412958 -193.9131937471393 0 0 0 0 48.377340195110946 -72.8216946889479 0 -72.8216946889479 -273.49170778185362 0 0 0 0 12.004716404825331 -61.406313729356043 0 -61.406313729356043 -237.31937424931675 0 0 0 0 6.9219136752081454 -77.892286166501435 0 -77.892286166501435 -277.75230356802058 0 0 0 0 21.987687991451708 12.764399574112758 0 12.764399574112758 -128.9222493575071 0 0 0 0 -19.475650268999289 -65.312414000909484 0 -65.312414000909484 -236.75722818566828 0 0 0 0 -17.574353802224376 71.306562400323401 0 71.306562400323401 -95.904659585488844 0 0 0 0 23.403000269462382 2.4655354748974787 0 2.4655354748974787 -318.66176783783885 0 0 0 0 17.267701763366446 -17.899788104385152 0 -17.899788104385152 -61.459730866321479 0 0 0 0 -35.362745217903409 19.334588137460742 0 19.334588137460742 -0.86785704514477402 0 0 0 0 -35.345957323274092 -35.781057788928592 0 -35.781057788928592 -89.70236806165849 0 0 0 0 -61.071979492104219 14.298129283692106 0 14.298129283692106 -7.0693952504952904 0 0 0 0 -22.477979937772261 -1.33556495308585 0 -1.33556495308585 -75.171394250675803 0 0 0 0 -5.7278852013309915 -3.39425093644968 0 -3.39425093644968 -2.0994138028254383 0 0 0 0 -9.6103507501866261 36.080435171468707 0 36.080435171468707 34.057292897523439 0 0 0 0 -34.247730269336444 49.055826709001849 0 49.055826709001849 -61.181000652584771 0 0 0 0 60.221283356912863 2.3315127663954627 0 2.3315127663954627 -38.41616506385617 0 0 0 0 57.360549360131103 54.806655148242498 0 54.806655148242498 -95.524432800681097 0 0 0 0 -38.02114552602734 61.712346344393154 0 61.712346344393154 -117.85926456322341 0 0 0 0 58.886323945620916 82.40883181810932 0 82.40883181810932 -114.87475067024934 0 0 0 0 -82.534046813909299 102.8292745111612 0 102.8292745111612 -117.67452842173225 0 0 0 0 -70.369169404769764 -60.063120165763394 0 -60.063120165763394 -115.12631912737925 0 0 0 0 -12.797580284719402 -30.153710921681977 0 -30.153710921681977 -181.94077719960478 0 0 0 0 -121.55655549014637 28.939895919291303 0 28.939895919291303 -77.060894147136423 0 0 0 0 -0.69014634858751833 -1.9382163668251451 0 -1.9382163668251451 -72.488794676959515 0 0 0 0 -90.1547819819707 -86.377198911941377 0 -86.377198911941377 -194.05386931313842 0 0 0 0 -171.14708614142751 -169.69069149702773 0 -169.69069149702773 -276.85136620829871 0 0 0 0 -373.10599485681519 44.873012769297929 0 44.873012769297929 -97.994845014029124 0 0 0 0 -51.87990162941378 214.01045434614571 0 214.01045434614571 -300.5807033621677 0 0 0 0 -182.22032030856826 -289.56176782516741 0 -289.56176782516741 -339.84959262835036 0 0 0 0 33.290079590114374 33.787389393502963 0 33.787389393502963 -310.50236415711697 0 0 0 0 -35.49966798559808 -84.506921352614881 0 -84.506921352614881 -383.04822281291854 0 0 0 0 554.93454209122683 -48.443486145359202 0 -48.443486145359202 -212.05087132746121 0 0 0 0 3.3583136042502133 -8.1116050924038063 0 -8.1116050924038063 -44.807397493081226 0 0 0 0 -1.1820611487519797 -10.035410555201086 0 -10.035410555201086 -48.885134542237864 0 0 0 0 105.43022012500569 -112.94098420138107 0 -112.94098420138107 67.383665361994645 0 0 0 0 103.19270776216399 -41.342032064792875 0 -41.342032064792875 -192.10378169460455 0 0 0 0 67.715135758715064 -9.7550026174394588 0 -9.7550026174394588 97.159437276714016 0 0 0 0 96.910194264279653 63.286273779078329 0 63.286273779078329 -175.82672611558519 0 0 0 0 3.3115695792426321 0.56449743661899277 0 0.56449743661899277 -51.773110978871586 0 0 0 0 34.13376619434257 213.96882985606499 0 213.96882985606499 -3.7615337235401967 0 0 0 0 529.66439929711032 -88.68626215248878 0 -88.68626215248878 -418.61614888953045 0 0 0 0 15.01913645489924 8.5521001881465963 0 8.5521001881465963 -40.172119771341386 0 0 0 0 11.166706782408255 219.29317844275647 0 219.29317844275647 -94.585255188627343 0 0 0 0 67.163101376694158 210.80855936208536 0 210.80855936208536 -194.01812838253682 0 0 0 0 111.48471426351352 155.97179665265139 0 155.97179665265139 -226.34497391046534 0 0 0 0 94.872069220180492 53.409225227289426 0 53.409225227289426 -101.05120130578871 0 0 0 0 207.90269141396357 75.63881859092362 0 75.63881859092362 -160.33811912557576 0 0 0 0 -268.65928778160855 19.739577719478802 0 19.739577719478802 116.5505633547582 0 0 0 0 -0.047725573680743594 0.28318029503898501 0 0.28318029503898501 -4.474717776802521 0 0 0 0 278.91019026376807 -99.426698105507967 0 -99.426698105507967 -205.28426118663629 0 0 0 0 129.02183694922223 -22.371006459521595 0 -22.371006459521595 -13.63043268986803 0 0 0 0 8.8561125333836461 12.293031155937818 0 12.293031155937818 -62.612366803083034 0 0 0 0 3.0394315730140553 8.1395912603957949 0 8.1395912603957949 -16.092251421335817 0 0 0 0 91.385865084032957 316.85075818937185 0 316.85075818937185 40.779234505396744 0 0 0 0 -211.35004144454433 273.26135168196924 0 273.26135168196924 185.19405999821902 0 0 0 0 -12.831538247679532 79.299509457253407 0 79.299509457253407 10.525242721123504 0 0 0 0 56.582278081280265 22.375415615682869 0 22.375415615682869 -50.197852684050304 0 0 0 0 -0.13463316545408363 -0.60420019586046436 0 -0.60420019586046436 -8.9586365664342225 0 0 0 0 -173.74100035473697 55.07535192647083 0 55.07535192647083 14.282639447137626 0 0 0 0 -8.2937761093484212 99.748418520970404 0 99.748418520970404 -59.315480224649946 0 0 0 0 -6.1044684187036751 61.790360914150369 0 61.790360914150369 11.763693685090402 0 0 0 0 8.4814256154277352 10.428732987155612 0 10.428732987155612 -62.541301929366341 0 0 0 0 95.702916628630589 142.85062023654973 0 142.85062023654973 -12.641522734642422 0 0 0 0 150.6699014594451 99.979812833104006 0 99.979812833104006 50.033139975930681 0 0 0 0 -1.3503349602650516 11.054526778519641 0 11.054526778519641 -7.5040234413830547 0 0 0 0 -21.616094817092744 112.68425275190384 0 112.68425275190384 109.86994046752807 0 0 0 0 114.57293530606808 5.8762956826394657 0 5.8762956826394657 -8.2104091179935494 0 0 0 0 -38.231634631802535 24.126839724252932 0 24.126839724252932 32.497258844246971 0 0 0 0 -1.7749020525533616 -0.86734417191179602 0 -0.86734417191179602 -0.46035992400476289 0 0 0 0 -25.675954404018739 23.297639668286138 0 23.297639668286138 14.067030349984634 0 0 0 0 -19.270205142138138 32.031332212125562 0 32.031332212125562 17.016998044520733 0 0 0 0 6.1492587163095322 -21.807511208062351 0 -21.807511208062351 35.553773024017573 0 0 0 0 201.03621127031761 214.65137638668966 0 214.65137638668966 -131.91686799713716 0 0 0 0 -1.4264111559416071 1.9313011213508062 0 1.9313011213508062 -17.826255880672022 0 0 0 0 68.2647841687849 -97.723973370579188 0 -97.723973370579188 -140.06595531239873 0 0 0 0 6.9251630954609809 8.9012295783926305 0 8.9012295783926305 -68.958428875090902 0 0 0 0 224.01190376799991 181.21693537150531 0 181.21693537150531 -100.03360456483642 0 0 0 0 -18.042703138200977 72.75493386313974 0 72.75493386313974 178.1203657144797 0 0 0 0 39.559694011930105 -84.881473386696598 0 -84.881473386696598 21.226508014689898 0 0 0 0 -110.19521257044096 -268.85241207836498 0 -268.85241207836498 -215.71349285518227 0 0 0 0 1.171462562449733 181.20162972348407 0 181.20162972348407 120.45222435379401 0 0 0 0 -0.771033217849729 2.4451587585110133 0 2.4451587585110133 -3.1499110374384429 0 0 0 0 5.1562412630053682 5.9605252202078844 0 5.9605252202078844 -81.391384066139324 0 0 0 0 216.25686589067743 -26.345967754161393 0 -26.345967754161393 -96.493642082914448 0 0 0 0 260.10178235799685 56.733561218083196 0 56.733561218083196 -283.66939830705815 0 0 0 0 117.32493829582199 76.883608871921751 0 76.883608871921751 34.720093270134385 0 0 0 0 -252.56138281761969 126.20801541560832 0 126.20801541560832 145.94140888119 0 0 0 0 25.874594895014013 -1.0303685102517193 0 -1.0303685102517193 -87.04737686982844 0 0 0 0 117.68549048440366 93.468755126439646 0 93.468755126439646 -203.98504982845407 0 0 0 0 -371.04728974786485 174.66656949716707 0 174.66656949716707 -86.678158861097472 0 0 0 0 1.9397207295392924 83.26674635442987 0 83.26674635442987 -355.14291373298329 0 0 0 0 -68.108483063173026 35.607118820028745 0 35.607118820028745 -69.690005452554033 0 0 0 0 168.77420169463466 74.321398980871891 0 74.321398980871891 -75.084013357030926 0 0 0 0 -56.420409773991459 152.76052560304447 0 152.76052560304447 -67.903483966219937 0 0 0 0 83.872251286869457 -22.388532664375816 0 -22.388532664375816 -103.03371459147456 0 0 0 0 7.6279359216738669 -48.705443856784768 0 -48.705443856784768 -86.505986450218188 0 0 0 0 -111.09874557792082 -17.182261685464255 0 -17.182261685464255 -102.91529328566321 0 0 0 0 5.2742335062498569 -63.953720000779867 0 -63.953720000779867 -169.38283756393866 0 0 0 0 -119.00934878567574 -112.60929205143111 0 -112.60929205143111 -180.05374519557154 0 0 0 0 133.30949508146409 -38.247187701796065 0 -38.247187701796065 -182.18956884374165 0 0 0 0 126.68691171149112 62.492003124345501 0 62.492003124345501 -139.10726653877646 0 0 0 0 296.77393316470625 83.150102734586653 0 83.150102734586653 -140.65973279348691 0 0 0 0 147.83050774414971 58.185880511122377 0 58.185880511122377 -37.944034768755955 0 0 0 0 -246.28362167117257 119.00898656062782 0 119.00898656062782 -1.5724809286111849 0 0 0 0 218.24602392899541 -195.71565314031204 0 -195.71565314031204 -406.63025458721677 0 0 0 0 102.28539187766705 92.716110803168704 0 92.716110803168704 -42.170692970648815 0 0 0 0 4.4861230015590028 7.7983823807841723 0 7.7983823807841723 -82.18628296715292 0 0 0 0 150.66193917282897 16.855162947862482 0 16.855162947862482 -98.360174452540377 0 0 0 0 85.122192209655509 -28.047941173896106 0 -28.047941173896106 -77.874369093977293 0 0 0 0 46.778298475330416 0.13647174704237841 0 0.13647174704237841 -71.932155292697644 0 0 0 0 59.700702008370513 19.625156416308528 0 19.625156416308528 -86.249241566132696 0 0 0 0 25.882042471053182 -29.775025909530086 0 -29.775025909530086 -101.01455729726513 0 0 0 0 -25.004034872007793 -42.819305705759689 0 -42.819305705759689 -90.837661315017613 0 0 0 0 26.707010368426019 -71.132987744796992 0 -71.132987744796992 -105.41076608262665 0 0 0 0 -43.134079763282955 -54.699727866602188 0 -54.699727866602188 -90.116494501517991 0 0 0 0 -25.395271710666087 -47.849499140403395 0 -47.849499140403395 -92.351113911150605 0 0 0 0 -30.959316231586655 -47.312530324534237 0 -47.312530324534237 -91.4296259368748 0 0 0 0 -20.829442826628394 -49.149046304431977 0 -49.149046304431977 -113.40942482043829 0 0 0 0 -17.576206315701413 -40.134935373845337 0 -40.134935373845337 -73.370218006704818 0 0 0 0 0.90043985196864407 6.9834837050735246 0 6.9834837050735246 -10.053971449519494 0 0 0 0 -18.538551797637354 -55.857320136161434 0 -55.857320136161434 -94.914710880694656 0 0 0 0 -4.0108542197151564 11.536568347488355 0 11.536568347488355 -146.32017189470571 0 0 0 0 -32.912542768195408 -85.118425263626705 0 -85.118425263626705 -262.45210153887456 0 0 0 0 -31.339406567226774 -15.640261646338331 0 -15.640261646338331 -113.76814654290865 0 0 0 0 15.070238155157313 -35.761412317766371 0 -35.761412317766371 -209.10322540338348 0 0 0 0 -5.8274035582338897 -0.78958260784440881 0 -0.78958260784440881 -5.2266873777965692 0 0 0 0 3.9169964864754281 3.6685543011259654 0 3.6685543011259654 0.74729151068107669 0 0 0 0 -24.651579806697441 -17.539148623956862 0 -17.539148623956862 -87.864383761909266 0 0 0 0 27.372924964980712 14.675601452869159 0 14.675601452869159 -116.26991566271317 0 0 0 0 -135.932931862819 514.06892416024493 0 514.06892416024493 -682.85424646846332 0 0 0 0 162.8804823784599 393.0676668861197 0 393.0676668861197 -1755.2368063761387 0 0 0 0 446.92044090374304 378.32582335863481 0 378.32582335863481 -1763.7078863045681 0 0 0 0 -259.34721778236656 1203.3481972303689 0 1203.3481972303689 -1661.8360265165138 0 0 0 0 400.50313663995126 802.62206172665537 0 802.62206172665537 -2495.8325303448692 0 0 0 0 295.7366488534467 -225.24396722005986 0 -225.24396722005986 -1857.5648596104802 0 0 0 0 288.90872316840728 -224.95765434093482 0 -224.95765434093482 -1701.4089306440146 0 0 0 0 480.61083972838509 135.4614643454006 0 135.4614643454006 -2500.0938731844567 0 0 0 0 0.79741707306997256 1.4220864041904377 0 1.4220864041904377 -0.58009680968991262 0 0 0 0 85.169607192834633 104.51895755344594 0 104.51895755344594 -1226.6957608086268 0 0 0 0 157.88307957253676 16.655215176891943 0 16.655215176891943 -1722.1613803020009 0 0 0 0 -51.323909155090632 -63.672234593206667 0 -63.672234593206667 -229.72482387063064 0 0 0 0 57.742844674769231 102.57408130066324 0 102.57408130066324 -403.99977388781554 0 0 0 0 42.466566145956392 -204.84508144249776 0 -204.84508144249776 -570.07254198741066 0 0 0 0 19.178894675429483 -394.17066133944263 0 -394.17066133944263 -1624.0524757197854 0 0 0 0 -24.80865099339735 -9.2095112913930279 0 -9.2095112913930279 -73.295185185859737 0 0 0 0 12.973939406805215 -67.711612112172588 0 -67.711612112172588 -378.19475155669352 0 0 0 0 -2.7797240430843715 -36.459692284624907 0 -36.459692284624907 -105.41727186242497 0 0 0 0 1.6747960473054482 10.245053725019162 0 10.245053725019162 -11.487107010489474 0 0 0 0 -7.2868812984668789 -3.3921759787007204 0 -3.3921759787007204 -1.1859136490949282 0 0 0 0 3.8502738863883224 -45.775805093118834 0 -45.775805093118834 -144.25171030996353 0 0 0 0 0.94414942479977526 -16.424790561561167 0 -16.424790561561167 -102.88184604800335 0 0 0 0 -8.115292361778927 -21.479205230211392 0 -21.479205230211392 -95.014483602419205 0 0 0 0 22.002562412811358 15.618545741279377 0 15.618545741279377 -74.138566097621151 0 0 0 0 28.321529420952174 14.948612309744931 0 14.948612309744931 -74.340960190016631 0 0 0 0 23.39726485980907 26.756843389453934 0 26.756843389453934 -51.841614437820681 0 0 0 0 -2.8466311988227653 -6.6970422580189108 0 -6.6970422580189108 -15.044877391231381 0 0 0 0 5.0712832614407208 5.2179936078680527 0 5.2179936078680527 -78.468941164419363 0 0 0 0 20.460156305151031 -13.823690154740689 0 -13.823690154740689 -128.51002825004616 0 0 0 0 -225.70332027005301 -345.31383398691833 0 -345.31383398691833 -1109.4883096624471 0 0 0 0 -5.276524872102982 -8.0826338635270076 0 -8.0826338635270076 -73.303481680029108 0 0 0 0 -3.4545274195128131 10.102414351105651 0 10.102414351105651 -18.442084447637335 0 0 0 0 16.839694298397262 -9.9739750006046961 0 -9.9739750006046961 -175.39552711697615 0 0 0 0 6.2077881472467498 9.4813789189636282 0 9.4813789189636282 -59.637632338320003 0 0 0 0 -0.69148711333165469 -2.8223907334911615 0 -2.8223907334911615 -15.321205719148843 0 0 0 0 -12.063805342616888 -23.093419909338991 0 -23.093419909338991 -136.46561057695362 0 0 0 0 4.5289305747010857 29.100750145168576 0 29.100750145168576 -35.64369315298552 0 0 0 0 -708.27808707662086 -1437.5587274766731 0 -1437.5587274766731 -2194.4659674722352 0 0 0 0 -4.0467692643289812 9.6319704799704482 0 9.6319704799704482 0.64798582717051545 0 0 0 0 -159.92141407322748 -274.73317019699607 0 -274.73317019699607 -580.29137852753047 0 0 0 0 -6.7876676893301919 24.325942188275803 0 24.325942188275803 -95.10561927613162 0 0 0 0 -628.14704580757689 -536.19667156963624 0 -536.19667156963624 -2500.7610111067006 0 0 0 0 -173.98981288406389 601.50644291156459 0 601.50644291156459 -1520.6735553729086 0 0 0 0 -302.85860665356631 -500.35722461578189 0 -500.35722461578189 -2921.1858595162485 0 0 0 0 -43.931126194809657 -837.77744731837447 0 -837.77744731837447 -2499.2870879348629 0 0 0 0 -698.54681265996146 -1146.7996829945478 0 -1146.7996829945478 -1320.4074083724554 0 0 0 0 252.30967479816667 -422.86411575107013 0 -422.86411575107013 -2223.1305948113077 0 0 0 0 120.22382374284227 -331.54981149191008 0 -331.54981149191008 -2499.9297081850818 0 0 0 0 -80.957953556624773 439.20849361261935 0 439.20849361261935 -2003.6484542629078 0 0 0 0 4.6192428098716842 30.033742552995022 0 30.033742552995022 -15.178639452261692 0 0 0 0 -130.2819006783852 -92.647534989213455 0 -92.647534989213455 -2203.7551094427181 0 0 0 0 -122.46302878250765 -72.267175191105707 0 -72.267175191105707 -3535.1088180564839 0 0 0 0 194.04968496563566 -772.46001110602811 0 -772.46001110602811 -2436.8897775571386 0 0 0 0 6.0055923133666056 28.656541491076496 0 28.656541491076496 -103.68832331962858 0 0 0 0 -1.1336554454952279 2.5188675079690768 0 2.5188675079690768 10.520147160281539 0 0 0 0 -401.57662355561632 -586.64434306492331 0 -586.64434306492331 -2395.1517870904063 0 0 0 0 0.2455039504463396 -0.063255976276991532 0 -0.063255976276991532 -6.2088376118059614 0 0 0 0 11.741842939762137 28.794964412896661 0 28.794964412896661 -147.6207891734739 0 0 0 0 8.8895188155332789 27.346394812477229 0 27.346394812477229 -105.19207051394915 0 0 0 0 30.604462723541587 37.851603629966121 0 37.851603629966121 -102.46709378785454 0 0 0 0 23.191418179767311 35.870751293485228 0 35.870751293485228 -87.764098036001087 0 0 0 0 36.102279939081427 16.097161903628148 0 16.097161903628148 -81.477946571672874 0 0 0 0 28.653744638727858 28.284204618887088 0 28.284204618887088 -92.364689396985341 0 0 0 0 30.567091364531962 17.323975284700282 0 17.323975284700282 -84.51669285276148 0 0 0 0 38.026478552858904 20.35873396571651 0 20.35873396571651 -83.405236815633543 0 0 0 0 53.292552867014706 7.2038285836933937 0 7.2038285836933937 -78.639234650559956 0 0 0 0 43.270314616923088 6.073824041417538 0 6.073824041417538 -70.078470863281837 0 0 0 0 29.564981702915702 13.960221709603502 0 13.960221709603502 -80.326465082660434 0 0 0 0 42.280754043029674 2.2411964275920582 0 2.2411964275920582 -72.467806408800243 0 0 0 0 4.5270496641164115 7.0413898226350895 0 7.0413898226350895 -80.27783040205378 0 0 0 0 29.979809708309176 25.82290686788474 0 25.82290686788474 -54.019999505580927 0 0 0 0 -27.561197975917594 18.999780746995384 0 18.999780746995384 -43.613628735798557 0 0 0 0 17.219184206827094 -24.012978105052753 0 -24.012978105052753 -59.811836336477427 0 0 0 0 56.473007382066271 -4.551537495215598 0 -4.551537495215598 -65.328426337284327 0 0 0 0 -21.898745434517537 -91.419489659752799 0 -91.419489659752799 -159.48290324272239 0 0 0 0 70.323098312118873 95.340712300014275 0 95.340712300014275 -172.6045510401309 0 0 0 0 47.930551857394221 -1.0634639372801757 0 -1.0634639372801757 -31.299727746669305 0 0 0 0 112.45927751644251 59.00793029218039 0 59.00793029218039 -50.85013194338535 0 0 0 0 41.491398428105867 18.905679372946906 0 18.905679372946906 -1.6386411309504183 0 0 0 0 75.996481831387882 22.39339100979123 0 22.39339100979123 -48.13118778221542 0 0 0 0 40.043180477590113 -0.65069661818233726 0 -0.65069661818233726 -52.472922247929091 0 0 0 0 17.749689549706318 9.6556075642365613 0 9.6556075642365613 -53.546261452589533 0 0 0 0 17.818135154705971 99.010314554529032 0 99.010314554529032 22.369432712037451 0 0 0 0 -2.1296181673365142 4.3480387354220227 0 4.3480387354220227 -4.8267660063819733 0 0 0 0 15.913654820821534 7.4332969511997362 0 7.4332969511997362 -25.781106315533179 0 0 0 0 26.844730702815156 48.630636899120873 0 48.630636899120873 -63.048548913611739 0 0 0 0 -1.5590744536644614 4.1989813736544761 0 4.1989813736544761 -4.9359042322416258 0 0 0 0 46.775820517223522 38.741642620422226 0 38.741642620422226 -10.849772182271408 0 0 0 0 -21.391998070479616 -19.953729392047535 0 -19.953729392047535 -36.377525542156945 0 0 0 0 48.711553146438717 8.0111475619669363 0 8.0111475619669363 -185.83096175038736 0 0 0 0 31.424566757316455 -63.168393430514698 0 -63.168393430514698 -189.72384327026703 0 0 0 0 -58.822646308500737 -10.610978591996172 0 -10.610978591996172 -56.424873922420375 0 0 0 0 18.486112701246896 -43.701611038224655 0 -43.701611038224655 -42.370662146924587 0 0 0 0 3.2727978808838429 -13.557925111614168 0 -13.557925111614168 -125.35000265179406 0 0 0 0 -1.8950161224338222 3.5452599593709238 0 3.5452599593709238 -3.9403056920824895 0 0 0 0 62.554324522679877 80.323613187891169 0 80.323613187891169 52.247400937423663 0 0 0 0 -18.776417864128803 -61.431179937615525 0 -61.431179937615525 -228.3095735078241 0 0 0 0 -23.181550777925679 -36.569101737590245 0 -36.569101737590245 -138.78858412428235 0 0 0 0 31.874724208851603 34.452034253838065 0 34.452034253838065 -127.83796813787558 0 0 0 0 1.0776386407939782 -20.797779185176296 0 -20.797779185176296 -81.296276594723167 0 0 0 0 36.586321646442627 20.390339898443926 0 20.390339898443926 -98.655837853628327 0 0 0 0 36.802279494568381 28.060908256440598 0 28.060908256440598 -110.4428403226193 0 0 0 0 21.217016124484644 32.727626202460669 0 32.727626202460669 -116.47277352103265 0 0 0 0 19.028084151035699 51.3260556724656 0 51.3260556724656 -97.652660160674714 0 0 0 0 9.2906113353765249 70.465782944298553 0 70.465782944298553 -131.98520948692749 0 0 0 0 18.878184430545048 49.657952240129816 0 49.657952240129816 -99.510195747883699 0 0 0 0 22.931404072984606 47.721981320224586 0 47.721981320224586 -108.68005161573046 0 0 0 0 12.664559577105422 38.589963126595649 0 38.589963126595649 -87.115663906064583 0 0 0 0 0.54046177849431842 61.590844283309707 0 61.590844283309707 -84.774975897307741 0 0 0 0 2.5651801905180411 21.162075132725022 0 21.162075132725022 -2.8544932810947543 0 0 0 0 -15.117495489060616 46.810025339753338 0 46.810025339753338 -17.746697418893746 0 0 0 0 10.402761597848908 34.137032074519539 0 34.137032074519539 -59.308360550916404 0 0 0 0 -40.188583532187081 -231.87783548545121 0 -231.87783548545121 -2499.4343991607602 0 0 0 0 27.763363123914928 -255.58022917294875 0 -255.58022917294875 -2546.7149842916479 0 0 0 0 3.5099016296735051 26.403119560984408 0 26.403119560984408 -7.9228945370227706 0 0 0 0 9.5205548757852512 40.446168389196828 0 40.446168389196828 -82.454999821668025 0 0 0 0 4.0938794437220656 12.896380650405249 0 12.896380650405249 10.474338378320368 0 0 0 0 -563.86409960270919 108.69756817875896 0 108.69756817875896 -5.5619540467150728 0 0 0 0 -4.6123343470776792 2.9942945799475069 0 2.9942945799475069 1.0190233227608267 0 0 0 0 -14.136961498999533 41.577951145755378 0 41.577951145755378 -46.588525354673038 0 0 0 0 -81.358901481753762 -437.39536964066792 0 -437.39536964066792 -2420.5600833095741 0 0 0 0 -11.681628862882746 56.21622210523492 0 56.21622210523492 -50.03627547234646 0 0 0 0 3.9486870046945173 5.8874810975976288 0 5.8874810975976288 -2498.5711992894139 0 0 0 0 5.5826183888649874 15.659727932506627 0 15.659727932506627 -33.213846430876373 0 0 0 0 -2.4608770699503566 49.197660312427615 0 49.197660312427615 -58.895191016941681 0 0 0 0 -16.531299187892614 69.734034730136045 0 69.734034730136045 -84.532974156260025 0 0 0 0 -36.591662052888296 53.585578556565451 0 53.585578556565451 -44.021525266585741 0 0 0 0 -42.957536217271098 65.241302849545718 0 65.241302849545718 -102.37366620039393 0 0 0 0 -54.614876126575517 84.972550497661359 0 84.972550497661359 -90.385913246464042 0 0 0 0 -28.460161548639292 93.176089647058689 0 93.176089647058689 -129.01021432543348 0 0 0 0 2.4151407394604405 59.565854866221343 0 59.565854866221343 -92.954204820547602 0 0 0 0 23.132254173537603 46.414469252340496 0 46.414469252340496 -189.98000299252453 0 0 0 0 21.66794605857682 43.518490066633149 0 43.518490066633149 -180.32508715722361 0 0 0 0 23.32052252546119 43.377364218887124 0 43.377364218887124 -322.06259194618906 0 0 0 0 -127.64345809211889 1478.0672242965679 0 1478.0672242965679 -2493.4812248695071 0 0 0 0 -79.350467373700752 133.85888202714705 0 133.85888202714705 -148.81005313620699 0 0 0 0 78.730557342003522 531.80089894902358 0 531.80089894902358 -1913.9408714818674 0 0 0 0 -1.093530655002015 19.455141291178734 0 19.455141291178734 -679.75433061845979 0 0 0 0 -71.780096162575603 198.82286291483615 0 198.82286291483615 -378.58493316939712 0 0 0 0 0.17384999360742681 1.167792464211729 0 1.167792464211729 0.41332524935015158 0 0 0 0 -174.65644704636509 45.665573799960839 0 45.665573799960839 -233.39586651293212 0 0 0 0 0.86896684802427115 3.9177654570115124 0 3.9177654570115124 5.9984487636748156 0 0 0 0 33.312141110778626 118.51549063437596 0 118.51549063437596 -1193.4517034027322 0 0 0 0 -24.884244265821707 117.46209017844376 0 117.46209017844376 -430.91256719357261 0 0 0 0 -32.893211254682377 333.33143261709483 0 333.33143261709483 -569.42637897449458 0 0 0 0 -37.595356630274111 232.44670273462907 0 232.44670273462907 -261.53186859628477 0 0 0 0 -20.055377402458994 220.28898722803569 0 220.28898722803569 -321.67542855740976 0 0 0 0 -34.604277261490168 186.69992365445796 0 186.69992365445796 128.96884645220416 0 0 0 0 -1.6663442679103362 -76.992610904108915 0 -76.992610904108915 -499.13169526511047 0 0 0 0 -0.83771915021821552 1.41220611903465 0 1.41220611903465 -1.6980417534190622 0 0 0 0 47.165417544536169 -42.44945126840139 0 -42.44945126840139 -21.811378657483147 0 0 0 0 -39.602059134494105 14.879167177212366 0 14.879167177212366 -43.731574065073801 0 0 0 0 13.739680919028796 9.3633670878807607 0 9.3633670878807607 -97.25705611982994 0 0 0 0 -1.3481732293279349 -43.547500314967692 0 -43.547500314967692 -81.098104178796348 0 0 0 0 -41.608201693405164 9.4521472223896126 0 9.4521472223896126 -137.06822661285696 0 0 0 0 -21.260838484488168 36.408540789077961 0 36.408540789077961 -170.42896285400093 0 0 0 0 0.25925720582257233 1.3985882686913229 0 1.3985882686913229 -219.01310250373353 0 0 0 0 -0.54337216214865169 15.429606347385743 0 15.429606347385743 -165.7141232282811 0 0 0 0 -1.7705106078913104 37.590679040313262 0 37.590679040313262 -67.742431189930358 0 0 0 0 26.428115528892704 61.559629004419548 0 61.559629004419548 -90.742784151652359 0 0 0 0 40.32803076862649 39.974621416149603 0 39.974621416149603 -59.645718038038467 0 0 0 0 43.599369041250384 41.275695663221995 0 41.275695663221995 -64.318526130969985 0 0 0 0 64.646342378579106 13.886987283956842 0 13.886987283956842 -74.840589923835068 0 0 0 0 41.689649697699565 29.346907409248161 0 29.346907409248161 -59.458678268885706 0 0 0 0 138.29326513372257 -53.004461067081138 0 -53.004461067081138 -69.880565667524934 0 0 0 0 67.299835806417377 -34.216882253149379 0 -34.216882253149379 -12.486801803981507 0 0 0 0 81.308808038242432 -8.9972861903952435 0 -8.9972861903952435 -94.644608583206718 0 0 0 0 18.665651769113609 -20.706179959394603 0 -20.706179959394603 -58.734600982410484 0 0 0 0 24.727805518056186 29.530423266155594 0 29.530423266155594 -164.26580526832549 0 0 0 0 -32.577456534198745 -27.343020331783919 0 -27.343020331783919 -106.96926545457245 0 0 0 0 28.615483644534834 10.336931327292405 0 10.336931327292405 -86.546140906303208 0 0 0 0 -11.443285930327306 -60.538320815550833 0 -60.538320815550833 -327.59732743779932 0 0 0 0 -76.776988145577207 84.013871471235689 0 84.013871471235689 -170.79740320395831 0 0 0 0 -73.513134097416838 -9.9549997070328118 0 -9.9549997070328118 -112.69482841603167 0 0 0 0 -44.788781011838864 19.83690999283499 0 19.83690999283499 -89.317724094253208 0 0 0 0 -44.641266922236355 71.218304710550001 0 71.218304710550001 -93.848059092510084 0 0 0 0 48.813840519524433 7.7581103492989314 0 7.7581103492989314 -78.81662095530919 0 0 0 0 -18.001504338900418 29.332775156722164 0 29.332775156722164 -13.166172563618602 0 0 0 0 -24.177416599182607 51.956707297642424 0 51.956707297642424 -80.315333450585058 0 0 0 0 -62.053258988153402 17.668549856850404 0 17.668549856850404 -14.29405103897443 0 0 0 0 -9.4051716258354645 21.628340716928506 0 21.628340716928506 -14.186870948990872 0 0 0 0 -1.367511683127014 1.1961828630051556 0 1.1961828630051556 -18.339848427026638 0 0 0 0 -0.058131185208272651 30.8207076904513 0 30.8207076904513 -31.606448373753771 0 0 0 0 -22.588162210820201 55.080880951813015 0 55.080880951813015 16.577048025465047 0 0 0 0 14.669530328138393 -24.237748235993422 0 -24.237748235993422 -76.910843248703713 0 0 0 0 3.6354458667044169 29.618203501340822 0 29.618203501340822 -28.462759959322643 0 0 0 0 9.0622041966018401 65.134218647323905 0 65.134218647323905 -54.979384044287144 0 0 0 0 5.5691041391185649 59.75951665282264 0 59.75951665282264 -10.980667227886443 0 0 0 0 25.402649451586967 49.384593156526535 0 49.384593156526535 -62.270700102078081 0 0 0 0 13.430862451723897 74.80004145016801 0 74.80004145016801 106.61176197170062 0 0 0 0 -9.6418055389922301 16.482220352700097 0 16.482220352700097 -257.5049181794991 0 0 0 0 -27.483680763907387 148.53869829527503 0 148.53869829527503 -19.591136371611356 0 0 0 0 -9.535119609261983 -68.584315926613272 0 -68.584315926613272 -252.86713149818638 0 0 0 0 -1.5418615758806515 0.24498700137366569 0 0.24498700137366569 -0.038775973537504171 0 0 0 0 -53.748101303182466 -80.500122306402773 0 -80.500122306402773 -152.75388537138224 0 0 0 0 -52.209984174570309 -42.857543981301205 0 -42.857543981301205 -114.21217430522665 0 0 0 0 -29.392497964555787 -21.201160288132087 0 -21.201160288132087 -102.82206115193185 0 0 0 0 -17.397852921686081 -21.035834414002238 0 -21.035834414002238 -178.42054897436083 0 0 0 0 -6.7491602501322632 -27.170528672149885 0 -27.170528672149885 -96.961517711944907 0 0 0 0 -6.4010894330203882 -18.230862758386138 0 -18.230862758386138 -142.08003292308422 0 0 0 0 18.887003855852527 -12.01663226272467 0 -12.01663226272467 -108.7465708577638 0 0 0 0 5.2056036123231024 -34.140931058223941 0 -34.140931058223941 -115.9364098717233 0 0 0 0 -8.4804816681880766 -43.57633119935781 0 -43.57633119935781 -107.76354172390347 0 0 0 0 -12.876678375179381 -34.754956296657838 0 -34.754956296657838 -122.48539640559466 0 0 0 0 -5.9791445302589636 -49.728425600507762 0 -49.728425600507762 -119.39141833081067 0 0 0 0 -13.169942983913529 51.562640592710522 0 51.562640592710522 16.165396958786005 0 0 0 0 -10.366862796396163 127.19624488774934 0 127.19624488774934 -25.485045896395604 0 0 0 0 -2.6178109315213032 1.7820005857463848 0 1.7820005857463848 -0.83580357602688693 0 0 0 0 -17.381230360318114 -55.041309871681733 0 -55.041309871681733 31.682889680092558 0 0 0 0 42.315160086414835 -21.322551360666694 0 -21.322551360666694 102.9100755222571 0 0 0 0 35.266638319312023 22.037601728509344 0 22.037601728509344 -55.527723070546926 0 0 0 0 7.5283858585195444 26.624989552766657 0 26.624989552766657 -29.278771735741216 0 0 0 0 7.29789646442965 15.438107635248901 0 15.438107635248901 -8.7571363974952092 0 0 0 0 4.58263568508346 141.50095619965032 0 141.50095619965032 -171.86772098622168 0 0 0 0 20.333553954150716 24.411290169752874 0 24.411290169752874 -56.712608331650699 0 0 0 0 16.588849675673373 14.118059757278843 0 14.118059757278843 -76.835496825355222 0 0 0 0 27.610226919589422 8.7924626631029241 0 8.7924626631029241 -79.539565687849972 0 0 0 0 9.701213974241 -1.9557314362973557 0 -1.9557314362973557 -75.920029875876935 0 0 0 0 9.4504270867919331 -19.024446243985039 0 -19.024446243985039 -89.824530600235448 0 0 0 0 0.58467586488359302 -28.502768481976091 0 -28.502768481976091 -92.613482562876015 0 0 0 0 16.091237213429849 -18.733922668227024 0 -18.733922668227024 -100.99115221435204 0 0 0 0 -20.5591158481202 -50.558324693240138 0 -50.558324693240138 -101.26518138010579 0 0 0 0 -7.402189733211344 -6.6221073784727196 0 -6.6221073784727196 -67.501221273403644 0 0 0 0 -20.14955423314472 -13.851920506642685 0 -13.851920506642685 -69.896117755619343 0 0 0 0 -1.836233849873679 -14.087086799641838 0 -14.087086799641838 -82.098207717275272 0 0 0 0 4.2426732648445977 -13.037270023240126 0 -13.037270023240126 -60.099261365336133 0 0 0 0 7.680890003225386 1.4458137720009745 0 1.4458137720009745 -45.9135374838188 0 0 0 0 10.937497585136043 -5.4635003383737057 0 -5.4635003383737057 -78.518452899414115 0 0 0 0 -28.058550819094307 -9.2746998818911379 0 -9.2746998818911379 -45.27291382765361 0 0 0 0 0.01503385197924878 -0.47251072660532145 0 -0.47251072660532145 -4.8857540609851107 0 0 0 0 24.731794508714302 31.213027963043714 0 31.213027963043714 -4.3581959502844256 0 0 0 0 7.0072407245552313 -11.803093660180821 0 -11.803093660180821 -68.109924699400608 0 0 0 0 -2.8469971976074469 1.8935010240021342 0 1.8935010240021342 -3.929290131881821 0 0 0 0 42.55838067642253 -13.307911391515518 0 -13.307911391515518 -74.827214941149577 0 0 0 0 18.419900661008512 12.479397606848124 0 12.479397606848124 -51.483709878448281 0 0 0 0 0.81503874749301097 11.285450874252405 0 11.285450874252405 -13.052299853252894 0 0 0 0 13.74626663529213 32.115815139844244 0 32.115815139844244 -12.554780167280114 0 0 0 0 35.167492979062445 63.863195751848252 0 63.863195751848252 -105.87577312531357 0 0 0 0 50.501418874569026 -20.84498087234897 0 -20.84498087234897 -216.15644891830016 0 0 0 0 55.312572877362527 63.48297544003799 0 63.48297544003799 -86.314376720423752 0 0 0 0 -16.022695635685523 6.2023365900859062 0 6.2023365900859062 -3.5847216099518846 0 0 0 0 1.5444704663845243 0.5811529398714228 0 0.5811529398714228 -11.475618777743151 0 0 0 0 -42.298486104999029 2.9993265412122128 0 2.9993265412122128 -66.995669346117211 0 0 0 0 -15.824569394371792 63.123047690507519 0 63.123047690507519 -111.43300573570014 0 0 0 0 11.083452209079951 3.744060580716905 0 3.744060580716905 -73.506809092577896 0 0 0 0 22.796835911907891 -49.666418713693929 0 -49.666418713693929 12.556020301384706 0 0 0 0 1.4832098991559644 -2.6734788732436598 0 -2.6734788732436598 -36.645080326270062 0 0 0 0 75.301121564669756 21.428218839948386 0 21.428218839948386 -62.995991754396528 0 0 0 0 64.24943268010702 16.523547953755042 0 16.523547953755042 -61.117096847527137 0 0 0 0 3.255180156919578 8.3038305516638786 0 8.3038305516638786 -16.733284284290935 0 0 0 0 -23.544320345799861 20.941792029119824 0 20.941792029119824 -1.4814899486573267 0 0 0 0 -20.760784286439673 87.604924820928318 0 87.604924820928318 -293.71643046825557 0 0 0 0 -41.220208450864448 37.458836897749279 0 37.458836897749279 -12.144904365766706 0 0 0 0 -132.82476194816866 124.66215579863274 0 124.66215579863274 84.915281036131091 0 0 0 0 57.946067879472594 23.136482126818009 0 23.136482126818009 -21.670688391692238 0 0 0 0 -0.35769827784311492 -4.233371906631989 0 -4.233371906631989 -25.264921054323636 0 0 0 0 176.13809341079298 -23.932660819418743 0 -23.932660819418743 -72.268368318982539 0 0 0 0 62.325818002204556 16.582727541441272 0 16.582727541441272 -428.20304938964546 0 0 0 0 75.279297047953719 -80.925773059827407 0 -80.925773059827407 -34.323918966154451 0 0 0 0 -218.31349730454329 86.978657953994116 0 86.978657953994116 264.09604916348326 0 0 0 0 12.909990364078226 62.416859913950248 0 62.416859913950248 142.45467374211876 0 0 0 0 -129.90101373283568 223.64645439482774 0 223.64645439482774 -36.82069843779027 0 0 0 0 -2.476000382740402 0.72602230198471318 0 0.72602230198471318 -0.0081443254377191465 0 0 0 0 -23.838330877360477 134.22298629245051 0 134.22298629245051 129.95706755259744 0 0 0 0 -11.063098029157118 -138.64210574119352 0 -138.64210574119352 -347.68037003358722 0 0 0 0 -13.421982735671691 152.60685358083356 0 152.60685358083356 48.815656188104185 0 0 0 0 81.328720642133703 1.3604867322574137 0 1.3604867322574137 -44.46599653850717 0 0 0 0 -5.463350990209392 73.339299138075148 0 73.339299138075148 56.590032428997802 0 0 0 0 28.666707317964438 59.628327385877128 0 59.628327385877128 -76.923035499756224 0 0 0 0 38.540229074915715 16.604185675636472 0 16.604185675636472 88.248168289712339 0 0 0 0 22.442840866010101 -15.423632583740982 0 -15.423632583740982 -65.398448897231901 0 0 0 0 25.438733119781318 -30.440112199845316 0 -30.440112199845316 -185.6781247886729 0 0 0 0 -39.539660094498004 -154.38806331784144 0 -154.38806331784144 -423.52790330841526 0 0 0 0 -51.266964568769026 -83.134027077707287 0 -83.134027077707287 -329.94155734563537 0 0 0 0 -124.65895545032276 -142.12226535255832 0 -142.12226535255832 -264.95366367256793 0 0 0 0 -49.94825232971624 260.85961709845651 0 260.85961709845651 -632.61293210883741 0 0 0 0 -574.1468883886746 539.94768633257627 0 539.94768633257627 6.6664085462143703 0 0 0 0 -21.040992670557785 132.26454521974847 0 132.26454521974847 -70.026351817679824 0 0 0 0 -9.7807811459535969 115.90496583715867 0 115.90496583715867 -150.88650977953421 0 0 0 0 -8.2165115282523402 8.2629369499518361 0 8.2629369499518361 -79.709376011553104 0 0 0 0 5.9048194633851381 -9.5036082595324842 0 -9.5036082595324842 -61.922538407467073 0 0 0 0 -5.545360581726527 4.8847108951231348 0 4.8847108951231348 -19.697532774123829 0 0 0 0 -9.6400080866483222 66.349858384883191 0 66.349858384883191 -102.78556278672477 0 0 0 0 28.595391661243411 27.884479022017331 0 27.884479022017331 -111.84316527371993 0 0 0 0 -4.8759830582184804 57.241779963027511 0 57.241779963027511 -87.68731198477326 0 0 0 0 22.179910024473429 41.767115455433668 0 41.767115455433668 -141.62289895830327 0 0 0 0 0.55785271651076584 -0.87609461898767904 0 -0.87609461898767904 -0.87996051192067171 0 0 0 0 -2.3847977425739373 4.426803566973831 0 4.426803566973831 -157.07449540059315 0 0 0 0 -13.921438943299108 -0.51416486639573122 0 -0.51416486639573122 -44.129331758776971 0 0 0 0 -58.478036175936722 -74.241694113523408 0 -74.241694113523408 -138.62049746400589 0 0 0 0 -19.844074717810145 -29.09513494555722 0 -29.09513494555722 -117.81908005845617 0 0 0 0 24.524526188322056 13.671866601568581 0 13.671866601568581 -133.7033599394781 0 0 0 0 -17.245556811644065 -26.042283036827939 0 -26.042283036827939 -139.26591703583108 0 0 0 0 -4.5098865305972762 3.0244548837852037 0 3.0244548837852037 -1.9425560281274912 0 0 0 0 -30.010907597498772 -38.311172842488304 0 -38.311172842488304 -141.84239204934147 0 0 0 0 65.348826081641619 58.857181281466183 0 58.857181281466183 13.745469397505076 0 0 0 0 -23.961481173576431 -48.935564128158148 0 -48.935564128158148 -123.51810562742503 0 0 0 0 -7.8876213815001393 -19.254368652960693 0 -19.254368652960693 -46.752291692318977 0 0 0 0 -21.720685670698003 -37.860910861122647 0 -37.860910861122647 -68.792620115273166 0 0 0 0 14.022778563079555 -15.375289326584607 0 -15.375289326584607 -112.67601573917636 0 0 0 0 18.453400652322671 9.7761498956870128 0 9.7761498956870128 -19.73355927904413 0 0 0 0 -5.9355837881640454 4.4988187218454812 0 4.4988187218454812 -5.3133554219532471 0 0 0 0 14.238585481261225 7.0369241269636404 0 7.0369241269636404 -7.8660733739379793 0 0 0 0 50.508743683643843 -0.75813005926829646 0 -0.75813005926829646 -37.226066649469431 0 0 0 0 19.086893454338679 -7.229182387360197 0 -7.229182387360197 -40.479726521552948 0 0 0 0 3.3630165265920429 -6.3320173365046486 0 -6.3320173365046486 -2.145003137146281 0 0 0 0 7.283200992555976 -11.497043402368945 0 -11.497043402368945 -35.287742475375126 0 0 0 0 2.8675350940816315 4.7166533757299476 0 4.7166533757299476 -20.61008881532689 0 0 0 0 -56.981055397480056 -43.07044655662321 0 -43.07044655662321 -11.130541681653995 0 0 0 0 0.40933375991085086 -40.877510879148758 0 -40.877510879148758 -59.559420924058941 0 0 0 0 -28.071370257766375 -1.8640181143564405 0 -1.8640181143564405 11.410998285406095 0 0 0 0 -81.570041321685267 -6.3190533049346413 0 -6.3190533049346413 36.728099332016427 0 0 0 0 -59.085148336595921 -6.8746272916323505 0 -6.8746272916323505 9.746407422095217 0 0 0 0 -43.893279977897393 -35.450751911332191 0 -35.450751911332191 -18.650940036966858 0 0 0 0 -109.92399900927404 -66.693466459924821 0 -66.693466459924821 -12.199405792542166 0 0 0 0 -86.857283472457198 -49.275194276124239 0 -49.275194276124239 -64.328863694376196 0 0 0 0 -118.80701529984981 -49.236815654105158 0 -49.236815654105158 20.945324310163414 0 0 0 0 -115.75440806452832 -65.453774757774227 0 -65.453774757774227 -67.899057042144705 0 0 0 0 -53.735794429231873 -33.548924699594863 0 -33.548924699594863 -109.17807733603695 0 0 0 0 -35.464317871881804 -84.656503424208495 0 -84.656503424208495 -103.7105746733796 0 0 0 0 60.643859225939195 14.790478100778273 0 14.790478100778273 -52.348777752740716 0 0 0 0 25.819491088435825 -33.1159976476265 0 -33.1159976476265 -59.920061189818625 0 0 0 0 0.74747177552694666 -35.695226853986242 0 -35.695226853986242 -36.258790159772616 0 0 0 0 13.009231953355425 -28.017967938879337 0 -28.017967938879337 -33.068127728489344 0 0 0 0 -9.5189567372036663 -28.843900776249939 0 -28.843900776249939 -13.906019742047647 0 0 0 0 -0.79067942570549565 -6.8026356872504721 0 -6.8026356872504721 1.3451370671945053 0 0 0 0 -21.470621162193993 6.617759575965465 0 6.617759575965465 6.8165706273866817 0 0 0 0 -3.7368455260228823 -6.2897303156336193 0 -6.2897303156336193 -0.86339220148237317 0 0 0 0 -0.77542760730242932 -21.28118799801814 0 -21.28118799801814 -13.549677308066748 0 0 0 0 -34.003803366776992 7.5059939356742689 0 7.5059939356742689 17.597914766265603 0 0 0 0 -3.8562019008691095 0.34729965207952773 0 0.34729965207952773 15.074870890506645 0 0 0 0 -0.29456706843972813 0.53656585570006854 0 0.53656585570006854 -5.4844316935514854 0 0 0 0 35.136806027717057 15.11998181416493 0 15.11998181416493 -3.4685270499394392 0 0 0 0 -0.013809945773909149 -0.89151865722732282 0 -0.89151865722732282 -2.5717172661544119 0 0 0 0 -109.98653169080376 277.58652851678744 0 277.58652851678744 -6.6845390053786105 0 0 0 0 -88.258676643542685 147.97514962209607 0 147.97514962209607 348.38724558206741 0 0 0 0 68.510424133724655 50.879486849211389 0 50.879486849211389 -89.471705584641313 0 0 0 0 0.70501324277644795 1.0992663417628918 0 1.0992663417628918 0.060234764916799577 0 0 0 0 4.3419329916644074 25.7971074545585 0 25.7971074545585 -63.354756566652213 0 0 0 0 -80.570794962043465 -29.673420037172036 0 -29.673420037172036 -35.565381922417146 0 0 0 0 -74.430006466162467 -5.6477263773267623 0 -5.6477263773267623 -0.68130983893934172 0 0 0 0 -54.543599934532722 102.20821765503206 0 102.20821765503206 24.214755992332357 0 0 0 0 -25.40720300711908 -70.957037520453923 0 -70.957037520453923 -49.624102393951034 0 0 0 0 2.6014327823473877 16.982454685858102 0 16.982454685858102 -100.31696149105846 0 0 0 0 -1.0563891260321725 -1.996465415104467 0 -1.996465415104467 -37.601649664160504 0 0 0 0 -7.3915544183786324 -37.528412818806828 0 -37.528412818806828 -156.77823691281083 0 0 0 0 -17.52785994648184 -84.849273426527361 0 -84.849273426527361 -96.400868398937746 0 0 0 0 5.9850030443194555 -97.705465040839044 0 -97.705465040839044 -155.62968918644469 0 0 0 0 -486.1194849345643 -898.74949276525876 0 -898.74949276525876 -2528.8394410205074 0 0 0 0 -16.529720957119935 -207.02107583482939 0 -207.02107583482939 -30.708018214580079 0 0 0 0 0.80371062193695253 1.8804715101133844 0 1.8804715101133844 -4.4601155548830462 0 0 0 0 -465.94703622828661 974.76710769795318 0 974.76710769795318 1933.0691188162164 0 0 0 0 -128.26182656473225 -75.427083762355323 0 -75.427083762355323 -92.129440248063474 0 0 0 0 20.01789332309545 51.452568617238285 0 51.452568617238285 20.188115714583546 0 0 0 0 -73.749002930700499 39.739282908310997 0 39.739282908310997 67.203543963674747 0 0 0 0 89.923003420090254 18.47497111598932 0 18.47497111598932 -727.93854596791789 0 0 0 0 -112.80104826515708 -4.2301886262066546 0 -4.2301886262066546 53.680979090589972 0 0 0 0 -52.357257095768432 -109.02737080923544 0 -109.02737080923544 -19.811803290009266 0 0 0 0 -616.34862550945945 357.75261621065147 0 357.75261621065147 -475.24368140718434 0 0 0 0 0.19113860567273666 -0.01050212133867845 0 -0.01050212133867845 -10.585460161327632 0 0 0 0 12.03739179272452 -39.743477334435738 0 -39.743477334435738 48.480999444320332 0 0 0 0 -1.7920831286162411 -97.628406099454878 0 -97.628406099454878 -55.877199813723564 0 0 0 0 -11.581182571792851 -74.376903848122311 0 -74.376903848122311 23.474173341499409 0 0 0 0 2.2572945054022853 -119.0768233744875 0 -119.0768233744875 -104.25318948437052 0 0 0 0 -21.625322938611134 -116.59781733671116 0 -116.59781733671116 -63.883044382673688 0 0 0 0 -37.822015614855616 -85.706615325082339 0 -85.706615325082339 -59.440552867141378 0 0 0 0 -37.106365167220702 -94.306134542453947 0 -94.306134542453947 -47.122319099162269 0 0 0 0 -1.5085626880990048 -57.727898717466815 0 -57.727898717466815 -28.810963687777985 0 0 0 0 -18.925828395862482 -97.873706303544168 0 -97.873706303544168 -117.04947994442773 0 0 0 0 18.796205687110913 -21.046483911097312 0 -21.046483911097312 -130.80154689084156 0 0 0 0 48.421060427825751 -40.503183669890859 0 -40.503183669890859 -87.193873856063874 0 0 0 0 62.985479529183522 -7.1371389932755847 0 -7.1371389932755847 -24.868294046100345 0 0 0 0 104.79272525608462 31.727713304055214 0 31.727713304055214 18.655983821823611 0 0 0 0 76.88884210535457 -21.581918880081503 0 -21.581918880081503 -47.945416320551885 0 0 0 0 140.93589055215534 134.10037968323195 0 134.10037968323195 -36.204425778516452 0 0 0 0 0.091766248171935461 0.060546516049889476 0 0.060546516049889476 -1.8199263361305213 0 0 0 0 -228.47068532952471 -185.36064432551939 0 -185.36064432551939 -137.84902246877391 0 0 0 0 -92.866566819918035 -79.970042153830946 0 -79.970042153830946 -59.23938546377758 0 0 0 0 140.16746968519203 15.548240486723444 0 15.548240486723444 -29.616933772358607 0 0 0 0 -50.852890351799715 -84.808862282163318 0 -84.808862282163318 -56.727670043743274 0 0 0 0 0.54294292353561513 0.045408023010953258 0 0.045408023010953258 -4.6173545467371326 0 0 0 0 32.247594936422729 -59.505074787073681 0 -59.505074787073681 -28.121389121581956 0 0 0 0 35.344366685078285 -36.098094888267951 0 -36.098094888267951 -18.059614159580633 0 0 0 0 69.897595666797088 -5.8227973963312252 0 -5.8227973963312252 -16.957309739795164 0 0 0 0 0.6636020248051544 0.10136931495824086 0 0.10136931495824086 -5.728789769271998 0 0 0 0 -2.1178096395782404 -15.875706070013621 0 -15.875706070013621 -2.3937265620443213 0 0 0 0 -68.206437507229339 -41.250494968633575 0 -41.250494968633575 11.748591334275261 0 0 0 0 -16.333662906385257 -51.171638224783692 0 -51.171638224783692 -11.793176897946978 0 0 0 0 -80.619157126052414 -56.339954510611278 0 -56.339954510611278 -4.661431782935324 0 0 0 0 -73.508860969964417 -16.741954334969705 0 -16.741954334969705 -47.59411087438275 0 0 0 0 -62.839936231329659 -30.123241608605895 0 -30.123241608605895 1.5148039800187689 0 0 0 0 -22.760473626740577 16.23146024855032 0 16.23146024855032 9.6920449963508872 0 0 0 0 -15.772404219241707 33.078432781285301 0 33.078432781285301 -60.036555489823513 0 0 0 0 -101.73422779777411 2.4462781241891207 0 2.4462781241891207 8.4272446845413924 0 0 0 0 -81.441854375907951 -44.657730988083131 0 -44.657730988083131 -8.7350324169547093 0 0 0 0 -73.898306551350402 -3.9078768824183499 0 -3.9078768824183499 -52.39403814164325 0 0 0 0 -139.64804130943878 87.570364196762966 0 87.570364196762966 -179.65270589090869 0 0 0 0 -38.916762736578676 -58.907792077632621 0 -58.907792077632621 -326.02381817107653 0 0 0 0 -29.712552365699366 -8.395610499112081 0 -8.395610499112081 -50.294263497173233 0 0 0 0 90.809971958255346 24.693993223923826 0 24.693993223923826 -274.7684549974947 0 0 0 0 22.581646009722419 -28.5352286574971 0 -28.5352286574971 -82.24829542695079 0 0 0 0 -209.36216686304485 -72.265884363845089 0 -72.265884363845089 -65.759396279026987 0 0 0 0 1.0412922830628304 -6.8238365160941612 0 -6.8238365160941612 -44.786982259218348 0 0 0 0 1.2867348421813176 -6.124248399301905 0 -6.124248399301905 -43.23945690185792 0 0 0 0 -0.23165191791940742 -9.9606060283731495 0 -9.9606060283731495 -45.757974144453328 0 0 0 0 -1.7801825753799676 -7.3423278806676535 0 -7.3423278806676535 -42.825023490768217 0 0 0 0 96.83930539533003 92.345450142620393 0 92.345450142620393 -1.456350507454772 0 0 0 0 6.1059984437670227 7.292059876669029 0 7.292059876669029 -29.505048048194681 0 0 0 0 48.422903487444216 66.376957715447134 0 66.376957715447134 -48.375434031295299 0 0 0 0 73.722024506909634 35.672150872411294 0 35.672150872411294 -13.260916430506768 0 0 0 0 80.411375558854161 95.32176068148874 0 95.32176068148874 32.647810076625319 0 0 0 0 65.208779853065948 38.723391455274395 0 38.723391455274395 -10.998907417473674 0 0 0 0 -20.123709880605702 34.351189214798069 0 34.351189214798069 10.9043952154625 0 0 0 0 -9.0485202191514986 55.037254558121276 0 55.037254558121276 -116.12996951464811 0 0 0 0 67.67483272236143 52.404326614090678 0 52.404326614090678 -81.321097897041909 0 0 0 0 29.794812630098704 -1.8294330308672215 0 -1.8294330308672215 -70.473781933480495 0 0 0 0 12.446768078528862 16.536751070623723 0 16.536751070623723 -50.360060185783368 0 0 0 0 67.766336960789658 44.555284357692472 0 44.555284357692472 -37.816125106510299 0 0 0 0 98.688513472019395 37.397137245658087 0 37.397137245658087 -38.802343633265991 0 0 0 0 102.28786468973817 54.955134592659306 0 54.955134592659306 -60.948682038168045 0 0 0 0 112.31745347025753 35.771105529194756 0 35.771105529194756 -38.66535943740746 0 0 0 0 138.98941806444748 37.30682481715894 0 37.30682481715894 -56.17285321559757 0 0 0 0 6.3394681915433475 5.129154369538746 0 5.129154369538746 -37.311279923452247 0 0 0 0 101.74346750233212 50.938447623328102 0 50.938447623328102 -44.54701758124429 0 0 0 0 128.15872125533133 49.03395815413387 0 49.03395815413387 -46.176073647999146 0 0 0 0 210.02540604157105 -26.302024772861841 0 -26.302024772861841 -37.751022889924116 0 0 0 0 108.19779534618567 46.798847338495762 0 46.798847338495762 -18.567447477733367 0 0 0 0 95.168853269318106 22.257861591464462 0 22.257861591464462 -54.504438279835085 0 0 0 0 71.264352729389884 43.244374460145991 0 43.244374460145991 -51.990402828414517 0 0 0 0 29.993543031203899 12.827957309069461 0 12.827957309069461 -75.850318006632733 0 0 0 0 -3.5872407219458182 -52.67660144970796 0 -52.67660144970796 -64.690262136494312 0 0 0 0 57.14432689521675 -22.490183067795442 0 -22.490183067795442 -33.526791416139531 0 0 0 0 -10.770700858757664 -38.059440881663249 0 -38.059440881663249 -85.767591524403542 0 0 0 0 -76.314454082667453 -9.9732380316982017 0 -9.9732380316982017 -85.878421807501581 0 0 0 0 4.5795599311528576 12.613234234378979 0 12.613234234378979 -64.243930969485518 0 0 0 0 -28.380090688805694 -48.128592445624236 0 -48.128592445624236 -131.60220400818253 0 0 0 0 -95.465422768024553 -79.719734555727428 0 -79.719734555727428 -96.054304709217831 0 0 0 0 -61.353270019001116 8.3276120527116291 0 8.3276120527116291 -277.73514254539987 0 0 0 0 -15.81228571319798 -118.32664743241185 0 -118.32664743241185 -299.68902317736229 0 0 0 0 24.210325825305404 -70.58291491170894 0 -70.58291491170894 -217.418792313827 0 0 0 0 -0.60781207704098961 -80.207399498871382 0 -80.207399498871382 -214.45618521485903 0 0 0 0 -5.8831302968582122 -30.915169501589844 0 -30.915169501589844 -150.09574859184795 0 0 0 0 -28.668570214368629 -57.8309980537706 0 -57.8309980537706 -143.8387308866877 0 0 0 0 16.218492944910935 -78.745901791708093 0 -78.745901791708093 -108.63894315254583 0 0 0 0 54.5917408450415 -44.660515205150659 0 -44.660515205150659 -130.41647415016632 0 0 0 0 -2.2871813755817811 33.752860789303668 0 33.752860789303668 -322.64727204570318 0 0 0 0 120.91153462117597 -77.209570626731875 0 -77.209570626731875 -292.6969173167854 0 0 0 0 -0.0050384122069249623 0.48072338702458772 0 0.48072338702458772 -3.373945841813935 0 0 0 0 137.3797574901055 -149.15726755526657 0 -149.15726755526657 -135.46278817577695 0 0 0 0 34.730606665861728 -34.533564033081348 0 -34.533564033081348 37.468075427081203 0 0 0 0 -19.722252539539568 18.568868205875333 0 18.568868205875333 -104.85874016437901 0 0 0 0 -1.0655875402635502 72.564410167997266 0 72.564410167997266 -228.70105661914386 0 0 0 0 -33.436641518659826 148.54737915981241 0 148.54737915981241 -365.01185726984522 0 0 0 0 -0.54344178546041721 -1.2839096814564641 0 -1.2839096814564641 -3.2674295078639659 0 0 0 0 -123.58771724309645 -44.214653106386322 0 -44.214653106386322 24.037431635369103 0 0 0 0 -127.73230989396529 -186.99276353376081 0 -186.99276353376081 -1.6567766986663628 0 0 0 0 -68.131549166909053 -115.45118376325991 0 -115.45118376325991 -266.2107121382478 0 0 0 0 -47.767504140421124 -55.271228403917121 0 -55.271228403917121 -88.55801506800708 0 0 0 0 -264.28431967808001 -53.860376863733109 0 -53.860376863733109 -101.10299680014396 0 0 0 0 -122.75802154048574 -60.442184442008511 0 -60.442184442008511 -109.09137406101581 0 0 0 0 -35.225510253891571 -27.499990009531757 0 -27.499990009531757 -373.29988144725939 0 0 0 0 -31.992981615589997 7.4876500458558439 0 7.4876500458558439 -83.596788700753677 0 0 0 0 66.441030188528885 -63.307533819674518 0 -63.307533819674518 -10.654776250456052 0 0 0 0 37.873744031129718 39.792781670161276 0 39.792781670161276 -116.68360995466901 0 0 0 0 51.545347730065259 -7.9560757391427614 0 -7.9560757391427614 -144.95254862916772 0 0 0 0 -2.5200315065515446 -4.7007638844351689 0 -4.7007638844351689 -4.9868056133737326 0 0 0 0 32.916088938530038 66.264420000637983 0 66.264420000637983 -41.36684735572635 0 0 0 0 31.888400855282498 59.912192544755271 0 59.912192544755271 -67.679694049733371 0 0 0 0 29.096572659085965 34.462944404835412 0 34.462944404835412 -39.302893332253007 0 0 0 0 24.539211800329035 58.708553850090198 0 58.708553850090198 -48.694559024141199 0 0 0 0 6.415527477876112 36.979517300476672 0 36.979517300476672 -36.152638488149691 0 0 0 0 34.928108746789803 74.196446318030212 0 74.196446318030212 -156.16052216384014 0 0 0 0 -58.077760446140701 23.91848626886167 0 23.91848626886167 0.15703455150287482 0 0 0 0 -133.4499424782702 -153.82773283668121 0 -153.82773283668121 -134.25190652954188 0 0 0 0 -149.16927176613649 134.01536946037595 0 134.01536946037595 -127.36823883341276 0 0 0 0 -0.67762211746283707 -3.0984732216219477 0 -3.0984732216219477 -2.173478347479886 0 0 0 0 1.8046342899849475 10.248338446549722 0 10.248338446549722 -8.8866218022277224 0 0 0 0 21.219002396869598 11.758421252973676 0 11.758421252973676 -72.069665594302933 0 0 0 0 -24.087628761764108 65.636819813975308 0 65.636819813975308 29.781053329512361 0 0 0 0 7.0794466989972484 35.482244011231529 0 35.482244011231529 -38.836391744513094 0 0 0 0 16.719563942365273 26.984421426163863 0 26.984421426163863 -64.858150370710064 0 0 0 0 42.879707531933278 26.194697140341304 0 26.194697140341304 -67.746671279994189 0 0 0 0 -43.555925423496319 46.888158773255782 0 46.888158773255782 10.502169109575334 0 0 0 0 2.9937690412829019 26.372529742219378 0 26.372529742219378 -33.933160675485986 0 0 0 0 -58.259129714565532 75.207394200235285 0 75.207394200235285 -42.956446829983179 0 0 0 0 61.74951668131213 42.258892114853552 0 42.258892114853552 -65.123439020218939 0 0 0 0 2.3244948510690775 7.6108412729315766 0 7.6108412729315766 -24.297008716860823 0 0 0 0 34.047203084486675 60.576656598348563 0 60.576656598348563 -16.37160407180636 0 0 0 0 -66.001120652903367 75.229235890163181 0 75.229235890163181 -36.90639980915148 0 0 0 0 5.1136844464597857 29.637963180684892 0 29.637963180684892 -53.678150504925725 0 0 0 0 7.9210676867064578 16.715913198961516 0 16.715913198961516 -75.446868454218929 0 0 0 0 21.049306138141645 28.265360416734438 0 28.265360416734438 -60.481201101458282 0 0 0 0 -41.201706886631285 -5.9747984210825962 0 -5.9747984210825962 -8.0679440916483145 0 0 0 0 0.0093856741526678888 -10.052564579467798 0 -10.052564579467798 -71.867076857600068 0 0 0 0 15.624300781648515 -18.740690339967841 0 -18.740690339967841 -126.20797109543855 0 0 0 0 27.165535510628843 6.7217229562156717 0 6.7217229562156717 -110.10700798792891 0 0 0 0 13.923900560565471 -14.489434490296844 0 -14.489434490296844 -112.42110011457089 0 0 0 0 32.103072828896188 9.3813949465775295 0 9.3813949465775295 -109.72306447417213 0 0 0 0 40.462996849925446 36.191829448498538 0 36.191829448498538 -116.65766122545756 0 0 0 0 16.8497044493148 38.43344650491963 0 38.43344650491963 -57.052787653723499 0 0 0 0 9.1014241336699797 18.990558548573972 0 18.990558548573972 -72.039156321687187 0 0 0 0 15.039010157549171 31.676541037676543 0 31.676541037676543 -71.166004214970599 0 0 0 0 -57.075258739161882 -35.108465403623995 0 -35.108465403623995 -138.59138082995196 0 0 0 0 -225.91464032017836 41.226459591732237 0 41.226459591732237 -170.21545754989347 0 0 0 0 -27.914558392750223 -25.338727434278553 0 -25.338727434278553 -216.35833327905129 0 0 0 0 49.264863580142958 -51.825999259210221 0 -51.825999259210221 -210.34084294673085 0 0 0 0 -45.292240396317766 -9.6378365498967469 0 -9.6378365498967469 -127.01481289888761 0 0 0 0 -75.364762858883552 1.0454397114863241 0 1.0454397114863241 -128.91772380747716 0 0 0 0 -25.371595098958295 -41.919464239923855 0 -41.919464239923855 -112.30733426063671 0 0 0 0 -37.002701851525217 -21.891528673790162 0 -21.891528673790162 -118.93358316019658 0 0 0 0 -46.331985013735448 -85.772074041295127 0 -85.772074041295127 -178.6484185444283 0 0 0 0 -12.750418452072381 -79.192614440325997 0 -79.192614440325997 -179.41673584416276 0 0 0 0 -73.005702385020413 -33.257677030287596 0 -33.257677030287596 -13.6651057033705 0 0 0 0 3.4719227603104628 21.632777141832776 0 21.632777141832776 -59.371055571944453 0 0 0 0 -45.560303993083608 -9.3348215860496566 0 -9.3348215860496566 -69.942700980973314 0 0 0 0 -29.829481840827384 -14.417801689058251 0 -14.417801689058251 -81.580264502881619 0 0 0 0 6.1818111378292997 27.189693901887949 0 27.189693901887949 -50.917825343211007 0 0 0 0 13.1135749448772 18.148806281809811 0 18.148806281809811 -81.218096645365222 0 0 0 0 -5.8109641949056225 29.953650691404462 0 29.953650691404462 -33.827187256070758 0 0 0 0 23.355134683294182 67.129078811558429 0 67.129078811558429 -83.728025409051043 0 0 0 0 -1.1484236190149204 88.913546602821953 0 88.913546602821953 -89.689961197502271 0 0 0 0 -43.512430761783207 136.96655143207317 0 136.96655143207317 -140.93156487923989 0 0 0 0 97.53887433747559 83.267516316849651 0 83.267516316849651 -184.54825078339491 0 0 0 0 28.572836440638412 53.695900718520079 0 53.695900718520079 -63.126000635242235 0 0 0 0 27.604998996665017 12.939303729248422 0 12.939303729248422 -96.035551838484025 0 0 0 0 -1.7529984448856339 1.3812016454357945 0 1.3812016454357945 -54.8203331232653 0 0 0 0 -0.59069401398277788 3.7510591090888799 0 3.7510591090888799 -56.79185134011567 0 0 0 0 -40.156386175646503 -2.0995857318339404 0 -2.0995857318339404 -117.65636143126903 0 0 0 0 -55.7843955413299 -2.3136511527027324 0 -2.3136511527027324 -115.31975136869005 0 0 0 0 -27.830897212962896 -32.96227873011776 0 -32.96227873011776 -86.891179376121727 0 0 0 0 -26.784170347475992 66.982463488806388 0 66.982463488806388 -48.346559164805512 0 0 0 0 -57.047561040672463 1.0604022646184603 0 1.0604022646184603 -85.61837989182095 0 0 0 0 -2.7685272308707143 13.474327301047193 0 13.474327301047193 -2.4056049336176386 0 0 0 0 -53.092749880462065 -3.7358109054766828 0 -3.7358109054766828 -115.40388741507923 0 0 0 0 -43.706387842439653 -20.99176417565468 0 -20.99176417565468 -93.217156070219062 0 0 0 0 -46.082845229378904 -4.1744227800772933 0 -4.1744227800772933 -62.164764099821696 0 0 0 0 -4.2573156837030357 10.365239091678148 0 10.365239091678148 -16.240777169895495 0 0 0 0 -29.971130201453548 -6.569615134743799 0 -6.569615134743799 -86.321197923442014 0 0 0 0 -27.742878014887783 -41.946795266841605 0 -41.946795266841605 -85.700231668233755 0 0 0 0 -33.895860542207146 -42.544232034146262 0 -42.544232034146262 -83.084185353138309 0 0 0 0 -69.694670413462063 -30.895741290995829 0 -30.895741290995829 -88.503525855951011 0 0 0 0 15.679643203184924 -28.735090208747351 0 -28.735090208747351 -168.36576408410474 0 0 0 0 -10.373109962242623 4.7526194501251666 0 4.7526194501251666 -60.827838866229285 0 0 0 0 -1.5321114642881488 9.8789059411720075 0 9.8789059411720075 -8.2102315787776092 0 0 0 0 -8.482406814096521 -24.382133250372135 0 -24.382133250372135 -63.441335396772047 0 0 0 0 -2.6504229626011155 -0.011314223696899717 0 -0.011314223696899717 1.6813198748943989 0 0 0 0 16.900302728466613 -7.0138961880747956 0 -7.0138961880747956 -130.59467143501752 0 0 0 0 -4.1555997059946321 2.6636265094712144 0 2.6636265094712144 -53.876995139209612 0 0 0 0 0.23325916273878278 -1.8199148589454666 0 -1.8199148589454666 -14.069571281723249 0 0 0 0 13.090626797799359 -17.319691543343652 0 -17.319691543343652 -88.262036859006912 0 0 0 0 -15.674126228739397 -4.0330191049615678 0 -4.0330191049615678 -94.397154536018206 0 0 0 0 1.0361515079330275 -10.509632460300054 0 -10.509632460300054 -100.12584457462071 0 0 0 0 8.8461040715589228 6.4654983022573305 0 6.4654983022573305 -42.855485957691357 0 0 0 0 19.59108842846581 15.973871531448822 0 15.973871531448822 -90.714281722270243 0 0 0 0 2.1282156784033086 1.669850931464822 0 1.669850931464822 -70.552876878054178 0 0 0 0 -48.361306957650754 -17.359961585949577 0 -17.359961585949577 -77.604608988243854 0 0 0 0 0.42416411059634651 -3.3800187729007583 0 -3.3800187729007583 -7.381725655048065 0 0 0 0 73.090894455727835 -114.85740512545271 0 -114.85740512545271 -234.51019345026361 0 0 0 0 104.74258423492483 -21.824820641970291 0 -21.824820641970291 -120.9006365646128 0 0 0 0 0.7046716076626911 -1.6978896406884019 0 -1.6978896406884019 -19.962559263047311 0 0 0 0 47.208200854966663 129.2499640380338 0 129.2499640380338 -226.35337406174222 0 0 0 0 11.446188354123024 292.32368475258227 0 292.32368475258227 -30.151998509387681 0 0 0 0 110.27008994484981 -79.271709104526963 0 -79.271709104526963 -7.5541857090943267 0 0 0 0 88.423373379743168 -99.839794746065991 0 -99.839794746065991 61.557864625330694 0 0 0 0 203.9605122602643 -96.359940735275813 0 -96.359940735275813 -110.46238359667768 0 0 0 0 294.60383747906309 -679.79485415340514 0 -679.79485415340514 -2497.3181954200263 0 0 0 0 -51.997019745087897 36.19597853095911 0 36.19597853095911 -2049.9263467735982 0 0 0 0 2.5493007155657135 -2.2417286524996598 0 -2.2417286524996598 -12.270831579447982 0 0 0 0 -748.8143654895415 -567.89406334012529 0 -567.89406334012529 -269.721345319791 0 0 0 0 -43.174046759791963 -3.4302948838121665 0 -3.4302948838121665 -70.18277147025583 0 0 0 0 4.6635161041893083 -18.299246729509168 0 -18.299246729509168 -14.035595381231698 0 0 0 0 143.94276280411535 924.29167418206623 0 924.29167418206623 -2496.1686028095392 0 0 0 0 0.76673137450824658 -0.0073984280731025365 0 -0.0073984280731025365 -12.885621362409243 0 0 0 0 1.1208320289101776 -6.1973686751469774 0 -6.1973686751469774 -4.7341214445605715 0 0 0 0 4.1922450213429556 0.3766114819154609 0 0.3766114819154609 -41.20862572981423 0 0 0 0 2.9146464797681353 1.3003877651144879 0 1.3003877651144879 -41.502892246266356 0 0 0 0 10.456924159490161 4.9296696388826149 0 4.9296696388826149 -38.773073942327756 0 0 0 0 15.571982009748808 30.097016177202022 0 30.097016177202022 -56.84325617374634 0 0 0 0 8.8060161089938855 12.60938139669539 0 12.60938139669539 -26.688247679026674 0 0 0 0 -36.524619379017281 -194.74861905728903 0 -194.74861905728903 -1270.5735116316982 0 0 0 0 -4.5164789893232866 5.9035294187888496 0 5.9035294187888496 -7.5690597924316592 0 0 0 0 -645.98228620906082 141.42913519576541 0 141.42913519576541 -45.643177482445026 0 0 0 0 -66.202883671776746 -440.57743913447939 0 -440.57743913447939 -2497.8222751976427 0 0 0 0 -9.7735048756892411 -3.6155118463411782 0 -3.6155118463411782 -44.626909242619149 0 0 0 0 13.409524143357867 6.2327518405157321 0 6.2327518405157321 -6.9165178873709827 0 0 0 0 50.968329262060934 -24.78477872046642 0 -24.78477872046642 -206.65383312850554 0 0 0 0 59.886287642038155 7.3379433051504748 0 7.3379433051504748 -222.80261966936541 0 0 0 0 110.90203950397765 4.6839060573820461 0 4.6839060573820461 -215.70008952601165 0 0 0 0 73.15430749562131 -14.572819653896659 0 -14.572819653896659 -224.69247014336725 0 0 0 0 56.884612285347885 -10.034410947164361 0 -10.034410947164361 -169.95597003135663 0 0 0 0 60.612996971546977 -17.348238796904297 0 -17.348238796904297 -308.93741538060385 0 0 0 0 98.541721458234292 1.965173886543198 0 1.965173886543198 -369.95692069923098 0 0 0 0 29.722391596640819 51.699871683153106 0 51.699871683153106 -169.30594857956385 0 0 0 0 23.813919034085671 17.546670167601405 0 17.546670167601405 -166.96585751539169 0 0 0 0 28.639501313147491 8.3437750718530879 0 8.3437750718530879 -152.22884291855007 0 0 0 0 21.930393278687916 -18.239750365606596 0 -18.239750365606596 -140.13716961758837 0 0 0 0 19.171329355577786 -7.2576799882989746 0 -7.2576799882989746 -127.06225875651944 0 0 0 0 21.038551188666503 -17.948912874212965 0 -17.948912874212965 -126.70107745652786 0 0 0 0 24.352962995369865 -52.735869499869295 0 -52.735869499869295 -194.17508225069105 0 0 0 0 -14.392119957606582 -33.721177156487101 0 -33.721177156487101 -108.14026923684287 0 0 0 0 -23.729304674933786 25.044282238586675 0 25.044282238586675 29.328755982383882 0 0 0 0 20.135631034394976 -61.12735895235528 0 -61.12735895235528 -99.386369518218089 0 0 0 0 -84.022087141133269 -117.7392072373068 0 -117.7392072373068 -87.059517691211113 0 0 0 0 -0.60149254393746265 -1.5262562254160148 0 -1.5262562254160148 -7.5997194342508863 0 0 0 0 -312.73712660965634 38.500717500662176 0 38.500717500662176 21.816333509011201 0 0 0 0 8.7316170889489371 328.21621267907585 0 328.21621267907585 -298.80309806907826 0 0 0 0 103.01735561680796 -14.80039660170587 0 -14.80039660170587 -535.65027591579201 0 0 0 0 110.61527205959058 -52.041692074690218 0 -52.041692074690218 -442.73137366650008 0 0 0 0 -14.689390536270039 -154.48477849637402 0 -154.48477849637402 -277.3987938386781 0 0 0 0 100.43294298671559 219.68194248881446 0 219.68194248881446 -357.4705099518078 0 0 0 0 -219.29172553712488 63.573333561629624 0 63.573333561629624 273.54094167456242 0 0 0 0 101.10388986077047 -59.286706850108885 0 -59.286706850108885 -29.227988720340363 0 0 0 0 -407.75388672013401 -112.7189331901036 0 -112.7189331901036 181.58136846892012 0 0 0 0 -193.06515529227363 -296.51360147284868 0 -296.51360147284868 -170.45898280475194 0 0 0 0 6.8790933281052276 -82.325113199085536 0 -82.325113199085536 -27.880341833291823 0 0 0 0 12.99063234433784 -5.5909379436859581 0 -5.5909379436859581 -5.4590042246753185 0 0 0 0 -11.370414638655486 -12.920541055912473 0 -12.920541055912473 -5.1048981520907351 0 0 0 0 29.095620912093398 -16.840769934664422 0 -16.840769934664422 -2266.1037539934332 0 0 0 0 -11.522884192985861 454.95310067811806 0 454.95310067811806 -2499.9278568068439 0 0 0 0 48.935622698811756 41.009242505146403 0 41.009242505146403 -70.377464553210302 0 0 0 0 -11.10835875144868 455.11004670775401 0 455.11004670775401 -2500.0870465809185 0 0 0 0 -4.4066608427550209 -3.4731150172498033 0 -3.4731150172498033 -3.5874773743277366 0 0 0 0 -39.588147281258081 -135.28168150090187 0 -135.28168150090187 210.51561287142977 0 0 0 0 47.514072719742671 -0.2808497445021203 0 -0.2808497445021203 -93.029200928717728 0 0 0 0 6.0785040132739336 0.28884964122560675 0 0.28884964122560675 0.029351820280773211 0 0 0 0 21.455489984215831 182.21901729855927 0 182.21901729855927 5.8458540461688244 0 0 0 0 -88.735653536160953 447.07291585242638 0 447.07291585242638 43.864960998047536 0 0 0 0 -278.94568779576872 118.14028279854301 0 118.14028279854301 174.00511913615082 0 0 0 0 1.5777956703856537 0.70335807469345113 0 0.70335807469345113 -0.78418956660250316 0 0 0 0 237.19011569329393 -16.823238960510935 0 -16.823238960510935 -388.20321976439482 0 0 0 0 -319.38796962423686 -537.95241922683999 0 -537.95241922683999 -309.91228110729139 0 0 0 0 469.30018275910874 -531.62494121074724 0 -531.62494121074724 -2496.0412417629832 0 0 0 0 277.14816887050915 173.74728716126629 0 173.74728716126629 -1176.0026599726189 0 0 0 0 193.00267125780195 716.13057073258096 0 716.13057073258096 -2496.9409424084552 0 0 0 0 280.36532653373928 197.85414343602361 0 197.85414343602361 -1041.6976851736108 0 0 0 0 222.55178713319901 150.71718809078448 0 150.71718809078448 -1033.9822917971064 0 0 0 0 3.8150940065600687 0.57393347835443009 0 0.57393347835443009 -6.9554049653245489 0 0 0 0 -220.11984999146978 61.393542262476785 0 61.393542262476785 -136.34613528604677 0 0 0 0 61.262728139171173 325.77750847012067 0 325.77750847012067 -787.12966222105388 0 0 0 0 370.73974815646579 162.3174012327072 0 162.3174012327072 166.04599969382161 0 0 0 0 -11.584983428381634 109.86298025484575 0 109.86298025484575 -409.46096210296309 0 0 0 0 0.94879275721338519 0.4025514334490623 0 0.4025514334490623 -0.21428154749676853 0 0 0 0 100.53290804553683 -87.801349755111005 0 -87.801349755111005 -685.01658228973611 0 0 0 0 111.34732276800514 -100.55436619164357 0 -100.55436619164357 -949.41494440930546 0 0 0 0 238.08962234339606 2.5487324315035949 0 2.5487324315035949 -1157.9310582283556 0 0 0 0 227.68688385704294 124.81364398168444 0 124.81364398168444 -903.57601418150443 0 0 0 0 396.51194044792862 -299.5740830103714 0 -299.5740830103714 -2496.2954685366576 0 0 0 0 333.93660279795114 26.320035465043247 0 26.320035465043247 -781.69718054426085 0 0 0 0 -1161.3208064933367 1039.9233717530433 0 1039.9233717530433 -434.30807983418663 0 0 0 0 -376.72446910527611 -752.84805637605223 0 -752.84805637605223 -409.96766457007197 0 0 0 0 -0.95304274062057526 0.31881510898253662 0 0.31881510898253662 -9.0794057798782148 0 0 0 0 278.84175181040308 101.69191549119387 0 101.69191549119387 -376.31061438681195 0 0 0 0 14.204829866136606 135.91955299508663 0 135.91955299508663 -619.3219752584223 0 0 0 0 1.9244962374055936 0.25031929790476726 0 0.25031929790476726 -21.633481103576656 0 0 0 0 -81.169205873697706 221.2631969410595 0 221.2631969410595 134.63522824212487 0 0 0 0 198.48072552443108 45.54283349256707 0 45.54283349256707 -783.2913018742729 0 0 0 0 -0.64766791973868643 2.6481921891127733 0 2.6481921891127733 -5.2233086235132777 0 0 0 0 4.3824956775152941 12.886764976105042 0 12.886764976105042 -69.30922506587558 0 0 0 0 -47.223433060200023 10.989638377231586 0 10.989638377231586 17.521788589034259 0 0 0 0 59.10270372027432 19.470296076729937 0 19.470296076729937 -22.327587608448084 0 0 0 0 0.98033108067335484 -0.22514838272240922 0 -0.22514838272240922 -16.699373183971694 0 0 0 0 26.231545416319591 -0.37216416175988343 0 -0.37216416175988343 -79.230353005259531 0 0 0 0 -73.277162855335405 -41.818871164073244 0 -41.818871164073244 -87.854346167519907 0 0 0 0 -142.66570325182585 76.271325111162696 0 76.271325111162696 -72.982148095330558 0 0 0 0 42.981432858001426 79.291721608597072 0 79.291721608597072 -88.003958804049034 0 0 0 0 48.167150882459509 111.73114532945328 0 111.73114532945328 -311.76420676407724 0 0 0 0 -38.800947467556398 69.108836058370798 0 69.108836058370798 148.74966820247755 0 0 0 0 53.178632677240842 166.31760581244089 0 166.31760581244089 22.521004876361985 0 0 0 0 -44.726128608488693 35.129568375410599 0 35.129568375410599 43.738761114564113 0 0 0 0 10.826457495425075 2.9630510166898603 0 2.9630510166898603 -15.645089752910508 0 0 0 0 34.919188754247671 75.883557513818232 0 75.883557513818232 22.569041243986248 0 0 0 0 34.725492186683368 42.590295435100415 0 42.590295435100415 -29.740125167520091 0 0 0 0 40.971490987146808 45.312295347029249 0 45.312295347029249 -37.87605751502997 0 0 0 0 12.796933111681824 12.632610508517246 0 12.632610508517246 -70.208476316097403 0 0 0 0 16.756380973754631 18.140755052742861 0 18.140755052742861 -117.60401341166835 0 0 0 0 19.007666086487419 -19.793078882479207 0 -19.793078882479207 -102.58008525734112 0 0 0 0 50.168267511355452 -0.15259970868646633 0 -0.15259970868646633 -166.16546816550544 0 0 0 0 20.17481513005373 -43.964844790138159 0 -43.964844790138159 -138.31260633043348 0 0 0 0 78.308357093769814 31.213783679972039 0 31.213783679972039 -135.11233767851809 0 0 0 0 77.075005529475249 50.600254230549751 0 50.600254230549751 -399.4178864030182 0 0 0 0 10.74421647915301 -35.175953032960024 0 -35.175953032960024 -30.811693991911156 0 0 0 0 38.165910952575928 -96.374838350359823 0 -96.374838350359823 -165.60857868457424 0 0 0 0 -0.10031355371398143 0.13411355179272721 0 0.13411355179272721 -6.2944989733441616 0 0 0 0 -77.45165499753989 216.27560745994379 0 216.27560745994379 -293.99719101601386 0 0 0 0 -192.63278212624209 378.59553197123432 0 378.59553197123432 -157.06165740702636 0 0 0 0 1.0557431659169412 -0.29900177871252787 0 -0.29900177871252787 -3.4108461127190282 0 0 0 0 -34.880539689761285 -25.328440081170584 0 -25.328440081170584 29.711324574142054 0 0 0 0 -35.499667140864574 -31.831539270395865 0 -31.831539270395865 -37.044350185686199 0 0 0 0 -161.5532157897967 -342.6818166684734 0 -342.6818166684734 -242.68340538117025 0 0 0 0 24.463396829360505 7.9497822069515678 0 7.9497822069515678 -30.157200163377638 0 0 0 0 -0.75843836786799546 -2.1187194011245367 0 -2.1187194011245367 -1.4972094165544618 0 0 0 0 29.92520139234211 -40.277924500499807 0 -40.277924500499807 -16.899139246092091 0 0 0 0 3.9174160058156247 4.2055301954351307 0 4.2055301954351307 -47.121539927176855 0 0 0 0 -1.3643195258256924 -0.3229198510985043 0 -0.3229198510985043 -1.1771308011557267 0 0 0 0 -35.617770580286503 18.879393114237473 0 18.879393114237473 -23.476664794670796 0 0 0 0 -55.741067158204487 15.690555380308979 0 15.690555380308979 -1.3949174553581543 0 0 0 0 -40.509702985586614 -8.0909970808224898 0 -8.0909970808224898 -13.646794582167786 0 0 0 0 -56.792810617612759 5.5322513513110607 0 5.5322513513110607 -30.907059763352663 0 0 0 0 -49.487842919338163 32.358433288147353 0 32.358433288147353 -74.17899526239853 0 0 0 0 -46.576122673835812 -19.215788504780164 0 -19.215788504780164 -55.863379030612123 0 0 0 0 -79.964803130677097 29.486032237302652 0 29.486032237302652 -71.311826369426853 0 0 0 0 -61.003388444048312 69.709166166543582 0 69.709166166543582 -166.01200574731774 0 0 0 0 -54.660736800265568 3.9107118237116083 0 3.9107118237116083 -94.436311459849094 0 0 0 0 34.834980064739284 19.025632002174916 0 19.025632002174916 -70.089216243599367 0 0 0 0 30.495948719076864 13.599966628269613 0 13.599966628269613 -72.512394117027725 0 0 0 0 2.6529268301685534 8.4591601174921607 0 8.4591601174921607 -13.407343079147608 0 0 0 0 2.1548814018302096 38.196048471603717 0 38.196048471603717 40.442988541310115 0 0 0 0 5.9060395147616962 36.785168247174099 0 36.785168247174099 -36.661844311132292 0 0 0 0 -24.288863078828399 76.664322431106484 0 76.664322431106484 4.0237130091118161 0 0 0 0 27.210201910131673 83.748521643741697 0 83.748521643741697 -179.57422365878847 0 0 0 0 -73.216478394212459 252.40595703771942 0 252.40595703771942 -154.38035618350659 0 0 0 0 -48.401590696051699 118.4791540331189 0 118.4791540331189 47.964840819280653 0 0 0 0 93.684461546723469 0.079748214386199834 0 0.079748214386199834 -17.292194438858587 0 0 0 0 63.432372806500098 13.454230239865865 0 13.454230239865865 -12.533393673118553 0 0 0 0 0.834768873031976 -2.2747381239575972 0 -2.2747381239575972 -2.722270750155154 0 0 0 0 73.34418838201691 32.289307639601248 0 32.289307639601248 -15.654942491034831 0 0 0 0 11.780216809420835 4.1193040404382373 0 4.1193040404382373 -41.127588136813642 0 0 0 0 7.8768800662837748 7.847248265063854 0 7.847248265063854 -39.38277608575936 0 0 0 0 9.3021575946517032 23.611404333344126 0 23.611404333344126 -54.97191821454544 0 0 0 0 4.1153853368531372 42.611538074454074 0 42.611538074454074 -37.618370713338663 0 0 0 0 1.7117758617942709 3.0265397622300512 0 3.0265397622300512 -4.0137516434765104 0 0 0 0 -1.7975483090967295 11.147570291686209 0 11.147570291686209 -34.798062214587389 0 0 0 0 59.101940421061045 34.20058460443579 0 34.20058460443579 -69.161433093782762 0 0 0 0 77.307201080475352 24.077730502104714 0 24.077730502104714 -47.93043813843542 0 0 0 0 19.373486572795173 17.284512977905251 0 17.284512977905251 -37.935973730265687 0 0 0 0 45.060829819057744 -11.805959006851936 0 -11.805959006851936 -73.948817124146444 0 0 0 0 -1.6334465187810565 6.6827891926441225 0 6.6827891926441225 -88.441919187122039 0 0 0 0 -20.916633840558461 2.3761414668151701 0 2.3761414668151701 -41.636433622046752 0 0 0 0 25.753368567683538 -9.9706395899920608 0 -9.9706395899920608 -78.569364109182061 0 0 0 0 -40.745173316817386 32.09123596610425 0 32.09123596610425 -125.24874888380509 0 0 0 0 -30.987579594029967 -17.998676638644611 0 -17.998676638644611 -135.78316813386846 0 0 0 0 -10.897441023117835 -17.139571916911336 0 -17.139571916911336 -110.19710526231211 0 0 0 0 -22.511225266244764 16.972576521859082 0 16.972576521859082 -77.253904922410584 0 0 0 0 -37.545001764486642 -2.865265780577829 0 -2.865265780577829 -73.238815547912964 0 0 0 0 -49.536923470174543 28.727602885180204 0 28.727602885180204 -47.124136935039132 0 0 0 0 -34.535780593281743 6.7407205519939453 0 6.7407205519939453 -25.687158709795767 0 0 0 0 -55.506327441481289 15.720297083504192 0 15.720297083504192 -10.205741471138026 0 0 0 0 17.076044072819514 28.985958442367519 0 28.985958442367519 -12.989841634507684 0 0 0 0 22.826604591243722 13.256605317117646 0 13.256605317117646 -45.551553029207753 0 0 0 0 -32.984561180951346 -1.3969418178417072 0 -1.3969418178417072 -10.201538022673049 0 0 0 0 -23.543949334511808 29.574961528638596 0 29.574961528638596 -8.5390149366044739 0 0 0 0 30.95133586178622 -14.381987865408064 0 -14.381987865408064 -34.326159958995049 0 0 0 0 -28.133409275766553 13.914283318787966 0 13.914283318787966 -37.902496078066179 0 0 0 0 -20.506806061674069 -25.336679277198073 0 -25.336679277198073 -114.35685727563396 0 0 0 0 6.1276358547038399 81.738254047264491 0 81.738254047264491 -218.79239732722726 0 0 0 0 1.3990094892972138 42.596064118937647 0 42.596064118937647 -90.528921264098244 0 0 0 0 25.077669686961144 64.474487998679251 0 64.474487998679251 -71.455892460434825 0 0 0 0 -18.720878494598765 8.7944552996796119 0 8.7944552996796119 -76.748552023618686 0 0 0 0 15.621115056969444 -18.978612043002386 0 -18.978612043002386 -56.952112929731811 0 0 0 0 -5.7582846426848846 -38.38513108945881 0 -38.38513108945881 -68.465418555449105 0 0 0 0 -1.0463805780830722 -0.12094620155015079 0 -0.12094620155015079 1.317187482751379 0 0 0 0 88.638274528593001 81.658303814542251 0 81.658303814542251 17.658061833026295 0 0 0 0 1.6544115734261595 -23.018134976446163 0 -23.018134976446163 -41.729107233437389 0 0 0 0 14.907546602123602 -18.50118899281324 0 -18.50118899281324 -40.648573813624353 0 0 0 0 3.3579528207503078 -0.58758835356633909 0 -0.58758835356633909 -35.92649173785923 0 0 0 0 78.083694310723331 -38.060273365787907 0 -38.060273365787907 -48.197878247502558 0 0 0 0 25.85995595896884 -6.5347679035367037 0 -6.5347679035367037 -49.206110898972838 0 0 0 0 -3.0234179041967764 -27.620116471744041 0 -27.620116471744041 -31.797873369141598 0 0 0 0 177.39075535343181 -18.147463248144049 0 -18.147463248144049 -85.344546598543275 0 0 0 0 -4.8858738676121334 -7.2382786411545794 0 -7.2382786411545794 -9.5358859387888515 0 0 0 0 -7.7268975712700581 17.337348428489918 0 17.337348428489918 -64.454853459661535 0 0 0 0 -29.634707195355077 1.4011102570857474 0 1.4011102570857474 -73.116078897467389 0 0 0 0 -68.303411581633554 17.350079457416086 0 17.350079457416086 -45.940601885740762 0 0 0 0 -203.73723472255278 144.0373941492262 0 144.0373941492262 -77.995645612464472 0 0 0 0 -2.882116040491761 -0.55444276347756016 0 -0.55444276347756016 0.02254212666406108 0 0 0 0 -16.130986907221995 145.92961082897318 0 145.92961082897318 -371.63045645693728 0 0 0 0 -50.011068710413383 -57.026960969796619 0 -57.026960969796619 26.800971324393686 0 0 0 0 -57.669682239839062 131.4003807156364 0 131.4003807156364 -171.69578290902427 0 0 0 0 -32.564684328164333 99.443272774238267 0 99.443272774238267 -143.22893443844441 0 0 0 0 -18.817777704557557 71.51249140492564 0 71.51249140492564 -179.18704684742079 0 0 0 0 -18.593400058885891 79.76384883735227 0 79.76384883735227 -111.91124950141239 0 0 0 0 -33.608162019448855 78.938559103855141 0 78.938559103855141 -104.00171152834082 0 0 0 0 -5.3301249176473995 1.481313270118882 0 1.481313270118882 0.68849483689851709 0 0 0 0 -336.10711849530219 66.685608492954998 0 66.685608492954998 483.86553904419401 0 0 0 0 -11.925929020692081 -277.8553362243353 0 -277.8553362243353 98.034109835550225 0 0 0 0 27.669868019573073 150.81469344706329 0 150.81469344706329 -302.8666916685961 0 0 0 0 -349.79559641962544 131.98038076996795 0 131.98038076996795 24.631001838430166 0 0 0 0 -5.9859779269330966 5.8074172505305279 0 5.8074172505305279 -7.5621283579675804 0 0 0 0 -573.21555750182222 621.24618856901407 0 621.24618856901407 -358.93410844610634 0 0 0 0 252.86927366019029 635.46696319381977 0 635.46696319381977 -2495.526314016156 0 0 0 0 -18.93466199207694 11.415624459933952 0 11.415624459933952 -3.2094994615528534 0 0 0 0 -106.93385815833858 245.55037149934651 0 245.55037149934651 -80.607127061444771 0 0 0 0 -12.515197034734339 13.767287628971228 0 13.767287628971228 -19.866831122344436 0 0 0 0 51.272992028241788 -99.934638844905749 0 -99.934638844905749 320.18148803315023 0 0 0 0 127.72384480653793 -420.32687503716647 0 -420.32687503716647 -2496.9527707279926 0 0 0 0 120.79808030955432 -340.37245663540187 0 -340.37245663540187 -1341.1229016805937 0 0 0 0 -303.75239224806927 787.73892601642956 0 787.73892601642956 -1159.0322785019721 0 0 0 0 377.04372330638643 282.31498455144634 0 282.31498455144634 -2496.9456807211482 0 0 0 0 -559.99803524493598 165.0514848295727 0 165.0514848295727 -3.209499461518817 0 0 0 0 -1.1405762140821258 -2.1604889569894024 0 -2.1604889569894024 -10.553986133339292 0 0 0 0 -69.483967508741856 -837.9228907346801 0 -837.9228907346801 -2495.8229774278689 0 0 0 0 -1260.4598188210884 -1169.3912228096547 0 -1169.3912228096547 -736.98438890286025 0 0 0 0 -44.579704704018923 -139.42150653327053 0 -139.42150653327053 -265.23616377884173 0 0 0 0 -3.4583879027024622 3.1994621007459019 0 3.1994621007459019 -23.815183724799656 0 0 0 0 -424.7630497818584 0.90306804435931554 0 0.90306804435931554 -281.43425965800589 0 0 0 0 -254.77141520200135 -179.47078415095211 0 -179.47078415095211 -328.04108925524588 0 0 0 0 -455.83025663438025 -493.5547403678811 0 -493.5547403678811 -544.95889871325335 0 0 0 0 -209.6279636088795 -106.12803728551452 0 -106.12803728551452 -1035.4139917520797 0 0 0 0 352.40674772212537 -153.999469677241 0 -153.999469677241 -2496.3177389378011 0 0 0 0 11.740192642352294 -547.3864179718928 0 -547.3864179718928 -1462.3311695207449 0 0 0 0 57.958447630392421 390.35508866436612 0 390.35508866436612 -1220.3461178673347 0 0 0 0 -164.25085836827009 -655.45664965696051 0 -655.45664965696051 -2499.9559852014108 0 0 0 0 -0.099214166880039756 3.6848083059891028 0 3.6848083059891028 -4.7572242249142764 0 0 0 0 -46.199402683460875 164.07529909902064 0 164.07529909902064 -8.5384633357725761 0 0 0 0 -13.267063713482273 -194.05561545928276 0 -194.05561545928276 -443.40283139209077 0 0 0 0 -36.94523136600823 -165.21206762128577 0 -165.21206762128577 -276.82052194056723 0 0 0 0 -48.936828333484499 -261.62322762748227 0 -261.62322762748227 -566.2609357964343 0 0 0 0 -209.62796360887512 -296.84548803519442 0 -296.84548803519442 -573.60784112586134 0 0 0 0 -184.022042589227 -353.08584738802392 0 -353.08584738802392 -461.0208953466431 0 0 0 0 -315.4861998190147 -285.56355184054701 0 -285.56355184054701 -229.21440705339774 0 0 0 0 -124.45645900470377 -259.43248375801477 0 -259.43248375801477 -269.97027060672372 0 0 0 0 -138.64071557355106 -259.94846994239833 0 -259.94846994239833 -269.98887884700071 0 0 0 0 -189.48630498566092 -251.50596221280421 0 -251.50596221280421 -192.68002325632187 0 0 0 0 -170.61982390687291 -224.24188952745362 0 -224.24188952745362 -243.98688766091436 0 0 0 0 -107.8287151069552 -228.05480266527275 0 -228.05480266527275 -229.35455172044658 0 0 0 0 -100.37421773634262 -207.54197154427118 0 -207.54197154427118 -211.83422259061808 0 0 0 0 -148.89798882758163 -204.04398641210491 0 -204.04398641210491 -159.89145378238209 0 0 0 0 -140.4085024853627 -221.27558339087909 0 -221.27558339087909 -144.50553754557131 0 0 0 0 2.4273348336081995 -15.4375044378437 0 -15.4375044378437 17.52133914526712 0 0 0 0 -141.29915798412628 -143.87016104848908 0 -143.87016104848908 -134.3525225374633 0 0 0 0 1.1673919017931496 -1.5645468707738139 0 -1.5645468707738139 -4.6368797901049099 0 0 0 0 -214.91258142207766 -170.84222728677196 0 -170.84222728677196 -140.5359806973479 0 0 0 0 1.5218810537339689 2.9539638760807101 0 2.9539638760807101 -4.2085491553797709 0 0 0 0 1.9691653198368897 -3.3046508405749169 0 -3.3046508405749169 -28.069399224071638 0 0 0 0 6.9852328043627949 -22.642502182868611 0 -22.642502182868611 -4.1141796346219053 0 0 0 0 -8.5244932244195297 8.6823041119050686 0 8.6823041119050686 -30.448876006212004 0 0 0 0 -3.1341830732045204 11.044911124440837 0 11.044911124440837 -33.15662829539518 0 0 0 0 3.1902590909119226 4.2172647953518663 0 4.2172647953518663 -35.276195696657851 0 0 0 0 -3.2730039402834854 10.709905738385377 0 10.709905738385377 -24.977166538214398 0 0 0 0 -106.42634977070702 58.659195802052636 0 58.659195802052636 -60.890321961910558 0 0 0 0 -324.0019001700789 -22.907059084328921 0 -22.907059084328921 -21.742949233329455 0 0 0 0 -259.5010495656835 -244.59443580544303 0 -244.59443580544303 -229.4417441997366 0 0 0 0 -225.9264040862295 -217.02276107397847 0 -217.02276107397847 -117.35080266256591 0 0 0 0 23.431180499832067 -231.92039300065744 0 -231.92039300065744 -126.9036331605912 0 0 0 0 -150.21708209885253 -119.00307109905407 0 -119.00307109905407 -148.66472427723784 0 0 0 0 1.7113876900735991 17.372248763579606 0 17.372248763579606 -11.968704440808276 0 0 0 0 -33.283308649659375 -27.224588488491918 0 -27.224588488491918 -124.46654209717894 0 0 0 0 10.370371055773763 -390.70377868469041 0 -390.70377868469041 -2246.240593431583 0 0 0 0 -94.075384406246229 -588.96406389928688 0 -588.96406389928688 -2499.3984884247966 0 0 0 0 -0.45180426232704463 -33.427275170589269 0 -33.427275170589269 -182.51132358205086 0 0 0 0 -16.5466180153865 -75.341046344681672 0 -75.341046344681672 -218.96778361833458 0 0 0 0 21.836816070293366 -5.5953380260993981 0 -5.5953380260993981 -156.79715145210071 0 0 0 0 -103.11588805930232 -586.85269620272402 0 -586.85269620272402 -2459.973014669592 0 0 0 0 0.39162245273892249 10.960563209102308 0 10.960563209102308 -8.7792868413164999 0 0 0 0 -164.28269946330698 -655.39397927928621 0 -655.39397927928621 -2500.0750543077365 0 0 0 0 78.64596315266472 -100.71374792242159 0 -100.71374792242159 -346.19207358486619 0 0 0 0 -28.741078561796691 -170.77525195917406 0 -170.77525195917406 -285.8211525714155 0 0 0 0 -139.51923141746727 -172.56367598391989 0 -172.56367598391989 -186.5515756564896 0 0 0 0 -150.32451183871007 -89.144925059804791 0 -89.144925059804791 -213.78807094305716 0 0 0 0 -36.013664518075529 -90.19127259102379 0 -90.19127259102379 -217.75235486170959 0 0 0 0 -46.289098905102307 -84.277991056015367 0 -84.277991056015367 -200.99392726303176 0 0 0 0 -66.610999245333346 -75.293169386284717 0 -75.293169386284717 -184.71328437952798 0 0 0 0 -33.226048769068143 -77.483687093624667 0 -77.483687093624667 -213.19309723402148 0 0 0 0 -5.734384997978907 -41.640408181106977 0 -41.640408181106977 -181.55661091536376 0 0 0 0 -31.469875665968118 -27.902507999092563 0 -27.902507999092563 -188.623822468443 0 0 0 0 -21.489812447587838 -97.419455176580414 0 -97.419455176580414 -261.60696305967122 0 0 0 0 -51.452391137212231 -64.211342733335641 0 -64.211342733335641 -222.3626295813483 0 0 0 0 -14.472280567703706 -78.067306605862996 0 -78.067306605862996 -267.96956038760709 0 0 0 0 -44.484223153086056 -66.042969034949579 0 -66.042969034949579 -282.30784915739696 0 0 0 0 -79.563187097569241 -88.689647555055444 0 -88.689647555055444 -274.88057855497118 0 0 0 0 -29.887758597911684 -73.892682499290231 0 -73.892682499290231 -325.25469763086221 0 0 0 0 -171.41165531642127 22.905125326176403 0 22.905125326176403 -398.09623931752128 0 0 0 0 -293.79306824516186 -141.43678744507361 0 -141.43678744507361 -243.35269184691788 0 0 0 0 -207.93336038431426 -102.46115749468117 0 -102.46115749468117 -225.70728447037027 0 0 0 0 -97.734539316509199 -144.57997353863766 0 -144.57997353863766 -210.3142764318045 0 0 0 0 -112.07242645623347 -156.25084047313385 0 -156.25084047313385 -308.3969942882195 0 0 0 0 -201.47378738668223 -198.31634013230041 0 -198.31634013230041 -328.07877268306493 0 0 0 0 -49.472573054135012 -12.247451448687571 0 -12.247451448687571 -457.14020038871922 0 0 0 0 -132.44393998390836 71.221247403093457 0 71.221247403093457 -41.704517875541569 0 0 0 0 -0.56262644415457563 -1.0748068073726138 0 -1.0748068073726138 -2.8330356868372277 0 0 0 0 -108.28360522111001 173.08475942114569 0 173.08475942114569 -259.6050087036856 0 0 0 0 -2.2113714253205821 -2.5907437006978755 0 -2.5907437006978755 -7.2476244438962603 0 0 0 0 -24.300204896867058 18.941172906580505 0 18.941172906580505 -54.126287486223646 0 0 0 0 17.03128357428011 -11.137558421463382 0 -11.137558421463382 -31.787042926589493 0 0 0 0 -10.960037922926233 16.403647805512719 0 16.403647805512719 -57.741269500245835 0 0 0 0 -53.555592719039907 18.764855428482861 0 18.764855428482861 -16.772763572124859 0 0 0 0 -51.280248003805355 -180.87895096666216 0 -180.87895096666216 -401.93891038666322 0 0 0 0 -220.23106655397973 -154.88493495001217 0 -154.88493495001217 -63.980411190470477 0 0 0 0 -58.567597523540073 -166.91772271678474 0 -166.91772271678474 -222.43642555058614 0 0 0 0 -7.048544743520381 -137.59662530784681 0 -137.59662530784681 -336.34335647604041 0 0 0 0 -32.144968566977553 -96.449925087847987 0 -96.449925087847987 -158.20454252851414 0 0 0 0 -28.928890758157308 -87.851695850715259 0 -87.851695850715259 -167.84059542142586 0 0 0 0 2.8519772408234303 -35.46628552117545 0 -35.46628552117545 -189.64829320120043 0 0 0 0 -37.192444542025157 -129.50697010173644 0 -129.50697010173644 -226.20416660082265 0 0 0 0 -14.083787861325561 -134.45698745842037 0 -134.45698745842037 -261.20907413988789 0 0 0 0 -24.90025170001968 -121.25131792965567 0 -121.25131792965567 -249.95018772092499 0 0 0 0 29.335933692350523 -8.3084271778229777 0 -8.3084271778229777 -59.411901526248243 0 0 0 0 16.3842489400555 -36.460927082102444 0 -36.460927082102444 -102.88100034343097 0 0 0 0 1.7618033338945513 -1.0996317770868034 0 -1.0996317770868034 -40.742129763523479 0 0 0 0 79.270047512315159 -22.265053058178182 0 -22.265053058178182 -77.530012454941243 0 0 0 0 2.2438736921601348 0.76304914387836487 0 0.76304914387836487 -35.335927310522543 0 0 0 0 2.0995859516752993 1.5670988622720383 0 1.5670988622720383 -37.806023548527889 0 0 0 0 46.212618342738637 -39.924120427096568 0 -39.924120427096568 -62.975334640343135 0 0 0 0 13.048157607313726 4.0405484546719208 0 4.0405484546719208 -36.760490441229194 0 0 0 0 -1.2325745916057258 -47.015175972377619 0 -47.015175972377619 -9.3831088944316434 0 0 0 0 -4.4126020190673643 -38.949841227788738 0 -38.949841227788738 14.801692228651518 0 0 0 0 -88.149776851089428 -106.43890310236475 0 -106.43890310236475 -65.588498727424849 0 0 0 0 -44.662624565267407 -112.97188299849995 0 -112.97188299849995 -116.53528425379591 0 0 0 0 -114.5235803984375 -170.35736897166998 0 -170.35736897166998 -198.81718206540563 0 0 0 0 -100.05662360859253 -112.37033335851174 0 -112.37033335851174 -148.39884274006499 0 0 0 0 -38.535660349941566 -59.979264162588606 0 -59.979264162588606 -242.11659796694039 0 0 0 0 -27.504134022261439 -14.043345798615974 0 -14.043345798615974 -97.517091542016715 0 0 0 0 -44.486397170857828 22.42820199370567 0 22.42820199370567 -69.31049926108517 0 0 0 0 -58.226227607946441 15.312813960099902 0 15.312813960099902 -148.41628481987482 0 0 0 0 -63.54928774135476 69.631984156475028 0 69.631984156475028 -172.83635481234205 0 0 0 0 -80.898519071853372 62.7014687994415 0 62.7014687994415 -70.158852655266855 0 0 0 0 -95.31601917081764 50.603538505697998 0 50.603538505697998 -69.76608897622431 0 0 0 0 10.245532057741116 33.494146993080449 0 33.494146993080449 -112.43152509799802 0 0 0 0 19.004818687095735 9.312199435463981 0 9.312199435463981 -46.213988214569326 0 0 0 0 -1.1679471755469031 11.231467299085066 0 11.231467299085066 -42.322999245535712 0 0 0 0 75.163806615059514 28.760675219933546 0 28.760675219933546 -86.630200515638535 0 0 0 0 -1.8593226691342892 11.811373363718454 0 11.811373363718454 -38.762026674142319 0 0 0 0 -0.94668265428306864 13.313834887759535 0 13.313834887759535 -37.908456987312086 0 0 0 0 8.3402072895346464 13.824674231647805 0 13.824674231647805 -34.544157041372273 0 0 0 0 14.213898726286061 26.845859504084729 0 26.845859504084729 -53.620865042919377 0 0 0 0 53.245720656985668 66.591901234585748 0 66.591901234585748 -50.673563502370371 0 0 0 0 32.537367944726611 -1.1985203076430935 0 -1.1985203076430935 -102.11191122362015 0 0 0 0 -4.9356179633186912 9.26191348335567 0 9.26191348335567 -47.529992453842624 0 0 0 0 -3.7509579304590632 16.240794622284518 0 16.240794622284518 -30.312869543418735 0 0 0 0 0.30043828276632767 6.0083132374467816 0 6.0083132374467816 -41.109320437327838 0 0 0 0 -6.7190199204275132 10.448088264694206 0 10.448088264694206 -35.295922907017484 0 0 0 0 0.29095180880949556 12.919042884643204 0 12.919042884643204 -44.702057299520675 0 0 0 0 -22.50562257600518 -53.224199147660755 0 -53.224199147660755 -129.51989112107549 0 0 0 0 13.713687870862032 5.4923592318446026 0 5.4923592318446026 -41.952152072473837 0 0 0 0 -4.2577180745065561 -3.0053109577711439 0 -3.0053109577711439 -88.411363152496051 0 0 0 0 2.3894588802020671 -5.9159695977926887 0 -5.9159695977926887 -28.000121699175018 0 0 0 0 3.3848977994375655 -0.73062994375849044 0 -0.73062994375849044 -21.873107020787437 0 0 0 0 10.928783718541126 15.946657829204923 0 15.946657829204923 -57.435494632984046 0 0 0 0 -2.0032628483401194 8.4527381628861953 0 8.4527381628861953 -18.701895186475124 0 0 0 0 0.59325037548660475 6.2239976664495771 0 6.2239976664495771 -16.615733799850204 0 0 0 0 -8.3212817471842104 8.2820799828642073 0 8.2820799828642073 -9.4582249836343451 0 0 0 0 -0.24672671645745875 -1.2007124886248306 0 -1.2007124886248306 -0.087373676607441553 0 0 0 0 -5.3868435788200379 9.7180128188749855 0 9.7180128188749855 -14.263662439252853 0 0 0 0 -1.8441110498917794 5.4335370258283433 0 5.4335370258283433 -24.3348866480992 0 0 0 0 -2.5385992666616328 5.2254956745875507 0 5.2254956745875507 -17.84394457266788 0 0 0 0 -6.1499201039341642 7.0053492890065172 0 7.0053492890065172 -48.911505969192149 0 0 0 0 -5.3762773628031937 7.1126787261928257 0 7.1126787261928257 -61.360032055453075 0 0 0 0 -4.5220019979107491 16.029720613479839 0 16.029720613479839 -51.225015222969887 0 0 0 0 -5.6564289893939677 13.255552149421916 0 13.255552149421916 -4.3856953087295381 0 0 0 0 -1.5530255139847213 -1.140934079166982 0 -1.140934079166982 -10.222041556676231 0 0 0 0 -64.268553978303316 34.571612726643252 0 34.571612726643252 -9.8268070322301355 0 0 0 0 -3.2644715097577297 -0.12628605164357332 0 -0.12628605164357332 -14.656713047699302 0 0 0 0 4.8013683283134014 23.671049153686909 0 23.671049153686909 -82.826939933398535 0 0 0 0 -1.391897804163488 -0.58076351792784564 0 -0.58076351792784564 -2.6019518912276141 0 0 0 0 -58.167949414842951 107.45721444877313 0 107.45721444877313 -79.264207660791726 0 0 0 0 -5.5837069029844617 25.465714418721525 0 25.465714418721525 -23.250959657492285 0 0 0 0 21.653760170329406 44.096641946627642 0 44.096641946627642 -138.71144188226035 0 0 0 0 15.572711247239567 -43.917913888322801 0 -43.917913888322801 -138.12135044640672 0 0 0 0 0.47874425435293233 -17.125233744460274 0 -17.125233744460274 -103.51293412941595 0 0 0 0 35.31714384136103 -49.316029261910444 0 -49.316029261910444 -141.0105140459018 0 0 0 0 -31.945761732285973 9.4552174564960296 0 9.4552174564960296 -39.398237410754518 0 0 0 0 -5.1256838274924803 62.246249679052653 0 62.246249679052653 -26.777301272784825 0 0 0 0 -18.440990252461233 14.919969883623708 0 14.919969883623708 -81.899986050337247 0 0 0 0 -2.7698191226673323 24.248142741413268 0 24.248142741413268 -25.548932266849771 0 0 0 0 -4.6078356904256452 28.196045032062102 0 28.196045032062102 -199.9472774832193 0 0 0 0 3.1559338656188629 29.101160416950734 0 29.101160416950734 -80.149613693087304 0 0 0 0 -2.0295670585054548 12.234209703981174 0 12.234209703981174 -33.530976768036936 0 0 0 0 -2.0914773681608212 7.841160217867543 0 7.841160217867543 -48.312628425186716 0 0 0 0 1.1837116583119496 10.65119660266356 0 10.65119660266356 -35.388857947427425 0 0 0 0 -5.4267561880584463 9.4249522157719063 0 9.4249522157719063 -38.778417433940902 0 0 0 0 -0.975103861808293 43.14378341275733 0 43.14378341275733 -142.87998578820407 0 0 0 0 -5.6776888458070971 31.633131991076425 0 31.633131991076425 -47.809881159072575 0 0 0 0 -9.3057951860082539 12.507286973287592 0 12.507286973287592 -45.868433582341368 0 0 0 0 -2.693241752361426 5.1008139477665075 0 5.1008139477665075 -37.695326655427756 0 0 0 0 -5.1118219158797729 13.156429559894605 0 13.156429559894605 -46.381568486296601 0 0 0 0 -2.7111039310341134 5.3529417640836279 0 5.3529417640836279 -20.136216264849629 0 0 0 0 3.6806144210222556 -20.173662435699953 0 -20.173662435699953 -53.674529424684806 0 0 0 0 23.059976232118061 32.893085786392476 0 32.893085786392476 -84.42673991418269 0 0 0 0 2.4429128320516611 30.051286349764268 0 30.051286349764268 -81.347421415321151 0 0 0 0 7.6140965120976034 34.055223837349331 0 34.055223837349331 -81.804192230942135 0 0 0 0 -7.403078888393793 9.5511855393729093 0 9.5511855393729093 -53.441843732891357 0 0 0 0 -7.0560469935754924 14.118205243879324 0 14.118205243879324 -19.987269377046005 0 0 0 0 0.039683412985848321 2.1012432332809254 0 2.1012432332809254 -12.255461902852783 0 0 0 0 -8.4894727555250746 13.309906282322768 0 13.309906282322768 -26.253837386729661 0 0 0 0 -46.56611714357291 12.768235935478515 0 12.768235935478515 -24.530905862594182 0 0 0 0 10.043280488052005 6.3122882469360775 0 6.3122882469360775 -38.567700864346989 0 0 0 0 -44.230769925310142 24.199033424105437 0 24.199033424105437 22.495994400036579 0 0 0 0 1.4885615539897117 10.492799181129158 0 10.492799181129158 -202.01953695715383 0 0 0 0 -5.0338848165466699 -2.7384259870578322 0 -2.7384259870578322 -17.848634272257289 0 0 0 0 -27.82268961459863 30.122594712803675 0 30.122594712803675 -59.853900533765227 0 0 0 0 -27.220994803185022 20.772082063958806 0 20.772082063958806 -82.236400449850407 0 0 0 0 -24.570165579225431 -66.471415304586117 0 -66.471415304586117 -115.02509512089455 0 0 0 0 -2.097152452634476 18.43048511241599 0 18.43048511241599 -47.731601095469642 0 0 0 0 6.3424889052685103 9.5158210303413853 0 9.5158210303413853 -17.676739014919804 0 0 0 0 -5.9556502812452141 5.2338478135381656 0 5.2338478135381656 -48.685271814524157 0 0 0 0 -6.2108718261715801 18.642535816024079 0 18.642535816024079 -40.413431829803372 0 0 0 0 13.17773133486844 6.5185279341494606 0 6.5185279341494606 -42.200825475803867 0 0 0 0 16.74982696236566 4.5539649445800023 0 4.5539649445800023 -41.251608510388905 0 0 0 0 -27.045984795256572 -14.715720620826232 0 -14.715720620826232 -15.287571165602003 0 0 0 0 10.035234332736763 4.230653818052815 0 4.230653818052815 -35.628997502568382 0 0 0 0 -64.243682924470704 8.2930296382210145 0 8.2930296382210145 84.418425588581158 0 0 0 0 -21.088843681861704 3.1384867009696791 0 3.1384867009696791 -39.156589892247212 0 0 0 0 41.637553623513327 61.254235456284732 0 61.254235456284732 26.689083133884196 0 0 0 0 -23.133610664598109 84.241598203374451 0 84.241598203374451 19.750841740023588 0 0 0 0 -64.338168295752439 14.289620586030651 0 14.289620586030651 80.405497705435664 0 0 0 0 -125.53576273318731 78.311087854171092 0 78.311087854171092 21.644953832709461 0 0 0 0 -3.7560112363617852 -6.111169880290273 0 -6.111169880290273 -11.721119700571634 0 0 0 0 -38.795573715062858 -40.420712665579799 0 -40.420712665579799 -43.553214258927255 0 0 0 0 -1.2064049073341743 -1.0044947491075558 0 -1.0044947491075558 -2.774331421906 0 0 0 0 -7.2182961990199601 -23.150569085987172 0 -23.150569085987172 46.083870574279899 0 0 0 0 -7.6207750343357645 -0.48226612954057657 0 -0.48226612954057657 -2.0434298530584165 0 0 0 0 -27.688688094307537 -0.74554269392228889 0 -0.74554269392228889 -2.1645737609187563 0 0 0 0 40.137691001747044 -53.326308666983095 0 -53.326308666983095 -54.017025123846679 0 0 0 0 6.7096790276632419 -53.77298317773193 0 -53.77298317773193 11.788551906832254 0 0 0 0 6.7282099986414323 10.517146990316178 0 10.517146990316178 -80.797404391655618 0 0 0 0 20.185978250312473 -14.895095851380574 0 -14.895095851380574 -78.851754257484572 0 0 0 0 7.5998383719825142 -19.975326404845418 0 -19.975326404845418 -10.009876313673885 0 0 0 0 17.421953939086052 -2.4984614123895881 0 -2.4984614123895881 -36.170784387721142 0 0 0 0 13.201035082874114 -10.545204005849882 0 -10.545204005849882 -43.4821543662365 0 0 0 0 18.430484817677097 -20.667143716873397 0 -20.667143716873397 -43.692670464993171 0 0 0 0 11.089721975157772 1.3132710444306213 0 1.3132710444306213 -28.012044831895764 0 0 0 0 11.393008165181527 -19.787015747811893 0 -19.787015747811893 -10.787420206973366 0 0 0 0 15.972731156492955 -15.241967636757181 0 -15.241967636757181 -47.037137379827072 0 0 0 0 -473.60465985560131 116.03583965652251 0 116.03583965652251 -31.19621509028093 0 0 0 0 312.21427096630305 -230.15389325492561 0 -230.15389325492561 -205.84719416146527 0 0 0 0 -83.660462606641886 115.09519692094 0 115.09519692094 -35.724485125712818 0 0 0 0 -31.035644963136292 102.1606456980071 0 102.1606456980071 -41.342590429390839 0 0 0 0 -52.515682351427614 -62.888315629172666 0 -62.888315629172666 -85.969675261206248 0 0 0 0 -7.7792471672209489 0.44235124411832061 0 0.44235124411832061 0.11641485384380212 0 0 0 0 50.054133665289925 35.579109230019185 0 35.579109230019185 -58.711299497357686 0 0 0 0 -102.7025904442562 59.866780195061438 0 59.866780195061438 3.0168588801202532 0 0 0 0 -133.45873014928657 -3.6665642213574756 0 -3.6665642213574756 -62.443586551224143 0 0 0 0 -164.71982058774188 130.88127608541981 0 130.88127608541981 42.117008387709575 0 0 0 0 -162.46442953994551 92.435937508048482 0 92.435937508048482 6.7645127654595854 0 0 0 0 0.070559615837554102 1.2157314301168913 0 1.2157314301168913 -1.8470553942143013 0 0 0 0 -119.13988344817722 70.151147882154874 0 70.151147882154874 0.29049779748856963 0 0 0 0 -4.9596327090321211 -79.224656882516683 0 -79.224656882516683 -204.8605078336268 0 0 0 0 -252.46436117622784 -36.112381651144915 0 -36.112381651144915 -54.944535216449367 0 0 0 0 -131.67613493690988 128.63604804043143 0 128.63604804043143 -126.81161682750826 0 0 0 0 -47.804820723447847 -35.079670346792227 0 -35.079670346792227 -196.45124427140399 0 0 0 0 -16.844034473449938 52.601533644899973 0 52.601533644899973 -207.74960623447623 0 0 0 0 -10.410954540543116 7.086520670970458 0 7.086520670970458 -148.97198215671415 0 0 0 0 -100.15563872079474 76.105102899978192 0 76.105102899978192 -58.863507970447245 0 0 0 0 -65.325867135994486 91.557892752885891 0 91.557892752885891 -135.35374150330608 0 0 0 0 -47.839711735316541 51.461386740945272 0 51.461386740945272 -58.550506115610915 0 0 0 0 -42.358091109628731 42.534550687478259 0 42.534550687478259 -59.818292209318315 0 0 0 0 -117.76231481280911 -153.8605337300778 0 -153.8605337300778 -109.94526148133627 0 0 0 0 -101.71277988615873 38.056818609754004 0 38.056818609754004 -10.594401843576634 0 0 0 0 -0.46978616155072483 1.2643042536523694 0 1.2643042536523694 -2.7652867525534006 0 0 0 0 -0.35572003906365701 0.29469606055290143 0 0.29469606055290143 -10.684114733708231 0 0 0 0 12.161966389256122 22.28128617272705 0 22.28128617272705 -36.743662693354054 0 0 0 0 33.420206218004751 16.837878346501384 0 16.837878346501384 -203.8321040078099 0 0 0 0 15.51675463166066 7.512745594853186 0 7.512745594853186 -41.779397955702734 0 0 0 0 11.225705567815567 39.057574618673243 0 39.057574618673243 -68.974170015997515 0 0 0 0 20.490562642702571 10.331844679636561 0 10.331844679636561 -46.89988278549572 0 0 0 0 18.28681595193666 9.9791663934847747 0 9.9791663934847747 -43.94529778706783 0 0 0 0 19.50941663274898 5.7906964159774361 0 5.7906964159774361 -47.135957781880279 0 0 0 0 18.314457561484232 -3.3056760576509987 0 -3.3056760576509987 -38.968317938561086 0 0 0 0 18.231549320151316 3.6308835703530349 0 3.6308835703530349 -44.373126657126704 0 0 0 0 21.030422368825384 7.2277998268073134 0 7.2277998268073134 -54.001827780775784 0 0 0 0 19.339078074611734 -2.909482338752241 0 -2.909482338752241 -47.920203474757727 0 0 0 0 16.370934061398657 -12.751503422829046 0 -12.751503422829046 -66.097483340890903 0 0 0 0 18.76663787306461 14.257678117431169 0 14.257678117431169 -55.095648708771478 0 0 0 0 18.407709071960198 5.7599518411661847 0 5.7599518411661847 -78.033599827936996 0 0 0 0 11.645955670017429 19.202756316595696 0 19.202756316595696 -88.002024862182225 0 0 0 0 9.2964826611387252 14.563868263816403 0 14.563868263816403 -93.905543702258001 0 0 0 0 -8.9632292899967183 -6.0488053945484808 0 -6.0488053945484808 -97.837300492898066 0 0 0 0 11.153494383825091 25.489171983110282 0 25.489171983110282 -141.57350722495903 0 0 0 0 -14.938020851253214 39.473598716922425 0 39.473598716922425 -117.63006129590576 0 0 0 0 -6.0430376995409461 43.492600836418205 0 43.492600836418205 -129.06457142446288 0 0 0 0 15.880243307533192 41.153706592119306 0 41.153706592119306 -129.80385465841027 0 0 0 0 3.326348219031388 20.692692039470785 0 20.692692039470785 -142.84410248322274 0 0 0 0 -12.506188553634274 24.352401809806906 0 24.352401809806906 -78.629349841121439 0 0 0 0 -21.593602953511436 17.171882237724276 0 17.171882237724276 -104.46007408246442 0 0 0 0 6.7293013388934924 30.052145374440443 0 30.052145374440443 -117.1930938601181 0 0 0 0 -10.6684843792018 38.917782980339325 0 38.917782980339325 -113.80313952163942 0 0 0 0 -9.1643582394108307 41.013206075556809 0 41.013206075556809 -118.62414590562912 0 0 0 0 -22.916653324980871 32.909275454980161 0 32.909275454980161 -64.120353626800352 0 0 0 0 -39.482487305675477 58.925218029046846 0 58.925218029046846 -88.910548442221625 0 0 0 0 -15.2620424279703 42.612392714419911 0 42.612392714419911 -75.052869413917961 0 0 0 0 17.363369109334599 24.936021519644783 0 24.936021519644783 -71.871364237483249 0 0 0 0 -10.010011973949531 23.75207647969637 0 23.75207647969637 -43.850082166523862 0 0 0 0 21.778950049139894 0.90927901448230841 0 0.90927901448230841 -52.923352790636272 0 0 0 0 -0.2384257883674934 3.1511992953778112 0 3.1511992953778112 -14.565327514881844 0 0 0 0 1.7778911250267129 27.900352988572877 0 27.900352988572877 -72.336537479481194 0 0 0 0 45.435540187289462 -1.3911045702006959 0 -1.3911045702006959 -96.412158268467465 0 0 0 0 2.6863198124801784 27.376492746729127 0 27.376492746729127 -101.96197195709101 0 0 0 0 -2.2512711854415102 67.91360856655956 0 67.91360856655956 -186.7655292726804 0 0 0 0 -2.9543078183038647 21.74495628812921 0 21.74495628812921 -42.121993280418053 0 0 0 0 19.485348742349743 18.475853936026397 0 18.475853936026397 -60.794040845924428 0 0 0 0 -13.439019525248959 5.243276312656306 0 5.243276312656306 -16.413998726345419 0 0 0 0 -3.3846045094637702 11.831766803418986 0 11.831766803418986 -62.054620582599 0 0 0 0 -5.8663187487959547 24.045880855276359 0 24.045880855276359 -36.027854026639801 0 0 0 0 -6.0559134199452274 51.672774527376532 0 51.672774527376532 -37.5907748979796 0 0 0 0 -32.014291510979547 26.14814170264799 0 26.14814170264799 -27.309188987783273 0 0 0 0 -24.426531218618493 36.66111618294326 0 36.66111618294326 -47.259456243522436 0 0 0 0 -43.810687188986776 43.925619357019968 0 43.925619357019968 -49.758000946909306 0 0 0 0 -14.016834373188431 27.394909350011403 0 27.394909350011403 -41.82817023591997 0 0 0 0 -28.375979920891041 21.374352455612097 0 21.374352455612097 -87.862205525404761 0 0 0 0 -14.460666688174936 36.501812988492865 0 36.501812988492865 -49.454865597559561 0 0 0 0 -4.9524438885491691 6.4230729121063632 0 6.4230729121063632 -95.885822932470546 0 0 0 0 -16.882497478660802 29.088706771388235 0 29.088706771388235 -24.322705601870258 0 0 0 0 -22.864539835554751 42.782678780456536 0 42.782678780456536 -97.669631835652581 0 0 0 0 -96.099114310563891 28.338715789804155 0 28.338715789804155 -88.578380729008131 0 0 0 0 -76.698460009170958 -59.599955115987541 0 -59.599955115987541 -151.59855452983356 0 0 0 0 -11.446094896679423 2.0169803249438267 0 2.0169803249438267 13.377113779613403 0 0 0 0 -1.9680498621992228 -14.481151111007875 0 -14.481151111007875 -149.31446544417304 0 0 0 0 -6.8797327104164978 32.789033642519868 0 32.789033642519868 -24.59946185814394 0 0 0 0 -66.038130771820306 -7.8650326892158091 0 -7.8650326892158091 5.4883807276582957 0 0 0 0 -0.17083733245272015 -27.778849542896296 0 -27.778849542896296 -21.546648996376462 0 0 0 0 -52.675272799120648 13.997375354356336 0 13.997375354356336 -14.985739142554849 0 0 0 0 -48.164154176450211 17.636014491374226 0 17.636014491374226 -25.291000882123626 0 0 0 0 -42.577243932589226 6.8535373184131458 0 6.8535373184131458 -18.34174359240842 0 0 0 0 -72.55266939458653 27.930713012755973 0 27.930713012755973 -22.344771987198328 0 0 0 0 -67.06388244421214 25.3071398763459 0 25.3071398763459 -28.181308747008188 0 0 0 0 -49.232885251046355 32.447633069850781 0 32.447633069850781 -32.917125711974222 0 0 0 0 -64.598307460404385 41.936541700144971 0 41.936541700144971 -36.786291241467552 0 0 0 0 -50.479489159087279 34.134621367184081 0 34.134621367184081 -30.734912724939932 0 0 0 0 -61.977524114678999 24.738539069945546 0 24.738539069945546 -21.132676698423893 0 0 0 0 -41.384924488656907 28.601941933970011 0 28.601941933970011 -25.485862045600697 0 0 0 0 7.6641348815373931 3.6668074126610009 0 3.6668074126610009 -99.188614359427447 0 0 0 0 -20.193265979902208 2.5423710853647208 0 2.5423710853647208 -161.14552756781268 0 0 0 0 -7.8772337137769624 -3.3761694145929297 0 -3.3761694145929297 -84.204043453759738 0 0 0 0 -19.89233551666257 19.334289695681946 0 19.334289695681946 -32.81735994212795 0 0 0 0 -5.1608330963213396 5.1311654037982297 0 5.1311654037982297 -2.7039009934377489 0 0 0 0 -16.967388769611716 -10.808024654612382 0 -10.808024654612382 -134.87034159529594 0 0 0 0 -37.818070897753842 0.66219584745749671 0 0.66219584745749671 -37.770457190953493 0 0 0 0 -33.563624830188587 0.89194338330207756 0 0.89194338330207756 -38.635633488633175 0 0 0 0 -20.484443371019001 -2.0690034203320842 0 -2.0690034203320842 -7.5813754908947395 0 0 0 0 14.642536716979521 -3.9799770961159311 0 -3.9799770961159311 -85.62653640479607 0 0 0 0 -3.829078463561018 -23.924418218322899 0 -23.924418218322899 -158.867673071014 0 0 0 0 11.671203391488113 25.023057051701361 0 25.023057051701361 -49.465373818356596 0 0 0 0 -2.5434250957050608 -19.702539816460558 0 -19.702539816460558 -171.2254497293352 0 0 0 0 7.7689464469713068 4.4669345992152518 0 4.4669345992152518 -104.36430197211138 0 0 0 0 32.123262971675103 -23.484785845861516 0 -23.484785845861516 -90.826482363948159 0 0 0 0 -20.867289019761301 -4.8789127420642799 0 -4.8789127420642799 -75.257012690450082 0 0 0 0 27.934692015013752 89.197357817440206 0 89.197357817440206 -167.95044021305512 0 0 0 0 -84.242840442283523 9.3998540799375405 0 9.3998540799375405 -27.607852749431913 0 0 0 0 159.7518668769153 40.214922639710494 0 40.214922639710494 -183.06635175244082 0 0 0 0 7.4890117437043955 103.88823708473501 0 103.88823708473501 -77.740134275440141 0 0 0 0 4.2484059697071643 188.74583187775352 0 188.74583187775352 -186.16375174359564 0 0 0 0 -130.98693569844727 -28.060346547601512 0 -28.060346547601512 -173.61918817707726 0 0 0 0 -10.738580426825138 13.831914529242567 0 13.831914529242567 -499.70348891831236 0 0 0 0 5.2703380669518083 165.00181972184873 0 165.00181972184873 -569.82316106014969 0 0 0 0 -75.18751053456981 4.2797310518317317 0 4.2797310518317317 -230.60995181715043 0 0 0 0 -74.251837553061705 152.8991063797821 0 152.8991063797821 -371.19464650555528 0 0 0 0 -22.588409179710652 62.664255053883608 0 62.664255053883608 -203.65234856774077 0 0 0 0 -62.203145411905098 43.340041333266527 0 43.340041333266527 -83.700963753930409 0 0 0 0 -49.481328176249008 87.892464259930421 0 87.892464259930421 -90.818856629481161 0 0 0 0 -30.956556321320932 49.343966709757296 0 49.343966709757296 -269.29957268880389 0 0 0 0 -44.61026227716502 39.363391841208795 0 39.363391841208795 -171.56792143117491 0 0 0 0 -42.862218860645953 74.866632409914018 0 74.866632409914018 -257.46512574721419 0 0 0 0 -36.75368306591281 77.470896902068489 0 77.470896902068489 -322.09690594609856 0 0 0 0 -61.059846834126802 80.052938060704037 0 80.052938060704037 -247.86917797051137 0 0 0 0 -49.473028969594452 107.53482584204903 0 107.53482584204903 -261.07647220701074 0 0 0 0 -49.763995349554534 106.13322398073069 0 106.13322398073069 -299.29207326489177 0 0 0 0 -65.217763140866737 106.00811957761471 0 106.00811957761471 -299.1473049588094 0 0 0 0 -65.61114872285907 142.51406932546888 0 142.51406932546888 -287.50880730475365 0 0 0 0 -279.44762788670778 191.77976790367393 0 191.77976790367393 -261.93443601001491 0 0 0 0 8.1994242970937421 15.11552383261369 0 15.11552383261369 -68.560328765059239 0 0 0 0 -178.56558174785096 168.92450446588919 0 168.92450446588919 -121.14063900334077 0 0 0 0 2.0092916004974946 -3.021342547901348 0 -3.021342547901348 -2.1514147307267635 0 0 0 0 -118.90855936136904 83.28441018079684 0 83.28441018079684 -194.19341305647686 0 0 0 0 -61.094386596610548 29.478324654359312 0 29.478324654359312 -204.48103326778801 0 0 0 0 -25.221155668194115 -388.87695987848565 0 -388.87695987848565 -123.38841892479377 0 0 0 0 -61.279339031294512 698.99222497123992 0 698.99222497123992 -262.41277929529315 0 0 0 0 8.0220281778182212 -3.6066372467021921 0 -3.6066372467021921 -14.391537120878937 0 0 0 0 -31.216198201409497 27.236562310434238 0 27.236562310434238 14.87148282691669 0 0 0 0 9.287888646290412 -20.532323457326129 0 -20.532323457326129 -19.636935350830754 0 0 0 0 1.7066402545751771 23.889168033776514 0 23.889168033776514 -63.152405953755078 0 0 0 0 -4.3874493917501241 -3.5606321730556374 0 -3.5606321730556374 -49.072719147756288 0 0 0 0 -5.1587414523946791 3.9944626118376618 0 3.9944626118376618 -50.818185501833796 0 0 0 0 -6.0848078348726631 0.60732343878771644 0 0.60732343878771644 -59.136655579146463 0 0 0 0 -39.701862451773195 53.649400158654316 0 53.649400158654316 -178.28827460074535 0 0 0 0 -50.718754351075745 -91.318588098632517 0 -91.318588098632517 12.581623557904095 0 0 0 0 -0.090858920276662758 -1.5282886200454548 0 -1.5282886200454548 -4.1811867192191414 0 0 0 0 17.694574858851411 3.2531766665415489 0 3.2531766665415489 -10.944681197310274 0 0 0 0 73.478505305535691 -59.377855270014152 0 -59.377855270014152 -26.333655028181965 0 0 0 0 -48.613426299481944 -49.42967964651325 0 -49.42967964651325 -18.694130679745285 0 0 0 0 -1.5949757964176605 -1.7572611727924361 0 -1.7572611727924361 -4.622843673159295 0 0 0 0 -97.345556034102628 -51.44644870517368 0 -51.44644870517368 18.320263305125991 0 0 0 0 -64.517723908977132 10.288728606101358 0 10.288728606101358 -10.167059900816867 0 0 0 0 -45.488953491687766 -88.420410122123712 0 -88.420410122123712 8.3456723231283831 0 0 0 0 -81.120853862562399 -84.63750154896934 0 -84.63750154896934 37.8468940361563 0 0 0 0 -0.1648271083417292 -0.59066344628551448 0 -0.59066344628551448 -1.3390935769958219 0 0 0 0 80.245419998542275 183.90107584139332 0 183.90107584139332 7.3137319591214691 0 0 0 0 -6.9279631921554028 18.315168491091754 0 18.315168491091754 -56.124653229475371 0 0 0 0 -38.101290021024397 50.024866821771866 0 50.024866821771866 -76.452621649943467 0 0 0 0 29.286247595306122 32.185988660301518 0 32.185988660301518 -111.48755218142469 0 0 0 0 -15.221083083981284 92.583767878979415 0 92.583767878979415 -106.31202725256298 0 0 0 0 9.6436513278385974 -5.6279217307237559 0 -5.6279217307237559 -62.139604100661018 0 0 0 0 5.4028908301734191 -19.861269250726764 0 -19.861269250726764 -74.983167987913475 0 0 0 0 12.098522377717018 16.089853469191439 0 16.089853469191439 -88.145072690153029 0 0 0 0 17.691226627510787 -0.78655270744820882 0 -0.78655270744820882 -73.90393888449762 0 0 0 0 21.333142124915867 -4.000932128423301 0 -4.000932128423301 -63.517898117337609 0 0 0 0 33.733548428452195 -3.4065332728750946 0 -3.4065332728750946 -78.165542649523559 0 0 0 0 25.418434928580609 -15.185506741741847 0 -15.185506741741847 -77.495411002544643 0 0 0 0 27.555252642765481 -0.90208608083048603 0 -0.90208608083048603 -75.831479589465744 0 0 0 0 13.954843416047083 -15.953297947152578 0 -15.953297947152578 -69.774970092621516 0 0 0 0 15.171758549846345 -22.554259857715806 0 -22.554259857715806 -2.606811127414403 0 0 0 0 20.465081298071709 7.7371968931529409 0 7.7371968931529409 -73.490900244985824 0 0 0 0 42.763776290270471 -22.807576816114306 0 -22.807576816114306 -68.837232926576689 0 0 0 0 -3.858841991167747 6.0978540075844236 0 6.0978540075844236 -13.965489697770396 0 0 0 0 19.5205787316645 7.8598763634436182 0 7.8598763634436182 -172.78464162074306 0 0 0 0 -0.71409339451078679 -0.71314430653882255 0 -0.71314430653882255 -3.1639219584144875 0 0 0 0 0.030077216517383931 22.960422284319066 0 22.960422284319066 -60.40876580683971 0 0 0 0 0.69504776142535007 0.18151614532678195 0 0.18151614532678195 -5.8048855554375152 0 0 0 0 -7.2303014666395029 17.834446121210931 0 17.834446121210931 -63.68124968020129 0 0 0 0 0.57820372135827114 -0.44070093793504128 0 -0.44070093793504128 -4.3823421147289352 0 0 0 0 1.3970095819796704 -6.0564694214591057 0 -6.0564694214591057 -17.316115778690573 0 0 0 0 -4.1604393135281086 11.892629727552269 0 11.892629727552269 -8.9225568897949614 0 0 0 0 -97.998263412718188 -44.259612387264497 0 -44.259612387264497 22.897850365858176 0 0 0 0 -39.473295537664399 31.088101538872252 0 31.088101538872252 47.173557419588178 0 0 0 0 -10.14951345747977 34.430472007632488 0 34.430472007632488 -121.6952141449292 0 0 0 0 -1.6071220755911781 2.5172883050727251 0 2.5172883050727251 -49.742207304818294 0 0 0 0 -0.6935851480710582 -0.97613213447544922 0 -0.97613213447544922 -15.059151109249377 0 0 0 0 -145.81728299688984 -214.60149906048173 0 -214.60149906048173 -157.60499183305365 0 0 0 0 -1.7893609896512999 8.2998865235275616 0 8.2998865235275616 -22.249939906695474 0 0 0 0 -6.3738905856152996 2.1799431921317591 0 2.1799431921317591 -46.711446536384756 0 0 0 0 -2.6502610630918753 -0.19809455180438817 0 -0.19809455180438817 -45.0776281992039 0 0 0 0 -6.1584496252700269 10.999975463366894 0 10.999975463366894 -32.991765900746863 0 0 0 0 -25.472155239473068 15.818055426309002 0 15.818055426309002 38.490322980575911 0 0 0 0 -7.1412919341035579 32.575024711155407 0 32.575024711155407 -45.171113804347897 0 0 0 0 -18.370266937881752 20.26902474814392 0 20.26902474814392 -52.245288568374235 0 0 0 0 -25.666544013834937 4.7571840073696876 0 4.7571840073696876 -64.93009102443375 0 0 0 0 -16.875444163898464 24.483530893000989 0 24.483530893000989 -45.043225278154523 0 0 0 0 -9.4958666042189144 18.361450586255863 0 18.361450586255863 -23.282948752816047 0 0 0 0 -42.899568649687353 84.652467219204482 0 84.652467219204482 21.896545578392761 0 0 0 0 -27.218339766572626 0.72139794274607993 0 0.72139794274607993 -4.7229283740380197 0 0 0 0 -43.026012150627139 55.488801758889167 0 55.488801758889167 -76.077183731758851 0 0 0 0 -2.2856081092862333 1.7220124409548578 0 1.7220124409548578 -14.451113328816234 0 0 0 0 -65.898646395181459 6.4095892079221812 0 6.4095892079221812 42.438863336181385 0 0 0 0 -6.1282224525907623 -15.920804139820575 0 -15.920804139820575 -7.3480682553199586 0 0 0 0 -14.155536465710611 -178.04531885299002 0 -178.04531885299002 -294.34413416814641 0 0 0 0 10.515254359206111 47.142674687202089 0 47.142674687202089 -91.79843787959544 0 0 0 0 79.503883432525186 53.112201899844877 0 53.112201899844877 -271.46596890103683 0 0 0 0 -40.80979791686957 99.961303979504009 0 99.961303979504009 -254.33967338498041 0 0 0 0 53.939164799455739 191.60327848985253 0 191.60327848985253 -491.85574643120344 0 0 0 0 98.353824658610563 354.10516840571654 0 354.10516840571654 -11.067525008875236 0 0 0 0 12.974506130035138 -150.4317077942851 0 -150.4317077942851 -678.29482972140613 0 0 0 0 -79.814333776970216 9.6043387414420067 0 9.6043387414420067 -16.696031789309927 0 0 0 0 -171.09144298998012 148.20405118411873 0 148.20405118411873 124.35535810334477 0 0 0 0 1.1848740581540433 0.75030055927496164 0 0.75030055927496164 -2.8226147802488555 0 0 0 0 -282.31216176333976 53.357406549075677 0 53.357406549075677 112.96083695750713 0 0 0 0 -81.393339386945286 59.344154193080612 0 59.344154193080612 7.1546239722738392 0 0 0 0 -110.20899711326706 -340.16503064341669 0 -340.16503064341669 -189.91680615021687 0 0 0 0 124.20103383348032 -276.85925188622059 0 -276.85925188622059 -239.31004704520456 0 0 0 0 248.84193038077183 -193.79931155353916 0 -193.79931155353916 -269.890755482651 0 0 0 0 85.079356818945712 -73.918737135410993 0 -73.918737135410993 -65.49373173899221 0 0 0 0 51.122054245727213 -120.78312189736607 0 -120.78312189736607 -92.100903486527386 0 0 0 0 -111.77276505917962 -188.84360411937087 0 -188.84360411937087 -91.643553416352404 0 0 0 0 -319.04057130666115 -214.12215503034167 0 -214.12215503034167 -3.0571130383614218 0 0 0 0 -137.60568314310171 -83.435277221280558 0 -83.435277221280558 -2.069186880660709 0 0 0 0 379.2150579722761 -240.26890588139213 0 -240.26890588139213 -155.05505380182876 0 0 0 0 -44.243356490443688 -221.05167580623856 0 -221.05167580623856 -213.56242137021582 0 0 0 0 -126.61156271253259 -51.620101148251706 0 -51.620101148251706 -114.16467383443523 0 0 0 0 108.56305873201015 -161.01880993888335 0 -161.01880993888335 -86.635941279149847 0 0 0 0 33.445719696624565 29.517913254734594 0 29.517913254734594 -213.62914858574368 0 0 0 0 185.44957849566418 41.462616314055595 0 41.462616314055595 -244.92059069592506 0 0 0 0 190.81954129139012 -30.539999872937187 0 -30.539999872937187 -178.63445230897196 0 0 0 0 421.34168090360743 28.562156523639715 0 28.562156523639715 -239.99789634344052 0 0 0 0 136.87579453839339 176.56932305735609 0 176.56932305735609 -225.08006460820525 0 0 0 0 276.15821298344929 112.07994338285062 0 112.07994338285062 -214.74457872306812 0 0 0 0 -92.382780456732974 140.59460370404713 0 140.59460370404713 -201.92964813535946 0 0 0 0 38.637583128762344 161.6614149913803 0 161.6614149913803 -265.18005472193909 0 0 0 0 -85.222234207513594 104.45769979014722 0 104.45769979014722 -201.80084616714157 0 0 0 0 -330.56007051719848 70.996632224298082 0 70.996632224298082 -114.65599375903548 0 0 0 0 -147.69238056636414 102.00135649769072 0 102.00135649769072 -222.72781948832744 0 0 0 0 -163.8029964144929 70.193486036957438 0 70.193486036957438 -275.42977461576083 0 0 0 0 22.399227349339753 176.1774983281357 0 176.1774983281357 -478.96817315898352 0 0 0 0 -63.513074653722924 55.862851696156213 0 55.862851696156213 -355.11512236630369 0 0 0 0 -7.735974183067782 5.2671865821266195 0 5.2671865821266195 -2.0459825283322761 0 0 0 0 -61.760570381262141 192.41694070662197 0 192.41694070662197 -473.92194265984381 0 0 0 0 -53.268319323502197 -18.005071584658253 0 -18.005071584658253 -26.607557473111228 0 0 0 0 -2.6467933049890346 0.93277706898289381 0 0.93277706898289381 -2.049428571840572 0 0 0 0 -33.663862477330667 16.946921882657989 0 16.946921882657989 -3.3677712879707542 0 0 0 0 36.371493984113613 -7.2377012835067944 0 -7.2377012835067944 -282.48709736337696 0 0 0 0 -23.878430742982232 -18.694590511402112 0 -18.694590511402112 -45.042039131461934 0 0 0 0 0.27786538803320582 45.218127333433131 0 45.218127333433131 -111.15230958040047 0 0 0 0 6.5405713358468915 6.5560801087503933 0 6.5560801087503933 -104.95511530976 0 0 0 0 -3.2680533732960271 36.861652113630043 0 36.861652113630043 -58.885855178243219 0 0 0 0 -13.686948044010879 25.647504583564967 0 25.647504583564967 -0.92133518806836268 0 0 0 0 20.04349980679001 7.166067759409998 0 7.166067759409998 -69.50740971203777 0 0 0 0 1.1548899430897439 24.341237921731604 0 24.341237921731604 4.6995903764867535 0 0 0 0 -8.5129480465172378 -13.635923188472589 0 -13.635923188472589 -15.789157416296803 0 0 0 0 -36.452974864849011 183.09143370794118 0 183.09143370794118 -732.2822711252411 0 0 0 0 -8.3578344931861732 2.0972056799872618 0 2.0972056799872618 -1.0109480548948291 0 0 0 0 7.7837278444257834 3.8244791528510902 0 3.8244791528510902 -4.0885900916473901 0 0 0 0 55.410517426499155 -3.9777232453525357 0 -3.9777232453525357 7.0479864000662928 0 0 0 0 -11.162063041181195 45.121628957798748 0 45.121628957798748 -569.05088212611008 0 0 0 0 -62.811895694885152 98.734184236491274 0 98.734184236491274 57.222866256380257 0 0 0 0 446.96091188915761 911.07650215415924 0 911.07650215415924 -254.83654196793941 0 0 0 0 -90.774983731999555 91.554849012740306 0 91.554849012740306 -58.729597562705749 0 0 0 0 -152.25810226375643 232.37753737086314 0 232.37753737086314 -134.93303999560885 0 0 0 0 -173.09726446085989 343.30934124015039 0 343.30934124015039 -259.55621493971557 0 0 0 0 13.31511363834079 155.72999582850025 0 155.72999582850025 -232.16344318974097 0 0 0 0 -54.262044745286858 89.157785138464533 0 89.157785138464533 -71.166793428215897 0 0 0 0 95.791514201853033 -43.882254167787323 0 -43.882254167787323 -49.717470926696478 0 0 0 0 10.965011157476411 -0.62469615064516404 0 -0.62469615064516404 -11.752583566027695 0 0 0 0 10.316062150734229 0.39778963660411648 0 0.39778963660411648 3.6445198651418562 0 0 0 0 6.9879397841555146 146.81139813553091 0 146.81139813553091 -189.89382576648495 0 0 0 0 -86.075240841668347 -119.35371341721839 0 -119.35371341721839 35.336119129886356 0 0 0 0 20.19880811070243 166.99262794216702 0 166.99262794216702 -210.67593233278512 0 0 0 0 21.988338621427403 150.35268538981654 0 150.35268538981654 -213.78187550893199 0 0 0 0 96.470450352434909 95.492851951756165 0 95.492851951756165 -242.48395680489193 0 0 0 0 233.19543343799432 -697.14004475245747 0 -697.14004475245747 -1126.1289722448764 0 0 0 0 -1671.1001382767849 968.0454795919959 0 968.0454795919959 389.08851602487266 0 0 0 0 -140.54432721019657 303.54581743633753 0 303.54581743633753 -535.08909512497485 0 0 0 0 15.836112658771526 269.06801551594981 0 269.06801551594981 -746.65386779430264 0 0 0 0 117.65367777139477 123.03070393120288 0 123.03070393120288 -550.30853738176666 0 0 0 0 -98.952779925254845 213.47595764286962 0 213.47595764286962 -342.0569333309686 0 0 0 0 -246.44367780755738 197.08921727199777 0 197.08921727199777 -217.84208213532111 0 0 0 0 -300.67957988359103 -293.12735435664854 0 -293.12735435664854 -112.02294378660736 0 0 0 0 -186.80616840896027 78.301705444740946 0 78.301705444740946 18.625611963179836 0 0 0 0 103.34063461809455 62.87839331044961 0 62.87839331044961 -269.73486492400843 0 0 0 0 15.50659317868994 -4.4872519177386536 0 -4.4872519177386536 -11.451772639692994 0 0 0 0 2.9277835208314071 -0.45460874765742165 0 -0.45460874765742165 -19.379182242421734 0 0 0 0 -698.11400923010092 -270.15638217378091 0 -270.15638217378091 -190.10126811982627 0 0 0 0 127.83788750959025 194.82590823524515 0 194.82590823524515 -618.53825513966876 0 0 0 0 4.7474105484087392 -0.82182509504157508 0 -0.82182509504157508 0.037873964401654803 0 0 0 0 -60.489106682862712 -18.759744307259098 0 -18.759744307259098 19.70145646544006 0 0 0 0 -64.705789652037083 386.69019721121003 0 386.69019721121003 -412.57586749452457 0 0 0 0 -13.786919774826885 256.95962029362818 0 256.95962029362818 -362.45692655650782 0 0 0 0 30.675495385468594 208.55667156045547 0 208.55667156045547 -376.73747854538669 0 0 0 0 125.36520817784208 138.39438006170349 0 138.39438006170349 -439.41718665217195 0 0 0 0 -51.718773013103601 22.908995536931627 0 22.908995536931627 -50.838440906597278 0 0 0 0 74.542000207049114 89.820090694143801 0 89.820090694143801 -87.693451991248367 0 0 0 0 -11.752217389629818 40.53891479185797 0 40.53891479185797 -33.830852664414806 0 0 0 0 67.148718705549982 -667.29472491034539 0 -667.29472491034539 -933.88969826886023 0 0 0 0 292.15787944523214 -9.6187484677343491 0 -9.6187484677343491 -343.29034275815502 0 0 0 0 4.3109321794051692 -3.0581672552743484 0 -3.0581672552743484 -6.3489956438275783 0 0 0 0 -167.89787144052389 35.259596414482075 0 35.259596414482075 -16.766060492147517 0 0 0 0 -77.827415792202146 -180.84619766109608 0 -180.84619766109608 -263.16884633201607 0 0 0 0 -3.3260149549438438 -26.71981631982851 0 -26.71981631982851 -178.3258056213599 0 0 0 0 2.6056789220090195 -41.711910414522208 0 -41.711910414522208 -154.36477774627565 0 0 0 0 -3.6477481560006666 -4.9869365331336795 0 -4.9869365331336795 0.44177807523276513 0 0 0 0 12.282411824834753 8.763614058641906 0 8.763614058641906 -33.300343221956382 0 0 0 0 18.938062124742316 -12.035328686057255 0 -12.035328686057255 -51.687454067614453 0 0 0 0 2.8548486438729315 -2.9626579343807116 0 -2.9626579343807116 -16.274381665020076 0 0 0 0 -19.044667696642364 -46.30350835045283 0 -46.30350835045283 -51.370507153425933 0 0 0 0 26.185586528017325 -5.3950256251464452 0 -5.3950256251464452 -62.861793565772587 0 0 0 0 -1.35841302698873 2.8496290883114543 0 2.8496290883114543 -9.4999654393750532 0 0 0 0 -12.136130327107821 26.722395238273748 0 26.722395238273748 -114.47412100181464 0 0 0 0 29.360442756951215 -19.691404826642611 0 -19.691404826642611 -68.817773209593724 0 0 0 0 52.223360157934167 -4.732822623960601 0 -4.732822623960601 -78.394392483456613 0 0 0 0 10.527564289540919 21.471412810369657 0 21.471412810369657 -14.308787589052372 0 0 0 0 4.7256307420789652 -7.288446650974457 0 -7.288446650974457 -43.437532425600168 0 0 0 0 -26.622257723417988 -6.8102994674300135 0 -6.8102994674300135 -30.990054809153662 0 0 0 0 3.252189718808685 1.3810949622525364 0 1.3810949622525364 -4.291589100958717 0 0 0 0 19.611257636312985 -16.719630946965481 0 -16.719630946965481 -12.852409880779305 0 0 0 0 -18.939692754769112 -81.393756454277536 0 -81.393756454277536 -145.66013420597255 0 0 0 0 253.36204313027881 84.287108577800112 0 84.287108577800112 -85.632129500030715 0 0 0 0 16.539286774460834 -41.868479021957683 0 -41.868479021957683 -35.527990710135782 0 0 0 0 29.642196270417116 -58.638201314368416 0 -58.638201314368416 -56.237313681529486 0 0 0 0 10.462930969102217 -43.334249970612291 0 -43.334249970612291 -26.020039635555804 0 0 0 0 15.803125904241824 -39.905182320111635 0 -39.905182320111635 -67.91260481127847 0 0 0 0 10.178931024690655 -27.398340565236595 0 -27.398340565236595 -45.649060540628852 0 0 0 0 2.7123004339873305 -4.1948756548789703 0 -4.1948756548789703 -10.404423180782047 0 0 0 0 -23.327027847156387 -27.779294409516297 0 -27.779294409516297 92.513400238312897 0 0 0 0 -1.6715911248757038 -28.403767660600352 0 -28.403767660600352 -32.64504530609338 0 0 0 0 -19.356017857937168 -19.987564247375307 0 -19.987564247375307 -11.907104992996967 0 0 0 0 -28.479263524441194 -16.060377485042409 0 -16.060377485042409 -37.906719861279271 0 0 0 0 -2.6658062492059003 -34.343425513195143 0 -34.343425513195143 -6.2452085089098546 0 0 0 0 -1.8072678626813286 -32.062378834394622 0 -32.062378834394622 -40.59811519435425 0 0 0 0 -86.877790271084237 -35.032172042742104 0 -35.032172042742104 -60.161131349148491 0 0 0 0 67.028836523749987 -48.905089788362602 0 -48.905089788362602 -92.622610598408755 0 0 0 0 2.0013947674501704 -5.2895922557402262 0 -5.2895922557402262 -42.268750471694631 0 0 0 0 47.675041285726309 -7.2430980156996156 0 -7.2430980156996156 -77.4329718367444 0 0 0 0 56.1193071352929 18.774230066573182 0 18.774230066573182 -35.823727627488552 0 0 0 0 36.732814554432252 -21.006751325561709 0 -21.006751325561709 -67.145935490891134 0 0 0 0 -24.777895755277768 -46.509633761063014 0 -46.509633761063014 110.14377714512011 0 0 0 0 91.165878186088094 59.816110077676058 0 59.816110077676058 20.367387540251912 0 0 0 0 30.138172018520862 16.717492867379406 0 16.717492867379406 -35.980609512416322 0 0 0 0 0.78791234653142217 -4.974127433933436 0 -4.974127433933436 -27.131679694956325 0 0 0 0 -1.1545796241207427 -10.513888613273593 0 -10.513888613273593 -15.021397472839453 0 0 0 0 -7.4414757027864251 -8.3697698892387322 0 -8.3697698892387322 -17.653264078822772 0 0 0 0 -0.54571859310519688 -11.319199841770928 0 -11.319199841770928 -27.065871199155481 0 0 0 0 -3.9961030490929867 -9.2233521490866028 0 -9.2233521490866028 -1.1626717124028332 0 0 0 0 27.226357466131049 -47.207021840313246 0 -47.207021840313246 -0.40540206373225374 0 0 0 0 1.2060534574982329 -1.1123783250424282 0 -1.1123783250424282 -5.1391795364583377 0 0 0 0 68.7598371353738 71.083839088147215 0 71.083839088147215 4.8173657065126463 0 0 0 0 127.97318796971194 11.350962822139991 0 11.350962822139991 -59.133004214863831 0 0 0 0 63.658492574304546 112.38462734478253 0 112.38462734478253 -75.743308050006817 0 0 0 0 -1.8258160081287893 0.61290584670861037 0 0.61290584670861037 -6.9230074744701255 0 0 0 0 20.601553021615018 24.832177452697579 0 24.832177452697579 -60.501341470307125 0 0 0 0 39.540414660962938 -17.689977138633367 0 -17.689977138633367 24.591147344179262 0 0 0 0 48.815879312813422 -45.818170658800227 0 -45.818170658800227 37.940088552726593 0 0 0 0 19.709520173386977 3.0629460797167667 0 3.0629460797167667 -72.194359816783617 0 0 0 0 -75.867660592719631 116.40515759396567 0 116.40515759396567 -29.88786582215107 0 0 0 0 41.744808663868525 -25.877591988047698 0 -25.877591988047698 -61.860664539124627 0 0 0 0 -263.7231767975984 -103.13331006923636 0 -103.13331006923636 -76.649831460166752 0 0 0 0 -3.4259333994925578 0.70274376480064404 0 0.70274376480064404 -0.48908446967570529 0 0 0 0 -42.089476080510167 114.15332521096116 0 114.15332521096116 -191.7221435104866 0 0 0 0 -46.241657095995834 -123.79953337766437 0 -123.79953337766437 -348.23479302001232 0 0 0 0 27.776517874945483 -64.030908312570759 0 -64.030908312570759 -204.08425446734873 0 0 0 0 28.458514982205998 -9.2499826538009984 0 -9.2499826538009984 -154.35736276951775 0 0 0 0 -116.13164238967693 -67.195707317908273 0 -67.195707317908273 90.373572021044765 0 0 0 0 -121.42202871930203 45.539654872812207 0 45.539654872812207 -329.92999546134604 0 0 0 0 39.122652544883749 -99.97572471152489 0 -99.97572471152489 -360.54975285307046 0 0 0 0 60.28815771484642 58.624404811568638 0 58.624404811568638 -294.29901032864291 0 0 0 0 -1.1231365344692676 32.804361197222534 0 32.804361197222534 -198.82164893997788 0 0 0 0 22.434821667987308 57.097212074043455 0 57.097212074043455 -366.64715537257325 0 0 0 0 -78.66507209764768 134.1617246697424 0 134.1617246697424 -157.87606506041993 0 0 0 0 -47.225973868642541 90.780436312790698 0 90.780436312790698 -167.67760168676614 0 0 0 0 -101.89053960455567 92.63644404646584 0 92.63644404646584 -4.538297664381389 0 0 0 0 -46.273545112713236 -26.45504526662171 0 -26.45504526662171 -44.357880935210233 0 0 0 0 -6.5713399597390474 -17.201790459413388 0 -17.201790459413388 -14.160719114652398 0 0 0 0 -12.31612381956802 -13.319964021386113 0 -13.319964021386113 25.265404844529257 0 0 0 0 -66.339649929199368 -3.6196586814312468 0 -3.6196586814312468 -2.1611764248154941 0 0 0 0 -7.494126426598541 -14.150776270045753 0 -14.150776270045753 -16.475407473948508 0 0 0 0 -14.280842823757249 -18.46614579482597 0 -18.46614579482597 -8.5202018660259711 0 0 0 0 24.413914234206459 -5.4842933145346251 0 -5.4842933145346251 -207.18002647991125 0 0 0 0 -29.933728622739636 -48.363537790355622 0 -48.363537790355622 16.294426983846279 0 0 0 0 -57.226219812356021 -31.061106778153771 0 -31.061106778153771 -0.72144961253616202 0 0 0 0 -22.256140323477098 -56.423276540226652 0 -56.423276540226652 -30.880505446839379 0 0 0 0 -46.566841012485952 -31.019627739211501 0 -31.019627739211501 -12.622244089034211 0 0 0 0 -19.307078922156904 -1.6820656059426256 0 -1.6820656059426256 4.2802080235487665 0 0 0 0 -10.571889838044086 -39.684966598704705 0 -39.684966598704705 0.41403851434006356 0 0 0 0 -19.87593951173676 -7.2074834125305642 0 -7.2074834125305642 20.941551125986734 0 0 0 0 2.116330019457564 -11.856606445867328 0 -11.856606445867328 5.4753445319147431 0 0 0 0 13.288090286710599 -189.28975915898445 0 -189.28975915898445 -96.890707470755842 0 0 0 0 -4.2377307484089703 -5.3858762251533854 0 -5.3858762251533854 6.1526035150781837 0 0 0 0 -3.0719910774028243 -6.0447914309468072 0 -6.0447914309468072 -1.9624209162675186 0 0 0 0 -1.7102740054226615 12.608792511087813 0 12.608792511087813 -37.355336861204705 0 0 0 0 4.5703322170572847 -0.95992988260695711 0 -0.95992988260695711 -21.194614474523405 0 0 0 0 -30.850235428829819 -11.448402343026828 0 -11.448402343026828 0.420424331434333 0 0 0 0 -77.399998532816198 9.5007068220947986 0 9.5007068220947986 -8.8130569400964305 0 0 0 0 -15.712646616768779 19.500121315672004 0 19.500121315672004 -38.311306114330364 0 0 0 0 718.57654730862998 -100.99469712205246 0 -100.99469712205246 -315.70621660015604 0 0 0 0 717.61317081075879 182.22262423267929 0 182.22262423267929 -278.37068448355421 0 0 0 0 -0.28331689474450927 -1.8180190966215601 0 -1.8180190966215601 -0.14535128421266563 0 0 0 0 -160.67776160497107 43.851706485045725 0 43.851706485045725 -19.415212044885266 0 0 0 0 -296.46211116915788 -18.340073898532864 0 -18.340073898532864 34.914178975624964 0 0 0 0 -70.551125523005908 43.072895130979305 0 43.072895130979305 -43.858352359735363 0 0 0 0 94.652576989944919 176.08919846898789 0 176.08919846898789 166.42164396255976 0 0 0 0 -1.7891788021892852 -2.0052593547290698 0 -2.0052593547290698 -1.2990352867588939 0 0 0 0 258.91916777035271 64.581579452515143 0 64.581579452515143 -215.26411572407233 0 0 0 0 -190.91793990166479 -48.755569280769123 0 -48.755569280769123 -1.3262821940224967 0 0 0 0 -103.1012570483324 -95.116387773392489 0 -95.116387773392489 -9.941880637416034 0 0 0 0 -42.03070896034842 -86.773792767933628 0 -86.773792767933628 -51.515862561038375 0 0 0 0 -87.777224863161337 -66.379026278766105 0 -66.379026278766105 -31.812863367420505 0 0 0 0 -32.560305824312309 -55.188573104132956 0 -55.188573104132956 -30.463635179748962 0 0 0 0 -62.110081707312247 -79.900259923626436 0 -79.900259923626436 -32.116564783075887 0 0 0 0 -110.3725005319493 -29.833944616439112 0 -29.833944616439112 -10.535153629196429 0 0 0 0 -85.304099463667669 -30.267936161638318 0 -30.267936161638318 -18.694153117787209 0 0 0 0 -226.931807703289 -18.043739826595811 0 -18.043739826595811 -242.70900406020519 0 0 0 0 -721.07169853611924 -255.36009344530521 0 -255.36009344530521 -219.62585590755771 0 0 0 0 -80.242359689861871 253.31797179002933 0 253.31797179002933 -122.47859462408815 0 0 0 0 332.89832336279301 437.37279045276773 0 437.37279045276773 103.36450546781271 0 0 0 0 -668.03051105375607 317.55948391650782 0 317.55948391650782 -128.75356372170063 0 0 0 0 2.2638174057483411 73.748941518169886 0 73.748941518169886 -177.82269827559685 0 0 0 0 183.11929662127272 -86.647769632498694 0 -86.647769632498694 -1053.4797149174192 0 0 0 0 735.2660501389696 -527.19751479741899 0 -527.19751479741899 -225.94272660813294 0 0 0 0 179.12496343798443 -350.18856655635682 0 -350.18856655635682 305.13019244885618 0 0 0 0 500.10230174424237 -759.9237464579528 0 -759.9237464579528 -402.23467968409386 0 0 0 0 -130.95686168613202 -830.36832785561637 0 -830.36832785561637 -576.35086509510802 0 0 0 0 204.31302806601252 -342.00457967817238 0 -342.00457967817238 111.93209418455081 0 0 0 0 -7.4234524881260953 -5.7399966666546902 0 -5.7399966666546902 -4.3311927051872061 0 0 0 0 -211.44996792782604 -292.55526122302035 0 -292.55526122302035 -764.15743826766629 0 0 0 0 -39.987171313714953 137.3587122710378 0 137.3587122710378 -800.33843640372788 0 0 0 0 -581.30784491633187 -429.00391724075598 0 -429.00391724075598 467.13378489627212 0 0 0 0 -485.45652333248199 -239.84338287560786 0 -239.84338287560786 526.66839381294267 0 0 0 0 -387.66912583884209 -296.93349774417038 0 -296.93349774417038 556.92178978183802 0 0 0 0 253.68137209875022 -90.052754139078388 0 -90.052754139078388 381.839112636756 0 0 0 0 508.62550666922164 15.101645443122834 0 15.101645443122834 442.13076245038974 0 0 0 0 228.01741959031142 -348.58809103917156 0 -348.58809103917156 104.22108488665253 0 0 0 0 0.13420914795571726 -0.79703929081589919 0 -0.79703929081589919 0.94242108999448604 0 0 0 0 -167.99184499536898 -113.49517508230565 0 -113.49517508230565 863.13494184501178 0 0 0 0 23.460918823186944 -3.0855357276304858 0 -3.0855357276304858 -58.226239591771446 0 0 0 0 -379.92518901305664 -247.71899408172067 0 -247.71899408172067 808.62078856970766 0 0 0 0 -9.9404012425369892 -29.13458554945327 0 -29.13458554945327 -12.880130542628279 0 0 0 0 32.566460403810197 -45.157493262606295 0 -45.157493262606295 0.13766562983801123 0 0 0 0 109.62514603819272 -154.81861947704783 0 -154.81861947704783 85.923893974133534 0 0 0 0 -962.91332155323744 -372.88747471827173 0 -372.88747471827173 -180.35767417546958 0 0 0 0 -2.85838075767716 -6.6137312871014764 0 -6.6137312871014764 -13.105932174022563 0 0 0 0 -79.038816680572381 124.17050158729171 0 124.17050158729171 -217.5525701175502 0 0 0 0 -1.9720086490357218 -2.1173592933177026 0 -2.1173592933177026 4.3773777235944209 0 0 0 0 -385.42294548557402 242.60758232829539 0 242.60758232829539 -314.76619966958242 0 0 0 0 -912.85989159295741 -79.40700131511494 0 -79.40700131511494 5.2624021381379862 0 0 0 0 -67.668345746849354 -0.98029299120480573 0 -0.98029299120480573 65.643485780194169 0 0 0 0 -637.82099946711332 -7.2064139028552745 0 -7.2064139028552745 -49.191823959614339 0 0 0 0 -31.117837849409398 69.557843176605047 0 69.557843176605047 -413.3829660254396 0 0 0 0 -324.07145061975939 -431.93874468988543 0 -431.93874468988543 247.56428514008439 0 0 0 0 -357.26987235603247 -192.97005490502488 0 -192.97005490502488 340.7504356002537 0 0 0 0 -406.84709331704562 -314.81253488304992 0 -314.81253488304992 108.90591334835335 0 0 0 0 -799.9939284589891 -157.87666271274429 0 -157.87666271274429 87.196732917093414 0 0 0 0 -501.40291159823846 -275.4867448728437 0 -275.4867448728437 -248.84804703952977 0 0 0 0 -493.05192591948253 -461.58622747288246 0 -461.58622747288246 -76.664069839345757 0 0 0 0 -174.9966559395416 -204.75627254143365 0 -204.75627254143365 112.62231440719188 0 0 0 0 -138.08010870731232 -215.72420695531946 0 -215.72420695531946 -569.08122710800853 0 0 0 0 -109.60602917460028 -352.53332311548502 0 -352.53332311548502 -296.74544008026714 0 0 0 0 -848.66192601263629 -587.01396434855451 0 -587.01396434855451 -528.2147780664709 0 0 0 0 -373.65471661904894 -463.18218296758801 0 -463.18218296758801 -822.804840410834 0 0 0 0 -383.14033366778938 -382.21210811464175 0 -382.21210811464175 -1387.4880221333733 0 0 0 0 -437.75208695059052 223.21996449684806 0 223.21996449684806 -1471.6512702732216 0 0 0 0 -436.58038586826052 159.35587249032366 0 159.35587249032366 -788.95790495153051 0 0 0 0 -1388.3693356978474 305.22319529014567 0 305.22319529014567 -659.27125062480991 0 0 0 0 -102.66760470126792 -32.387385805828671 0 -32.387385805828671 -723.53096028482832 0 0 0 0 -318.02589554293218 304.1838542477949 0 304.1838542477949 -604.90321861944176 0 0 0 0 -118.88502841905029 86.019701570879988 0 86.019701570879988 -366.07335442272961 0 0 0 0 -507.7382933534891 6.3568991261254268 0 6.3568991261254268 -558.22155481625668 0 0 0 0 -879.23977444376578 41.799741541171898 0 41.799741541171898 -333.27676596372748 0 0 0 0 -250.10958561333518 35.146631510634506 0 35.146631510634506 -334.75986707641971 0 0 0 0 -356.47652959843163 123.51341402000708 0 123.51341402000708 -153.42603416799648 0 0 0 0 -163.61795578429837 -234.73074056004953 0 -234.73074056004953 -505.82995325186812 0 0 0 0 -293.16660112611271 -234.93581779456736 0 -234.93581779456736 -491.91548268244878 0 0 0 0 -325.73950312017269 -334.47990388095695 0 -334.47990388095695 -790.93973298151832 0 0 0 0 -96.901332868099871 133.02413848433116 0 133.02413848433116 -594.36232760804342 0 0 0 0 -1211.0495877991789 -684.42017569723248 0 -684.42017569723248 -915.36201357397294 0 0 0 0 143.14953338048508 148.07959260114512 0 148.07959260114512 -1586.1340517494336 0 0 0 0 -182.74058803171283 53.349818876582503 0 53.349818876582503 -481.75134042665013 0 0 0 0 -95.760859694579267 -0.81049811856428278 0 -0.81049811856428278 -463.47434494039771 0 0 0 0 26.2186708041354 -56.276160907108533 0 -56.276160907108533 -503.99531988434956 0 0 0 0 13.058108325779358 66.620585757171284 0 66.620585757171284 -565.54525335094513 0 0 0 0 -29.440302759014912 102.98983958409963 0 102.98983958409963 -388.06438594615429 0 0 0 0 32.894857865800986 -64.567167411969422 0 -64.567167411969422 -819.01331468093395 0 0 0 0 47.941648354462359 -25.941826136410782 0 -25.941826136410782 -354.09575261942882 0 0 0 0 75.217202285267831 -12.279878361393457 0 -12.279878361393457 -474.80709067891712 0 0 0 0 31.008226896609358 -87.739752370476708 0 -87.739752370476708 -328.05922302253202 0 0 0 0 -16.360680855909777 -183.32590458687173 0 -183.32590458687173 -459.18215615412225 0 0 0 0 -122.28893932482993 -134.39094914792531 0 -134.39094914792531 -268.63088446685288 0 0 0 0 -47.051868333277525 -90.662078342540326 0 -90.662078342540326 -247.55630282209313 0 0 0 0 -28.403000140651784 -172.72399103699354 0 -172.72399103699354 -278.79931795560742 0 0 0 0 -15.276937371894519 -117.9336638454547 0 -117.9336638454547 -156.42302009235209 0 0 0 0 11.153793225078971 -57.092022124107189 0 -57.092022124107189 -143.58820156751392 0 0 0 0 -112.58461001794694 -168.49275825722225 0 -168.49275825722225 -120.0271993444635 0 0 0 0 49.536259842067921 -7.4142149766189505 0 -7.4142149766189505 15.036683146503037 0 0 0 0 -139.17105438909812 46.357365770636534 0 46.357365770636534 2.2067837311651601 0 0 0 0 -44.094347456678406 110.12066655885155 0 110.12066655885155 -3.2079454752729362 0 0 0 0 -107.9966074057179 208.6682405407721 0 208.6682405407721 -149.72961568390747 0 0 0 0 -168.46347300131367 -55.232195199269427 0 -55.232195199269427 -135.8052538125412 0 0 0 0 -421.93916658555327 12.751765220814832 0 12.751765220814832 -154.00791953641601 0 0 0 0 -26.040300092823884 -126.41509980923456 0 -126.41509980923456 -262.81017942591097 0 0 0 0 -40.820393370943066 -121.78984789654533 0 -121.78984789654533 -262.32768952807783 0 0 0 0 -3.2046454095884229 -77.056574373972694 0 -77.056574373972694 -302.06164549934329 0 0 0 0 -63.454473582673245 -132.41266151476339 0 -132.41266151476339 -254.34015581218682 0 0 0 0 -156.68037737279769 -111.52315115488364 0 -111.52315115488364 -274.08464985094452 0 0 0 0 -59.366692222501172 -92.776253371850544 0 -92.776253371850544 -272.00787973017395 0 0 0 0 -43.756451146874042 -99.433830825463701 0 -99.433830825463701 -244.91029268494458 0 0 0 0 -49.522562542983223 -107.65443562320252 0 -107.65443562320252 -256.39467513534328 0 0 0 0 4.79196813557013 -85.067252501836265 0 -85.067252501836265 -254.97496241145109 0 0 0 0 -57.576490862749552 -31.455219096611017 0 -31.455219096611017 -299.46085332620305 0 0 0 0 26.34716841049044 -16.576370915654479 0 -16.576370915654479 -311.52650266957698 0 0 0 0 39.61751777382608 -31.413353333303803 0 -31.413353333303803 -344.73586110104407 0 0 0 0 28.506719076574967 -97.778241970860279 0 -97.778241970860279 -282.36372687922085 0 0 0 0 21.765371521315728 -60.74132056176586 0 -60.74132056176586 -350.26545402029274 0 0 0 0 20.289949376957793 -108.10605467789446 0 -108.10605467789446 -281.7832258040753 0 0 0 0 2.5288028829472751 -105.43422128885868 0 -105.43422128885868 -167.18794922623056 0 0 0 0 -6.6992441604525084 -80.414241222918463 0 -80.414241222918463 -182.85275826894758 0 0 0 0 6.4137785679263857 -83.251387085655097 0 -83.251387085655097 -254.59590528169156 0 0 0 0 -11.063873066783287 -94.219074980175037 0 -94.219074980175037 -245.67445780110575 0 0 0 0 -29.421222466615063 -92.211011368114669 0 -92.211011368114669 -242.55298938354917 0 0 0 0 -23.133744707523306 -81.157308848601815 0 -81.157308848601815 -184.80464119828412 0 0 0 0 -27.695613974500475 -91.226410020360163 0 -91.226410020360163 -211.08337928350454 0 0 0 0 -14.245794600510862 -108.17594099598864 0 -108.17594099598864 -255.51387805398008 0 0 0 0 -16.569534136957031 -116.70455878463008 0 -116.70455878463008 -285.88918724651558 0 0 0 0 -22.008914343395844 -13.720196524143716 0 -13.720196524143716 -111.14171582341714 0 0 0 0 -7.5927183364408393 -46.294921045545834 0 -46.294921045545834 -204.4133959220311 0 0 0 0 -29.784138231743327 -62.795706623705428 0 -62.795706623705428 -145.88146131084613 0 0 0 0 5.5104764189572961 -23.350419670206975 0 -23.350419670206975 -149.432715765176 0 0 0 0 6.3838721826161242 25.721968113893485 0 25.721968113893485 -15.656748336910089 0 0 0 0 -23.095376167837344 -8.9084785454501798 0 -8.9084785454501798 -47.598695830029556 0 0 0 0 -18.249983370738391 -51.037940574236131 0 -51.037940574236131 -97.841328097746555 0 0 0 0 4.0830400072286466 -70.163541196620827 0 -70.163541196620827 -192.03167155537267 0 0 0 0 11.250913714615081 -41.763591755240213 0 -41.763591755240213 -107.28795035440271 0 0 0 0 -65.878259720592553 -93.890574958026264 0 -93.890574958026264 -761.42876984912436 0 0 0 0 57.065576084737245 -159.48383955408826 0 -159.48383955408826 -732.94134229566862 0 0 0 0 -183.51542149823592 136.46227407452716 0 136.46227407452716 -261.41695216195149 0 0 0 0 -158.71029012867808 -694.80582197465992 0 -694.80582197465992 -2500.1130989592962 0 0 0 0 -0.12906204405367255 3.2015617539732517 0 3.2015617539732517 -4.9908646837468247 0 0 0 0 52.026255920139334 -199.52104623998457 0 -199.52104623998457 -1327.3439724720811 0 0 0 0 -48.453100027517685 191.62883091035565 0 191.62883091035565 -908.36042113541043 0 0 0 0 71.146975554311751 22.401349241015396 0 22.401349241015396 -2493.5249610825977 0 0 0 0 46.574073102586411 -378.31648120828231 0 -378.31648120828231 -2501.452967326526 0 0 0 0 3.3688721109283386 22.389412507148826 0 22.389412507148826 -14.160104089870453 0 0 0 0 61.339557800976095 -120.45521304697286 0 -120.45521304697286 -1772.9588025114049 0 0 0 0 -61.754215220011815 166.18895665858872 0 166.18895665858872 -459.74296274495646 0 0 0 0 261.14200680870454 -224.71226325110229 0 -224.71226325110229 -810.70177052823783 0 0 0 0 -331.5911386655136 -47.709161930235496 0 -47.709161930235496 -863.04468908332274 0 0 0 0 -53.97843898058909 184.70751686171059 0 184.70751686171059 200.8602801748375 0 0 0 0 22.522943530635985 28.076674423649393 0 28.076674423649393 -14.125413619390201 0 0 0 0 -301.54210270327599 283.55695839155669 0 283.55695839155669 -32.748188708315865 0 0 0 0 -97.17333513071344 20.13063077352399 0 20.13063077352399 241.84605959082319 0 0 0 0 12.705045091931112 29.899174985442915 0 29.899174985442915 -17.289867658470264 0 0 0 0 6.6249956429242047 18.798233813580282 0 18.798233813580282 19.538220132159267 0 0 0 0 -19.966224649059995 -93.250814085708953 0 -93.250814085708953 -58.798262969206917 0 0 0 0 -29.582320883461307 -0.13017943223803741 0 -0.13017943223803741 70.619112510549712 0 0 0 0 79.111487784447462 -36.253443987227001 0 -36.253443987227001 -891.85952115339205 0 0 0 0 9.3318098686722166 28.497183838827581 0 28.497183838827581 -16.668116141404699 0 0 0 0 91.93111280171675 -65.352850742023293 0 -65.352850742023293 -828.10766563649668 0 0 0 0 3.6067554192911757 -157.18766485061496 0 -157.18766485061496 -780.61122382471513 0 0 0 0 -42.510473744406227 -46.689575734084428 0 -46.689575734084428 -826.59083016418845 0 0 0 0 60.29993166197491 -11.049246839401349 0 -11.049246839401349 -819.15817045183212 0 0 0 0 22.603345018349671 -13.843362227802572 0 -13.843362227802572 -849.79042443761864 0 0 0 0 125.4531819698598 -68.801207597020039 0 -68.801207597020039 -829.66192542443969 0 0 0 0 -158.76025875014054 -694.52464746983787 0 -694.52464746983787 -2499.507219168856 0 0 0 0 0.7957056823209383 9.0231787928704819 0 9.0231787928704819 -8.7151883715207106 0 0 0 0 22.945952070996608 -532.23736463669047 0 -532.23736463669047 -2417.7661632376567 0 0 0 0 688.8005395807038 -50.958553850796307 0 -50.958553850796307 -2499.5170590865455 0 0 0 0 -12.545895435131712 -342.15847513406948 0 -342.15847513406948 -1751.484575484923 0 0 0 0 -0.82819072395631088 11.403561127475335 0 11.403561127475335 -8.9190078639920358 0 0 0 0 -105.69243854642127 -146.31827696074652 0 -146.31827696074652 -777.38133227030266 0 0 0 0 289.37279688216825 282.00513756218425 0 282.00513756218425 -1240.4142614780903 0 0 0 0 172.83256786319942 -221.73665138356046 0 -221.73665138356046 -1323.1784257604741 0 0 0 0 830.52145386429834 376.29707168191271 0 376.29707168191271 -1914.3692591217696 0 0 0 0 919.47556559066447 -175.76392536615595 0 -175.76392536615595 -1731.4414190325842 0 0 0 0 -379.12706773152667 823.32364781490833 0 823.32364781490833 -2499.6758684034867 0 0 0 0 -140.62606450566869 854.01081548284674 0 854.01081548284674 -2004.7926366900065 0 0 0 0 -172.28885618736317 983.84728751865259 0 983.84728751865259 -2535.9217172823846 0 0 0 0 164.92633579560052 191.79262126710455 0 191.79262126710455 -2195.3586143970188 0 0 0 0 107.90532042337978 379.82526565504304 0 379.82526565504304 -2756.3845652756154 0 0 0 0 281.28335527114723 651.57995684294656 0 651.57995684294656 923.75644659982936 0 0 0 0 -8.5192829784169462 4.9064881733022503 0 4.9064881733022503 -2.8013794083780184 0 0 0 0 496.64274113731153 405.71733107830005 0 405.71733107830005 -440.7063430148919 0 0 0 0 -2.7279426113148362 4.2474081209830317 0 4.2474081209830317 -2.706962566349965 0 0 0 0 -962.84659004363061 1611.2232866612121 0 1611.2232866612121 1106.4565165598942 0 0 0 0 262.24641530166741 -311.50750687755681 0 -311.50750687755681 -2125.9932236813911 0 0 0 0 -134.22410861837852 591.14026150532663 0 591.14026150532663 -1049.6621745414704 0 0 0 0 -392.10919646243929 57.452036334651893 0 57.452036334651893 -185.5257274757605 0 0 0 0 249.79068807337171 -45.531273306991352 0 -45.531273306991352 -432.60281677858711 0 0 0 0 168.25991835679542 -19.234945130410779 0 -19.234945130410779 -368.79785944896503 0 0 0 0 4.5515212886866721 -40.846037256049385 0 -40.846037256049385 167.5278648401345 0 0 0 0 -137.34262455609473 -264.44067616245775 0 -264.44067616245775 -0.69626490888731496 0 0 0 0 191.50956798522407 -57.654700496410442 0 -57.654700496410442 -671.83267227476063 0 0 0 0 -10.740365078599382 -6.5547758441025508 0 -6.5547758441025508 -117.68216620156818 0 0 0 0 19.928074193584621 26.890815230184671 0 26.890815230184671 -82.02173178326484 0 0 0 0 191.02497209502235 -81.720667059895277 0 -81.720667059895277 -73.904710055975556 0 0 0 0 54.137279791806236 29.031686390382674 0 29.031686390382674 -121.34065588963131 0 0 0 0 12.102380460696937 19.818782065080775 0 19.818782065080775 -72.440777444972369 0 0 0 0 334.01290724799765 -12.741373321678111 0 -12.741373321678111 -181.98266432531454 0 0 0 0 -0.025330188346255333 13.197626774375816 0 13.197626774375816 -62.483398680203763 0 0 0 0 161.48111498507114 1.4436220810603118 0 1.4436220810603118 -36.808607752393073 0 0 0 0 183.92265116488647 141.1091680830591 0 141.1091680830591 121.58690681292501 0 0 0 0 5.0868521278342529 -0.74530708260806477 0 -0.74530708260806477 -11.85139570606097 0 0 0 0 35.223687296719184 -25.082530319544048 0 -25.082530319544048 -112.75262787636166 0 0 0 0 28.703096026775398 356.60854715731693 0 356.60854715731693 74.358913287927862 0 0 0 0 -96.543390539369696 -108.31917440541292 0 -108.31917440541292 -398.92300034043001 0 0 0 0 293.40982111785877 -197.30396097242192 0 -197.30396097242192 -438.99048933698941 0 0 0 0 287.33761025286549 507.65726636209183 0 507.65726636209183 96.548718160091084 0 0 0 0 -312.47244334840758 -91.456751455483754 0 -91.456751455483754 -233.56875086354557 0 0 0 0 -28.552541305090358 52.645141554490692 0 52.645141554490692 -164.08280851682503 0 0 0 0 -1.9390802718171887 1.6828617720361727 0 1.6828617720361727 -28.71378588276346 0 0 0 0 -14.744497546837456 13.340634655182598 0 13.340634655182598 -20.282383447954942 0 0 0 0 -916.28001870797561 1393.3142413542264 0 1393.3142413542264 -1402.3591129188571 0 0 0 0 122.09332192841192 1037.9818610811053 0 1037.9818610811053 -2497.113748916825 0 0 0 0 -1.824087278673632 -1.2931805352558934 0 -1.2931805352558934 -12.038623042786384 0 0 0 0 -1134.0091765168809 -1435.0360224839669 0 -1435.0360224839669 -837.56823312761844 0 0 0 0 207.93123986727707 -1085.2161109378085 0 -1085.2161109378085 -2496.4685134556785 0 0 0 0 81.86617445251305 -524.40376639251917 0 -524.40376639251917 -1508.837872036831 0 0 0 0 84.022054570236605 -338.76766195360995 0 -338.76766195360995 -1903.0670754474122 0 0 0 0 177.35180888006994 76.741421555569104 0 76.741421555569104 -1462.3349533284272 0 0 0 0 132.82163044549213 9.146590871619992 0 9.146590871619992 -1463.4883234007298 0 0 0 0 227.881930581668 36.256313541922282 0 36.256313541922282 -942.96595431998821 0 0 0 0 -233.45856239622273 -766.07500530695188 0 -766.07500530695188 -1015.5182442629084 0 0 0 0 471.95896838852326 -59.096613426470867 0 -59.096613426470867 -2499.6766947193428 0 0 0 0 40.036813216213233 -201.67213587900733 0 -201.67213587900733 -2809.3899275994263 0 0 0 0 260.8163231733364 202.54593174015827 0 202.54593174015827 -2119.0587203833347 0 0 0 0 190.54326658163677 -130.7416836863556 0 -130.7416836863556 -1855.9473645425824 0 0 0 0 25.564661015989714 -87.978230058353802 0 -87.978230058353802 -611.12101446148881 0 0 0 0 80.730064106821715 366.28194857885683 0 366.28194857885683 -1492.4855815068222 0 0 0 0 -0.85867608315080979 -2.2050132699816203 0 -2.2050132699816203 -9.7457262314972581 0 0 0 0 -179.55159305298014 200.64085311640156 0 200.64085311640156 -413.45486265012005 0 0 0 0 -310.06437747676574 1101.8158876829875 0 1101.8158876829875 -2098.2936388329035 0 0 0 0 0.85543728032203692 -11.697725874225199 0 -11.697725874225199 -19.326559791437049 0 0 0 0 342.3631072569874 -344.86348303435807 0 -344.86348303435807 176.99708904799627 0 0 0 0 153.21875137475615 -37.231711824946615 0 -37.231711824946615 -499.00762579396542 0 0 0 0 -2.3408490288513679 -11.08861522230211 0 -11.08861522230211 -17.680347050259371 0 0 0 0 65.766979538387091 83.534358388958935 0 83.534358388958935 157.64242038392695 0 0 0 0 -156.88683590233688 98.016773658189777 0 98.016773658189777 -30.80497910369013 0 0 0 0 -30.282799960029593 -24.487548140408762 0 -24.487548140408762 -595.04818570826319 0 0 0 0 -123.10079928749235 -115.16656454355689 0 -115.16656454355689 71.666682718829179 0 0 0 0 1.9649520772126068 -6.7332196605586745 0 -6.7332196605586745 -18.269177770160539 0 0 0 0 12.257009546634777 -2.8418321892422682 0 -2.8418321892422682 -27.359603009230341 0 0 0 0 2.5231454999692993 -9.0562396863962817 0 -9.0562396863962817 -22.935913389964924 0 0 0 0 223.44518623122389 -165.84186976319324 0 -165.84186976319324 49.145772978139576 0 0 0 0 144.26275636097796 -49.696553174124347 0 -49.696553174124347 -25.943689608073328 0 0 0 0 -4.5152864823771779 285.48214672308313 0 285.48214672308313 224.29607251758262 0 0 0 0 -323.88861971701067 34.018513598333811 0 34.018513598333811 175.65174588843365 0 0 0 0 -0.96679549734321335 1.4345922824677828 0 1.4345922824677828 -3.7795282874066913 0 0 0 0 -54.400973522014965 -475.86332505299652 0 -475.86332505299652 -823.87747793330345 0 0 0 0 -248.88439214207406 9.3873988764171372 0 9.3873988764171372 -16.804272142137052 0 0 0 0 0.11480744763108786 2.976081475931835 0 2.976081475931835 -10.550414581752648 0 0 0 0 113.08288547625841 122.90635389437375 0 122.90635389437375 -47.562028914605435 0 0 0 0 -17.986269098321003 82.17217008107059 0 82.17217008107059 -66.883803660806734 0 0 0 0 -133.05243215262959 53.853991161060549 0 53.853991161060549 -23.122721062150958 0 0 0 0 -15.700446992778973 -68.642889515069783 0 -68.642889515069783 -240.09768113143218 0 0 0 0 -1.0377256918546933 0.19125502074204803 0 0.19125502074204803 1.2906882204574117 0 0 0 0 33.632528984225573 31.451455292495666 0 31.451455292495666 -300.2975254995672 0 0 0 0 32.618426679976011 -83.140017044112028 0 -83.140017044112028 -336.17915520440874 0 0 0 0 25.005525467376273 74.446459176237113 0 74.446459176237113 -130.36226412395263 0 0 0 0 1.727514521070475 40.876177198348159 0 40.876177198348159 -55.143832891233615 0 0 0 0 15.120315272939933 9.7870889263904246 0 9.7870889263904246 -42.432577823255997 0 0 0 0 11.816143228642623 -1.2728082202157083 0 -1.2728082202157083 -7.5295748334222026 0 0 0 0 12.629142506296546 4.9616027551073785 0 4.9616027551073785 -51.316470602927438 0 0 0 0 24.560659898620088 4.936386402703647 0 4.936386402703647 -52.586584969343676 0 0 0 0 10.768734141213804 -1.7984953697544483 0 -1.7984953697544483 -50.103647743203965 0 0 0 0 23.409751838208535 3.7510797512732097 0 3.7510797512732097 -43.767946999781998 0 0 0 0 29.8109483082726 10.267380002929713 0 10.267380002929713 -76.274278657430841 0 0 0 0 8.7010115871798916 18.766018397071093 0 18.766018397071093 -54.881618668616284 0 0 0 0 7.1377977624010782 15.526400925596135 0 15.526400925596135 -53.011169161494763 0 0 0 0 99.773062991165034 -82.179465056644403 0 -82.179465056644403 20.993725743770483 0 0 0 0 99.229488021752786 -83.393130908571038 0 -83.393130908571038 36.140748218211229 0 0 0 0 3.5099408143930839 -0.64435279893200459 0 -0.64435279893200459 -26.163521120554293 0 0 0 0 13.462211310605198 -13.244887584129174 0 -13.244887584129174 -23.426567844395322 0 0 0 0 248.92006421688438 -159.47631303718663 0 -159.47631303718663 -55.161171327781631 0 0 0 0 5.8022166526476564 -0.9805271166036178 0 -0.9805271166036178 -25.001761789631445 0 0 0 0 14.060120040490801 -77.390424875606186 0 -77.390424875606186 103.2178820070767 0 0 0 0 1.5743128458087368 -5.2717704752216505 0 -5.2717704752216505 2.0136144391964876 0 0 0 0 530.45743293819169 14.846842789182119 0 14.846842789182119 -107.65404317967932 0 0 0 0 -265.66471459118907 75.030639451837487 0 75.030639451837487 -142.02621901163366 0 0 0 0 94.862968500790316 -346.25232248316206 0 -346.25232248316206 -28.300126524620282 0 0 0 0 -437.04356627916559 182.95749976428124 0 182.95749976428124 -320.12986753494624 0 0 0 0 -235.24846926117038 438.89524704773066 0 438.89524704773066 2.2605606988872751 0 0 0 0 332.09251331297037 251.18529817181116 0 251.18529817181116 -393.88970468211483 0 0 0 0 186.53672114655114 -221.02837423836627 0 -221.02837423836627 -27.178919655503705 0 0 0 0 145.267020760577 -159.8141213453564 0 -159.8141213453564 112.44793352841771 0 0 0 0 142.13045796679216 -14.487259815097786 0 -14.487259815097786 -276.67399217130151 0 0 0 0 -188.25057247611221 43.307496450459439 0 43.307496450459439 -156.10080209385706 0 0 0 0 -142.94278513680501 284.60801227310731 0 284.60801227310731 -402.20590929968603 0 0 0 0 -768.98530923057046 690.50273667144211 0 690.50273667144211 -332.30456564296037 0 0 0 0 -256.70291862716476 576.39772373114829 0 576.39772373114829 -600.71121761296672 0 0 0 0 -387.00137365260127 210.13528395029425 0 210.13528395029425 -173.58773930901225 0 0 0 0 19.219697828985773 -3.616633887286298 0 -3.616633887286298 -41.297841450548731 0 0 0 0 40.677795841843363 2.7120380505693902 0 2.7120380505693902 -46.235342519572441 0 0 0 0 15.234815775620973 7.2842636965724523 0 7.2842636965724523 -49.356984871279565 0 0 0 0 22.140362289589575 -8.8405944953829021 0 -8.8405944953829021 -53.00270500795159 0 0 0 0 230.44215205346973 -246.62778265808447 0 -246.62778265808447 -3.9825931663581287 0 0 0 0 13.245005969459937 2.5178443445091148 0 2.5178443445091148 -39.385282442735956 0 0 0 0 44.914787974536921 -15.675661055018281 0 -15.675661055018281 -50.932917193732465 0 0 0 0 101.34433698665816 -161.46609362090385 0 -161.46609362090385 90.136401810206735 0 0 0 0 274.91345430655747 34.421541495350539 0 34.421541495350539 -140.41803833062295 0 0 0 0 17.074523175489638 11.206611888184216 0 11.206611888184216 -30.853146710146177 0 0 0 0 367.21048540095398 -150.26059845666896 0 -150.26059845666896 -132.03471539424208 0 0 0 0 8.4087699667964841 -2.3160782701145379 0 -2.3160782701145379 -24.715288348817921 0 0 0 0 49.071901132871062 -9.8403125384757004 0 -9.8403125384757004 -25.102655426939236 0 0 0 0 21.244378295252318 2.8869939979558694 0 2.8869939979558694 -21.33365937142662 0 0 0 0 4.4986821907518788 15.473186683915628 0 15.473186683915628 -36.214924648036686 0 0 0 0 -8.1127462251970428 -8.4674824016292405 0 -8.4674824016292405 -38.835858689787074 0 0 0 0 1.358509837793636 2.3281079789337227 0 2.3281079789337227 -33.058843986760394 0 0 0 0 3.8829074861640329 -3.015599571397658 0 -3.015599571397658 -27.546959158260947 0 0 0 0 16.79315015557404 3.5138593074952951 0 3.5138593074952951 -58.886439517656981 0 0 0 0 5.4671533183641561 5.0743960003055548 0 5.0743960003055548 -17.04400499479469 0 0 0 0 412.24953570112848 -18.132431482430547 0 -18.132431482430547 -180.37738302210346 0 0 0 0 -3.600030231340078 -9.659145182866931 0 -9.659145182866931 -50.43630735953225 0 0 0 0 16.994412045061836 0.37827910895794048 0 0.37827910895794048 -56.678785953918123 0 0 0 0 10.140312848901885 6.9019168920094671 0 6.9019168920094671 -55.733367951082982 0 0 0 0 281.24669225995058 -136.24343405883974 0 -136.24343405883974 -18.330480125350732 0 0 0 0 15.296590034530709 2.3564047505860799 0 2.3564047505860799 -56.666507884554449 0 0 0 0 450.6526366534199 79.042608931047653 0 79.042608931047653 -16.734071561968449 0 0 0 0 0.39387239925123296 -7.5267963947740846 0 -7.5267963947740846 -13.962132342235748 0 0 0 0 12.565625804054434 -8.7509493096004007 0 -8.7509493096004007 -16.583943283825647 0 0 0 0 -4.1472847628985505 -14.726349003640294 0 -14.726349003640294 -32.247026631038068 0 0 0 0 -5.2407825600918549 -21.927604646313732 0 -21.927604646313732 -39.610985200371715 0 0 0 0 258.22154313858482 -32.117945814345148 0 -32.117945814345148 -18.774261131489766 0 0 0 0 -3.1841564263231703 93.000814093597 0 93.000814093597 32.210826936192461 0 0 0 0 -4.1715485850581899 -7.0051301131170476 0 -7.0051301131170476 -26.865309416069067 0 0 0 0 -5.7763333770553977 7.712379678722435 0 7.712379678722435 -25.745658898846145 0 0 0 0 -18.096712342227875 -23.784638047207409 0 -23.784638047207409 10.124374254763097 0 0 0 0 -5.6959725403531252 1.024372099855885 0 1.024372099855885 -24.003195016362312 0 0 0 0 403.66332719707134 -160.30634396840833 0 -160.30634396840833 60.261203416986064 0 0 0 0 483.83919831272942 -365.87975087112864 0 -365.87975087112864 6.4712178424911144 0 0 0 0 441.15088582996486 -231.77557497470752 0 -231.77557497470752 -43.006178231433296 0 0 0 0 397.56460556678667 -110.98249622505591 0 -110.98249622505591 -252.09125500236041 0 0 0 0 550.58770362775249 -182.12376650407714 0 -182.12376650407714 -117.57565069504744 0 0 0 0 581.8840135302562 -104.45931676476539 0 -104.45931676476539 -50.638434072372547 0 0 0 0 5.5137791774341167 -195.10537363805088 0 -195.10537363805088 -90.455487948729569 0 0 0 0 291.58011947712657 -270.42437675700967 0 -270.42437675700967 -87.357626329032428 0 0 0 0 359.35865129357626 -217.76861341500444 0 -217.76861341500444 -343.73789113680505 0 0 0 0 294.08909137394949 -99.625069574056397 0 -99.625069574056397 -136.49275292003585 0 0 0 0 275.0973234526482 4.8515033914336527 0 4.8515033914336527 -459.44045814462515 0 0 0 0 139.61517555408864 -129.63788552189726 0 -129.63788552189726 -243.88161457584647 0 0 0 0 184.0502197340702 -178.88088051675913 0 -178.88088051675913 -642.45769953974741 0 0 0 0 -51.962476432381663 76.852815461546015 0 76.852815461546015 -488.25762861287512 0 0 0 0 151.22233660499796 15.461959992103857 0 15.461959992103857 -262.94830834021559 0 0 0 0 135.05311451901616 107.97633866680917 0 107.97633866680917 -586.37715386033415 0 0 0 0 261.91271060801228 31.928831719471418 0 31.928831719471418 -349.34610045397494 0 0 0 0 292.14746565325004 68.112218197114998 0 68.112218197114998 -318.89752474896341 0 0 0 0 26.610166198608567 194.1455403182963 0 194.1455403182963 -227.29414507481215 0 0 0 0 20.819987583188777 224.97119140683481 0 224.97119140683481 -388.42002010411466 0 0 0 0 318.57290901591114 -25.378158831092151 0 -25.378158831092151 -28.371538551709818 0 0 0 0 370.14559540228584 39.372883736630683 0 39.372883736630683 -120.31907176061031 0 0 0 0 336.00610937667625 -42.848868689775372 0 -42.848868689775372 -137.93739871371508 0 0 0 0 383.73340372980965 21.019822548025331 0 21.019822548025331 -246.6672187879285 0 0 0 0 279.27462163584005 25.216564322554404 0 25.216564322554404 -87.44937772794583 0 0 0 0 197.76831048510212 140.89578114049891 0 140.89578114049891 -179.08484438647565 0 0 0 0 7.270456177629967 219.33140899749105 0 219.33140899749105 -116.64989968183181 0 0 0 0 196.88703751411003 132.29725709043032 0 132.29725709043032 -231.1526079587511 0 0 0 0 116.45939408452841 147.81470855961925 0 147.81470855961925 -73.19565956837323 0 0 0 0 43.136157570206706 61.0758592226357 0 61.0758592226357 9.6101442596673223 0 0 0 0 42.509216594473251 20.427470963452052 0 20.427470963452052 -29.334575059220448 0 0 0 0 138.50941601583281 109.30800186811393 0 109.30800186811393 -32.351713681584442 0 0 0 0 27.112520039805531 4.7075657061468519 0 4.7075657061468519 -46.67151522803033 0 0 0 0 32.691209459071615 35.275570384001185 0 35.275570384001185 -99.085107608276303 0 0 0 0 15.892568561838353 13.406326598434376 0 13.406326598434376 -51.792642757983096 0 0 0 0 17.187486865772453 3.2568017458977039 0 3.2568017458977039 -13.89904025641718 0 0 0 0 24.959824430879962 43.316032048780471 0 43.316032048780471 -54.971704081472126 0 0 0 0 37.089907584998826 63.648677922925344 0 63.648677922925344 -58.560340138501488 0 0 0 0 -0.13427744589983392 -1.7735402201342652 0 -1.7735402201342652 -9.7773033946497208 0 0 0 0 53.616513142160784 52.302693946643558 0 52.302693946643558 -131.39925574850258 0 0 0 0 -6.0164731609852424 -2.0411822350433795 0 -2.0411822350433795 -63.327708801065455 0 0 0 0 9.1075851878721039 -0.058179338742402109 0 -0.058179338742402109 -45.773574056112182 0 0 0 0 25.410825144352202 -6.5793529177753953 0 -6.5793529177753953 -59.313298314111307 0 0 0 0 21.378163323305671 21.246121698015486 0 21.246121698015486 -75.111580374119512 0 0 0 0 12.219768088849378 4.1920205668775452 0 4.1920205668775452 -57.030808079885901 0 0 0 0 12.276001244601503 23.801931340965893 0 23.801931340965893 -71.568772829697991 0 0 0 0 1.5725374767514371 15.285364508453114 0 15.285364508453114 -51.433229830506733 0 0 0 0 6.3933913653962477 -2.2957955040715845 0 -2.2957955040715845 -14.61202846914918 0 0 0 0 22.348106296157084 -1.6538543881454189 0 -1.6538543881454189 -56.664612247281184 0 0 0 0 45.65603759433543 1.0428225661089527 0 1.0428225661089527 -75.643150063704525 0 0 0 0 9.4694430290921083 -3.2178757380756817 0 -3.2178757380756817 -75.179465510549846 0 0 0 0 196.90426518211098 79.429720661401916 0 79.429720661401916 -119.88507376600865 0 0 0 0 92.118944814525605 -441.19511869801136 0 -441.19511869801136 -2498.4913588023555 0 0 0 0 58.260042591689619 63.799220122546103 0 63.799220122546103 -422.46752103287145 0 0 0 0 1.2475185445943038 0.32098141806774549 0 0.32098141806774549 -9.8781784437928479 0 0 0 0 1.6690036743125347 -326.17882509585252 0 -326.17882509585252 -323.80175228794542 0 0 0 0 -204.26406027671197 -373.66090253246512 0 -373.66090253246512 -131.13027489517481 0 0 0 0 0.63669196676287476 0.06332288372953343 0 0.06332288372953343 -6.3703471119035271 0 0 0 0 178.68513171191864 403.69080358317296 0 403.69080358317296 -506.11876431490236 0 0 0 0 -300.03800167704117 -921.54940816013914 0 -921.54940816013914 -1248.6835684066064 0 0 0 0 -0.13608438510131907 -20.605368899991699 0 -20.605368899991699 -2054.5250920970575 0 0 0 0 23.981781233006338 -169.7278023588442 0 -169.7278023588442 -2316.407801487243 0 0 0 0 -130.61063846306809 -635.67913083293388 0 -635.67913083293388 -1936.7879395522832 0 0 0 0 -9.7814304975867543 -324.27469071596624 0 -324.27469071596624 -1489.6841127160587 0 0 0 0 -416.05352380550613 -461.5280590483344 0 -461.5280590483344 -666.93045043933671 0 0 0 0 126.93334181899563 124.10667162032769 0 124.10667162032769 -1459.2604025275723 0 0 0 0 -242.18806126320067 -245.37554321750213 0 -245.37554321750213 -506.45023463976395 0 0 0 0 -374.17942061674876 -317.02826051938609 0 -317.02826051938609 -420.39703640966763 0 0 0 0 -32.33304498967459 -199.96788335205201 0 -199.96788335205201 -907.45972777893439 0 0 0 0 -100.50631228350335 -31.814229618539684 0 -31.814229618539684 -559.21259056159624 0 0 0 0 -99.367895472823875 442.58955240010982 0 442.58955240010982 231.40159554838465 0 0 0 0 -438.50957397710363 -77.35125145825441 0 -77.35125145825441 -563.06478774925199 0 0 0 0 -772.63460614386145 -705.28887182137987 0 -705.28887182137987 -1002.7676235043255 0 0 0 0 -349.05528248377527 -149.0351476984024 0 -149.0351476984024 -665.89136452630919 0 0 0 0 -556.46433298608565 -149.06934919198466 0 -149.06934919198466 -201.42086810912588 0 0 0 0 -289.90077345924612 -1276.6691824390364 0 -1276.6691824390364 -2400.7831907767686 0 0 0 0 -1107.9355887094644 -1193.6380969867168 0 -1193.6380969867168 -666.73987214031513 0 0 0 0 -509.86479804271482 -215.54428360633392 0 -215.54428360633392 -2518.3004246132768 0 0 0 0 -696.53563447081115 -843.28440588979629 0 -843.28440588979629 -3717.2336148610048 0 0 0 0 -890.46818473401595 -605.62747825100269 0 -605.62747825100269 821.1105353605235 0 0 0 0 -6.2569629491164056 -5.7781292842534384 0 -5.7781292842534384 -5.4424260059741698 0 0 0 0 -453.67541407567614 -4.6962331503600581 0 -4.6962331503600581 -2501.2425870056277 0 0 0 0 -48.803749244843345 59.333430995971867 0 59.333430995971867 -2500.076547941906 0 0 0 0 -9.3344410878441231 -14.223106795747981 0 -14.223106795747981 -11.685650403802342 0 0 0 0 -261.51222922788804 -965.42459037945082 0 -965.42459037945082 -1409.7176661908743 0 0 0 0 -543.69972248202657 -566.74170050946123 0 -566.74170050946123 -515.92671535103 0 0 0 0 -98.43171123394643 -344.85171432187053 0 -344.85171432187053 -1406.4693751716854 0 0 0 0 -125.22542638129323 240.0371494227511 0 240.0371494227511 48.223755932107451 0 0 0 0 493.96098775380779 -9.3680139420248452 0 -9.3680139420248452 -658.80078808667895 0 0 0 0 -421.73003115968095 -702.05716718160693 0 -702.05716718160693 778.79326119844336 0 0 0 0 350.10413581422472 280.16632513892182 0 280.16632513892182 -654.1702015454357 0 0 0 0 -4.3853601917944385 6.3060623315035969 0 6.3060623315035969 -8.3343278764845934 0 0 0 0 -116.89540804452088 540.95935488258874 0 540.95935488258874 368.41895975661464 0 0 0 0 9.3990866228009509 -80.530449929403403 0 -80.530449929403403 54.467986604955513 0 0 0 0 -132.97955766783889 443.81720056660561 0 443.81720056660561 -125.65751852908579 0 0 0 0 -72.656575557658016 196.79586431904318 0 196.79586431904318 147.69813869029895 0 0 0 0 -276.62317580082163 -192.12223756101594 0 -192.12223756101594 35.162459057450178 0 0 0 0 -363.33860302892663 167.86979514812265 0 167.86979514812265 130.24776874062809 0 0 0 0 -287.48016486390497 130.59764135240766 0 130.59764135240766 148.55933455177001 0 0 0 0 -359.20669613060454 274.47439664022568 0 274.47439664022568 492.09264653184073 0 0 0 0 -718.96402317465709 -160.87985264752933 0 -160.87985264752933 -81.515703667908383 0 0 0 0 -528.47711022327996 514.05269539911842 0 514.05269539911842 -169.38477862450236 0 0 0 0 247.36199994265098 90.904746924599749 0 90.904746924599749 -743.64868163263236 0 0 0 0 -223.05905362188923 -88.421637534520414 0 -88.421637534520414 -775.89513925458596 0 0 0 0 -871.41420702202186 821.89503499288185 0 821.89503499288185 -720.50697288192896 0 0 0 0 -0.50145589582580996 -2.5461896629185148 0 -2.5461896629185148 -9.5564597636344786 0 0 0 0 -3.3870093450613465 -10.510599281220784 0 -10.510599281220784 -25.974964848426254 0 0 0 0 71.268202365161414 -150.61872195043543 0 -150.61872195043543 -0.93822788319084793 0 0 0 0 64.890406795002036 -165.55163690768495 0 -165.55163690768495 43.514897848290275 0 0 0 0 -18.486260044640403 -26.866978200334415 0 -26.866978200334415 10.434296161995007 0 0 0 0 -23.60745318588215 -264.14676145526028 0 -264.14676145526028 -437.29639474919531 0 0 0 0 -224.15580717505873 -153.61509621068762 0 -153.61509621068762 45.015931649921185 0 0 0 0 264.39870361174326 183.36860108691326 0 183.36860108691326 -241.83327381008166 0 0 0 0 238.29053088310002 -111.94118921049085 0 -111.94118921049085 -293.95009074283007 0 0 0 0 68.720865952367603 -68.820612888412143 0 -68.820612888412143 -45.829970819744631 0 0 0 0 93.634015880584229 -77.932127475061861 0 -77.932127475061861 -49.909767472525346 0 0 0 0 -78.874208325209111 -52.47803792110426 0 -52.47803792110426 12.345951435825555 0 0 0 0 112.88750209143421 79.287825111598522 0 79.287825111598522 54.957998966689047 0 0 0 0 0.6022615808181655 0.057462139744838936 0 0.057462139744838936 -1.4853239955593267 0 0 0 0 413.14477069165969 114.01656702450782 0 114.01656702450782 -118.70347583246621 0 0 0 0 91.179836729685348 -79.049721618278454 0 -79.049721618278454 -43.288749171362724 0 0 0 0 436.72633717925237 19.51494018259109 0 19.51494018259109 -320.67886026491033 0 0 0 0 170.01286426946854 51.274727347245062 0 51.274727347245062 138.60475228407449 0 0 0 0 446.43034705021455 625.31386583276253 0 625.31386583276253 109.05179880402011 0 0 0 0 291.30237508861228 92.279723782608926 0 92.279723782608926 39.189431626695296 0 0 0 0 -8.7581559640839526 15.470104399211884 0 15.470104399211884 -22.021841676774955 0 0 0 0 -109.90030746459888 -132.07006594383711 0 -132.07006594383711 -241.55048324011295 0 0 0 0 -340.09992011274602 -125.3941569172639 0 -125.3941569172639 -232.92489456404655 0 0 0 0 -267.22475909568385 -402.8080076021165 0 -402.8080076021165 -331.35070569948584 0 0 0 0 -127.33028442771999 -330.88491268015787 0 -330.88491268015787 -296.20392473334869 0 0 0 0 -104.99110737585178 -174.97718383349638 0 -174.97718383349638 -242.29774071092834 0 0 0 0 -220.80879808357292 -144.04689072628389 0 -144.04689072628389 -111.42299253166129 0 0 0 0 -105.65042679012276 -269.87847450748814 0 -269.87847450748814 -367.12687296248623 0 0 0 0 -9.1479290363235819 18.682366271043023 0 18.682366271043023 -28.980957463344907 0 0 0 0 358.81211575214445 243.75207295017481 0 243.75207295017481 -2.109926319171791 0 0 0 0 -42.822960416246929 -14.652417437522672 0 -14.652417437522672 -182.38370930173187 0 0 0 0 117.18820252006117 58.343252231177757 0 58.343252231177757 -5.1654273580699623 0 0 0 0 140.85589688353184 42.818155663361722 0 42.818155663361722 -8.6162816438882146 0 0 0 0 107.61429413795713 9.1156934976097546 0 9.1156934976097546 -22.617494078345771 0 0 0 0 -9.6247493112600857 19.337796548406914 0 19.337796548406914 -29.961849388722641 0 0 0 0 -17.391128237936961 86.431720154061622 0 86.431720154061622 -128.57771372229581 0 0 0 0 -10.491745732182508 -180.56541987804121 0 -180.56541987804121 -256.5448106873082 0 0 0 0 -72.366526326532195 -112.01336531343259 0 -112.01336531343259 -186.11912223014224 0 0 0 0 -116.10008791619185 19.496571425159345 0 19.496571425159345 36.933961240691133 0 0 0 0 -0.1543158797440552 -0.43489189322441035 0 -0.43489189322441035 -0.25147098282744196 0 0 0 0 -11.218135697722534 74.950607765567838 0 74.950607765567838 -260.61431063451528 0 0 0 0 24.120404409176654 -112.1429016619295 0 -112.1429016619295 -414.68658813307411 0 0 0 0 -3.7402433157458947 -9.8958205834969704 0 -9.8958205834969704 -489.31834877858637 0 0 0 0 -0.31022615922475277 33.007911094852474 0 33.007911094852474 -55.492829835275188 0 0 0 0 -676.10220148851715 -705.14948004118924 0 -705.14948004118924 -538.18976457240569 0 0 0 0 -121.79499869751643 -443.74227150374645 0 -443.74227150374645 -821.37668485406175 0 0 0 0 0.24661768732278933 -0.68961005337101966 0 -0.68961005337101966 -4.3101341090987546 0 0 0 0 -17.869434890658923 -167.05964274479629 0 -167.05964274479629 -485.86836275664973 0 0 0 0 -296.6916591697177 -367.12052800003585 0 -367.12052800003585 -294.36163399249199 0 0 0 0 -148.83229220870919 -414.57730605926099 0 -414.57730605926099 -460.92362301763205 0 0 0 0 -24.334072576341196 28.946802924820076 0 28.946802924820076 -76.477382211298391 0 0 0 0 -19.629546171060259 -27.485553570917546 0 -27.485553570917546 14.258893734411686 0 0 0 0 -0.0067466985251728347 -0.52091118533343206 0 -0.52091118533343206 -2.8243498454801852 0 0 0 0 28.023276244347699 51.104381053763973 0 51.104381053763973 -28.986502813575498 0 0 0 0 0.21976244883861637 -90.978591819508438 0 -90.978591819508438 -278.35906605515629 0 0 0 0 18.730086651208467 22.561112584076909 0 22.561112584076909 -145.23323597596027 0 0 0 0 3.3289424163139256 4.5363796996959564 0 4.5363796996959564 -38.975738098886069 0 0 0 0 -240.63426041478232 130.82191023772612 0 130.82191023772612 274.56557133330352 0 0 0 0 2.591934390163174 -2.9976914628989846 0 -2.9976914628989846 -5.688504003126468 0 0 0 0 0.0038180567284723894 4.6453156367824704 0 4.6453156367824704 -20.508265952012152 0 0 0 0 -11.034636635644766 45.588136057196607 0 45.588136057196607 31.50736205636349 0 0 0 0 -1.9555961751017354 3.9501017476794118 0 3.9501017476794118 -2.8941915255631443 0 0 0 0 -2.9597343204753153 6.5682830523946905 0 6.5682830523946905 -9.7056838198914193 0 0 0 0 -0.008451747966740716 1.0323842076732048 0 1.0323842076732048 -1.2019797103421297 0 0 0 0 -8.4258743492389243 18.123787750206333 0 18.123787750206333 -31.839827323849448 0 0 0 0 9.6391282234376376 -7.9359765417211747 0 -7.9359765417211747 -35.595435171038844 0 0 0 0 162.2806158418739 123.77713753311036 0 123.77713753311036 -14.110523921534877 0 0 0 0 55.469957780180948 79.097872352052946 0 79.097872352052946 -27.730497201846447 0 0 0 0 188.46877324005391 82.082954546069232 0 82.082954546069232 -30.371571930698337 0 0 0 0 0.91999070464605204 0.0069572586304609274 0 0.0069572586304609274 -2.9487251020044027 0 0 0 0 130.58576486967149 8.851725496842846 0 8.851725496842846 14.153016572650813 0 0 0 0 1.9930732633031312 -140.2912156509683 0 -140.2912156509683 -124.0758103092885 0 0 0 0 0.48528926891867297 -0.10780443120864902 0 -0.10780443120864902 -1.5393831256127726 0 0 0 0 81.491091017455801 29.371282448459169 0 29.371282448459169 -97.843919557337358 0 0 0 0 32.739352614364179 -38.407021145761973 0 -38.407021145761973 -66.558364391608848 0 0 0 0 54.155072323392687 -30.77001396088599 0 -30.77001396088599 -156.19576441726531 0 0 0 0 -11.297208551729454 -1.9670814095588867 0 -1.9670814095588867 -54.77649607546482 0 0 0 0 66.059423081559544 -80.348391521529265 0 -80.348391521529265 -33.568991867778095 0 0 0 0 10.77391341508951 -34.343144507904071 0 -34.343144507904071 1.7455077202321263 0 0 0 0 18.518086843499304 -65.099642106391912 0 -65.099642106391912 114.43507063496509 0 0 0 0 0.33926232407986845 0.53662109783219591 0 0.53662109783219591 -0.23683386874063572 0 0 0 0 -24.173942849898594 -104.45596509369716 0 -104.45596509369716 -197.22677252953144 0 0 0 0 67.135953399902064 -106.68866682915541 0 -106.68866682915541 -298.90314415345892 0 0 0 0 54.937568659785029 -12.45342208056536 0 -12.45342208056536 -62.172856142839009 0 0 0 0 52.518973342122081 -113.70552686287556 0 -113.70552686287556 -130.74560867910623 0 0 0 0 191.17519811524153 3.6696271523287578 0 3.6696271523287578 -84.339613708034449 0 0 0 0 58.810043960522307 -43.56771783318618 0 -43.56771783318618 30.296791654864137 0 0 0 0 67.32100164665485 -40.496591354007251 0 -40.496591354007251 -98.69910669940873 0 0 0 0 -10.489379256950087 -48.778063226884115 0 -48.778063226884115 -83.097092442432768 0 0 0 0 65.697571240721516 -84.983800048598823 0 -84.983800048598823 -207.92590067154379 0 0 0 0 5.8146046799103486 -1.1200382521008034 0 -1.1200382521008034 -1.9714160362369171 0 0 0 0 -13.25318583209355 -24.749405465841846 0 -24.749405465841846 -291.8202080548981 0 0 0 0 -31.843600714812055 93.347988715941028 0 93.347988715941028 -152.18774579155433 0 0 0 0 -115.72749244897022 -168.56378240633421 0 -168.56378240633421 -191.68856280894033 0 0 0 0 -174.34559038040834 -8.6155285920067399 0 -8.6155285920067399 -22.039079607180611 0 0 0 0 -75.991061945805313 -63.964216336166373 0 -63.964216336166373 -1.873838460080151 0 0 0 0 -47.473911055692497 -144.50347947420778 0 -144.50347947420778 -181.82080722130195 0 0 0 0 50.660274812018997 -84.121328724520936 0 -84.121328724520936 89.632573452865472 0 0 0 0 61.775716583624671 -79.768741313942883 0 -79.768741313942883 -61.245306126285868 0 0 0 0 73.684061166393803 -107.62351567574115 0 -107.62351567574115 -115.71513698401395 0 0 0 0 29.270804864912861 -34.786560598731739 0 -34.786560598731739 -25.232462137573748 0 0 0 0 71.333744387203296 -17.72778503842892 0 -17.72778503842892 -132.23866869683843 0 0 0 0 49.039188358266983 38.862357350837556 0 38.862357350837556 -275.77753675440545 0 0 0 0 39.046467489912629 -38.097928919560218 0 -38.097928919560218 -55.589790227546473 0 0 0 0 -7.295909416107861 48.683364789725601 0 48.683364789725601 -96.362171037173539 0 0 0 0 33.302567876054248 -3.4102733841892672 0 -3.4102733841892672 -0.24140499191700471 0 0 0 0 3.6247064979443167 -28.766229615204793 0 -28.766229615204793 20.938389118002306 0 0 0 0 -34.850498661519623 -87.265957632749632 0 -87.265957632749632 -109.97049863524444 0 0 0 0 -0.18075825866433703 -4.2031738749631273 0 -4.2031738749631273 0.074975973306251831 0 0 0 0 5.3808321861832056 -17.958348133631898 0 -17.958348133631898 -3.7470488325107283 0 0 0 0 33.558110896010476 -38.755199146100495 0 -38.755199146100495 1.8120293676410029 0 0 0 0 32.595047938369859 -24.230791427030567 0 -24.230791427030567 -26.953276925283717 0 0 0 0 5.9369479889505783 -37.290911548538134 0 -37.290911548538134 -0.2252986135717947 0 0 0 0 19.147336346482007 -34.915767773363768 0 -34.915767773363768 -0.23928844463807764 0 0 0 0 25.760628979008288 -48.516175289823877 0 -48.516175289823877 -28.540671732764167 0 0 0 0 2.2411689755990665 -32.800765535816026 0 -32.800765535816026 12.821298416674836 0 0 0 0 1.6378326965183341 -4.0376655603585903 0 -4.0376655603585903 -4.5893857437701087 0 0 0 0 -48.236745040028836 -8.632004142004007 0 -8.632004142004007 12.2548915016705 0 0 0 0 27.052104193577051 -29.525544241811133 0 -29.525544241811133 -8.6041649092221633 0 0 0 0 4.7866753378007436 -21.532995304072458 0 -21.532995304072458 -1.6724344568401932 0 0 0 0 6.4475286685848543 -3.7138824958532091 0 -3.7138824958532091 -27.553157209489825 0 0 0 0 19.22017908232192 -38.83148264659394 0 -38.83148264659394 -132.49666013615206 0 0 0 0 122.03427321539166 -47.514476966596305 0 -47.514476966596305 -91.545296500175027 0 0 0 0 -10.169566985051461 -81.776165104551183 0 -81.776165104551183 -127.89265000392334 0 0 0 0 -47.358703556041291 -88.905073511945375 0 -88.905073511945375 -112.32137576882815 0 0 0 0 -200.05121249013746 -80.129510903469054 0 -80.129510903469054 15.488686138109188 0 0 0 0 -148.33454255620438 -287.11846393005726 0 -287.11846393005726 -368.03693024620588 0 0 0 0 84.451828154385112 -167.91645702951791 0 -167.91645702951791 -692.47851168133639 0 0 0 0 170.65968175294915 -519.44154261356562 0 -519.44154261356562 -1303.0250153989036 0 0 0 0 336.18792492556258 -76.519863796567734 0 -76.519863796567734 -661.76271206652746 0 0 0 0 -1150.2587355793548 -41.892259199063119 0 -41.892259199063119 -474.53177022119053 0 0 0 0 370.65928613437973 225.92471598261909 0 225.92471598261909 -1267.955304542571 0 0 0 0 -9.7270723767414466 1.2357862364305987 0 1.2357862364305987 -0.60875220492009285 0 0 0 0 -180.5449278569053 433.52230722645271 0 433.52230722645271 -575.02770804023021 0 0 0 0 -653.66209482232534 -516.46905345736377 0 -516.46905345736377 -403.8092894284564 0 0 0 0 19.19146528768124 2.9351957568105718 0 2.9351957568105718 8.1856194905631128 0 0 0 0 -0.94894268260124015 0.33914166842761873 0 0.33914166842761873 -10.229685298644341 0 0 0 0 13.058237338138042 142.89087451736486 0 142.89087451736486 -467.9586385739567 0 0 0 0 163.72369115720903 -66.525787909558858 0 -66.525787909558858 -651.66292144512408 0 0 0 0 377.80253513516618 21.63505547389866 0 21.63505547389866 -808.25779765131301 0 0 0 0 -75.696760544822382 -93.651730532888905 0 -93.651730532888905 -706.81816724673263 0 0 0 0 267.96193897186731 -85.080063172550581 0 -85.080063172550581 -903.62339378580896 0 0 0 0 -0.39333937814073394 2.3801252293164481 0 2.3801252293164481 -0.57460116715297882 0 0 0 0 161.51434132159878 -16.967780730384334 0 -16.967780730384334 -688.26869613419694 0 0 0 0 56.706640551356259 -184.01968299736836 0 -184.01968299736836 -498.02348881687067 0 0 0 0 -72.218610978888137 -74.093163604295114 0 -74.093163604295114 114.73886840921568 0 0 0 0 41.903279059881413 41.063186375738496 0 41.063186375738496 -250.00021335692145 0 0 0 0 55.058061177601303 -81.89713390808538 0 -81.89713390808538 -99.360182336669823 0 0 0 0 3.2343184239857692 -34.620942914472835 0 -34.620942914472835 14.48983952627168 0 0 0 0 44.454783506569584 -34.700856697389099 0 -34.700856697389099 -23.460187781205605 0 0 0 0 32.205196450363658 -20.956397777097123 0 -20.956397777097123 -0.80931829778714359 0 0 0 0 47.683578185031365 -40.570503700115296 0 -40.570503700115296 -16.764839038471109 0 0 0 0 36.306558509801107 -16.515913881263259 0 -16.515913881263259 -51.156562722227136 0 0 0 0 13.223549806730716 -16.985912655880384 0 -16.985912655880384 -26.375564065201615 0 0 0 0 23.920811387671066 -17.865888510466476 0 -17.865888510466476 4.1487250968239309 0 0 0 0 28.266989548472338 -23.875109486074507 0 -23.875109486074507 -48.36755127419201 0 0 0 0 19.276584648631797 -12.83290302570822 0 -12.83290302570822 -17.775818462730967 0 0 0 0 -28.575214234214485 109.23960262219862 0 109.23960262219862 -102.26635064591392 0 0 0 0 18.382288008123957 -16.017488484963494 0 -16.017488484963494 0.34480138951966666 0 0 0 0 26.027257945275323 8.0558352721163828 0 8.0558352721163828 34.205867061973549 0 0 0 0 60.207450456932861 -136.66279495770141 0 -136.66279495770141 -284.74373595499492 0 0 0 0 -53.69354982781374 -49.447393957489112 0 -49.447393957489112 -330.9907443429147 0 0 0 0 29.611064160221531 -70.732074222600204 0 -70.732074222600204 -661.69305907006492 0 0 0 0 121.28154868380574 17.675900161048048 0 17.675900161048048 -1041.161602457054 0 0 0 0 10.543865086916728 4.0554722039024682 0 4.0554722039024682 -3.807312495339882 0 0 0 0 -77.463238428339992 278.15111834937125 0 278.15111834937125 -847.46179982725619 0 0 0 0 -152.5524054515306 -254.28274925837468 0 -254.28274925837468 -749.08221601780679 0 0 0 0 40.890910898496486 -123.08677742633881 0 -123.08677742633881 -1627.049366087158 0 0 0 0 1.5182758001115308 1.7038061387366241 0 1.7038061387366241 -1.737728415365865 0 0 0 0 3.1698381676928875 54.684119986173755 0 54.684119986173755 -1553.4992634880909 0 0 0 0 60.066725774148381 -378.73568491515471 0 -378.73568491515471 -629.61674858069455 0 0 0 0 -326.30821796824102 -192.78998184984084 0 -192.78998184984084 -76.190085597350844 0 0 0 0 133.14251426597383 -72.807250978747106 0 -72.807250978747106 -261.74502431010478 0 0 0 0 48.753069863600331 167.63858613708726 0 167.63858613708726 -673.84855469308968 0 0 0 0 141.28669867846486 118.1548488423432 0 118.1548488423432 -938.01003704007599 0 0 0 0 -0.053342886249395649 -1.0017099409781878 0 -1.0017099409781878 -4.8831606219140156 0 0 0 0 3.2318014105494512 274.09182631090516 0 274.09182631090516 -106.61656513108755 0 0 0 0 -1.4651468323713663 -4.7457371912406074 0 -4.7457371912406074 -4.5210003983895835 0 0 0 0 -26.422957517927784 -138.08616871570121 0 -138.08616871570121 -901.29687908175401 0 0 0 0 111.01743411128746 -89.939624938895577 0 -89.939624938895577 -1168.2386696185713 0 0 0 0 192.71000149088559 9.0843888885319757 0 9.0843888885319757 -1074.9769154364476 0 0 0 0 -20.047670552248306 -81.521929518388788 0 -81.521929518388788 -1102.0621875579382 0 0 0 0 -150.82714728120266 -330.34801167459227 0 -330.34801167459227 -1082.0371554730227 0 0 0 0 -0.3861525870637878 -1.2479068777649331 0 -1.2479068777649331 -1.1900770814678454 0 0 0 0 0.11458274097952652 -102.79327923351593 0 -102.79327923351593 -950.64161460021569 0 0 0 0 156.98666849324024 -26.228339608227543 0 -26.228339608227543 -1254.9004578609236 0 0 0 0 111.20079223083032 164.10716466193844 0 164.10716466193844 -539.13358654262993 0 0 0 0 -25.139648119980674 3.5751164188986877 0 3.5751164188986877 -621.38304064641852 0 0 0 0 -6.4449567253103481 22.493856530592893 0 22.493856530592893 -496.38685845375585 0 0 0 0 -0.12381687683410188 -60.489270273647776 0 -60.489270273647776 -164.48858290610951 0 0 0 0 66.872596000425446 -63.753452855715295 0 -63.753452855715295 61.183958086905477 0 0 0 0 -75.325304416052859 0.8329500917243422 0 0.8329500917243422 146.10051323313382 0 0 0 0 31.831159190491377 -171.32771215570392 0 -171.32771215570392 184.34490384894889 0 0 0 0 -87.929452958895695 -108.68707057896472 0 -108.68707057896472 267.24810196956969 0 0 0 0 2.1122132521671437 -2.5928893014459362 0 -2.5928893014459362 2.4333721330374942 0 0 0 0 -147.42889059387267 60.085617106677091 0 60.085617106677091 540.23245865217177 0 0 0 0 69.770637219056425 73.261048960863263 0 73.261048960863263 -824.16921835264657 0 0 0 0 0.37907222672095253 2.57428735660325 0 2.57428735660325 -2.9653711860176344 0 0 0 0 50.29672563535587 -10.522713308571838 0 -10.522713308571838 -294.5930018509971 0 0 0 0 -0.17741028627282168 -1.9106849806423938 0 -1.9106849806423938 -7.4088484798298566 0 0 0 0 2.4518911573982223 -10.800455372795113 0 -10.800455372795113 -73.468277021544054 0 0 0 0 -44.836846512143609 7.1653315594849118 0 7.1653315594849118 87.930923083717062 0 0 0 0 5.9984965281825202 2.5763561420916083 0 2.5763561420916083 -31.363067530489928 0 0 0 0 53.846332813485787 -24.614348366223567 0 -24.614348366223567 -57.577485067453381 0 0 0 0 156.50294041829153 -150.44266065687771 0 -150.44266065687771 69.184203993732808 0 0 0 0 -0.0103295756768746 -62.302388505385856 0 -62.302388505385856 80.664976792293601 0 0 0 0 76.637863470750176 -2.1134160450164927 0 -2.1134160450164927 15.893699897205806 0 0 0 0 0.95290153617861506 14.79615168017699 0 14.79615168017699 -363.41717766594866 0 0 0 0 24.597391666222393 -17.506369147693476 0 -17.506369147693476 -358.80277935675986 0 0 0 0 17.511887610596204 -7.0899086518384138 0 -7.0899086518384138 -335.04997764783184 0 0 0 0 36.76781696332182 -16.972626574060996 0 -16.972626574060996 -451.42039601376746 0 0 0 0 -4.3000899894750546 38.088595304947376 0 38.088595304947376 -399.72596185186376 0 0 0 0 5.7475725394857591 33.149459732169817 0 33.149459732169817 -397.4931790484552 0 0 0 0 -77.195072991822599 73.864747572077249 0 73.864747572077249 -333.9780871057792 0 0 0 0 5.1595473941570162 1.0951233700252487 0 1.0951233700252487 -335.3156870203311 0 0 0 0 -6.2870840997848063 -28.130995803774567 0 -28.130995803774567 -400.6704741339272 0 0 0 0 -69.394061003814841 -74.35496157959642 0 -74.35496157959642 -350.84048911182072 0 0 0 0 -9.2561174615802884 -27.29904728393376 0 -27.29904728393376 -392.07675397562161 0 0 0 0 -69.075607368662531 -82.350905067647545 0 -82.350905067647545 -403.46463512295759 0 0 0 0 -78.931872989727253 -63.999433922272146 0 -63.999433922272146 -400.5249412876592 0 0 0 0 -74.874484403324004 133.27677706116447 0 133.27677706116447 -217.9018682454298 0 0 0 0 -47.743544774378734 -79.929688853651896 0 -79.929688853651896 -462.94843321580993 0 0 0 0 8.1096325513863121 67.892097798287068 0 67.892097798287068 -339.67154317435416 0 0 0 0 12.555057500333078 39.860916701663882 0 39.860916701663882 -499.33048869994309 0 0 0 0 -14.112794105467742 73.119145951309292 0 73.119145951309292 -199.40613192877208 0 0 0 0 -31.757158523856106 21.684788432816276 0 21.684788432816276 -260.7732375083724 0 0 0 0 -14.822008120389675 -15.627652740313396 0 -15.627652740313396 -14.338819494251737 0 0 0 0 -4.4874950562525555 -30.889170556265526 0 -30.889170556265526 -163.45466000743636 0 0 0 0 105.19313694710308 -333.13130330179956 0 -333.13130330179956 425.76676574128578 0 0 0 0 360.63961744808864 -738.93584853360596 0 -738.93584853360596 301.20449475775968 0 0 0 0 162.71276191243942 -488.65957452058865 0 -488.65957452058865 -116.30888007433168 0 0 0 0 -16.598366275137685 -19.105259393513855 0 -19.105259393513855 -25.79726208763951 0 0 0 0 -74.541118260622625 -56.543792012182166 0 -56.543792012182166 -6.6038744564029912 0 0 0 0 526.66965458979575 -182.24230066380733 0 -182.24230066380733 -58.371165542115705 0 0 0 0 -46.845589774712153 21.915336498052056 0 21.915336498052056 -51.014890189471771 0 0 0 0 -5.2037054211050009 -3.3781811205441459 0 -3.3781811205441459 -0.22915235503465681 0 0 0 0 -38.537965322025912 34.80082220955228 0 34.80082220955228 -11.497323848634551 0 0 0 0 -25.255910937080444 11.068197773227439 0 11.068197773227439 -181.2736431022131 0 0 0 0 -27.606135121776788 -14.161337628780529 0 -14.161337628780529 -17.263447398036078 0 0 0 0 -26.548302073195828 0.35655153574907672 0 0.35655153574907672 -261.83141219389654 0 0 0 0 -4.1417517073377894 -48.13682929085553 0 -48.13682929085553 -212.41563377732018 0 0 0 0 -0.050510502414908842 -44.788280524375295 0 -44.788280524375295 -288.30168942829914 0 0 0 0 -11.08621285604022 -95.669751635352441 0 -95.669751635352441 -350.81129312715348 0 0 0 0 -20.435012962397309 -42.36640552312565 0 -42.36640552312565 -250.0368433126423 0 0 0 0 -3.3876664746294409 -75.416841261816444 0 -75.416841261816444 -267.61065383129608 0 0 0 0 -26.186030603641029 -10.190479088857501 0 -10.190479088857501 -162.4312392299471 0 0 0 0 18.707879586254421 -18.794785786856664 0 -18.794785786856664 -104.13213136423292 0 0 0 0 -21.270829824254179 -78.770507575747615 0 -78.770507575747615 -176.93727637865231 0 0 0 0 -19.662343147912907 -123.94464233239705 0 -123.94464233239705 -146.13239193832851 0 0 0 0 0.43972944432666061 10.810234319478049 0 10.810234319478049 -25.559583883800812 0 0 0 0 11.938686129582493 -18.547300260002885 0 -18.547300260002885 -161.95797874884011 0 0 0 0 10.466989624768757 -3.1154668055751245 0 -3.1154668055751245 -39.369126502844665 0 0 0 0 -19.63393378212777 22.303071915815963 0 22.303071915815963 -61.463917997440149 0 0 0 0 22.433969604179765 7.0678915241187497 0 7.0678915241187497 -43.458856539975386 0 0 0 0 10.692302551697196 15.612840913280397 0 15.612840913280397 -38.960707861685421 0 0 0 0 61.78953912144425 -67.585417411304661 0 -67.585417411304661 38.175331563295913 0 0 0 0 11.288831687825374 -3.9407415217591648 0 -3.9407415217591648 -3.8967872576267268 0 0 0 0 347.55715695128674 125.0765057821045 0 125.0765057821045 -77.401123941210244 0 0 0 0 204.42651479662709 34.798160974875827 0 34.798160974875827 -117.65596491187171 0 0 0 0 181.72401151159647 -44.741045592832961 0 -44.741045592832961 8.0425190394671517 0 0 0 0 220.36887604117874 7.8649261763202958 0 7.8649261763202958 -235.45085869700415 0 0 0 0 22.143613997888679 -30.920628474756086 0 -30.920628474756086 -113.82537322866847 0 0 0 0 -4.2511839827061522 130.12293543101987 0 130.12293543101987 -303.85984968667617 0 0 0 0 -33.785911767412472 131.85992138591246 0 131.85992138591246 -124.90546436379009 0 0 0 0 196.98130375382379 2.7098440089703217 0 2.7098440089703217 -192.72448553737195 0 0 0 0 230.70190281352552 87.804903175012441 0 87.804903175012441 -222.38934932308985 0 0 0 0 -153.91441950138324 81.429911459861614 0 81.429911459861614 -67.547748999299074 0 0 0 0 -116.24864602331218 185.91101303738105 0 185.91101303738105 -195.84199786384124 0 0 0 0 -403.41754170478453 318.37847721028083 0 318.37847721028083 -166.29089303254295 0 0 0 0 -280.42614013823732 535.07490053862784 0 535.07490053862784 -973.60763861058513 0 0 0 0 -715.54783618146757 640.59662289412518 0 640.59662289412518 -69.855774703799398 0 0 0 0 349.8994095138587 -164.66127041952859 0 -164.66127041952859 -42.80317942747206 0 0 0 0 -487.98981966907377 -0.74036547188734403 0 -0.74036547188734403 528.48853376520856 0 0 0 0 -19.248183473651189 26.945827450975159 0 26.945827450975159 -28.80189292352884 0 0 0 0 -169.15907095761577 11.03196502281935 0 11.03196502281935 -302.81473942707817 0 0 0 0 -63.720015143077035 -63.568891440550942 0 -63.568891440550942 -397.50545646507817 0 0 0 0 -97.778880365352961 -37.706836234490765 0 -37.706836234490765 -273.84454457769971 0 0 0 0 13.394057667781453 -56.908168786205351 0 -56.908168786205351 -324.39720628476266 0 0 0 0 -48.815841169189298 -26.811800698313164 0 -26.811800698313164 -324.90607686809267 0 0 0 0 -49.949861549641355 -101.82717146744835 0 -101.82717146744835 -210.74559608237178 0 0 0 0 -54.402242664978985 -33.553646925509383 0 -33.553646925509383 39.912519683828577 0 0 0 0 20.380451866105432 -114.16358706595202 0 -114.16358706595202 -220.91557434967399 0 0 0 0 2.3051637591620828 6.2562320569422969 0 6.2562320569422969 -6.7822212267147819 0 0 0 0 494.22156868797538 134.46382147502845 0 134.46382147502845 -196.6491806863196 0 0 0 0 320.38635323070048 297.03318225676776 0 297.03318225676776 -19.337203471732209 0 0 0 0 223.62690964624653 111.7622672182988 0 111.7622672182988 -94.644034372075112 0 0 0 0 154.22023677885682 -121.1199105903579 0 -121.1199105903579 -84.9505428688135 0 0 0 0 -5.8186970495206909 -17.445741564289804 0 -17.445741564289804 -44.102618729675129 0 0 0 0 -311.45865516201047 246.23671397189901 0 246.23671397189901 -664.55603793362388 0 0 0 0 147.76971594860424 -27.870244180856389 0 -27.870244180856389 -31.262258928029041 0 0 0 0 -462.7152426048778 277.0633405790586 0 277.0633405790586 -364.674303570966 0 0 0 0 -492.94374568464212 459.59148327654111 0 459.59148327654111 -280.24331421928946 0 0 0 0 -441.84653145552147 290.73791546305438 0 290.73791546305438 -785.93835113651585 0 0 0 0 -775.71131604959567 346.85321123476024 0 346.85321123476024 -169.5316063889768 0 0 0 0 -687.78799878845336 90.332844802420368 0 90.332844802420368 -480.31891269033076 0 0 0 0 -3.2895597797049962 -3.852307409671738 0 -3.852307409671738 2.2789329833209706 0 0 0 0 -632.89809009263627 633.27498189366452 0 633.27498189366452 -543.64981537290078 0 0 0 0 -224.85805658529034 256.00032192201616 0 256.00032192201616 -489.09761997479654 0 0 0 0 -612.0999907926921 404.71916936779598 0 404.71916936779598 -272.38894091185284 0 0 0 0 -411.65965992167457 427.56910646092001 0 427.56910646092001 -415.18174498580629 0 0 0 0 -540.50372858214996 202.61611408443059 0 202.61611408443059 -339.38929662878218 0 0 0 0 55.782738981508601 79.212881814475622 0 79.212881814475622 -359.16120752866846 0 0 0 0 -283.46182209673498 254.0977840940177 0 254.0977840940177 -247.11385283050913 0 0 0 0 68.458718114525254 4.2055019952094881 0 4.2055019952094881 -120.45790521575691 0 0 0 0 -337.84211652050089 348.71849097823542 0 348.71849097823542 -350.5003887355706 0 0 0 0 -279.28846360044918 332.72212237649001 0 332.72212237649001 -361.3962637366094 0 0 0 0 -4.170027505514267 -24.955686953278985 0 -24.955686953278985 -66.195383735213113 0 0 0 0 42.131329012147035 17.44545823612134 0 17.44545823612134 -147.19345100516875 0 0 0 0 77.703016486242632 -86.797013168565172 0 -86.797013168565172 -44.047820920604863 0 0 0 0 100.82875605888694 -23.581242380801996 0 -23.581242380801996 -154.1217334811663 0 0 0 0 26.753312341276686 -4.9882274566787146 0 -4.9882274566787146 -25.052839368767504 0 0 0 0 86.97367472755468 -38.986212142568547 0 -38.986212142568547 -162.3468873362508 0 0 0 0 20.962384588613531 -46.343218104058906 0 -46.343218104058906 -94.76244789293014 0 0 0 0 9.8611661153278192 -39.555127957305558 0 -39.555127957305558 -51.727502453533816 0 0 0 0 18.185249125175233 -23.619491783134436 0 -23.619491783134436 -34.382213258380943 0 0 0 0 48.218504241192022 -77.167199820010865 0 -77.167199820010865 -31.330564503030928 0 0 0 0 -121.06456405278004 136.59488480714936 0 136.59488480714936 -353.10836741828825 0 0 0 0 0.3286006592988997 208.23705942897141 0 208.23705942897141 -985.55118954949103 0 0 0 0 -4.7333494429694838 66.684037442584668 0 66.684037442584668 -637.15436245533601 0 0 0 0 -186.22399997281173 -138.88760009659745 0 -138.88760009659745 -430.46706580750833 0 0 0 0 -187.47336589981205 -24.53249895357294 0 -24.53249895357294 -320.44120938665219 0 0 0 0 -573.06407331859282 -402.70481302826738 0 -402.70481302826738 -650.00263166647346 0 0 0 0 -11.09823798159632 8.6379336311255983 0 8.6379336311255983 -8.1899878244027775 0 0 0 0 -512.7733663587187 529.47913294797036 0 529.47913294797036 134.73269984864964 0 0 0 0 52.160171466381144 -1029.4537207359099 0 -1029.4537207359099 -2136.6384975576948 0 0 0 0 -827.65094659769784 568.99110911691969 0 568.99110911691969 1200.9864956890997 0 0 0 0 -2.5938114143077584 -5.1486748552978554 0 -5.1486748552978554 -15.940354990253017 0 0 0 0 13.533244378345019 15.053326709036153 0 15.053326709036153 -13.592213448623021 0 0 0 0 -1838.9785344106931 -1291.9468807011144 0 -1291.9468807011144 -1693.0308882464888 0 0 0 0 2434.6803919785598 1753.1616215844551 0 1753.1616215844551 -2614.9266515040035 0 0 0 0 1679.8884664064317 152.61237406464352 0 152.61237406464352 -3162.3181062486037 0 0 0 0 -52.115378898519339 130.39398842062656 0 130.39398842062656 -799.20777202411409 0 0 0 0 -5.9877149400654144 -34.390330031614816 0 -34.390330031614816 -89.600944912714681 0 0 0 0 155.08202108849218 1021.3378447288414 0 1021.3378447288414 504.99998057784978 0 0 0 0 -61.024983172866996 -120.92804593334586 0 -120.92804593334586 -243.35004337658756 0 0 0 0 -22.725599917059299 -14.381002718200762 0 -14.381002718200762 52.806593674851683 0 0 0 0 -74.015816783988157 58.517245359829758 0 58.517245359829758 -324.82533511114525 0 0 0 0 -140.17847513031484 138.1224248231747 0 138.1224248231747 -109.28575639749033 0 0 0 0 -89.414673029372352 -42.116682927684451 0 -42.116682927684451 -165.78818561389835 0 0 0 0 -8.4557793093819225 -34.344543551779211 0 -34.344543551779211 -91.364134014003227 0 0 0 0 28.909253177114948 -147.48137353573566 0 -147.48137353573566 -148.5710353745817 0 0 0 0 12.464908850263043 -84.840932025018446 0 -84.840932025018446 -94.946483507475932 0 0 0 0 -4.0627635984076278 -83.176970087926748 0 -83.176970087926748 -272.9579651791064 0 0 0 0 -25.311664024286074 -124.1890655889074 0 -124.1890655889074 -137.0258302428374 0 0 0 0 6.4175771984050698 -53.76853189360736 0 -53.76853189360736 103.61978999686835 0 0 0 0 -25.440420419397014 -61.027292144164676 0 -61.027292144164676 -58.316876260862045 0 0 0 0 0.98456047893675702 1.4560330370801182 0 1.4560330370801182 -0.46172082004478199 0 0 0 0 -18.454177283017998 -84.708760117810016 0 -84.708760117810016 -69.903723704737786 0 0 0 0 4.2454943730508603 -41.005727753283281 0 -41.005727753283281 1.4518602999814902 0 0 0 0 -10.148780743596944 -163.89942914083076 0 -163.89942914083076 -72.563354652120324 0 0 0 0 2.274241011988579 -148.39299201033282 0 -148.39299201033282 -274.77068436961417 0 0 0 0 -20.148775541164468 -142.3876973114202 0 -142.3876973114202 -152.49078341302811 0 0 0 0 -8.0266817288911625 -95.184394747092483 0 -95.184394747092483 -214.50849879106681 0 0 0 0 39.162595775786485 -75.832667400314676 0 -75.832667400314676 -152.90864935105492 0 0 0 0 -40.850536956739234 -167.43211340643029 0 -167.43211340643029 -211.63358235936175 0 0 0 0 5.6552143636622532 -87.782045404994278 0 -87.782045404994278 -373.69650823817938 0 0 0 0 -31.268541922188888 23.98855982011446 0 23.98855982011446 -537.76613645492762 0 0 0 0 88.712004337692406 -110.64331534196072 0 -110.64331534196072 -414.64275032516161 0 0 0 0 -40.659163175407684 -102.6287618776696 0 -102.6287618776696 -412.74464874706973 0 0 0 0 6.4447877448187683 -65.696731238269422 0 -65.696731238269422 -394.56615718179819 0 0 0 0 -6.4815484141259008 1.599267310097332 0 1.599267310097332 -13.482038594478238 0 0 0 0 -22.934927313310027 11.359057373807445 0 11.359057373807445 -527.33340047616366 0 0 0 0 -1.2132017442297283 1.2431403406550032 0 1.2431403406550032 2.3958047392689963 0 0 0 0 35.556133496457505 -80.86563331184152 0 -80.86563331184152 -516.93905987183098 0 0 0 0 179.09112568582373 41.159492188369768 0 41.159492188369768 -618.08129323391768 0 0 0 0 -10.297993470767036 0.43870540090675547 0 0.43870540090675547 -0.76044496825140839 0 0 0 0 -4.6514760866593861 -3.3337963794328971 0 -3.3337963794328971 -574.09765176408655 0 0 0 0 21.398717218607771 -59.545190032608843 0 -59.545190032608843 -285.82730740236002 0 0 0 0 34.878071825422069 -92.762134047277868 0 -92.762134047277868 -326.62272721474437 0 0 0 0 -14.512815079842312 -13.734732363715011 0 -13.734732363715011 -413.20950654652552 0 0 0 0 -36.621296519081625 -92.603920132889471 0 -92.603920132889471 -301.4547318487239 0 0 0 0 -6.1440564949120926 -121.10533119903994 0 -121.10533119903994 -307.93492137771682 0 0 0 0 -10.046931548776683 32.585964086378226 0 32.585964086378226 -548.5289092342864 0 0 0 0 -18.483897480952553 27.331281758313679 0 27.331281758313679 0.81348489183981776 0 0 0 0 66.433183459273664 -36.154963338238304 0 -36.154963338238304 -544.37520031060558 0 0 0 0 -43.603666219166882 -14.295210352353024 0 -14.295210352353024 -283.52571223228733 0 0 0 0 -4.0139861699075077 -0.099519846385959454 0 -0.099519846385959454 -23.71604430012373 0 0 0 0 15.836621056475281 -109.34872697775063 0 -109.34872697775063 -338.30485675537057 0 0 0 0 -4.3347028511355719 29.061089765475373 0 29.061089765475373 -27.30007564881555 0 0 0 0 1.088903464214809 3.2020796839642571 0 3.2020796839642571 -318.91019331523421 0 0 0 0 -3.5942167385725945 -14.720244964310787 0 -14.720244964310787 -115.62644856188733 0 0 0 0 -25.593103440518924 5.5525575210455713 0 5.5525575210455713 -23.80465029143247 0 0 0 0 -21.212133479069394 19.656455702566745 0 19.656455702566745 -138.56305387267639 0 0 0 0 -23.533229016038312 29.705870766332865 0 29.705870766332865 -24.885026501855982 0 0 0 0 -65.704734980226135 -68.493096327173589 0 -68.493096327173589 -207.80619964113794 0 0 0 0 -11.052166075443457 -32.64374193624009 0 -32.64374193624009 -92.46748387976578 0 0 0 0 -63.908178352489813 -70.909965373906743 0 -70.909965373906743 -214.94056762745458 0 0 0 0 -31.114009522236302 -64.277602755953922 0 -64.277602755953922 -259.33432232975645 0 0 0 0 -51.769292404762837 -45.459445794514977 0 -45.459445794514977 -259.11033236191361 0 0 0 0 -47.37776340984783 -18.053309555629312 0 -18.053309555629312 -342.14388035876527 0 0 0 0 -47.009605509338144 -10.798565196595519 0 -10.798565196595519 -248.55682101209459 0 0 0 0 -93.672566261160796 -24.209068926089685 0 -24.209068926089685 -231.52514514819995 0 0 0 0 -255.7947314410535 -55.376881808634607 0 -55.376881808634607 -269.72021544543895 0 0 0 0 -65.207359175584315 2.8526029393833596 0 2.8526029393833596 -259.82762930822309 0 0 0 0 -49.322858584983805 -49.490258003575946 0 -49.490258003575946 -329.02397836140153 0 0 0 0 -34.490310423177107 -12.312287375725646 0 -12.312287375725646 -226.02811304315401 0 0 0 0 -104.24410620031904 -50.309278909868226 0 -50.309278909868226 -245.44159510095778 0 0 0 0 -67.916166313021222 -44.75788960041973 0 -44.75788960041973 -111.64336155410638 0 0 0 0 -17.809460632083315 5.9475057273988483 0 5.9475057273988483 1.9421829955946848 0 0 0 0 -9.9383263835011348 24.82126299583615 0 24.82126299583615 -151.68795110272185 0 0 0 0 -38.805307119999952 -6.2225779185819192 0 -6.2225779185819192 -86.870797145020333 0 0 0 0 -20.676517625717484 26.065231186298554 0 26.065231186298554 2.7752251232850731 0 0 0 0 -36.529224510107269 27.354199528355821 0 27.354199528355821 -58.971656770558184 0 0 0 0 -0.21499496920569072 16.519429169169598 0 16.519429169169598 -142.23094400931402 0 0 0 0 22.004589056485202 52.580431404160663 0 52.580431404160663 -284.99712578084473 0 0 0 0 -92.459074696789685 140.58755498604751 0 140.58755498604751 -83.876423527223466 0 0 0 0 16.359283592202701 47.173822824062654 0 47.173822824062654 -204.98706765373572 0 0 0 0 7.9749900002288179 -2.501021201886406 0 -2.501021201886406 -41.920099057906661 0 0 0 0 -2.7537867936653129 22.221356646043205 0 22.221356646043205 -67.705976673141777 0 0 0 0 8.643485021985839 -31.99990956088277 0 -31.99990956088277 -147.72554084172407 0 0 0 0 -6.9356158687323877 24.509033927802811 0 24.509033927802811 -54.610161416695931 0 0 0 0 7.6709387276007828 0.509184069077115 0 0.509184069077115 -62.793288422744368 0 0 0 0 -2.7500419655383759 4.9982640392206799 0 4.9982640392206799 -12.090395399632808 0 0 0 0 10.497582519055868 -24.326848403372423 0 -24.326848403372423 -278.85890816221172 0 0 0 0 -8.2364375016622944 28.706802974556012 0 28.706802974556012 -40.464053898583188 0 0 0 0 -80.431462633099727 -81.080378381444461 0 -81.080378381444461 -106.44140760098162 0 0 0 0 15.660693038917088 -4.3796775004630035 0 -4.3796775004630035 -30.252914302260251 0 0 0 0 1.2503956538872387 0.84460090781111141 0 0.84460090781111141 -12.070020240961401 0 0 0 0 -6.5745279253351327 28.420375292837889 0 28.420375292837889 -74.178262226083461 0 0 0 0 -8.4625768962832808 30.59829729523517 0 30.59829729523517 -60.010835134322406 0 0 0 0 14.426798733518808 28.266080089210391 0 28.266080089210391 -90.727547647188658 0 0 0 0 -6.0945418673145468 33.590191668988155 0 33.590191668988155 -75.546824748082145 0 0 0 0 6.8585490337093038 39.678363111352645 0 39.678363111352645 -98.501990753786231 0 0 0 0 10.861921774805523 37.372348664666788 0 37.372348664666788 -112.92924875318613 0 0 0 0 -7.6335693958010324 21.013098135717428 0 21.013098135717428 -74.560712259881257 0 0 0 0 17.655677551276312 29.856512072363557 0 29.856512072363557 -105.06624831531144 0 0 0 0 11.668016353391597 0.65053670704461553 0 0.65053670704461553 -67.380460835301122 0 0 0 0 -5.0924447574734586 22.964436477944446 0 22.964436477944446 -107.11605105511626 0 0 0 0 11.971553153950293 -13.477999734587897 0 -13.477999734587897 -38.464649686435322 0 0 0 0 -17.204042337130318 0.67416548285746103 0 0.67416548285746103 -60.114033561825636 0 0 0 0 13.488508815689784 40.18355274657506 0 40.18355274657506 -102.09530434808357 0 0 0 0 19.202182503309814 7.0413904794286282 0 7.0413904794286282 -60.513508752732605 0 0 0 0 -8.9243126441806453 3.2334948703828559 0 3.2334948703828559 -31.789251438867723 0 0 0 0 9.6609097758182543 -25.096882996982458 0 -25.096882996982458 -25.42101344184448 0 0 0 0 -1.2529324564047783 -4.2155975520872744 0 -4.2155975520872744 -35.934907273418503 0 0 0 0 -13.444553260488192 -16.966044979519211 0 -16.966044979519211 -21.227477104275749 0 0 0 0 -7.9879714937178505 31.175126878952142 0 31.175126878952142 -106.94049430629093 0 0 0 0 -9.2375392679784269 24.266102813255209 0 24.266102813255209 -48.395297409121305 0 0 0 0 -9.974662518301102 49.964182436986448 0 49.964182436986448 -130.7243169186404 0 0 0 0 0.64219670559618791 3.5983425682732815 0 3.5983425682732815 -9.1492671274103969 0 0 0 0 38.946673969212952 18.133122558101604 0 18.133122558101604 -24.143350904349063 0 0 0 0 42.966250807036658 27.461163015314014 0 27.461163015314014 -104.25794338924607 0 0 0 0 2.0150222003695513 -1.4904577340561573 0 -1.4904577340561573 -9.179469785578739 0 0 0 0 6.8564832831653453 19.525221139685783 0 19.525221139685783 -79.981922124510504 0 0 0 0 21.3751084179695 17.543322302737806 0 17.543322302737806 -102.54983491920575 0 0 0 0 49.950505654196832 -2.0123439848903217 0 -2.0123439848903217 -110.33837191819475 0 0 0 0 22.143075165408163 25.630150537454028 0 25.630150537454028 -117.33299232591526 0 0 0 0 0.98326149494059756 18.969190522210326 0 18.969190522210326 -33.087790006672066 0 0 0 0 1.6786252301205877 18.64446413818041 0 18.64446413818041 -96.545272841409314 0 0 0 0 -2.1033918097964488 26.073188333943108 0 26.073188333943108 -110.45585049615693 0 0 0 0 27.102863434383153 -26.012128821043007 0 -26.012128821043007 -244.697164734127 0 0 0 0 4.6625362657723599 52.994985839963192 0 52.994985839963192 -193.86679783775475 0 0 0 0 -44.287767159880445 33.817544038756751 0 33.817544038756751 -52.929561007520533 0 0 0 0 21.670376445698626 -8.7650129654259459 0 -8.7650129654259459 -109.26225852633962 0 0 0 0 -28.026321155695769 60.717384483592468 0 60.717384483592468 -106.37387075854197 0 0 0 0 9.2067179024138568 18.376782410705346 0 18.376782410705346 -145.30347146592248 0 0 0 0 27.816257033469242 2.6765130075364141 0 2.6765130075364141 -109.7712056245 0 0 0 0 3.6912296262669271 -30.073396999005908 0 -30.073396999005908 -33.612288666899218 0 0 0 0 -2.4303444002556489 -44.610135190432629 0 -44.610135190432629 -286.9418767781608 0 0 0 0 2.9779841903195927 -6.1589141820268338 0 -6.1589141820268338 -9.4053009288737144 0 0 0 0 12.976321819742608 140.97375425232576 0 140.97375425232576 -208.4799538544321 0 0 0 0 11.415420076434867 -24.939923595757051 0 -24.939923595757051 -28.052103934381805 0 0 0 0 26.814598039106386 36.473968807069468 0 36.473968807069468 -185.33668801616858 0 0 0 0 -41.690963516466581 8.6311307752475841 0 8.6311307752475841 -142.06220003634371 0 0 0 0 8.6505194954818876 -21.046715651587874 0 -21.046715651587874 -103.69634886627318 0 0 0 0 11.862919415736826 -30.636518394181621 0 -30.636518394181621 -75.778506421811471 0 0 0 0 8.1827131481990136 -37.587188306097232 0 -37.587188306097232 -70.174610148860666 0 0 0 0 14.638887309431624 -30.747907199520341 0 -30.747907199520341 -73.608245462746709 0 0 0 0 11.704815106134831 -44.745650888447926 0 -44.745650888447926 -100.32523020835652 0 0 0 0 -35.957779929386845 -77.394036403828068 0 -77.394036403828068 -104.32698885295395 0 0 0 0 7.3243188043969667 -39.675642312126001 0 -39.675642312126001 -71.803862248460064 0 0 0 0 34.884063213012269 -34.536524489001749 0 -34.536524489001749 -112.47362643146334 0 0 0 0 49.272248209946497 -20.043242890351394 0 -20.043242890351394 -103.77309574428091 0 0 0 0 -53.57256716567781 9.7949548922842951 0 9.7949548922842951 3.7377618629003848 0 0 0 0 -21.807206800568565 -8.2512158250465291 0 -8.2512158250465291 -34.679051479564805 0 0 0 0 -22.706149205801523 -30.197825388146157 0 -30.197825388146157 -5.3265747564009729 0 0 0 0 12.877019637401474 3.0677087293734076 0 3.0677087293734076 -46.492995664550108 0 0 0 0 -58.563031672283387 -21.706637802220939 0 -21.706637802220939 -52.375320894025208 0 0 0 0 -60.319010800845604 4.2914220798265887 0 4.2914220798265887 -85.186783661250956 0 0 0 0 -96.770871744084047 6.3909715282970865 0 6.3909715282970865 -79.065657884566463 0 0 0 0 -40.760902645133285 30.287897295422226 0 30.287897295422226 -69.523637823222089 0 0 0 0 -56.047207391518896 -24.37560322938225 0 -24.37560322938225 -127.67355789477006 0 0 0 0 -247.29984008031875 61.017574690456968 0 61.017574690456968 -164.77756309898541 0 0 0 0 -98.216345164481723 -148.69836439546089 0 -148.69836439546089 -205.37415462179342 0 0 0 0 -128.63133169858381 189.07854882776519 0 189.07854882776519 -102.35034326996538 0 0 0 0 76.501766692371291 35.865214237492182 0 35.865214237492182 -401.43533842964825 0 0 0 0 -1.4758067821404943 1.6590441350057716 0 1.6590441350057716 -2.1782637332906631 0 0 0 0 -145.66068561693618 -14.461118528633961 0 -14.461118528633961 6.7172962005643058 0 0 0 0 -4.792631303251369 -46.653816156169341 0 -46.653816156169341 -465.88125085677166 0 0 0 0 188.18536294422393 39.348344763136993 0 39.348344763136993 -159.66848513286823 0 0 0 0 4.7060091453034314 20.535728928301836 0 20.535728928301836 -78.524883085975716 0 0 0 0 33.913262299918557 -25.815188143555133 0 -25.815188143555133 -104.23839646405395 0 0 0 0 47.130996511705064 -46.946659998277028 0 -46.946659998277028 -152.31953786145459 0 0 0 0 52.673045531402373 49.144458571303403 0 49.144458571303403 -22.64209823764395 0 0 0 0 -8.8226227512896003 -21.772784434800087 0 -21.772784434800087 -39.352744831598102 0 0 0 0 2.3222258615219289 45.921508851904946 0 45.921508851904946 -65.187894782642616 0 0 0 0 -3.5887053937801738 38.908410851772715 0 38.908410851772715 -73.330773874407896 0 0 0 0 0.51834894304192858 32.138323144117749 0 32.138323144117749 -71.055515710108011 0 0 0 0 4.8490546597888118 20.442069230341943 0 20.442069230341943 -78.094297031559705 0 0 0 0 163.40749879628362 238.50844011385198 0 238.50844011385198 -112.02403004060761 0 0 0 0 19.050019759532688 18.347548743671723 0 18.347548743671723 -101.47505032640402 0 0 0 0 4.9478294181658384 45.026177733543591 0 45.026177733543591 -116.04344840281192 0 0 0 0 13.16674990095175 9.821882836049415 0 9.821882836049415 -131.3960273722987 0 0 0 0 -12.382523710464909 21.455989471454814 0 21.455989471454814 11.624577046430204 0 0 0 0 58.651154531298303 40.590067377206651 0 40.590067377206651 0.65934084526088554 0 0 0 0 -1.0359097205645753 30.730268919251102 0 30.730268919251102 -22.567954191901663 0 0 0 0 3.713949087754016 20.607135077450543 0 20.607135077450543 -74.077673690998054 0 0 0 0 22.576748867826552 112.04893936377994 0 112.04893936377994 34.38733685115767 0 0 0 0 15.394601965950095 26.286532129848638 0 26.286532129848638 -30.124318974718335 0 0 0 0 11.413827860712416 14.260756713289084 0 14.260756713289084 -45.604122294513218 0 0 0 0 7.0734468015411931 12.918832356995303 0 12.918832356995303 -79.847362064189639 0 0 0 0 2.7459039356083395 -14.47503528922789 0 -14.47503528922789 -129.35120150590228 0 0 0 0 0.43221054445393747 -2.5255782569511211 0 -2.5255782569511211 -134.16123431349297 0 0 0 0 0.30865309213263359 -42.48935911190938 0 -42.48935911190938 -60.169092385111384 0 0 0 0 9.6879102724630535 -5.2256670776325791 0 -5.2256670776325791 -21.471487282885917 0 0 0 0 3.7166637358159278 -10.531222867921315 0 -10.531222867921315 -118.8397298576383 0 0 0 0 13.205909752547996 20.030580614144128 0 20.030580614144128 -101.91114861004826 0 0 0 0 32.141058498416442 -6.023603449924849 0 -6.023603449924849 -129.51626916041278 0 0 0 0 4.2790129417408025 -16.724168861837825 0 -16.724168861837825 -132.66942591751285 0 0 0 0 30.41390679462927 3.7082966819584726 0 3.7082966819584726 -171.43123084768013 0 0 0 0 8.8260157234178678 17.54741077626386 0 17.54741077626386 -138.93313915886392 0 0 0 0 5.8844959444882079 35.995202983820491 0 35.995202983820491 -223.53617141935683 0 0 0 0 -33.408991461072333 90.863401419541333 0 90.863401419541333 -289.18241567126097 0 0 0 0 33.855785497051102 -40.675957766250576 0 -40.675957766250576 -329.09229336894714 0 0 0 0 -121.80216977852001 -107.88052273627363 0 -107.88052273627363 -159.57851696974103 0 0 0 0 -171.38774074634023 66.671775319317021 0 66.671775319317021 -155.19562144119845 0 0 0 0 -8.0065930356718553 -62.936243679763834 0 -62.936243679763834 -44.606725592289877 0 0 0 0 4.6040561601445233 -19.165345636371057 0 -19.165345636371057 -116.94501092337669 0 0 0 0 -14.899322396922116 8.8218694563215649 0 8.8218694563215649 -78.854580307684955 0 0 0 0 83.295117653841771 -39.322542537533764 0 -39.322542537533764 -105.33885561728221 0 0 0 0 -16.686695329088877 26.033262424572968 0 26.033262424572968 -89.822209260516502 0 0 0 0 14.729130012173883 -10.371659782796037 0 -10.371659782796037 -54.333537403894184 0 0 0 0 5.5412538804160905 -10.688713071151703 0 -10.688713071151703 -56.108391782237355 0 0 0 0 -27.995532128050627 2.2793060285584943 0 2.2793060285584943 -33.947192810261186 0 0 0 0 30.200219880490295 10.518866543076911 0 10.518866543076911 -66.686299458808207 0 0 0 0 -24.242539138643224 34.550995223460632 0 34.550995223460632 -73.154972292589264 0 0 0 0 -56.085164046018235 -16.815647410698148 0 -16.815647410698148 -94.746226527149702 0 0 0 0 -67.819632366768246 48.258923783341743 0 48.258923783341743 -103.18291623249388 0 0 0 0 -10.545593813586038 22.367950475072576 0 22.367950475072576 -91.668422327333246 0 0 0 0 6.3138726637467926 -19.958530668554886 0 -19.958530668554886 59.925360278968583 0 0 0 0 0.030947668497250662 -43.403760547895217 0 -43.403760547895217 81.407603576426482 0 0 0 0 -86.954738669251412 160.88150782317098 0 160.88150782317098 -316.88107512347051 0 0 0 0 8.6286337174302226 189.83767624731627 0 189.83767624731627 -607.21819906988821 0 0 0 0 -0.50521725406303131 -1.4655356714424386 0 -1.4655356714424386 -2.2203341998589536 0 0 0 0 -4.9968788304524683 -230.58180027152412 0 -230.58180027152412 -456.57480627708719 0 0 0 0 -0.0047186746552782969 -4.5109242578682593 0 -4.5109242578682593 -11.553503751478274 0 0 0 0 -0.99434331092777295 -2.1470895493540354 0 -2.1470895493540354 -2.0382979255269333 0 0 0 0 -28.01175554840006 23.224255041204742 0 23.224255041204742 -477.92240845387505 0 0 0 0 -14.528265865342895 -60.6220217456721 0 -60.6220217456721 20.131203005025938 0 0 0 0 -2.2069323275442185 -10.959757773934143 0 -10.959757773934143 -11.960004135835334 0 0 0 0 -0.02677714631164535 -12.518050483834724 0 -12.518050483834724 -109.17476406507194 0 0 0 0 7.0022313542514496 1.7401277581084287 0 1.7401277581084287 -53.873612062401662 0 0 0 0 1.8665758798027825 -0.82139601313168953 0 -0.82139601313168953 -4.0965054227575024 0 0 0 0 3.5716782470808539 -28.655333280377818 0 -28.655333280377818 -26.658704433270032 0 0 0 0 11.58212764866443 1.1627210326258535 0 1.1627210326258535 -16.114797398619118 0 0 0 0 7.8095133877582157 -12.412891429557931 0 -12.412891429557931 -24.160746071064899 0 0 0 0 -11.257566097025531 -95.116736896196471 0 -95.116736896196471 -217.72506692804018 0 0 0 0 -11.272428752080907 -12.676977430961614 0 -12.676977430961614 -11.29914434712272 0 0 0 0 7.071723586407245 -9.3769366078636267 0 -9.3769366078636267 -31.410117637926305 0 0 0 0 21.597461360643138 -28.628522533119394 0 -28.628522533119394 -79.710530404054964 0 0 0 0 26.256657953871127 -59.565651675122353 0 -59.565651675122353 13.595404162857449 0 0 0 0 -8.4275643423241888 -8.7524692382834388 0 -8.7524692382834388 -7.5710118343780408 0 0 0 0 -9.3512784638055564 96.225557796027715 0 96.225557796027715 -304.82930875747115 0 0 0 0 3.8063729882228472 117.12010469700181 0 117.12010469700181 -347.99109636140929 0 0 0 0 -2.4005882257254632 -4.3381261452767319 0 -4.3381261452767319 -4.5845781926729074 0 0 0 0 5.6521990371950324 66.07574055407531 0 66.07574055407531 -291.54608747690691 0 0 0 0 21.788447040040637 85.149584086291725 0 85.149584086291725 -328.6940015602886 0 0 0 0 -59.061469769063024 190.71080040990637 0 190.71080040990637 -386.93433182993977 0 0 0 0 20.724247231241407 -149.98705822162447 0 -149.98705822162447 139.27614660662221 0 0 0 0 -1.3953917134468803 -1.443943433602243 0 -1.443943433602243 -1.6921864611469317 0 0 0 0 50.655276100644592 -4.4894059788473442 0 -4.4894059788473442 -46.699077770732401 0 0 0 0 -4.0395402850924516 -5.2302066799633167 0 -5.2302066799633167 -5.160274472687604 0 0 0 0 54.18089763790249 -77.709660332486237 0 -77.709660332486237 46.165294826783793 0 0 0 0 33.438696656861708 -13.335923355824207 0 -13.335923355824207 -38.308305011312768 0 0 0 0 -0.51614017099052489 -3.9394410250624787 0 -3.9394410250624787 -32.119568029200309 0 0 0 0 33.405342356906203 -0.68522078508976847 0 -0.68522078508976847 -106.76089823855759 0 0 0 0 -3.2395302778508039 27.498953445747247 0 27.498953445747247 -68.705896015751932 0 0 0 0 32.616760792158857 -15.171562916129915 0 -15.171562916129915 -51.516000383324354 0 0 0 0 13.4743458989808 27.935932822056202 0 27.935932822056202 -127.52260123877204 0 0 0 0 -2.574288509889584 29.170425998541759 0 29.170425998541759 -65.075717728715347 0 0 0 0 -8.2132701220391482 36.579518985086906 0 36.579518985086906 -74.781572698891978 0 0 0 0 -41.081015687974173 65.100953890503661 0 65.100953890503661 -149.88397481934226 0 0 0 0 -18.18679708616628 23.157802926471049 0 23.157802926471049 -73.113274235098288 0 0 0 0 5.4570199997399413 -50.270695121183962 0 -50.270695121183962 -238.84175820102246 0 0 0 0 5.4682436279570084 -54.070245331349724 0 -54.070245331349724 -53.740282456223213 0 0 0 0 23.892577418287829 -137.93123987378931 0 -137.93123987378931 -187.95473054301692 0 0 0 0 -4.7405407887179081 -59.129345740349891 0 -59.129345740349891 -219.25955848945887 0 0 0 0 -5.1794360547209299 4.969873383640234 0 4.969873383640234 -4.54781120873605 0 0 0 0 -14.019637728156098 13.938476658833224 0 13.938476658833224 -6.0554779695157777 0 0 0 0 91.121886298113623 19.846993603314331 0 19.846993603314331 -154.29720639225707 0 0 0 0 101.42094650306242 -39.254990767430627 0 -39.254990767430627 -378.78255766209622 0 0 0 0 -193.36180863184336 -42.020958024848369 0 -42.020958024848369 0.092321999094565399 0 0 0 0 66.072508285501954 124.02484334618202 0 124.02484334618202 33.402304357870889 0 0 0 0 -7.1242804551189103 6.4647924762062843 0 6.4647924762062843 -9.2434632790208582 0 0 0 0 -2.5259273923358592 15.365714687624859 0 15.365714687624859 -29.309934090757451 0 0 0 0 -5.1808751957658501 8.3651507223439694 0 8.3651507223439694 -13.935488170587632 0 0 0 0 8.1097911023869074 -7.7047322112048278 0 -7.7047322112048278 -50.789212293922901 0 0 0 0 33.669383550736484 -15.701850648896652 0 -15.701850648896652 -68.20943811221332 0 0 0 0 6.2547940619543283 -2.1550173977911982 0 -2.1550173977911982 -28.141851427739311 0 0 0 0 6.5140839527884467 -6.4608624432700736 0 -6.4608624432700736 -10.96796591412938 0 0 0 0 3.3383680313188506 -7.8158784490733524 0 -7.8158784490733524 -25.609943259987631 0 0 0 0 2.4992871442972984 -15.696017053281139 0 -15.696017053281139 -14.903322897167527 0 0 0 0 0.4139362083279563 -1.8081815341120517 0 -1.8081815341120517 -3.6874959381586621 0 0 0 0 33.785293757869937 -15.6184825498176 0 -15.6184825498176 -73.546495006259647 0 0 0 0 61.718762500728644 -50.341652736537071 0 -50.341652736537071 -33.385222438699202 0 0 0 0 55.885313699396733 9.3876886341365662 0 9.3876886341365662 -81.913806484371889 0 0 0 0 14.97557019282317 -49.233682747137209 0 -49.233682747137209 -16.863632941600372 0 0 0 0 44.617239051103411 -50.003238536974095 0 -50.003238536974095 -22.991181201752624 0 0 0 0 59.637527673266447 -23.394891017251211 0 -23.394891017251211 -9.7407401793789177 0 0 0 0 -145.56094444854682 -169.97270440614557 0 -169.97270440614557 -10.28152543289616 0 0 0 0 -4.6494167765604093 -5.6274259022630417 0 -5.6274259022630417 -7.1106834508733527 0 0 0 0 -127.75571484231136 177.18400563210889 0 177.18400563210889 -103.88400037376414 0 0 0 0 6.3224275011621103 170.76695542019297 0 170.76695542019297 -815.00658181639301 0 0 0 0 -1.9611386361539758 -40.380142431049535 0 -40.380142431049535 -215.2269757897302 0 0 0 0 16.225405093928117 -79.154094337176502 0 -79.154094337176502 42.825631389881892 0 0 0 0 -4.1085703937023919 -6.3693750750311153 0 -6.3693750750311153 -5.8626002483966886 0 0 0 0 11.076519794289652 -18.124673117642033 0 -18.124673117642033 30.078672087220184 0 0 0 0 29.516189214367159 -31.296135373919242 0 -31.296135373919242 -19.192375796774286 0 0 0 0 2.3079719682320956 -27.974030286903144 0 -27.974030286903144 -14.533726624162227 0 0 0 0 19.077635169063967 -39.739165087397851 0 -39.739165087397851 -114.40824967804656 0 0 0 0 3.2149996189536409 56.769766225454077 0 56.769766225454077 -278.10046231257002 0 0 0 0 -23.652133254102978 19.354651192006713 0 19.354651192006713 -95.053992945504433 0 0 0 0 -28.066307143213685 -1.1767232541787962 0 -1.1767232541787962 -50.574045601097168 0 0 0 0 -11.127645827758471 -56.557441911561909 0 -56.557441911561909 -144.21297180477995 0 0 0 0 -12.605470662617471 -4.7066919449192142 0 -4.7066919449192142 -100.75885193379509 0 0 0 0 0.09149724416204176 -35.496016994769889 0 -35.496016994769889 -143.52883058096268 0 0 0 0 -0.01803359920408806 -42.04154005415694 0 -42.04154005415694 -70.098218885388633 0 0 0 0 -8.4821567910482685 -1.5431812435854226 0 -1.5431812435854226 -8.1599117917503463 0 0 0 0 -0.26793776026258342 -57.37092973491599 0 -57.37092973491599 -23.269716614588106 0 0 0 0 9.7271410720697986 -72.391699043688277 0 -72.391699043688277 80.053317640544265 0 0 0 0 -0.016623739482688547 -46.818846025372402 0 -46.818846025372402 27.240157388601801 0 0 0 0 49.168953468468388 -25.920423617935739 0 -25.920423617935739 -50.683951652987162 0 0 0 0 0.0722356690861405 56.216680857010942 0 56.216680857010942 -151.83806214014476 0 0 0 0 -125.0337786059165 81.342135155595315 0 81.342135155595315 -24.391227536150836 0 0 0 0 0.014703742193757493 -15.573768018984362 0 -15.573768018984362 -28.576883921312401 0 0 0 0 -35.029212775047739 76.260444786163134 0 76.260444786163134 -154.52152342663612 0 0 0 0 0.075563265383350897 -1.3570665381175502 0 -1.3570665381175502 -2.4283819016225721 0 0 0 0 0.27863577100803277 0.38002411551650539 0 0.38002411551650539 -0.7341647042298689 0 0 0 0 66.102163746695368 107.65569508614135 0 107.65569508614135 -386.23800867781392 0 0 0 0 15.144992718715699 35.073359938187423 0 35.073359938187423 -205.77299170791957 0 0 0 0 -26.575630496360937 155.0386620844256 0 155.0386620844256 -396.693264477708 0 0 0 0 0.08098109195770653 -0.37839852852164313 0 -0.37839852852164313 -1.1605993914863006 0 0 0 0 0.17389528341297034 -27.948786868102616 0 -27.948786868102616 -31.47459164634347 0 0 0 0 0.01470374223391979 33.162777320686523 0 33.162777320686523 8.7482335279783001 0 0 0 0 -0.25756543313802405 0.034899235886413749 0 0.034899235886413749 -0.022032902024221812 0 0 0 0 -0.36667989044091703 -39.615776355309045 0 -39.615776355309045 -213.88356578320236 0 0 0 0 8.6197465352174305 -4.5342859753982339 0 -4.5342859753982339 -180.65138887808644 0 0 0 0 -13.577677751710645 -60.657152035498257 0 -60.657152035498257 -1.7021288231408107 0 0 0 0 8.4536740760377711 54.60124415178143 0 54.60124415178143 -169.09077148743768 0 0 0 0 0.17561715980796344 -0.44457306492222415 0 -0.44457306492222415 -0.62137965747380974 0 0 0 0 53.815662572870792 7.8940378426814277 0 7.8940378426814277 -167.88693879904167 0 0 0 0 15.651032857953965 34.135523119512072 0 34.135523119512072 -159.28992548261886 0 0 0 0 0.39525755071405566 -1.0059506520288721 0 -1.0059506520288721 -1.1893029335387553 0 0 0 0 5.9975587577912393 -25.731470191174594 0 -25.731470191174594 -67.48815794129041 0 0 0 0 -8.1548996710185975 52.626379887577059 0 52.626379887577059 -122.25257104197954 0 0 0 0 36.813321654345259 31.075958545676258 0 31.075958545676258 -204.71979887917405 0 0 0 0 -2.2437974137151855 35.624335049473302 0 35.624335049473302 -203.92568548824784 0 0 0 0 -55.742607985413883 62.515744497202832 0 62.515744497202832 -215.16572370724316 0 0 0 0 16.46504400313151 71.45888988263323 0 71.45888988263323 -242.97264343997449 0 0 0 0 21.376524387649766 50.392349492576614 0 50.392349492576614 -208.61342634993343 0 0 0 0 -7.0760056013592703 -48.486392700375291 0 -48.486392700375291 -95.701797577723482 0 0 0 0 -55.269982291683164 -71.738083810196258 0 -71.738083810196258 -146.2129770473839 0 0 0 0 -61.641826456544244 12.206171286007702 0 12.206171286007702 -31.359898241062183 0 0 0 0 22.782692032273644 19.138190869620303 0 19.138190869620303 -61.745628680364462 0 0 0 0 14.744724861839757 15.984088112030804 0 15.984088112030804 -295.96971656402457 0 0 0 0 8.3401835605870929 16.883634389327199 0 16.883634389327199 -118.90492132779036 0 0 0 0 -0.68924671702154683 -9.0501302037373534 0 -9.0501302037373534 -300.49490883366707 0 0 0 0 -1.0368539578408988 -0.72240761556741973 0 -0.72240761556741973 -0.52124248102969517 0 0 0 0 -29.177837170041357 35.868068051466253 0 35.868068051466253 -27.582556800829479 0 0 0 0 -17.97898327106202 11.883842521376209 0 11.883842521376209 -184.05856876641337 0 0 0 0 -9.3279296295206109 10.133090573817753 0 10.133090573817753 -245.51762185906409 0 0 0 0 -1.3058338494045074 48.862789992184844 0 48.862789992184844 -228.75440130561765 0 0 0 0 7.8005659180746534 50.743427945371877 0 50.743427945371877 -323.04117720216163 0 0 0 0 0.50743401051490533 -1.1164508771020962 0 -1.1164508771020962 -1.3324566413580072 0 0 0 0 -15.969456797561591 5.1246478963512345 0 5.1246478963512345 -167.53486391427577 0 0 0 0 41.59107386701146 -1.3925066245574271 0 -1.3925066245574271 -102.28295257833088 0 0 0 0 0.83608457211084897 5.1281392294622492 0 5.1281392294622492 -73.947093386603228 0 0 0 0 35.610746660644395 -10.180870771815535 0 -10.180870771815535 -73.128701000054662 0 0 0 0 0.38144889673647508 -0.64489262035068862 0 -0.64489262035068862 -0.85002985593486358 0 0 0 0 22.577203884933397 -83.934615829290124 0 -83.934615829290124 -7.3440145793174452 0 0 0 0 31.144755902987981 -12.137454603733204 0 -12.137454603733204 -69.213219338662384 0 0 0 0 33.170729471047935 -9.4600829227492795 0 -9.4600829227492795 -68.06597454698931 0 0 0 0 3.7488279027459157 4.7062840246144333 0 4.7062840246144333 -56.965911140063326 0 0 0 0 25.592638175746742 9.8236810012022033 0 9.8236810012022033 -136.24182393246156 0 0 0 0 -34.835842434384176 -43.151492942917685 0 -43.151492942917685 -163.11223596998752 0 0 0 0 22.737562148487996 -87.00702243327396 0 -87.00702243327396 -135.32359736641155 0 0 0 0 -3.3329087738616181 -12.793811457129777 0 -12.793811457129777 -172.26791631904234 0 0 0 0 -5.1496105553369489 -10.603835772351886 0 -10.603835772351886 -254.28075055071167 0 0 0 0 -2.9803094141917885 -1.7790655259861978 0 -1.7790655259861978 -0.83829936678404238 0 0 0 0 -3.2530111711845393 5.334991103865832 0 5.334991103865832 -150.50215688877506 0 0 0 0 -8.1253087835275437 6.175854175202403 0 6.175854175202403 -147.47857045009005 0 0 0 0 -66.139642223414342 -32.98067025220189 0 -32.98067025220189 77.205315764287661 0 0 0 0 -3.9347905567935113 -2.6368132266996156 0 -2.6368132266996156 -1.0755987627292143 0 0 0 0 -29.321945415223468 17.689668827071728 0 17.689668827071728 34.383753366677411 0 0 0 0 5.1476940850326116 54.818180274427505 0 54.818180274427505 -72.675382762354275 0 0 0 0 -41.797784214202693 30.793066297512269 0 30.793066297512269 -82.249115283470019 0 0 0 0 -212.59930976187161 50.143287320410309 0 50.143287320410309 13.344992543730768 0 0 0 0 -18.848440144683309 13.037527613632847 0 13.037527613632847 -30.108943325729342 0 0 0 0 -45.796330215319983 124.2919447106251 0 124.2919447106251 -305.09230681453482 0 0 0 0 -2.5622164504351459 -0.27478382593466222 0 -0.27478382593466222 -0.14394656012916585 0 0 0 0 -50.712375902195561 23.831349815760404 0 23.831349815760404 118.34751380713715 0 0 0 0 -90.075006208947116 -36.16187516489299 0 -36.16187516489299 -309.3136521632623 0 0 0 0 -45.221168120067148 47.376757783478752 0 47.376757783478752 -453.08779882869567 0 0 0 0 72.872072429507284 -171.46214296273683 0 -171.46214296273683 -264.35284382570171 0 0 0 0 54.142353697772052 33.104676547529607 0 33.104676547529607 -131.80077532713767 0 0 0 0 -35.154469216371353 -80.634628144292947 0 -80.634628144292947 -314.33265146409394 0 0 0 0 5.974744912226015 53.923810568383487 0 53.923810568383487 -175.33695594051096 0 0 0 0 -6.478175632474704 0.84234745063913863 0 0.84234745063913863 0.20653086685562272 0 0 0 0 -169.50514372479211 -124.54885312947226 0 -124.54885312947226 276.25316595612094 0 0 0 0 -154.79179843384441 -261.32068805456947 0 -261.32068805456947 -355.19859742981498 0 0 0 0 -368.47641642981222 133.04816175523047 0 133.04816175523047 -185.36821979704837 0 0 0 0 -6.9079168526179142 2.1318214922531382 0 2.1318214922531382 0.67764883623197392 0 0 0 0 -145.35308935351247 50.222149044995604 0 50.222149044995604 239.9034771199149 0 0 0 0 -29.511759362400248 21.625677628006997 0 21.625677628006997 -49.638198985769122 0 0 0 0 85.360162479060136 15.643391916382825 0 15.643391916382825 -164.62455989680166 0 0 0 0 -64.741871752022007 60.113217885460472 0 60.113217885460472 -76.022885432299518 0 0 0 0 7.2955475071937599 45.579251594419475 0 45.579251594419475 -165.46382762829307 0 0 0 0 1.4549062361165852 48.664864599297289 0 48.664864599297289 -98.41824043969973 0 0 0 0 -21.974729561381821 49.46257132691062 0 49.46257132691062 -130.62713926355354 0 0 0 0 -11.220018275721259 72.971877151270746 0 72.971877151270746 -135.95889213585178 0 0 0 0 -18.273026530134132 55.708400133258692 0 55.708400133258692 -74.395026157886605 0 0 0 0 -0.85359970546892328 62.038462533426355 0 62.038462533426355 -127.61260328305798 0 0 0 0 -7.9212470438076252 23.060974070620432 0 23.060974070620432 -61.626109909437218 0 0 0 0 3.1966850827946018 29.103771909525676 0 29.103771909525676 -58.343262526628678 0 0 0 0 20.79885188599485 -22.94722149844165 0 -22.94722149844165 -82.038149732623424 0 0 0 0 -12.266742876832552 39.495825317964773 0 39.495825317964773 -32.291808216396021 0 0 0 0 0.024044190124539622 -0.0027189902310453817 0 -0.0027189902310453817 -0.014279106867988389 0 0 0 0 -13.090639727926373 31.315497534567839 0 31.315497534567839 -41.673993472271832 0 0 0 0 -35.576850205096662 -2.3316537831997266 0 -2.3316537831997266 31.913399168493925 0 0 0 0 -28.25449244332367 37.608533513688599 0 37.608533513688599 -22.665966306638438 0 0 0 0 -23.369932846668689 20.033770669659134 0 20.033770669659134 4.7187147876538802 0 0 0 0 -6.5347605119375203 -7.8834438480553217 0 -7.8834438480553217 -12.034966212122526 0 0 0 0 1.1634255389860755 4.0341988201107597 0 4.0341988201107597 -41.005125905640853 0 0 0 0 2.3458300557571761 35.180832844602264 0 35.180832844602264 -107.63161507158657 0 0 0 0 26.379244572190146 7.7116154243121855 0 7.7116154243121855 -31.147360530652804 0 0 0 0 -113.10316439190569 99.300831653483328 0 99.300831653483328 -123.98224011200364 0 0 0 0 -0.025157730777022991 -0.24965671078875573 0 -0.24965671078875573 -0.6268668175478922 0 0 0 0 -71.156205643971134 159.28664849101915 0 159.28664849101915 -187.09892428480089 0 0 0 0 -39.783678390880596 -3.8994395040208474 0 -3.8994395040208474 11.94328018912347 0 0 0 0 -45.648112037841884 37.507222076732432 0 37.507222076732432 27.98375170287909 0 0 0 0 -41.870367976735054 78.005415470986918 0 78.005415470986918 -154.92818757690475 0 0 0 0 -37.420721825725991 95.948894306100556 0 95.948894306100556 -180.24330579863454 0 0 0 0 0.6491890305037733 0.10749730075227149 0 0.10749730075227149 -1.1166154495566616 0 0 0 0 -50.559777963353639 99.55703933186669 0 99.55703933186669 -113.85942159382103 0 0 0 0 -0.04591419955869358 -0.9183242604480597 0 -0.9183242604480597 -1.8555147851068341 0 0 0 0 -41.765086505452672 -13.732331907489424 0 -13.732331907489424 37.227556998725049 0 0 0 0 -10.782324648285339 12.461041131085949 0 12.461041131085949 -98.8495447124169 0 0 0 0 -15.994103195639539 34.968494926251878 0 34.968494926251878 -36.480788771419611 0 0 0 0 5.3479425856686476 54.536779776564799 0 54.536779776564799 -165.72962171214749 0 0 0 0 16.702744294834133 -23.422138529378572 0 -23.422138529378572 -73.52511921792393 0 0 0 0 -17.475807440916924 58.785899499300285 0 58.785899499300285 -143.39865912069945 0 0 0 0 -37.361584141475532 61.892231207195437 0 61.892231207195437 -112.43634176379419 0 0 0 0 -42.580041656712865 128.041235798868 0 128.041235798868 -202.5591158921161 0 0 0 0 41.319773802222471 82.705581588816131 0 82.705581588816131 -96.183903913071845 0 0 0 0 74.211683666275761 140.71754846818021 0 140.71754846818021 -579.15038677120174 0 0 0 0 -97.167348940555371 -100.14557186532329 0 -100.14557186532329 -205.55405771662481 0 0 0 0 -0.18618022021605468 -0.54561733156852199 0 -0.54561733156852199 -3.6002535454117606 0 0 0 0 -17.097461644644682 74.70447534363484 0 74.70447534363484 -14.429877414353541 0 0 0 0 213.83573077951183 -254.55727083268357 0 -254.55727083268357 -595.58469054706802 0 0 0 0 -350.90735008351749 454.79122551632099 0 454.79122551632099 -544.36700559649034 0 0 0 0 114.23937980432288 66.004426875646459 0 66.004426875646459 -24.105577439437184 0 0 0 0 -12.890360028692626 85.587487966782646 0 85.587487966782646 89.468622295309615 0 0 0 0 0.15373789152741515 -0.56013732584764853 0 -0.56013732584764853 -9.1504656704339311 0 0 0 0 -3.6064944898165558 2.7990524356529534 0 2.7990524356529534 -1.4033259018236315 0 0 0 0 -7.3682790482052489 30.428264261963704 0 30.428264261963704 -120.7892828121694 0 0 0 0 14.0098307475292 145.61360849680023 0 145.61360849680023 -489.82153348241991 0 0 0 0 -169.47562921065222 170.85109911177278 0 170.85109911177278 -100.17147095979271 0 0 0 0 27.045581748941125 84.934339093723793 0 84.934339093723793 -241.79463045655575 0 0 0 0 0.066816670271247866 0.28798863986186518 0 0.28798863986186518 -1.4653265904122534 0 0 0 0 -64.501368260643872 65.125043139347326 0 65.125043139347326 -90.811451074907382 0 0 0 0 0.027053751568913015 41.256687457611406 0 41.256687457611406 -215.29444623490235 0 0 0 0 -0.14577249458770286 -0.13661718126095934 0 -0.13661718126095934 -4.7701151441679883 0 0 0 0 21.204767824907393 -14.466983647516827 0 -14.466983647516827 -49.2373005298723 0 0 0 0 11.886383455234267 13.983399985696451 0 13.983399985696451 4.5270688056689323 0 0 0 0 48.79627702935413 -24.516442450098111 0 -24.516442450098111 -55.885902599809924 0 0 0 0 -122.13563620419249 150.04504256366636 0 150.04504256366636 -151.27558485241025 0 0 0 0 0.058554598819477388 -0.066402612507800995 0 -0.066402612507800995 -1.8145771206470727 0 0 0 0 -96.79567299863578 84.336917569031357 0 84.336917569031357 -15.999272247543558 0 0 0 0 9.9955648695934229 11.62027081989072 0 11.62027081989072 9.8871843106899178 0 0 0 0 -0.026711195872481504 34.659838159958497 0 34.659838159958497 -42.888489874341758 0 0 0 0 6.8625342110245295 -37.211483332189005 0 -37.211483332189005 -55.016640576672586 0 0 0 0 -45.515983774009783 -44.349938390434545 0 -44.349938390434545 -56.451585133047047 0 0 0 0 -15.027249249410602 30.763311726977008 0 30.763311726977008 -148.86645302467514 0 0 0 0 -37.438029130029918 -29.672621950738176 0 -29.672621950738176 -48.055561659173691 0 0 0 0 13.702383426856613 -21.779851642408175 0 -21.779851642408175 -176.56647062188495 0 0 0 0 -20.357972180721163 -58.662409051179566 0 -58.662409051179566 -109.37320700410055 0 0 0 0 -2.9908816810384451 -14.871388844301691 0 -14.871388844301691 -76.45951290614903 0 0 0 0 7.8972933679842399 -6.0179091283589301 0 -6.0179091283589301 -28.672446065025071 0 0 0 0 4.4116038518419662 -2.5022368791567509 0 -2.5022368791567509 -52.566626486846758 0 0 0 0 4.9891726884784475 -13.723251988616539 0 -13.723251988616539 -35.999611078499584 0 0 0 0 36.170150794217534 35.437570442190918 0 35.437570442190918 -178.76972634996127 0 0 0 0 2.8465564923604667 4.698532503043964 0 4.698532503043964 -7.5939275859727786 0 0 0 0 9.4249274438197972 -18.751112038858992 0 -18.751112038858992 -60.485513620027632 0 0 0 0 8.9232517663094768 -22.710053759008588 0 -22.710053759008588 -43.119273524182063 0 0 0 0 9.3434707915363653 -14.661974714168053 0 -14.661974714168053 -20.294763014313531 0 0 0 0 -4.8076245318918609 -9.5325714752079875 0 -9.5325714752079875 -35.105209623914561 0 0 0 0 2.3980072418893315 30.698946617011643 0 30.698946617011643 -125.97013587487163 0 0 0 0 -12.17893423124633 19.797858054069366 0 19.797858054069366 -45.11287613643799 0 0 0 0 3.0733087132929722 -11.770310309262797 0 -11.770310309262797 -36.659153252806121 0 0 0 0 3.179512084294033 -3.5461020226965516 0 -3.5461020226965516 -8.2412731672572193 0 0 0 0 -4.715677300373379 -64.777691837974999 0 -64.777691837974999 -92.96466681707534 0 0 0 0 -5.5196863119920181 -35.795696906472585 0 -35.795696906472585 -33.415692757578654 0 0 0 0 51.714568219453213 -2.8240409568679752 0 -2.8240409568679752 -100.2269177229864 0 0 0 0 -50.949831143843994 34.723817636782769 0 34.723817636782769 -117.35232438208186 0 0 0 0 -1.667610448936216 -35.926529884814954 0 -35.926529884814954 -23.220879912740202 0 0 0 0 -55.73922979644442 24.286630619169955 0 24.286630619169955 -113.06116486931569 0 0 0 0 -32.877739123273727 127.55368822740274 0 127.55368822740274 -234.42987380644627 0 0 0 0 7.171696132863417 41.195664456014129 0 41.195664456014129 -115.47465203815227 0 0 0 0 -110.1268652952657 117.46969580972245 0 117.46969580972245 -54.481267720708274 0 0 0 0 -0.98012764539176411 2.7903007026371753 0 2.7903007026371753 -2.1825088135382771 0 0 0 0 -185.07836129508325 -146.0351106603548 0 -146.0351106603548 -114.03901016357122 0 0 0 0 15.898373923366535 -85.31812013626768 0 -85.31812013626768 -316.54586652714534 0 0 0 0 -17.593970446934009 -70.964571012296801 0 -70.964571012296801 -7.3496991581923794 0 0 0 0 1.7135635746723845 -9.5568832631105778 0 -9.5568832631105778 -12.451049581741472 0 0 0 0 -38.078640298086839 -82.881222529969818 0 -82.881222529969818 36.929113117512316 0 0 0 0 -23.855723328540989 -30.894935120086302 0 -30.894935120086302 -50.729004893564706 0 0 0 0 39.699948116523501 -111.15725607598506 0 -111.15725607598506 -78.155914547580323 0 0 0 0 -44.115519687450615 -39.849794749998182 0 -39.849794749998182 13.766582436226599 0 0 0 0 8.6451692063452583 -43.582654678330073 0 -43.582654678330073 -98.268815465999069 0 0 0 0 39.080583078737618 -32.457722990689945 0 -32.457722990689945 -163.71107356024959 0 0 0 0 11.970679046476562 -44.1817745550361 0 -44.1817745550361 -85.481513765229465 0 0 0 0 33.815681614916116 -50.273785302933902 0 -50.273785302933902 -108.76778490248398 0 0 0 0 1.7680440558958193 -43.035117111712765 0 -43.035117111712765 -51.217418000541016 0 0 0 0 1.3202161750214145 -15.966241018490109 0 -15.966241018490109 -103.86571705282404 0 0 0 0 13.503375577164661 -15.935761863682274 0 -15.935761863682274 -127.15967595982511 0 0 0 0 4.4806106325572479 -41.64319650301006 0 -41.64319650301006 -50.551140684184119 0 0 0 0 -1.1225463379387293 -13.935653284755972 0 -13.935653284755972 -92.391108545198222 0 0 0 0 -22.126793444101622 -80.659050410427881 0 -80.659050410427881 -144.29580018232809 0 0 0 0 0.5980517733207571 -6.4900125114672278 0 -6.4900125114672278 -9.4264024762685779 0 0 0 0 -17.613060822381158 -59.626408560150594 0 -59.626408560150594 -47.463915565807838 0 0 0 0 16.751207959444741 -31.828445448054481 0 -31.828445448054481 -127.30710850804462 0 0 0 0 7.414292074320656 -16.100357676368731 0 -16.100357676368731 -116.95645400636204 0 0 0 0 -9.2164563771043504 -15.000214771658648 0 -15.000214771658648 -140.30367354177406 0 0 0 0 7.0959428561482127 -20.89447878968349 0 -20.89447878968349 -145.82297692522116 0 0 0 0 -9.1285009869920941 -5.0579254197491537 0 -5.0579254197491537 -133.60060946954036 0 0 0 0 8.0170284215546417 -6.9230554419264081 0 -6.9230554419264081 -135.3439502473957 0 0 0 0 -6.304095243303891 13.311714514555206 0 13.311714514555206 -119.51892879589286 0 0 0 0 14.819643396325318 -7.9132953281732625 0 -7.9132953281732625 -133.87487130126101 0 0 0 0 -4.6358583175922377 9.6208111683954485 0 9.6208111683954485 -107.70199749086896 0 0 0 0 9.6600423895490621 -2.6193350392377397 0 -2.6193350392377397 -126.35969688389741 0 0 0 0 13.511249010137817 -9.9455316589737777 0 -9.9455316589737777 -114.85501914958877 0 0 0 0 7.7292215062852847 -7.5504234596664901 0 -7.5504234596664901 -114.70761044294704 0 0 0 0 12.079806248438217 -21.782513635938813 0 -21.782513635938813 -108.61839080983191 0 0 0 0 6.7700509012574912 -19.669118755417003 0 -19.669118755417003 -107.77742872400268 0 0 0 0 -8.5159718164604783 -24.172675803478342 0 -24.172675803478342 -66.893614828528371 0 0 0 0 5.4946967891582972 -12.44072990098357 0 -12.44072990098357 -69.324866045659292 0 0 0 0 -2.0575039069917693 -1.8003172413446009 0 -1.8003172413446009 -33.071886933903443 0 0 0 0 -0.8595724343449529 -0.9333829656663255 0 -0.9333829656663255 -0.47291386762361753 0 0 0 0 -2.2667150577253778 -9.2603626969575998 0 -9.2603626969575998 -76.010122946636329 0 0 0 0 5.142360057710448 -12.526179675031017 0 -12.526179675031017 -76.885098444545292 0 0 0 0 -3.2607910695157276 -3.1650497118397851 0 -3.1650497118397851 -1.7227155415174025 0 0 0 0 -0.81632118541438103 8.3943387454128242 0 8.3943387454128242 -86.063942954708182 0 0 0 0 -8.3071812699181464 -7.1853393043347751 0 -7.1853393043347751 -63.421043191076024 0 0 0 0 -5.2924314817987579 8.3369160516595002 0 8.3369160516595002 -85.519839661417791 0 0 0 0 -1.1871105273055491 -5.2115391749430273 0 -5.2115391749430273 -8.5792945950670401 0 0 0 0 -0.33993881354032851 1.4098893167620332 0 1.4098893167620332 -2.3391396774052282 0 0 0 0 -8.828931945254908 -14.373944040013157 0 -14.373944040013157 -8.7067611046659295 0 0 0 0 2.1886274547659923 -5.3730459012149367 0 -5.3730459012149367 -67.050429137372703 0 0 0 0 1.9258677721215065 7.1372760373801611 0 7.1372760373801611 -61.928830586664844 0 0 0 0 -1.3873373882206579 4.6758722143022169 0 4.6758722143022169 -110.26776733146835 0 0 0 0 -3.7659762034640956 -3.1485095458698282 0 -3.1485095458698282 -1.2763102484244015 0 0 0 0 31.701589207538973 -33.718149584012281 0 -33.718149584012281 18.1701050158008 0 0 0 0 74.03040547435603 19.473173308702826 0 19.473173308702826 -6.1027708276960766 0 0 0 0 0.093059033104054834 -2.3448304425137394 0 -2.3448304425137394 -12.430831194258644 0 0 0 0 7.9219774356057542 -68.680934747619176 0 -68.680934747619176 -33.005304799356963 0 0 0 0 98.991402520834072 -27.290465461614076 0 -27.290465461614076 -48.510686392177377 0 0 0 0 -253.9287708897125 240.67888872428011 0 240.67888872428011 48.984411785451812 0 0 0 0 -1.020339949006134 0.51562711087365187 0 0.51562711087365187 -0.58588369216498393 0 0 0 0 -83.142956110144382 -144.98548622638009 0 -144.98548622638009 10.616615313556395 0 0 0 0 1.7013835476593613 -36.797674598114099 0 -36.797674598114099 -221.88071583375859 0 0 0 0 -0.72976944498674534 1.7746638454338068 0 1.7746638454338068 -1.9180104671088998 0 0 0 0 -20.431623754026077 -59.728583107651502 0 -59.728583107651502 -238.04352233350801 0 0 0 0 41.446157718368994 4.5867428263850343 0 4.5867428263850343 -315.80549826141214 0 0 0 0 17.95425121811877 10.463069076358806 0 10.463069076358806 -288.12793090027844 0 0 0 0 -2.4829547805081802 -130.04501971785794 0 -130.04501971785794 -548.71200635572313 0 0 0 0 -45.198350032460326 -113.45103515153824 0 -113.45103515153824 -353.71225502439484 0 0 0 0 25.160221053769419 23.100966803198389 0 23.100966803198389 -393.59312905892148 0 0 0 0 25.699485899816409 27.008875793988409 0 27.008875793988409 -193.04908627201803 0 0 0 0 24.808537348908288 10.366000613980077 0 10.366000613980077 -184.94668630245724 0 0 0 0 2.9540228597979876 24.31407735976245 0 24.31407735976245 -100.2622618088426 0 0 0 0 6.1634247468232388 -7.3087226455681957 0 -7.3087226455681957 -151.26431080348266 0 0 0 0 3.5923658362398783 -44.944978019984774 0 -44.944978019984774 -193.36096115206601 0 0 0 0 -0.072087738482423447 -7.3803261572029442 0 -7.3803261572029442 -90.141914545954933 0 0 0 0 40.023711221813301 21.583671279884584 0 21.583671279884584 -235.44055779059272 0 0 0 0 40.165137433963281 11.271633286544329 0 11.271633286544329 -250.6208643084683 0 0 0 0 25.166353380743658 38.579945173514716 0 38.579945173514716 -235.96992185759154 0 0 0 0 41.353037381696709 12.769310874740768 0 12.769310874740768 -212.25400222929602 0 0 0 0 26.599668243596852 26.910510302066086 0 26.910510302066086 -209.30208850101917 0 0 0 0 4.075954264981192 30.104801854366087 0 30.104801854366087 -203.69885203172453 0 0 0 0 -121.54744311042668 38.47303165232006 0 38.47303165232006 -130.50605276963324 0 0 0 0 -41.476674318324513 76.066712217943859 0 76.066712217943859 -155.86678101588041 0 0 0 0 -27.015789317073995 55.304702184388589 0 55.304702184388589 -150.14307841606205 0 0 0 0 -0.66474297729325915 -1.7865868127134803 0 -1.7865868127134803 -2.0149173477415161 0 0 0 0 -58.143173431569721 -77.308519811729639 0 -77.308519811729639 -84.469358556540101 0 0 0 0 23.012886659686956 18.908218743672478 0 18.908218743672478 -221.90468090564536 0 0 0 0 -54.841218620736527 37.628655502488982 0 37.628655502488982 -57.771429521191749 0 0 0 0 -27.56534160033425 -21.569086039329704 0 -21.569086039329704 -224.68027022431488 0 0 0 0 -6.4554105952001919 58.113813962969289 0 58.113813962969289 -192.99620186472748 0 0 0 0 -0.75377952569942863 16.987296953018813 0 16.987296953018813 -74.066708590980852 0 0 0 0 13.503276976518464 47.782310690483428 0 47.782310690483428 -149.151360675045 0 0 0 0 -3.3821743827602404 -0.6932206518467865 0 -0.6932206518467865 -4.1475527229631552 0 0 0 0 -1.4238102079103445 -0.92379647478426818 0 -0.92379647478426818 -0.38116575657952012 0 0 0 0 -14.054733872326324 42.606339418496646 0 42.606339418496646 -61.882926183076052 0 0 0 0 -2.5642210948644788 27.540501337629394 0 27.540501337629394 -39.961029975289421 0 0 0 0 -1.3332432213163923 -1.032694273324708 0 -1.032694273324708 -2.4546434575474976 0 0 0 0 -3.5685613972685619 -4.0077877390770027 0 -4.0077877390770027 -8.5281657322721784 0 0 0 0 -19.831710398538291 -18.07691662280422 0 -18.07691662280422 16.587691111795721 0 0 0 0 -7.3231314045615363 -8.428664797811507 0 -8.428664797811507 -10.633662827960507 0 0 0 0 -1.2058419838533059 -7.2951668888484136 0 -7.2951668888484136 -36.19209449587089 0 0 0 0 -0.95573748058859564 -1.0735669588593737 0 -1.0735669588593737 -22.186455190778361 0 0 0 0 -2.07832849958168 -9.6243757213069472 0 -9.6243757213069472 -21.659045387498907 0 0 0 0 -28.387618540057247 -31.90426825686518 0 -31.90426825686518 -15.51370952562138 0 0 0 0 0.1290673476700821 -1.0444828897794878 0 -1.0444828897794878 -15.572313981892478 0 0 0 0 -1.5578155952754615 -2.8863328075917458 0 -2.8863328075917458 -10.53474431762487 0 0 0 0 1.1619487724392457 -2.4596016951254569 0 -2.4596016951254569 -60.096588233973307 0 0 0 0 4.204498576057631 14.644733271394216 0 14.644733271394216 -27.273440646997187 0 0 0 0 -20.361781453835647 6.5614118178345961 0 6.5614118178345961 -20.799874336720677 0 0 0 0 -17.244099660056236 -24.001839305543399 0 -24.001839305543399 -57.982469967755605 0 0 0 0 -6.3055639945282564 1.1460196669431753 0 1.1460196669431753 -29.948542915022699 0 0 0 0 -0.60456319211061782 -10.842765655499534 0 -10.842765655499534 -19.912836829316802 0 0 0 0 9.7049909438271698 -7.6223619409593084 0 -7.6223619409593084 -56.582068466399505 0 0 0 0 10.565711222926438 -9.98810772282377 0 -9.98810772282377 -50.918397089948485 0 0 0 0 5.7763083341633319 -5.7389420421604882 0 -5.7389420421604882 -64.935158193060488 0 0 0 0 11.558471854084928 -11.547272278221499 0 -11.547272278221499 -60.084809359716019 0 0 0 0 11.372992160710055 -14.142907270717842 0 -14.142907270717842 -51.097298413220415 0 0 0 0 0.51124912149890633 -7.2662149882971789 0 -7.2662149882971789 -55.215473248492344 0 0 0 0 6.6771707529941189 -5.4947421186237904 0 -5.4947421186237904 -17.522313127249959 0 0 0 0 0.7208701879135333 -7.5697838862542994 0 -7.5697838862542994 -37.937219464234659 0 0 0 0 -0.16639170080816257 -44.351748582826986 0 -44.351748582826986 -129.89299367949388 0 0 0 0 14.634944419758881 -8.2972462130146596 0 -8.2972462130146596 -56.912197581172222 0 0 0 0 2.2134071195846872 -4.4045930573146279 0 -4.4045930573146279 -4.370434463599608 0 0 0 0 15.648755923948567 3.4984476056768017 0 3.4984476056768017 -17.33619075537824 0 0 0 0 -5.5143712450335443 -25.418333830264601 0 -25.418333830264601 -91.179337240348104 0 0 0 0 11.659137093622121 -38.350093860353809 0 -38.350093860353809 -98.123229892402378 0 0 0 0 13.811887316546063 -13.283290872137059 0 -13.283290872137059 -88.108570834898273 0 0 0 0 -22.086053614268167 -48.679651793492667 0 -48.679651793492667 -96.488320052216295 0 0 0 0 -13.304732566302505 -60.070364485550044 0 -60.070364485550044 -102.47355498718389 0 0 0 0 11.292137185588107 -3.4822713827205121 0 -3.4822713827205121 -34.465228775465576 0 0 0 0 -12.753461287949904 -55.34212538551219 0 -55.34212538551219 -160.66268331196261 0 0 0 0 -0.26047864537112275 -1.622060743988996 0 -1.622060743988996 -7.6685453414667535 0 0 0 0 7.6484845963859698 -27.18596874504874 0 -27.18596874504874 -83.284572588701849 0 0 0 0 10.194928164641169 -27.331421322469396 0 -27.331421322469396 -77.230650168348802 0 0 0 0 -0.071836708850241848 -51.906207270349114 0 -51.906207270349114 -105.17090611049207 0 0 0 0 7.700715664170275 -29.620743097868399 0 -29.620743097868399 -62.200312794161619 0 0 0 0 38.023605583060998 -22.807491387342452 0 -22.807491387342452 -62.489253629181349 0 0 0 0 40.893988324667589 -23.339836189508787 0 -23.339836189508787 -84.595207501071854 0 0 0 0 25.564262337204582 -44.492229621449951 0 -44.492229621449951 -77.788241070404183 0 0 0 0 0.65701482887091345 -15.325960603991831 0 -15.325960603991831 -38.314089355264912 0 0 0 0 8.7116802453256241 -14.908469486195827 0 -14.908469486195827 -48.563048689815332 0 0 0 0 -0.71614560786110815 -9.5818502228939906 0 -9.5818502228939906 -42.964454221539199 0 0 0 0 -1.5149275992438174 -6.5608615463651745 0 -6.5608615463651745 -13.280545301534545 0 0 0 0 21.047765358181266 23.039619816421691 0 23.039619816421691 -57.233317408521543 0 0 0 0 4.1140543338146927 -31.800106786049582 0 -31.800106786049582 -105.06380534463096 0 0 0 0 -8.7364809685223008 3.0474218223316711 0 3.0474218223316711 -129.95717724513088 0 0 0 0 -79.984305383086394 21.679694478101737 0 21.679694478101737 -42.197068870795192 0 0 0 0 -58.829459744965334 33.223249326572841 0 33.223249326572841 -98.959501015677233 0 0 0 0 -56.153824328917835 47.702907968247018 0 47.702907968247018 -132.64385646667506 0 0 0 0 -23.296358064369997 -14.818541870648914 0 -14.818541870648914 -29.864645473600831 0 0 0 0 -11.247998838802687 -65.796136342287355 0 -65.796136342287355 -52.105486840329831 0 0 0 0 -8.7837833694419789 -25.717810429476831 0 -25.717810429476831 -58.227961599363454 0 0 0 0 159.28347713275207 19.520312669225859 0 19.520312669225859 -48.925208037588163 0 0 0 0 75.716343482679804 -23.381616363898502 0 -23.381616363898502 -30.154931286961073 0 0 0 0 48.048905660085438 -16.386715009255568 0 -16.386715009255568 -19.07347301657137 0 0 0 0 68.972252189828168 29.985405717505273 0 29.985405717505273 -19.068804892332992 0 0 0 0 41.935482592380595 11.763056312246135 0 11.763056312246135 -14.689327463333029 0 0 0 0 9.6807533419196261 -14.994941363132966 0 -14.994941363132966 -29.110964689491084 0 0 0 0 53.399772375702014 -129.62403555271885 0 -129.62403555271885 -15.628188676928403 0 0 0 0 -24.246205741207802 -76.676816950868897 0 -76.676816950868897 19.807830661709886 0 0 0 0 141.64656607362849 -88.438931663411495 0 -88.438931663411495 -46.706777513143606 0 0 0 0 -7.080216918102451 -98.224821269166569 0 -98.224821269166569 -125.66411066169894 0 0 0 0 69.557184127320397 83.490193457306304 0 83.490193457306304 42.247374294580368 0 0 0 0 2.2324404364370736 0.51136670606636869 0 0.51136670606636869 -1.3568011708676124 0 0 0 0 -22.915672110675587 -28.172319527693617 0 -28.172319527693617 -73.921603409478848 0 0 0 0 -2.6345658390946483 -59.974268524696527 0 -59.974268524696527 -124.60940637698513 0 0 0 0 3.4105169547785792 -0.2657099097780673 0 -0.2657099097780673 0.07001601969523108 0 0 0 0 10.20227329897034 15.1607817731674 0 15.1607817731674 -21.255294862588926 0 0 0 0 24.966267689556844 -6.8093403361326637 0 -6.8093403361326637 -52.053971335291862 0 0 0 0 0.31302065867566853 -42.276897674415522 0 -42.276897674415522 -75.447108893260065 0 0 0 0 50.099347204957667 7.6091404434992 0 7.6091404434992 -70.111154491081834 0 0 0 0 30.882692167851928 -18.452506177767646 0 -18.452506177767646 -51.798813282919582 0 0 0 0 14.352785139544721 0.96916488694841973 0 0.96916488694841973 26.740769264220035 0 0 0 0 22.583960808820848 -43.750676571413351 0 -43.750676571413351 -66.955605919509253 0 0 0 0 -0.38590442552776949 -23.351653837813501 0 -23.351653837813501 -85.059566699819698 0 0 0 0 7.3579279210131574 -2.5281593558531483 0 -2.5281593558531483 -14.032556694915868 0 0 0 0 20.534867201100496 -36.01571132105164 0 -36.01571132105164 -103.69003218801663 0 0 0 0 14.852367528550985 -12.028279217601721 0 -12.028279217601721 -94.958706823053944 0 0 0 0 8.0325243472486818 -3.0828077790729367 0 -3.0828077790729367 -56.344513189425925 0 0 0 0 8.3792331523052024 -19.369124812833888 0 -19.369124812833888 -25.453337701057372 0 0 0 0 8.4143538539851761 -3.4606059274938161 0 -3.4606059274938161 -60.410980333159387 0 0 0 0 9.0791942415416997 -5.6714278107883729 0 -5.6714278107883729 -60.147893296909388 0 0 0 0 -3.2564501370061407 -19.404701482199016 0 -19.404701482199016 -95.389346025759551 0 0 0 0 -12.337268082558921 -20.787271445167789 0 -20.787271445167789 -80.390109354677406 0 0 0 0 2.2590049065971911 1.0233953892372369 0 1.0233953892372369 -17.171319484622842 0 0 0 0 12.33002886852006 19.723058240266255 0 19.723058240266255 -35.657772424219729 0 0 0 0 1.049274048534981 1.4741852433540998 0 1.4741852433540998 -1.5328781408609018 0 0 0 0 13.708411396250995 -32.060393392726837 0 -32.060393392726837 -149.3404701338477 0 0 0 0 -8.7764997955921729 26.285435601661447 0 26.285435601661447 -58.590634632091678 0 0 0 0 29.65916934121924 -42.088800102912501 0 -42.088800102912501 -137.31167124891726 0 0 0 0 -9.4466207332588965 -38.845547429998987 0 -38.845547429998987 -82.590691267811053 0 0 0 0 4.9920903022371732 -4.0250877623366677 0 -4.0250877623366677 -6.289125739237825 0 0 0 0 -1.7797883912862744 -14.50586926705364 0 -14.50586926705364 -56.311805634995835 0 0 0 0 4.6709460038036923 2.4543376097681175 0 2.4543376097681175 -56.12820702451063 0 0 0 0 11.860311998332122 -3.5873222515193248 0 -3.5873222515193248 -11.798357072220341 0 0 0 0 4.610077903957972 -16.306414645347104 0 -16.306414645347104 -53.607702542380139 0 0 0 0 18.928199186122583 -17.357790437250515 0 -17.357790437250515 -99.194845980255195 0 0 0 0 10.471635998885953 7.2830070999374854 0 7.2830070999374854 -32.593236526875089 0 0 0 0 8.0829948170430725 -21.616919689164206 0 -21.616919689164206 -65.391638524750306 0 0 0 0 -3.3445269864505462 -19.938562570407157 0 -19.938562570407157 -88.711689047157051 0 0 0 0 -3.0805825811485903 -22.753769919982318 0 -22.753769919982318 -30.95642449646499 0 0 0 0 7.8489528667007562 -13.367034538426196 0 -13.367034538426196 -73.869592140079476 0 0 0 0 6.3844493645578879 -16.124737871978937 0 -16.124737871978937 -28.606165264000396 0 0 0 0 12.357211393678392 3.9901986959365132 0 3.9901986959365132 -29.822863796505203 0 0 0 0 2.0518998101458692 8.5984805686312029 0 8.5984805686312029 -59.357588939761627 0 0 0 0 8.8810453018199951 -16.871403286080749 0 -16.871403286080749 -48.644827901651297 0 0 0 0 -0.36877267339923492 22.557859196611389 0 22.557859196611389 -83.606908667743483 0 0 0 0 10.399472796798818 9.7371564947661682 0 9.7371564947661682 -78.987177102935675 0 0 0 0 17.240830985604816 18.493341959954705 0 18.493341959954705 -110.31723685402153 0 0 0 0 12.391154315816493 2.7279005054260779 0 2.7279005054260779 -108.52203292856711 0 0 0 0 6.8832753475592199 2.9094920981997348 0 2.9094920981997348 -70.076848101642099 0 0 0 0 -1.6281670283667609 -2.6780701605239301 0 -2.6780701605239301 -71.936380810235278 0 0 0 0 6.4873543714642397 14.771823041492951 0 14.771823041492951 -46.047236268032556 0 0 0 0 14.565578185568256 1.6853363701866328 0 1.6853363701866328 -72.139223209840566 0 0 0 0 17.765176850902147 -34.410253206063317 0 -34.410253206063317 -76.639288705213403 0 0 0 0 8.607544521023204 -4.6209725071455665 0 -4.6209725071455665 -70.45241061611182 0 0 0 0 258.75656566658927 -136.92750555542102 0 -136.92750555542102 -97.367178883120914 0 0 0 0 231.56390223580365 -196.77237622961684 0 -196.77237622961684 -10.972153694110261 0 0 0 0 433.26895464640984 -73.101264143466778 0 -73.101264143466778 -74.296704048992524 0 0 0 0 25.068472210521474 -0.98326569883335679 0 -0.98326569883335679 -42.022543806566908 0 0 0 0 0.40542980126201655 -5.9940425431168478 0 -5.9940425431168478 -127.2404788531021 0 0 0 0 17.62361015575739 -19.041321493541332 0 -19.041321493541332 -110.91827679086377 0 0 0 0 -10.022894733770499 18.180554015405505 0 18.180554015405505 -116.79952033844529 0 0 0 0 213.3752477643061 -141.07533496991465 0 -141.07533496991465 -76.971152361427585 0 0 0 0 253.53705088608592 -14.634183491272594 0 -14.634183491272594 -149.64956816004405 0 0 0 0 122.11158746565889 -25.951446124005997 0 -25.951446124005997 -125.41628872061892 0 0 0 0 95.755664032882123 -40.819032884930436 0 -40.819032884930436 -58.238575170858311 0 0 0 0 15.503597839844259 -20.520036600286858 0 -20.520036600286858 -113.12107790764013 0 0 0 0 178.95366007390885 -126.19500166040828 0 -126.19500166040828 -54.273282819493261 0 0 0 0 54.538738715588579 -3.3930380513575074 0 -3.3930380513575074 -137.12737627061097 0 0 0 0 6.0016625553116683 30.034935665005605 0 30.034935665005605 -134.22897716492298 0 0 0 0 37.76101503392124 24.275515119550619 0 24.275515119550619 -168.1227163938056 0 0 0 0 16.885314121222336 22.257977103630765 0 22.257977103630765 -129.34791494957608 0 0 0 0 8.2871280568056136 3.5386417975250879 0 3.5386417975250879 -135.25436777849245 0 0 0 0 -233.89490573274679 169.38122285275679 0 169.38122285275679 -103.3603789100423 0 0 0 0 -259.54640816280698 156.21196842534573 0 156.21196842534573 -108.33353703716534 0 0 0 0 68.684324466157705 -44.261503174906238 0 -44.261503174906238 -113.07300766683636 0 0 0 0 -52.708485835380998 77.633272590743672 0 77.633272590743672 -134.4292668785082 0 0 0 0 13.43316638311444 -7.3710552570200463 0 -7.3710552570200463 -57.964474274380905 0 0 0 0 -195.74991662713728 -15.621786505695781 0 -15.621786505695781 -24.701233599223258 0 0 0 0 -1.6005260710319682 0.66205265136097036 0 0.66205265136097036 0.32504162254897406 0 0 0 0 -113.75652130971048 -63.278230092108686 0 -63.278230092108686 -11.128450608876278 0 0 0 0 -193.43298621035137 97.172983828045361 0 97.172983828045361 -115.88460310937171 0 0 0 0 21.156197839914057 81.799464007831602 0 81.799464007831602 -209.29127456682528 0 0 0 0 200.3233302371882 -47.237091426083225 0 -47.237091426083225 -156.94024472569225 0 0 0 0 14.063594254153941 52.261543482695402 0 52.261543482695402 -136.76436463755977 0 0 0 0 90.299131614463477 52.506904231910994 0 52.506904231910994 -252.09034447596423 0 0 0 0 112.24238354912995 -40.824707702557362 0 -40.824707702557362 -102.80458136246807 0 0 0 0 -253.83854645745851 181.94922801179752 0 181.94922801179752 -201.9214980755371 0 0 0 0 -97.640163458883762 41.84548915210928 0 41.84548915210928 -156.8352569362911 0 0 0 0 36.017492307299108 55.872643473042174 0 55.872643473042174 -285.01164221178624 0 0 0 0 29.258876501809368 -13.542554484189523 0 -13.542554484189523 -152.09047043745886 0 0 0 0 -82.808416048012077 127.44764573000498 0 127.44764573000498 -312.65844515113935 0 0 0 0 178.22846547606696 5.2147289292042842 0 5.2147289292042842 -84.029058220469324 0 0 0 0 181.05973407183956 -81.889473495607263 0 -81.889473495607263 -260.14899564427924 0 0 0 0 163.86486037354916 -128.2076637241928 0 -128.2076637241928 -70.170689394104102 0 0 0 0 234.62655913721028 -179.35173456028087 0 -179.35173456028087 -53.701583705588007 0 0 0 0 151.93971859089288 -140.2540699092865 0 -140.2540699092865 21.340834699710285 0 0 0 0 259.7078543544576 -159.69517885680125 0 -159.69517885680125 -110.65534428923343 0 0 0 0 126.43874086117648 -210.09903530293718 0 -210.09903530293718 -104.55479875671108 0 0 0 0 88.609792341878119 -64.858448638225639 0 -64.858448638225639 -199.99274738238591 0 0 0 0 -40.138346695761356 -184.72390763844351 0 -184.72390763844351 -311.41335658844855 0 0 0 0 -479.07664872748501 -14.996334354290525 0 -14.996334354290525 -49.981997219163077 0 0 0 0 -26.462346202253229 -112.14300748130901 0 -112.14300748130901 -601.63232602587618 0 0 0 0 -64.071069775298383 193.86456495675156 0 193.86456495675156 -711.5057465794506 0 0 0 0 -518.85061370845585 391.42605948958203 0 391.42605948958203 -286.46440874887003 0 0 0 0 71.557991226466129 21.12095606011458 0 21.12095606011458 -426.68407300023341 0 0 0 0 28.153676293548415 6.2490197640861425 0 6.2490197640861425 -72.917476668655297 0 0 0 0 1.5504490001077791 0.48690697212672562 0 0.48690697212672562 -0.30674549197475676 0 0 0 0 -523.40267296824754 -132.15461973414452 0 -132.15461973414452 -42.003244082172387 0 0 0 0 59.701278793114398 -45.711951075504942 0 -45.711951075504942 -775.39131300341455 0 0 0 0 -1.4029581199865868 -2.5158918365942107 0 -2.5158918365942107 -7.4895621612202277 0 0 0 0 13.867916242370484 325.00353153506217 0 325.00353153506217 -605.49188089490951 0 0 0 0 19.870225519493033 280.12985059250155 0 280.12985059250155 -278.18427912414631 0 0 0 0 75.117083444763011 298.38428587975574 0 298.38428587975574 -449.32713777207601 0 0 0 0 -2.0133705489115528 249.80413542439913 0 249.80413542439913 -145.00191796748254 0 0 0 0 482.05513003465239 -115.30747766406705 0 -115.30747766406705 -195.91554006662909 0 0 0 0 -237.77346038707947 -94.382941203398786 0 -94.382941203398786 205.1087200165066 0 0 0 0 -1.2479578686660506 -8.2124071919777748 0 -8.2124071919777748 -20.879850889896073 0 0 0 0 122.47266319531809 -24.421752845614265 0 -24.421752845614265 9.7984813472613723 0 0 0 0 371.34619166127777 -169.16120579475648 0 -169.16120579475648 -157.65613578647572 0 0 0 0 -83.676987374312375 27.834292978953272 0 27.834292978953272 -106.01318114378773 0 0 0 0 -81.668850804541762 95.033436826308389 0 95.033436826308389 326.81122531236088 0 0 0 0 336.78351960380132 -261.48878728999443 0 -261.48878728999443 37.540105530026267 0 0 0 0 10.341440882957613 -98.853124631246146 0 -98.853124631246146 -33.743019835903397 0 0 0 0 9.8631899810254708 -96.167421005779033 0 -96.167421005779033 -35.411212975823219 0 0 0 0 -69.50006293125989 -81.385964760540446 0 -81.385964760540446 -19.077679334704953 0 0 0 0 -68.057581949240557 -46.736271400612168 0 -46.736271400612168 -100.15886138722635 0 0 0 0 -295.99303846121529 37.619367801625913 0 37.619367801625913 77.52740849852853 0 0 0 0 439.11957592477847 -148.03154186465872 0 -148.03154186465872 17.876027960173815 0 0 0 0 658.27462469302782 -174.88024821749553 0 -174.88024821749553 5.4821658322061921 0 0 0 0 1.0535254209640517 -4.6466749970448902 0 -4.6466749970448902 -2.1389728053291295 0 0 0 0 384.32288958507343 29.462533817484086 0 29.462533817484086 1.0993050736060468 0 0 0 0 89.542749504648782 -174.71056668657093 0 -174.71056668657093 29.386735991388264 0 0 0 0 9.1396625883951028 -14.896646115920889 0 -14.896646115920889 -69.891705868026406 0 0 0 0 19.851932843465818 10.655359595049504 0 10.655359595049504 -77.704405268825212 0 0 0 0 20.312078949567649 0.91459304139243613 0 0.91459304139243613 -98.562269068286696 0 0 0 0 8.1794080727979441 -2.6506580422142574 0 -2.6506580422142574 -22.117358096162235 0 0 0 0 79.10990885497813 -195.0337696279887 0 -195.0337696279887 268.55042533629285 0 0 0 0 228.24030261296139 -267.62243180925361 0 -267.62243180925361 -123.21806771836123 0 0 0 0 94.866717290922679 25.778444780176869 0 25.778444780176869 -64.362877526550164 0 0 0 0 9.2363253259326488 -9.3366310989789962 0 -9.3366310989789962 -58.374998724824543 0 0 0 0 233.30394397735461 36.043390623246523 0 36.043390623246523 -68.560684000255605 0 0 0 0 153.95181279414101 -104.16089056283727 0 -104.16089056283727 -63.05816673818299 0 0 0 0 11.793961766214474 2.9625694899828332 0 2.9625694899828332 -34.949856992385953 0 0 0 0 17.006920531783067 -12.199134714100182 0 -12.199134714100182 -84.366897377294663 0 0 0 0 13.434125188768178 -6.3503717488856637 0 -6.3503717488856637 -74.474889722616354 0 0 0 0 12.399928778367043 -23.55263358802739 0 -23.55263358802739 -32.74729306688694 0 0 0 0 21.835169898891081 -12.59199473418812 0 -12.59199473418812 -61.996858388854889 0 0 0 0 10.823860490020138 -18.204364577626748 0 -18.204364577626748 -47.271466529636754 0 0 0 0 12.743895753813064 -27.33967622909438 0 -27.33967622909438 -43.31275501534401 0 0 0 0 7.1306384251797681 2.9237979767813158 0 2.9237979767813158 -113.86721347152343 0 0 0 0 13.467125723067253 -15.019325490950962 0 -15.019325490950962 -44.036356683417324 0 0 0 0 49.148145539525331 -13.492197846480849 0 -13.492197846480849 -96.626276201714063 0 0 0 0 11.470138878812577 15.092737679908169 0 15.092737679908169 -93.86454535895291 0 0 0 0 2.5431571877806842 -9.1386194212583707 0 -9.1386194212583707 -15.453390836477716 0 0 0 0 -106.63520434099973 -95.269299413967246 0 -95.269299413967246 -36.10472939223655 0 0 0 0 0.39558415583235185 -3.3677050651642677 0 -3.3677050651642677 -17.03432720976582 0 0 0 0 19.20074964955802 -2.4987830145780663 0 -2.4987830145780663 -14.10678484905111 0 0 0 0 -66.484528058917022 -53.139515350954298 0 -53.139515350954298 -34.092766749296061 0 0 0 0 84.589100024351865 -103.02803494088676 0 -103.02803494088676 -57.492295235545498 0 0 0 0 40.655283558777228 -87.041210360338482 0 -87.041210360338482 -70.765423295468281 0 0 0 0 41.074905010260409 -81.643424505411531 0 -81.643424505411531 -43.466621445644705 0 0 0 0 25.706900729739573 -62.30373415062968 0 -62.30373415062968 -46.761649413031591 0 0 0 0 37.195535646087592 -42.382721000314632 0 -42.382721000314632 -15.01844036253533 0 0 0 0 -2.3806012899931375 4.6534432264234056 0 4.6534432264234056 -111.87624220854377 0 0 0 0 23.043741775598519 -24.547177666917335 0 -24.547177666917335 -46.351847850536672 0 0 0 0 5.0066331386424281 1.3113461240027391 0 1.3113461240027391 -55.095400348604926 0 0 0 0 14.406709629441936 -10.349362579991976 0 -10.349362579991976 -45.327133556038177 0 0 0 0 8.5535638953060698 -63.749255645216635 0 -63.749255645216635 -7.784133889246732 0 0 0 0 11.821681679465129 -16.692318414295897 0 -16.692318414295897 -14.294596767404141 0 0 0 0 18.034203138266093 -14.216501272986534 0 -14.216501272986534 -52.72353446341549 0 0 0 0 15.261107042102594 -19.160580105476129 0 -19.160580105476129 -43.252816791220539 0 0 0 0 5.8391748175852172 -2.9626565445070128 0 -2.9626565445070128 -24.078960607732174 0 0 0 0 5.2853746075197705 -69.843351959932079 0 -69.843351959932079 -13.49115467970114 0 0 0 0 8.0776490261268918 -16.13835193849809 0 -16.13835193849809 -11.517710388323394 0 0 0 0 -1.0398346585671252 -10.532753826849108 0 -10.532753826849108 -27.904089691494377 0 0 0 0 7.5787760810817417 -10.513730280920299 0 -10.513730280920299 -39.074285444358793 0 0 0 0 147.79474275132725 -120.77322976764637 0 -120.77322976764637 4.8310184884981027 0 0 0 0 94.049271912047971 -104.32809861138476 0 -104.32809861138476 14.27263501292839 0 0 0 0 101.9103623952924 -78.568551475392951 0 -78.568551475392951 54.570353714607094 0 0 0 0 0.23789486319521558 0.020473625825621955 0 0.020473625825621955 -9.372157125370304 0 0 0 0 39.429222586505148 -58.325331690830254 0 -58.325331690830254 15.531145789393918 0 0 0 0 238.21984151007018 -65.873499879514725 0 -65.873499879514725 -14.711638855446267 0 0 0 0 296.97863638995386 -213.29045164555538 0 -213.29045164555538 4.9591772303069774 0 0 0 0 68.339243993703349 -126.21344594132825 0 -126.21344594132825 51.751356738180675 0 0 0 0 -9.9271393665248979 -209.94956817120521 0 -209.94956817120521 54.52389470858725 0 0 0 0 -271.59747929256264 4.2351940688926106 0 4.2351940688926106 129.18492061481857 0 0 0 0 -73.988396937955258 -3.7247448281539164 0 -3.7247448281539164 1.6392493621782762 0 0 0 0 -27.078501116853658 -122.25225737044093 0 -122.25225737044093 12.874523368507973 0 0 0 0 -128.93964864052214 -59.67464066991009 0 -59.67464066991009 68.731640030135821 0 0 0 0 -14.700807975159478 -38.983068902608025 0 -38.983068902608025 23.014930775143824 0 0 0 0 -13.057343673014657 -28.860653579512821 0 -28.860653579512821 -1.7526977906024328 0 0 0 0 -115.24992965419813 36.284473011503948 0 36.284473011503948 -11.634796207879447 0 0 0 0 -1.0812357730970348 -0.087577017762484388 0 -0.087577017762484388 -2.0351602509916216 0 0 0 0 27.278156160159597 -66.028920957815671 0 -66.028920957815671 -39.918942386152594 0 0 0 0 -0.85953806758830176 -0.95686260238498555 0 -0.95686260238498555 -16.579419839371766 0 0 0 0 1.5711794842909512 -7.1959522255547199 0 -7.1959522255547199 -18.001309316821676 0 0 0 0 -0.18148349742610748 -2.3977544019926418 0 -2.3977544019926418 -15.60276815848739 0 0 0 0 32.159256243022355 78.280349264843835 0 78.280349264843835 -78.5692227890504 0 0 0 0 21.400868265293866 45.008866412502925 0 45.008866412502925 4.5389183562431299 0 0 0 0 3.8910147310089087 -0.60276126123483209 0 -0.60276126123483209 -17.577719513289594 0 0 0 0 0.2070565503263424 362.60838761023263 0 362.60838761023263 363.71614082826159 0 0 0 0 241.38349486954212 73.385479300199336 0 73.385479300199336 -26.138235949858881 0 0 0 0 -355.27903778060863 -39.619975844491478 0 -39.619975844491478 106.66895624228755 0 0 0 0 -619.26536630682494 -446.3382581437204 0 -446.3382581437204 499.28033389887884 0 0 0 0 -0.86712087494193213 -2.5033004784644497 0 -2.5033004784644497 -1.7246831978770736 0 0 0 0 0.31156049561241161 -40.904587566325972 0 -40.904587566325972 -146.60372607662248 0 0 0 0 -0.10010683760946115 -4.2121101960942759 0 -4.2121101960942759 -24.567415919006116 0 0 0 0 -6.3753984332479376 193.04200236051156 0 193.04200236051156 -412.45692706651789 0 0 0 0 -97.297781324015887 161.17616971275356 0 161.17616971275356 -132.28074135583407 0 0 0 0 72.53462736876827 91.067379150289526 0 91.067379150289526 -487.15904163259711 0 0 0 0 -243.15074772083472 429.59250704881583 0 429.59250704881583 -625.16281866216104 0 0 0 0 740.10801588901268 -400.79614115862933 0 -400.79614115862933 -1318.5210619847931 0 0 0 0 0.01731108609162213 -1.2108612185590175 0 -1.2108612185590175 -7.5962744532061546 0 0 0 0 -0.47225596553585447 -2.7567230834470404 0 -2.7567230834470404 -10.083227754226254 0 0 0 0 -418.15337669564451 -646.53308820258201 0 -646.53308820258201 -933.80112378120612 0 0 0 0 -355.35230538960241 637.84904370031177 0 637.84904370031177 -1148.7121332694564 0 0 0 0 -60.589126678543835 100.80100519544703 0 100.80100519544703 -1559.761777207528 0 0 0 0 -160.10446240472811 99.049186567620154 0 99.049186567620154 -555.23778209140119 0 0 0 0 -123.77941644491511 -190.1243519700115 0 -190.1243519700115 -767.86976453991542 0 0 0 0 -117.61445936649761 -88.204150162696124 0 -88.204150162696124 -207.91687152765098 0 0 0 0 -297.25280323915649 357.43350499823373 0 357.43350499823373 -472.21208903255888 0 0 0 0 -45.70270836459531 213.65981714979131 0 213.65981714979131 -398.45922633893815 0 0 0 0 -36.907912091315666 182.07455934458494 0 182.07455934458494 -784.4011413760652 0 0 0 0 57.156792626301467 141.82970156437415 0 141.82970156437415 -398.99436865690313 0 0 0 0 70.932400677911573 189.9993056699094 0 189.9993056699094 -302.95391037653133 0 0 0 0 199.11810263307052 -16.561514723616142 0 -16.561514723616142 -140.78626439618347 0 0 0 0 207.01116076745529 -25.422657983959425 0 -25.422657983959425 -253.32119785465147 0 0 0 0 22.720565733834519 22.207021380640072 0 22.207021380640072 -190.21653446673008 0 0 0 0 17.171709517104318 -34.034716713117859 0 -34.034716713117859 -515.08807676054744 0 0 0 0 112.39115054010836 -47.020507244068995 0 -47.020507244068995 -242.401154455766 0 0 0 0 118.03944479654092 42.26693724063216 0 42.26693724063216 -200.82222104042921 0 0 0 0 -51.419855271356937 -149.05395311795678 0 -149.05395311795678 -79.353797684235246 0 0 0 0 150.66527280992705 -145.56409429682708 0 -145.56409429682708 77.901978521470483 0 0 0 0 347.60180064350425 -58.731617308288605 0 -58.731617308288605 -194.30519418492668 0 0 0 0 183.09339075429853 -73.601381479250904 0 -73.601381479250904 230.23382860210222 0 0 0 0 116.83218196074267 -47.568245100891545 0 -47.568245100891545 -36.273796220142231 0 0 0 0 -265.69679744083624 -80.969379401549986 0 -80.969379401549986 73.210026984565729 0 0 0 0 -295.8990694325239 -69.378628739554301 0 -69.378628739554301 84.289930577570885 0 0 0 0 -460.01860481587937 -324.59894308225421 0 -324.59894308225421 -13.223878598247211 0 0 0 0 -47.301814846995512 -130.69489430932273 0 -130.69489430932273 -234.32101253928977 0 0 0 0 -331.22563782017096 -105.90328082737983 0 -105.90328082737983 68.810525842612947 0 0 0 0 0.13355888986097852 -128.00688640853787 0 -128.00688640853787 242.47248502249795 0 0 0 0 115.50007189851476 116.42383183326001 0 116.42383183326001 -364.46789146062747 0 0 0 0 -234.06334859080562 299.89574724604699 0 299.89574724604699 148.69963947988617 0 0 0 0 -2.2153777182437659 2.821211700153647 0 2.821211700153647 -2.481081375240386 0 0 0 0 -104.93983634726465 153.89197205025994 0 153.89197205025994 32.212487485432575 0 0 0 0 -201.54312236695114 313.87679527507953 0 313.87679527507953 -211.86785172307646 0 0 0 0 -411.36853418617193 226.33294992522542 0 226.33294992522542 21.076123013196593 0 0 0 0 -77.187743222913014 -79.487255619866573 0 -79.487255619866573 -112.76953485246304 0 0 0 0 -0.36496453286167574 1.6384668946278058 0 1.6384668946278058 -3.2206675127530922 0 0 0 0 -41.666200327123079 11.523484289787575 0 11.523484289787575 -19.479733950641275 0 0 0 0 -41.411488733579063 2.7369337293862372 0 2.7369337293862372 0.76398005734017715 0 0 0 0 0.030257142784080204 1.9124372434167203 0 1.9124372434167203 -8.7547383733970818 0 0 0 0 72.799199317547391 103.87929207504203 0 103.87929207504203 -229.5106588593153 0 0 0 0 -47.92266190420014 -4.0019112162740385 0 -4.0019112162740385 6.733866912710937 0 0 0 0 11.110205263252283 1.1951671262627315 0 1.1951671262627315 -269.35390938807177 0 0 0 0 -14.016695705651728 152.40363669395629 0 152.40363669395629 -206.93856186195876 0 0 0 0 71.645199304668495 57.90762483155504 0 57.90762483155504 -349.39115957456323 0 0 0 0 -52.437859141740773 78.724308433978877 0 78.724308433978877 -346.58153499529544 0 0 0 0 -102.20247884741184 -25.044922997739377 0 -25.044922997739377 -206.95635242853189 0 0 0 0 -326.16260087313367 32.917494473876332 0 32.917494473876332 -212.97459983239878 0 0 0 0 -128.73774732303218 165.82576583881928 0 165.82576583881928 -297.85308258874102 0 0 0 0 -8.5712153513485418 82.732933410407099 0 82.732933410407099 -347.59341074902659 0 0 0 0 -155.54398439123952 147.17165227161149 0 147.17165227161149 -308.33146183940244 0 0 0 0 -219.70429379079565 -81.384258453697385 0 -81.384258453697385 -212.13559898242602 0 0 0 0 -175.95373469932201 -45.632381061326669 0 -45.632381061326669 -205.99590766326492 0 0 0 0 -105.81109861850928 11.242626427431787 0 11.242626427431787 -185.23792562737435 0 0 0 0 -162.6698349092394 55.796498479058755 0 55.796498479058755 -111.03926333427535 0 0 0 0 -7.2214741985785622 61.588058025585269 0 61.588058025585269 -190.41628248375764 0 0 0 0 175.63823773248168 -11.757985231824023 0 -11.757985231824023 -232.49784029373768 0 0 0 0 -146.21597973979732 72.205546570482056 0 72.205546570482056 -16.19717259360732 0 0 0 0 -107.8049859869725 17.620377182695847 0 17.620377182695847 -203.87336799492914 0 0 0 0 -283.62485873884543 -96.038023471644465 0 -96.038023471644465 -195.11035172479023 0 0 0 0 -40.135755839197373 -165.91448856660236 0 -165.91448856660236 -233.4697188115706 0 0 0 0 -113.60778245600443 -103.53047422796146 0 -103.53047422796146 -330.67916990816593 0 0 0 0 -99.729613564642023 -40.799164217065481 0 -40.799164217065481 -149.17248682379386 0 0 0 0 -106.90580635510787 -8.5952387046149852 0 -8.5952387046149852 -181.78573030146617 0 0 0 0 -84.315554207813875 69.794193881661613 0 69.794193881661613 -59.541773472989007 0 0 0 0 -231.6259879052468 70.81257968727823 0 70.81257968727823 -190.31656957045743 0 0 0 0 -268.21311482048918 -135.73967689091796 0 -135.73967689091796 -260.96293240868999 0 0 0 0 -337.86229070504396 -55.009407508649929 0 -55.009407508649929 -132.83042873422755 0 0 0 0 -273.53413113878787 -1.1212501835552757 0 -1.1212501835552757 -15.674661446778373 0 0 0 0 -20.056488998595796 65.958742566644787 0 65.958742566644787 -157.88458078891472 0 0 0 0 -95.161189307181303 -103.80654582112038 0 -103.80654582112038 -342.98940621552106 0 0 0 0 -2.463299604172283 -1.579504313076411 0 -1.579504313076411 -0.66429708037944835 0 0 0 0 -38.1707802776682 -57.747716501122341 0 -57.747716501122341 -67.501623008062325 0 0 0 0 -86.381808551943777 -4.6341328148866978 0 -4.6341328148866978 -302.68811035211093 0 0 0 0 77.884737122350089 38.780555005035012 0 38.780555005035012 -295.53775478348598 0 0 0 0 -5.8929037213863147 -2.522045329070993 0 -2.522045329070993 -0.034656491089637864 0 0 0 0 19.52453793063296 -20.133159333210187 0 -20.133159333210187 -53.553835151044041 0 0 0 0 -30.213263013652522 -15.66529765799055 0 -15.66529765799055 16.271928457399554 0 0 0 0 -117.87579918358733 67.3186217715147 0 67.3186217715147 -69.630463891753607 0 0 0 0 -15.968481212512415 -10.577249885845276 0 -10.577249885845276 -39.019911552787562 0 0 0 0 -64.798429305218633 114.49874421154163 0 114.49874421154163 -239.27801793285337 0 0 0 0 -1.0395183570908344 -0.38294946215322589 0 -0.38294946215322589 -0.18025116538732949 0 0 0 0 -45.12028236541255 33.513943238332104 0 33.513943238332104 -176.09350624354465 0 0 0 0 -97.925369436440178 30.438218483433047 0 30.438218483433047 -137.33807772967248 0 0 0 0 -40.430563956820151 118.75796156815773 0 118.75796156815773 -139.80476273133718 0 0 0 0 -52.097883437189921 133.72501213372561 0 133.72501213372561 -63.379166398198322 0 0 0 0 -1.1530708505889331 2.5476001275552953 0 2.5476001275552953 -0.17026680892414348 0 0 0 0 -27.433093907275179 113.30483752208738 0 113.30483752208738 -141.77278004501272 0 0 0 0 -47.728341068257805 35.878810933146156 0 35.878810933146156 -45.082466934738477 0 0 0 0 -23.941194062218528 1.7143672391944165 0 1.7143672391944165 3.5714237762886114 0 0 0 0 22.857270191893804 5.6758893090182028 0 5.6758893090182028 -143.28828881692425 0 0 0 0 106.96477420935207 -5.4870261663759266 0 -5.4870261663759266 -123.6039645947767 0 0 0 0 39.810504029254162 -39.128618012569177 0 -39.128618012569177 -42.790666691838851 0 0 0 0 110.67351411009849 25.315893589977804 0 25.315893589977804 -133.40725933988142 0 0 0 0 -5.9117295361866384 -12.175556373783273 0 -12.175556373783273 -8.5753883261320034 0 0 0 0 -38.480654371452147 -69.171913672269966 0 -69.171913672269966 -60.405534009288885 0 0 0 0 -49.883682873200996 -86.076754171488119 0 -86.076754171488119 -58.973503558759376 0 0 0 0 -85.517589655988559 -94.513071813178158 0 -94.513071813178158 -54.101987635279556 0 0 0 0 -101.18476457247971 -84.431473973831544 0 -84.431473973831544 -252.85237949853172 0 0 0 0 -220.3448842508767 -191.40106223092255 0 -191.40106223092255 -144.92981434982448 0 0 0 0 -73.276627002526311 -74.884591864286449 0 -74.884591864286449 -52.618345959774615 0 0 0 0 -102.76596713457911 131.88822923265246 0 131.88822923265246 -192.21014531343565 0 0 0 0 -109.79322526072883 131.35677107023784 0 131.35677107023784 -178.74520934737308 0 0 0 0 1.4354014657928804 -1.7248625335314482 0 -1.7248625335314482 -17.432173975215719 0 0 0 0 4.8699507979872116 0.91079967325380107 0 0.91079967325380107 -7.1551305507774288 0 0 0 0 49.779627338390128 142.98171446898459 0 142.98171446898459 -551.88465833077919 0 0 0 0 44.544670345903796 147.09118536674328 0 147.09118536674328 -300.96745726714556 0 0 0 0 -65.705778687262864 258.95025880217196 0 258.95025880217196 -331.50301159920264 0 0 0 0 58.075988361031705 284.9938385572579 0 284.9938385572579 -363.4622452090382 0 0 0 0 74.501098650567656 211.93041228681807 0 211.93041228681807 -326.90039122227529 0 0 0 0 -52.582370928695127 326.62298716790485 0 326.62298716790485 -355.70791680564093 0 0 0 0 -159.38340297048126 383.35307917166494 0 383.35307917166494 -488.38483807965122 0 0 0 0 -851.02459424838707 693.92243278704245 0 693.92243278704245 -544.15899904558842 0 0 0 0 408.65711374984221 203.66187396434702 0 203.66187396434702 79.684703292912673 0 0 0 0 -101.88493948343057 281.47125786312432 0 281.47125786312432 -310.55405841922925 0 0 0 0 -234.26416139190405 154.5990407191789 0 154.5990407191789 -102.90412627550654 0 0 0 0 -111.40907118530231 288.740631185577 0 288.740631185577 -307.43003683672123 0 0 0 0 -531.50152991910363 318.31735500551156 0 318.31735500551156 -121.27475769232706 0 0 0 0 119.65559129757639 -33.08050940911744 0 -33.08050940911744 -1065.4436183996545 0 0 0 0 778.96524699417387 -768.62872290665791 0 -768.62872290665791 -998.72035197471996 0 0 0 0 -81.69089917882593 103.40426167255873 0 103.40426167255873 54.629976359498869 0 0 0 0 -545.14177528428581 -579.04105698147032 0 -579.04105698147032 -448.02001928980644 0 0 0 0 -783.70487829645026 42.382912861492514 0 42.382912861492514 765.38894799603713 0 0 0 0 113.28040481331664 -154.65733154381041 0 -154.65733154381041 -414.33072699705087 0 0 0 0 50.319933561535436 27.384362842234623 0 27.384362842234623 -373.3832005235563 0 0 0 0 13.492318599530336 -10.258720324499791 0 -10.258720324499791 -33.561187343368147 0 0 0 0 -4.8990730679813019 -1.853481061386101 0 -1.853481061386101 -4.353174442906985 0 0 0 0 -152.27413756183887 31.614543143865831 0 31.614543143865831 160.3907319264431 0 0 0 0 -5.4564170561152423 -8.9304947406080828 0 -8.9304947406080828 -16.928463513397446 0 0 0 0 0.84416736545063031 1.1623750363373802 0 1.1623750363373802 -36.47354239248989 0 0 0 0 -2.1278053313353666 -5.2059009195172621 0 -5.2059009195172621 -21.696810375080076 0 0 0 0 -2.8867948588767831 2.1861116862260133 0 2.1861116862260133 -34.966480141655097 0 0 0 0 8.0642000591337819 61.815123934307849 0 61.815123934307849 -231.78992628168044 0 0 0 0 7.8229240541928107 62.560046681887457 0 62.560046681887457 -207.32843839740599 0 0 0 0 17.386097236550086 23.518864697038453 0 23.518864697038453 -91.192311502984012 0 0 0 0 -2.788544711739128 -0.10268052817574436 0 -0.10268052817574436 0.16721819762042911 0 0 0 0 -36.710330251832602 106.33575716388532 0 106.33575716388532 -61.098941569820383 0 0 0 0 115.08879385865748 -95.336875722213904 0 -95.336875722213904 -72.963159677114618 0 0 0 0 -154.22527328626074 12.609665320005661 0 12.609665320005661 120.88455051524079 0 0 0 0 -3.518839551851201 -1.314233275218637 0 -1.314233275218637 -4.85974656113485 0 0 0 0 -1.8871602478104599 -5.7723434218369505 0 -5.7723434218369505 -20.466468497654176 0 0 0 0 -1.2336894300137828 -4.7720504067464162 0 -4.7720504067464162 -27.289762773715665 0 0 0 0 -14.253659391957626 -35.186974719276719 0 -35.186974719276719 26.128480465869188 0 0 0 0 10.917673159427977 -11.142811132413925 0 -11.142811132413925 -37.250336710412725 0 0 0 0 3.8378258766324507 -1.7976351212134318 0 -1.7976351212134318 -31.932158170883213 0 0 0 0 53.910884760120098 25.041023323399855 0 25.041023323399855 -27.106154681390706 0 0 0 0 -4.0222889817737268 30.260163078375271 0 30.260163078375271 7.2734027673328683 0 0 0 0 -1.7882497157268631 -4.2210076546208395 0 -4.2210076546208395 -15.158455057377665 0 0 0 0 -3.0546721066717168 -0.15777139694409748 0 -0.15777139694409748 -4.2498036671407542 0 0 0 0 -10.323825355253462 350.39356211167831 0 350.39356211167831 -556.72819164306566 0 0 0 0 -51.754316113823734 -140.29119976716265 0 -140.29119976716265 -135.71086120440575 0 0 0 0 -0.10445828362258425 -1.1322374651910696 0 -1.1322374651910696 -6.6154891456963085 0 0 0 0 -35.379280632861992 440.87834617753902 0 440.87834617753902 -642.18890263050594 0 0 0 0 113.15002444877973 283.17276173174037 0 283.17276173174037 -649.15501264168904 0 0 0 0 -0.40583522445001208 -1.8501288084827676 0 -1.8501288084827676 -4.5608544424586199 0 0 0 0 163.21917062480725 397.18042510822835 0 397.18042510822835 -826.86112648181881 0 0 0 0 -69.42655927030448 -93.43745521135078 0 -93.43745521135078 -86.328709430839353 0 0 0 0 -269.53567762367311 -174.36958354542162 0 -174.36958354542162 -65.513486644573959 0 0 0 0 -201.35438420849948 224.148697650543 0 224.148697650543 -198.54097964346784 0 0 0 0 40.112937158421119 67.29865131529175 0 67.29865131529175 -428.9704770810697 0 0 0 0 34.336767064055493 52.79032224968978 0 52.79032224968978 -228.70008427521805 0 0 0 0 -1.4169889636955091 -0.70703824246668923 0 -0.70703824246668923 -0.71453875242181497 0 0 0 0 9.3912107737505721 32.573278107385818 0 32.573278107385818 -223.7991770478784 0 0 0 0 6.1783039137721971 11.85949842941568 0 11.85949842941568 -193.33943967168989 0 0 0 0 -69.622055795352736 -77.364166415170303 0 -77.364166415170303 -212.54710897360451 0 0 0 0 -0.49074941732896349 -0.51256806738000993 0 -0.51256806738000993 -0.3787329348693601 0 0 0 0 -20.496224733169583 -6.8082724500527547 0 -6.8082724500527547 -213.44034299127253 0 0 0 0 -4.7711032049774076 19.176888251864966 0 19.176888251864966 -172.67331963056267 0 0 0 0 -4.8028347955087156 6.6246857622393236 0 6.6246857622393236 -174.14221973288613 0 0 0 0 4.6144492817456921 15.093203457106029 0 15.093203457106029 -167.34622377626306 0 0 0 0 -0.5977455074653335 -5.5142148558188637 0 -5.5142148558188637 -125.51101499514152 0 0 0 0 1.5050780051860784 5.0037618627302436 0 5.0037618627302436 -151.65385753807118 0 0 0 0 17.858179888984523 9.451449114279967 0 9.451449114279967 -150.76627849084639 0 0 0 0 10.706720704226882 8.9221412183476332 0 8.9221412183476332 -138.66740300280571 0 0 0 0 -20.530493375459628 37.836053348273595 0 37.836053348273595 -139.18805322990829 0 0 0 0 -24.447461991852833 30.869370431049902 0 30.869370431049902 -145.93432637067508 0 0 0 0 -10.035871599427992 7.9640877484803241 0 7.9640877484803241 -167.18739420024656 0 0 0 0 4.8464215785725173 21.602423869658878 0 21.602423869658878 -154.82530769136747 0 0 0 0 3.5445361649035476 15.450801747212608 0 15.450801747212608 -149.30309477339051 0 0 0 0 20.348376796815501 21.316774623917809 0 21.316774623917809 -148.02796410866495 0 0 0 0 -2.3152652786338876 31.322777633464511 0 31.322777633464511 -146.69546238729345 0 0 0 0 0.73229305884092355 33.640612152379504 0 33.640612152379504 -146.08586923846633 0 0 0 0 1.045414991922371 59.65377324729775 0 59.65377324729775 -163.89471899509181 0 0 0 0 1.4308813333645958 44.118093877683577 0 44.118093877683577 -145.36557210374463 0 0 0 0 -6.7335122149413564 48.185575311369632 0 48.185575311369632 -147.39185498008828 0 0 0 0 -23.453593660877438 64.521251581697683 0 64.521251581697683 -139.68886976344947 0 0 0 0 -23.547448739625906 42.046886465531543 0 42.046886465531543 -144.14752157779594 0 0 0 0 -25.965298260124655 72.591537347530902 0 72.591537347530902 -127.24185774778516 0 0 0 0 -26.799997853790046 75.807501325494286 0 75.807501325494286 -139.59775321281688 0 0 0 0 -10.174781490417445 64.199733989441938 0 64.199733989441938 -149.16805069333509 0 0 0 0 -34.354443662620497 59.606200849696904 0 59.606200849696904 -142.90208996646106 0 0 0 0 -18.351459083254667 86.779362058245624 0 86.779362058245624 -143.49847215688942 0 0 0 0 -5.3201318486535456 62.570087885100349 0 62.570087885100349 -142.64821618993619 0 0 0 0 -7.7953476736674929 72.589802748403827 0 72.589802748403827 -168.68937963198027 0 0 0 0 1.61724718857662 97.633256769020335 0 97.633256769020335 -114.75784274440048 0 0 0 0 1.905937044307251 70.851192024239253 0 70.851192024239253 -136.04580045983425 0 0 0 0 -27.971909445788697 83.72345500162794 0 83.72345500162794 -118.41261748915713 0 0 0 0 -102.81552907780406 26.206390374688567 0 26.206390374688567 -110.82453639979485 0 0 0 0 -73.234141174360047 78.614374892313208 0 78.614374892313208 -20.449974833645456 0 0 0 0 -89.697648553785257 -5.1664454413512431 0 -5.1664454413512431 -133.2453184914948 0 0 0 0 -52.426504467268387 18.749867756717322 0 18.749867756717322 -150.60065818463409 0 0 0 0 -62.026544056849161 60.725968987186548 0 60.725968987186548 -94.214272959215123 0 0 0 0 -0.96702755951378094 13.796539421559828 0 13.796539421559828 -158.91651875816979 0 0 0 0 15.908488687875433 -12.11191375650742 0 -12.11191375650742 -66.890968068413713 0 0 0 0 9.7486548677981002 5.5893604210327652 0 5.5893604210327652 -82.463877174072877 0 0 0 0 19.08213971490386 6.2253017350503796 0 6.2253017350503796 -383.14161967884502 0 0 0 0 22.964792167644191 -24.940773487325714 0 -24.940773487325714 -213.29381465494771 0 0 0 0 8.5549099240734297 4.2955462366571702 0 4.2955462366571702 -103.92636870134017 0 0 0 0 60.144573955545638 36.0406569105362 0 36.0406569105362 -117.95599918223343 0 0 0 0 17.825567086892988 -12.825388961523913 0 -12.825388961523913 -148.24844718378699 0 0 0 0 40.124835643598999 -27.378456067430534 0 -27.378456067430534 -196.06588283272686 0 0 0 0 23.404091663706822 -8.4725491440458427 0 -8.4725491440458427 -119.98329989693593 0 0 0 0 17.694563855573051 7.2568937330324843 0 7.2568937330324843 -161.42762670925549 0 0 0 0 -3.3129669560921684 -27.755633333741116 0 -27.755633333741116 -136.32910289684219 0 0 0 0 44.828804496145494 -4.2186352755556982 0 -4.2186352755556982 -268.27522280575295 0 0 0 0 -1.007839675748528 9.3923035696980151 0 9.3923035696980151 -168.05971127711081 0 0 0 0 -3.2997999223219487 0.0012828935599031865 0 0.0012828935599031865 -21.606006343535896 0 0 0 0 5.0192980554202222 15.171052900062477 0 15.171052900062477 -223.16537400774519 0 0 0 0 0.78704983516900029 7.3305022930719588 0 7.3305022930719588 -181.75132704091905 0 0 0 0 -19.535706827782633 0.68670595480978136 0 0.68670595480978136 -210.44306594887303 0 0 0 0 -2.249744333527266 -0.60739989826853957 0 -0.60739989826853957 1.4811694664873079 0 0 0 0 -19.998246094373371 -8.9205873394182618 0 -8.9205873394182618 -173.13244296315133 0 0 0 0 -31.904723830214607 -5.0847167974328613 0 -5.0847167974328613 -162.94498310491417 0 0 0 0 -25.777114088269172 1.3837239526719713 0 1.3837239526719713 -173.41810916757822 0 0 0 0 -34.551331080664568 10.364485566580242 0 10.364485566580242 -177.75103765806671 0 0 0 0 -24.644328045126713 49.421157772946572 0 49.421157772946572 -212.63030182271223 0 0 0 0 -6.6773696572722656 17.109036491684037 0 17.109036491684037 -168.33566045261659 0 0 0 0 1.4714693075947594 -0.1896824202812013 0 -0.1896824202812013 -160.64320437514289 0 0 0 0 -0.56538438136931291 11.635358110168568 0 11.635358110168568 -147.39468387584407 0 0 0 0 22.425882360163449 -41.8643541517472 0 -41.8643541517472 -53.904091882740872 0 0 0 0 70.60548753546027 -114.7578098549202 0 -114.7578098549202 -88.457539425799041 0 0 0 0 -4.499363867671434 -1.5861839117089573 0 -1.5861839117089573 -146.68875194216844 0 0 0 0 -4.8354281135550536 16.524725160652906 0 16.524725160652906 -157.39968491358263 0 0 0 0 -3.9983003971972266 6.9550665689416746 0 6.9550665689416746 -159.28551415420634 0 0 0 0 -58.485413048259943 -91.979213452388649 0 -91.979213452388649 84.38502126104504 0 0 0 0 21.431294856914736 -36.795001621579772 0 -36.795001621579772 -62.719665346220317 0 0 0 0 -2.81314160272359 7.2270042618822572 0 7.2270042618822572 -161.54393612306239 0 0 0 0 110.24202823631822 -68.410640170583065 0 -68.410640170583065 -206.83694956089312 0 0 0 0 -83.100213590236308 -153.04865029134453 0 -153.04865029134453 -206.89282458712842 0 0 0 0 15.105634143597854 20.24694057933084 0 20.24694057933084 -314.66558089769023 0 0 0 0 -1.3819091591394681 -3.7919174161761475 0 -3.7919174161761475 31.8047725562501 0 0 0 0 0.091486106660795485 17.090839827678337 0 17.090839827678337 -467.77095671834832 0 0 0 0 46.11313441323 -21.646460257932631 0 -21.646460257932631 0.91543863301558304 0 0 0 0 -121.79569023350632 -68.220421106903814 0 -68.220421106903814 29.963058390938585 0 0 0 0 -0.65538706423250659 -1.0670733780939656 0 -1.0670733780939656 -5.5709890009392637 0 0 0 0 -26.210037774653756 -4.8731358724726306 0 -4.8731358724726306 11.143627008408657 0 0 0 0 -58.601608279906941 204.66196697744272 0 204.66196697744272 -458.54848291130475 0 0 0 0 20.145451056478123 -62.609511511236633 0 -62.609511511236633 30.005279825169623 0 0 0 0 3.8380876936504471 -9.5312748311041631 0 -9.5312748311041631 -15.164387342868423 0 0 0 0 -19.576461856431706 21.342084056759631 0 21.342084056759631 5.6998752977706317 0 0 0 0 33.512692776006588 -18.749432723761856 0 -18.749432723761856 -93.824493920709301 0 0 0 0 -16.69328774630776 -21.684398620582215 0 -21.684398620582215 -114.6265733800692 0 0 0 0 8.2664355226952466 33.119799799442262 0 33.119799799442262 -231.56032675637107 0 0 0 0 30.856393289286643 -17.249773125287902 0 -17.249773125287902 -267.06526008262153 0 0 0 0 -147.76654208181571 -54.281269035484002 0 -54.281269035484002 -313.50640840195774 0 0 0 0 -40.585235705792002 -7.2744517205355805 0 -7.2744517205355805 -93.451698931334249 0 0 0 0 -0.96669365653368899 -0.79624043797556965 0 -0.79624043797556965 -0.52471945166462142 0 0 0 0 -20.862232677494831 -13.30658705985843 0 -13.30658705985843 -116.41082470706897 0 0 0 0 15.012963421377208 -29.488928545641102 0 -29.488928545641102 -196.08492629478133 0 0 0 0 -53.287164323914112 -77.497505069008184 0 -77.497505069008184 -202.11527395566372 0 0 0 0 77.865792620261345 -12.791326654507429 0 -12.791326654507429 -216.33960762125207 0 0 0 0 -86.258306062052498 43.24647300768811 0 43.24647300768811 -128.64053813833743 0 0 0 0 29.564653950940965 -66.851025839524937 0 -66.851025839524937 -178.01182513242384 0 0 0 0 11.423634729554578 23.97281915970234 0 23.97281915970234 -124.84194979001768 0 0 0 0 -60.920497389027332 7.3343395832398528 0 7.3343395832398528 -21.550985520261747 0 0 0 0 23.350011979158808 -9.9021602606389933 0 -9.9021602606389933 -61.286720551688632 0 0 0 0 24.302162607265927 8.5892429012346838 0 8.5892429012346838 -41.05143696784944 0 0 0 0 42.956330219758456 -15.814791394594067 0 -15.814791394594067 -108.24842348146922 0 0 0 0 42.32750751868025 0.76598405266122427 0 0.76598405266122427 -117.97033818931959 0 0 0 0 31.614455669201561 -10.662173436361627 0 -10.662173436361627 -107.72592854552568 0 0 0 0 42.827092786261346 -7.3564098934330104 0 -7.3564098934330104 -106.87392355012798 0 0 0 0 32.361749447039074 1.3578885891938626 0 1.3578885891938626 -54.513135345332557 0 0 0 0 28.689168261476993 -10.227119485398134 0 -10.227119485398134 26.364614453457762 0 0 0 0 31.924419558101704 -34.139024577415512 0 -34.139024577415512 -22.659156647772761 0 0 0 0 -24.175347283406154 109.55047210049815 0 109.55047210049815 -388.51201153505099 0 0 0 0 -25.079999235831565 91.692640838318766 0 91.692640838318766 -382.96016665878051 0 0 0 0 -5.3649794107364528 -6.1691363306847293 0 -6.1691363306847293 -4.603207081503804 0 0 0 0 3.6235896293537735 -30.20795260025443 0 -30.20795260025443 61.250046286870202 0 0 0 0 9.6387991026076634 -29.891873602862688 0 -29.891873602862688 -11.621493644345719 0 0 0 0 6.4026155148076214 14.724306203181186 0 14.724306203181186 -15.746906105738162 0 0 0 0 -145.94877946490919 197.09555882752102 0 197.09555882752102 -355.75677243522296 0 0 0 0 -31.746386448147405 72.602608161163516 0 72.602608161163516 -436.96514829725493 0 0 0 0 -21.398621571257536 226.00575172086974 0 226.00575172086974 -488.97539291204885 0 0 0 0 -7.7669205844649696 141.91098804236753 0 141.91098804236753 -508.29860937571902 0 0 0 0 -2.6288624646203864 -0.45526226361856459 0 -0.45526226361856459 -2.1979821421423349 0 0 0 0 -9.1375820859126158 -8.9069806098561273 0 -8.9069806098561273 -6.1058466915961986 0 0 0 0 -66.195949678561192 71.497498716496921 0 71.497498716496921 -296.92913372029216 0 0 0 0 -42.91010216572522 -44.94841959133737 0 -44.94841959133737 69.081962665448373 0 0 0 0 13.974924507976539 16.472244034565733 0 16.472244034565733 -134.53299345142511 0 0 0 0 26.998769485442153 -5.1361675163637983 0 -5.1361675163637983 -141.76448241111166 0 0 0 0 7.4513528799370761 -0.69286121492207542 0 -0.69286121492207542 -266.90470713250988 0 0 0 0 7.6200615816740083 -5.7409776214176418 0 -5.7409776214176418 -186.45345674167925 0 0 0 0 -11.845726801501542 80.593297534331086 0 80.593297534331086 -245.24095704893273 0 0 0 0 -9.2089988405548411 66.080421947340852 0 66.080421947340852 -165.60630035234226 0 0 0 0 17.517106563554989 44.96578011234908 0 44.96578011234908 -159.95227749239348 0 0 0 0 6.2811268092364116 64.525390897923785 0 64.525390897923785 -185.91188405202843 0 0 0 0 29.855561477766969 22.324629702959328 0 22.324629702959328 -167.23778387017319 0 0 0 0 9.5513458642235491 39.166573739772844 0 39.166573739772844 -149.04759396136933 0 0 0 0 14.564846945904719 41.055817421856773 0 41.055817421856773 -154.1868632145995 0 0 0 0 12.790289782740501 27.884587471263984 0 27.884587471263984 -137.36863428687411 0 0 0 0 24.223034704757083 25.899680431243269 0 25.899680431243269 -143.37943634127373 0 0 0 0 16.551305876237166 29.41992924563192 0 29.41992924563192 -146.94348076099692 0 0 0 0 26.995861496434372 23.011253065795245 0 23.011253065795245 -139.89592960608024 0 0 0 0 27.735993442289328 5.4961327478701492 0 5.4961327478701492 -138.64099162671982 0 0 0 0 11.15446036270987 19.756184608984654 0 19.756184608984654 -139.65038038674174 0 0 0 0 20.507924650355562 19.33364524294916 0 19.33364524294916 -129.61937770017903 0 0 0 0 30.915931695692052 5.0034303311861095 0 5.0034303311861095 -126.67689672164761 0 0 0 0 28.103029189398512 11.308127680038069 0 11.308127680038069 -127.97736969284063 0 0 0 0 27.752591766709884 12.29892108297372 0 12.29892108297372 -131.83766839802979 0 0 0 0 39.903250994797418 -20.759069503318528 0 -20.759069503318528 -95.602469724047751 0 0 0 0 27.509740479689071 12.052397258675086 0 12.052397258675086 -120.32062298807432 0 0 0 0 24.618677231042966 12.742147282471706 0 12.742147282471706 -118.92644358509369 0 0 0 0 23.460017708843225 10.469654920517314 0 10.469654920517314 -116.11668372266104 0 0 0 0 29.33293184908689 11.243562897350785 0 11.243562897350785 -116.06031896730531 0 0 0 0 29.195738320117471 2.9060331896136518 0 2.9060331896136518 -103.76734562683123 0 0 0 0 29.420942701257729 5.3078506078829761 0 5.3078506078829761 -104.31738535885052 0 0 0 0 17.172232145443559 -2.7203948631581625 0 -2.7203948631581625 -70.050313315301537 0 0 0 0 23.212642044369204 3.2419424501933918 0 3.2419424501933918 -79.016432053265817 0 0 0 0 28.213071974627383 -11.591406092414672 0 -11.591406092414672 -85.869553489987993 0 0 0 0 25.433158774998446 5.0757587281877932 0 5.0757587281877932 -102.49244979433934 0 0 0 0 31.642394495982899 -5.1676911805873829 0 -5.1676911805873829 -116.02384435718159 0 0 0 0 45.742006001386471 2.0807296893362945 0 2.0807296893362945 -138.92304144091804 0 0 0 0 23.872269431370569 9.9794910004933968 0 9.9794910004933968 -122.11349803477515 0 0 0 0 20.862929615832432 -39.775070952790337 0 -39.775070952790337 -55.741719346739927 0 0 0 0 19.575143459882383 -10.6265423072864 0 -10.6265423072864 -126.61859777006572 0 0 0 0 30.494350072018278 12.852466132429754 0 12.852466132429754 -120.27763729525213 0 0 0 0 34.087265602363914 12.646050687953448 0 12.646050687953448 -132.43049952032061 0 0 0 0 30.375938195860726 13.168383613563719 0 13.168383613563719 -101.56073966626627 0 0 0 0 33.168113139690831 12.585994105386817 0 12.585994105386817 -120.35529085233338 0 0 0 0 26.766460458362417 13.084951529918726 0 13.084951529918726 -97.043008447987631 0 0 0 0 21.874668619602744 10.847400160815596 0 10.847400160815596 -76.219335290199979 0 0 0 0 26.800372741950241 12.231680092009896 0 12.231680092009896 -81.506001367271892 0 0 0 0 27.123596590816305 -24.048064456423162 0 -24.048064456423162 -110.05173129648756 0 0 0 0 8.0035133455403411 -11.316088281056182 0 -11.316088281056182 -59.752848808780982 0 0 0 0 76.846620751716728 -6.6375075400700894 0 -6.6375075400700894 -136.59674876119945 0 0 0 0 10.933752734330959 -4.0290917199987755 0 -4.0290917199987755 -104.12893437726098 0 0 0 0 90.510092069719576 -43.964918746937457 0 -43.964918746937457 -124.32343311947338 0 0 0 0 24.558496072926573 -2.9544899118130274 0 -2.9544899118130274 -119.52410010201606 0 0 0 0 23.962219435561565 -20.327154625662388 0 -20.327154625662388 -75.363416577736416 0 0 0 0 34.465851849232422 -38.923219347883787 0 -38.923219347883787 -47.957134112196854 0 0 0 0 33.70172739003101 -10.491376225463682 0 -10.491376225463682 -69.560073568187363 0 0 0 0 -1.1340481554998405 -84.000655590698443 0 -84.000655590698443 90.731846769216645 0 0 0 0 27.299119450267426 -76.171964804620075 0 -76.171964804620075 13.983566527967923 0 0 0 0 -1.2136591138946926 -2.5173602542224884 0 -2.5173602542224884 -2.3102707074928048 0 0 0 0 69.071429750693824 -41.863046500380463 0 -41.863046500380463 -108.50497240850601 0 0 0 0 92.903649211300944 -204.74090088075718 0 -204.74090088075718 -138.4883049359803 0 0 0 0 7.4790356652277623 -4.653248444291016 0 -4.653248444291016 -102.42726632101729 0 0 0 0 10.462237288365941 -30.416480744630618 0 -30.416480744630618 -98.102703748469978 0 0 0 0 24.629893973011349 -7.9774420560452626 0 -7.9774420560452626 -83.897083294046126 0 0 0 0 25.551253218682177 -30.895032533268115 0 -30.895032533268115 -151.10054698234023 0 0 0 0 28.224128580137858 -16.27318310841175 0 -16.27318310841175 -77.131151382065269 0 0 0 0 -20.102133106214865 -22.148422694034871 0 -22.148422694034871 -144.72549059232696 0 0 0 0 -20.003644012147106 -17.711692125912393 0 -17.711692125912393 -86.998141320585944 0 0 0 0 -21.577239988331485 -5.6428126136014374 0 -5.6428126136014374 -73.458843248203607 0 0 0 0 -79.239368684924557 -22.474497750165398 0 -22.474497750165398 -76.942474725562136 0 0 0 0 -30.231382898657102 11.192447835111057 0 11.192447835111057 -77.434309405438029 0 0 0 0 -69.405429604487779 35.632939148730649 0 35.632939148730649 -92.426306533446024 0 0 0 0 -71.262132508911236 -62.784856364091041 0 -62.784856364091041 -312.62658950591066 0 0 0 0 -66.428486436221647 -34.248220969605654 0 -34.248220969605654 -147.88479872554899 0 0 0 0 -194.57494442583675 -31.000922124390815 0 -31.000922124390815 -114.23866058523518 0 0 0 0 -64.552613758748521 86.410908046771397 0 86.410908046771397 -163.94604477819257 0 0 0 0 -80.69448493706841 158.62760188191908 0 158.62760188191908 -414.78340881968967 0 0 0 0 -32.476865301533508 7.2482399617809889 0 7.2482399617809889 -206.10707217524202 0 0 0 0 -29.476861037658637 -5.1555334721821495 0 -5.1555334721821495 -368.1824586032518 0 0 0 0 -72.52613696772778 81.15545534179634 0 81.15545534179634 -129.30981366899451 0 0 0 0 -91.396081484265778 129.63376979013356 0 129.63376979013356 -251.23150753453314 0 0 0 0 -11.515950832873386 86.239850590426641 0 86.239850590426641 -265.19253255430988 0 0 0 0 -44.680157706771752 29.675959066214261 0 29.675959066214261 -98.271950305939413 0 0 0 0 -47.801683603704532 59.972043108707894 0 59.972043108707894 -103.05765499263526 0 0 0 0 -5.8719336997237193 8.2963866618532123 0 8.2963866618532123 -10.238757666980117 0 0 0 0 -28.46299159465001 48.440069119319148 0 48.440069119319148 -31.228859160665227 0 0 0 0 -51.358971690159251 47.508170031985841 0 47.508170031985841 -48.696097102598515 0 0 0 0 -523.38968181272685 -9.2680301391228568 0 -9.2680301391228568 819.49043959086703 0 0 0 0 137.95770590940265 177.87285854104266 0 177.87285854104266 336.98851581084523 0 0 0 0 -2.2901825022604143 33.116774130003392 0 33.116774130003392 5.470444214965422 0 0 0 0 -24.514916496461865 78.093252798522371 0 78.093252798522371 21.06367404530647 0 0 0 0 5.6207814127183156 27.797250941632228 0 27.797250941632228 14.21607064966247 0 0 0 0 -36.215571311850475 21.24417878671855 0 21.24417878671855 -4.9186270470500775 0 0 0 0 205.37004627732972 -31.076731478813599 0 -31.076731478813599 -1.3707991089021228 0 0 0 0 398.0817697791872 41.379214993436108 0 41.379214993436108 -126.53200680426926 0 0 0 0 184.77694177791773 187.34953795506908 0 187.34953795506908 139.07582446506422 0 0 0 0 5.2213697910083283 13.066684434687176 0 13.066684434687176 -318.25687101812184 0 0 0 0 -22.994902146350988 11.955529776848305 0 11.955529776848305 -6.5153865381292633 0 0 0 0 170.68803054935847 275.83674291336001 0 275.83674291336001 -187.72202670735169 0 0 0 0 -2.8913409190445236 25.508604743915186 0 25.508604743915186 -177.49282863088658 0 0 0 0 -236.56233404722934 -18.674417908471014 0 -18.674417908471014 115.30763266862687 0 0 0 0 -7.6766260686151178 3.0078278575265642 0 3.0078278575265642 0.5960964635138879 0 0 0 0 18.186201998227261 136.23241221340322 0 136.23241221340322 -612.97341600331856 0 0 0 0 266.5952516551597 -364.2821525202412 0 -364.2821525202412 -636.02799932903736 0 0 0 0 -953.96820647871573 169.17062121351773 0 169.17062121351773 45.431950240116826 0 0 0 0 -528.04551421502674 389.29393646122207 0 389.29393646122207 60.843755042544217 0 0 0 0 296.6226267864422 342.18490304912848 0 342.18490304912848 -648.56758331282253 0 0 0 0 -8.9954105066415977 3.3118055866369152 0 3.3118055866369152 -1.2508607798133866 0 0 0 0 -35.882370758264187 94.606718701818863 0 94.606718701818863 236.21669566678884 0 0 0 0 -98.464082420128761 302.95053425174035 0 302.95053425174035 388.09097823629338 0 0 0 0 -16.2520212964655 35.888873488064064 0 35.888873488064064 -68.452284926930588 0 0 0 0 4.0393771682809909 3.0554560523187462 0 3.0554560523187462 -8.7107218816793903 0 0 0 0 -104.17150561379185 61.195561285811891 0 61.195561285811891 138.25716709550039 0 0 0 0 624.31774808220143 -85.069897921966913 0 -85.069897921966913 -1194.0189338044174 0 0 0 0 -14.990601938392501 39.440773067634836 0 39.440773067634836 -58.916372594801942 0 0 0 0 -9.4657156813700567 34.272315982419968 0 34.272315982419968 -73.235010553888102 0 0 0 0 -14.088117190294724 38.330893503371044 0 38.330893503371044 -64.450696566244005 0 0 0 0 -13.890987344348105 36.861525105163309 0 36.861525105163309 -54.205678494154199 0 0 0 0 -14.989221117190027 39.374776670581923 0 39.374776670581923 -55.913142022650391 0 0 0 0 1.0230296606144478 2.4381942902473739 0 2.4381942902473739 -4.0600084082959107 0 0 0 0 6.853797171726427 44.544851636957453 0 44.544851636957453 -89.965091411328103 0 0 0 0 -29.197701607445197 70.782780072808919 0 70.782780072808919 -106.28926635572543 0 0 0 0 -17.311152930671597 42.863510654749007 0 42.863510654749007 -81.408202645578058 0 0 0 0 -6.0569766782718943 33.265941834519253 0 33.265941834519253 -73.228695114725269 0 0 0 0 -18.583056040322731 32.579096809334516 0 32.579096809334516 -72.497376223287574 0 0 0 0 -55.214008601331443 42.613136828874758 0 42.613136828874758 -74.581049026761661 0 0 0 0 88.659412087283272 -60.47797489477162 0 -60.47797489477162 -899.41404798216354 0 0 0 0 -966.70517178258615 1013.4750070599431 0 1013.4750070599431 953.20479853156758 0 0 0 0 -116.63202935904519 158.58412699893256 0 158.58412699893256 -147.76944135676331 0 0 0 0 144.87453366145292 -223.28497648806842 0 -223.28497648806842 -32.901558925303149 0 0 0 0 35.486230028231148 77.77683998304542 0 77.77683998304542 -234.07430683715666 0 0 0 0 0.79437907244732386 -2.6320961201855066 0 -2.6320961201855066 -9.4360969583228904 0 0 0 0 13.313887629996316 11.515875430290293 0 11.515875430290293 -102.13227212927291 0 0 0 0 33.019542996426026 36.848098773999709 0 36.848098773999709 -159.74923135498057 0 0 0 0 -8.1057455920365555 71.766126859934673 0 71.766126859934673 -208.31203945652868 0 0 0 0 -35.105439598701878 64.333698899402378 0 64.333698899402378 -223.43146740063457 0 0 0 0 27.995690210799694 46.097503322324172 0 46.097503322324172 -218.27660018410137 0 0 0 0 61.083068946736489 154.59712118012544 0 154.59712118012544 -52.914105368539197 0 0 0 0 1.487254067134927 95.470458779838651 0 95.470458779838651 -167.39457874841167 0 0 0 0 -24.121483241191527 -18.915137342627474 0 -18.915137342627474 -101.88088661667814 0 0 0 0 52.788599430406521 -57.259040380108502 0 -57.259040380108502 -244.8040186059369 0 0 0 0 77.735029552773085 -161.30395972957729 0 -161.30395972957729 41.697394944798049 0 0 0 0 -117.86572613403769 354.78700701102917 0 354.78700701102917 -503.94513914538754 0 0 0 0 0.064499857284170403 -0.80714848757511071 0 -0.80714848757511071 -3.5868548142117462 0 0 0 0 -147.74539699592788 -146.86492517813548 0 -146.86492517813548 -171.41577749954695 0 0 0 0 -101.12686978817055 120.40686802683706 0 120.40686802683706 -244.55374561221061 0 0 0 0 21.894413745278143 27.270197370198616 0 27.270197370198616 -348.5570585500281 0 0 0 0 66.004016589625962 19.138471426484188 0 19.138471426484188 -126.25873602362208 0 0 0 0 -97.810548417617611 29.040397564200077 0 29.040397564200077 -92.286461216158273 0 0 0 0 118.99666862815502 121.33365012120561 0 121.33365012120561 -138.70092995885091 0 0 0 0 147.22681859145177 -382.2268483168699 0 -382.2268483168699 59.215633840993348 0 0 0 0 18.588050233970677 -21.522789467253496 0 -21.522789467253496 -108.95778683905358 0 0 0 0 132.03270225311553 -110.40305770228792 0 -110.40305770228792 -31.37575982977819 0 0 0 0 6.9225192488811444 -24.556639237303784 0 -24.556639237303784 -267.516415890693 0 0 0 0 -2.6207777640182677 10.155159633811236 0 10.155159633811236 -27.522538735135253 0 0 0 0 47.748459931198852 -120.30650253909516 0 -120.30650253909516 -76.64553944842919 0 0 0 0 145.76017825134568 -277.48835587592447 0 -277.48835587592447 -303.84567896760825 0 0 0 0 -4.4677135574419395 487.96646388527711 0 487.96646388527711 -187.61983279896344 0 0 0 0 -0.39940920575090644 -0.78020513224877597 0 -0.78020513224877597 -0.43576557830055451 0 0 0 0 16.397922028078547 -20.115547312713996 0 -20.115547312713996 -115.87097579386618 0 0 0 0 139.55179991854607 1.1022825571153252 0 1.1022825571153252 -122.3050104104575 0 0 0 0 55.847865798637486 14.638926879163591 0 14.638926879163591 -191.04535214014686 0 0 0 0 101.81324935183477 -51.892973799343054 0 -51.892973799343054 -137.30751691252954 0 0 0 0 -0.26897408176319004 30.598337435725284 0 30.598337435725284 -185.35842969109581 0 0 0 0 -12.346686718666433 53.782929033536774 0 53.782929033536774 -130.21352775868672 0 0 0 0 107.20863824630322 -63.320463735583068 0 -63.320463735583068 -193.7980025477724 0 0 0 0 37.315376709872908 -79.715091668943103 0 -79.715091668943103 -186.00202876213933 0 0 0 0 28.462747654042687 -38.267820739353056 0 -38.267820739353056 -7.3639950067212965 0 0 0 0 82.72862721911315 -16.754771348960617 0 -16.754771348960617 -116.19805164188699 0 0 0 0 8.2547134965616351 66.256733547699071 0 66.256733547699071 -126.43626776799962 0 0 0 0 -29.237110727674462 39.884940592826368 0 39.884940592826368 -138.53558670047869 0 0 0 0 -22.929685546655492 76.784456761254859 0 76.784456761254859 -176.01749243129308 0 0 0 0 -83.300870698521976 25.725889080127786 0 25.725889080127786 -184.8794222565468 0 0 0 0 -51.017877050809602 71.744427655955917 0 71.744427655955917 -119.50264193047042 0 0 0 0 -59.313389673524398 -10.568382904162462 0 -10.568382904162462 -146.91003671515168 0 0 0 0 -95.419058212230084 -46.261864813079796 0 -46.261864813079796 -121.97823637288792 0 0 0 0 -64.77684840566144 2.8143166765577234 0 2.8143166765577234 29.261296619012114 0 0 0 0 -97.062681686422366 -45.834260273608294 0 -45.834260273608294 -45.566118844248336 0 0 0 0 -65.849292415095988 -68.797424066678332 0 -68.797424066678332 -130.78170447305365 0 0 0 0 -15.214928827621407 -126.30447352114466 0 -126.30447352114466 -427.01773779778057 0 0 0 0 -50.481743226280742 -72.550310497366439 0 -72.550310497366439 -129.94400877687661 0 0 0 0 0.84990259598089324 103.33488900706931 0 103.33488900706931 -253.20235352980083 0 0 0 0 -5.9725885894295061 154.57508693201424 0 154.57508693201424 -625.09984120231354 0 0 0 0 -42.953092065122291 -30.675067631400346 0 -30.675067631400346 -329.99164730012109 0 0 0 0 -59.315226564189288 85.755132398113219 0 85.755132398113219 -196.36931069339727 0 0 0 0 -48.142552683261606 171.40228837638102 0 171.40228837638102 -99.849480965671972 0 0 0 0 -781.63670175539664 125.08572109231244 0 125.08572109231244 157.96028979534776 0 0 0 0 -45.068991118456324 -130.95168021788402 0 -130.95168021788402 -28.552686845126352 0 0 0 0 -1.9133584098280654 -3.5224860820722137 0 -3.5224860820722137 -6.0262239525397661 0 0 0 0 -0.96529853546718769 -1.3014267200300287 0 -1.3014267200300287 -2.476356317818357 0 0 0 0 -157.49869422108532 2.4557389051172613 0 2.4557389051172613 2.0475379123996831 0 0 0 0 -151.4008117429413 -56.776246515729589 0 -56.776246515729589 -199.05291259302246 0 0 0 0 7.0410889798151857 -4.5402752104230792 0 -4.5402752104230792 -224.53487245187597 0 0 0 0 -26.500292520384164 3.951545141174801 0 3.951545141174801 -223.24099911915513 0 0 0 0 -54.193796179808487 25.99734680384217 0 25.99734680384217 -217.53798131887726 0 0 0 0 -66.40809462123525 67.299275837483464 0 67.299275837483464 -186.41377920691207 0 0 0 0 -52.578112401358339 39.984196180598651 0 39.984196180598651 -141.34756693412385 0 0 0 0 
</DataArray>
<DataArray type="Float64" Name="cross_section_updated" format="ascii">
1 1 1 1 1 1 1 0.010019268926425955 1 1 0.010183382087129378 1 1 1 0.010575844738664981 1 0.0079181326413485381 1 1 1 0.0092399435978079234 1 1 1 0.0099220705568042362 1 1 1 1 1 0.009922487611576325 1 1 1 1 1 1 1 1 1 0.012017200211573228 1 1 1 1 1 1 1 1 1 1 1 1 1 0.010465484073584802 1 1 1 1 0.010033554680515687 1 1 1 1 1 1 1 1 1 1 1 1 1 1 1 1 1 1 1 1 1 0.0069892341113068183 1 1 1 1 0.010264294467571041 0.0090857332335241917 1 1 1 0.0099666731841809176 1 1 1 1 1 1 1 0.0096655745619793187 1 1 1 1 1 1 1 1 1 1 1 1 1 1 0.0097201412254824433 1 1 1 1 1 1 1 1 1 1 1 1 1 1 1 1 1 1 1 1 1 1 1 1 1 1 1 1 1 1 1 1 1 1 1 1 1 1 1 1 1 1 1 1 1 1 0.0098367446704420349 1 1 1 1 1 1 1 1 1 1 1 1 1 1 1 1 1 1 1 1 1 1 0.0094146897482007743 1 1 1 1 0.0088807329910756995 0.0099751799295503887 1 1 1 1 0.010021255225974475 1 0.0099886228653897173 1 1 1 1 1 1 1 1 1 1 1 1 1 1 1 1 1 1 1 1 1 1 1 1 1 1 1 1 1 1 1 1 1 1 1 1 1 1 1 1 1 1 1 1 1 0.0098877614928448692 1 1 1 1 1 1 1 0.0098198356631184671 1 1 1 1 1 1 1 1 1 0.01005275962078688 1 1 0.0089493607021922696 1 1 0.0054687203683369805 1 1 1 1 1 1 1 0.0044890005257611672 0.01003219973623946 1 0.010000965948181229 1 1 0.0092125226066308054 1 1 1 1 0.0090320497921236136 1 1 1 0.0094981517285323766 1 1 1 1 1 1 1 1 1 0.012363037140292825 1 0.0049902402567239407 1 0.0098968273361377621 0.0098684510849525141 1 1 1 1 1 1 1 0.0099833377333205311 1 0.0042853594705401735 0.0066151739732689709 1 1 0.010225906264469441 1 1 0.010207834595425484 1 1 1 1 1 1 1 1 1 1 0.010039537725676435 1 1 0.0093398389279223063 1 1 1 1 1 1 1 1 1 1 0.009556263321425975 1 1 0.0079833060242603029 1 1 1 1 1 1 1 1 1 0.0094230251195450421 1 1 1 1 1 1 0.0098555347121194771 1 1 1 1 1 0.0068906755980560948 1 1 1 1 0.0047232589785046811 1 1 0.0095906805066521689 1 1 1 0.0076055030119726742 1 1 1 0.0082595736717998337 1 0.0020937593882763023 1 1 1 1 0.0049362809191455734 1 0.0076575729390318155 0.0098736962902075381 1 0.009583215735124934 1 1 1 1 0.0087630039658160904 1 1 1 1 1 1 1 1 1 1 1 1 1 1 1 1 1 1 1 1 1 1 1 0.009205587040033783 1 1 0.0099462384042741103 1 1 1 1 1 1 1 1 1 1 1 1 1 1 1 1 1 1 1 1 1 1 0.0078601976143855001 1 0.0098464613744255955 1 1 0.007394383145401421 1 0.0068131427664187127 1 1 0.0062460882597048292 1 0.010049607974393171 1 0.010280305085666016 1 1 1 1 1 0.0070537588863642739 1 1 0.0030491865222528232 0.0081573010917067555 1 1 1 1 0.0091097701988191917 0.0079388666982674744 1 1 1 0.008801999636062794 1 1 1 1 1 1 1 1 1 1 1 0.010170387317275556 0.006840599674953418 1 1 1 1 1 1 1 1 1 1 1 1 1 1 1 1 1 1 1 1 1 1 0.0074642083195615178 1 1 1 1 1 1 1 1 1 1 1 1 1 1 1 1 1 1 1 1 1 1 1 1 1 1 1 1 1 1 1 1 1 1 1 1 1 1 1 1 0.010145607220211447 1 1 0.0049283993419327998 1 1 0.010390960311817691 1 1 1 1 1 1 1 1 1 0.0085771901577542369 1 1 1 0.010380336562036106 0.0094664881829134156 1 0.0082545965823950448 0.0094313547887737419 1 1 1 1 1 1 1 1 1 1 1 1 1 1 1 1 1 1 1 1 1 1 1 1 1 1 1 1 1 1 1 1 0.0075612758447276534 1 1 1 0.010000213596029827 1 1 1 1 1 0.0079400216118928474 1 1 1 0.0097926733920906586 1 1 0.0089674619979024078 1 1 1 1 1 0.0099315112753681906 1 1 1 0.0063863198294383198 1 0.010058943655127314 1 1 0.0094931710215529364 1 1 0.0071697955608926948 1 1 1 1 0.0067435254712749915 1 1 0.0087400952082930024 1 0.0081323134021205196 1 1 1 1 0.0099414103339716692 1 1 1 1 1 1 1 1 1 0.0063971226648037293 1 1 0.010736264361077847 1 0.010346505210116728 1 0.010172522310741292 1 0.009054391202005194 1 0.0081999163919972036 1 0.0080992892291591959 1 1 0.0095857193899099944 0.010068811852677259 0.0089014501846824429 1 0.0099969847887260953 1 0.0077309899867376991 1 0.011632345407718941 0.0077983424089800232 1 1 1 1 1 1 1 1 1 0.0050756784277738928 1 1 1 0.010054362755261925 1 1 1 0.010028901890808992 1 1 1 1 1 1 0.0045205525076959588 1 1 1 1 1 1 1 1 0.008497002328570211 1 1 0.0098330365173500602 0.0094696148218964167 1 1 1 0.010606758216657009 0.0086600107157321429 1 1 0.01001524531633529 1 0.0085761154872442038 1 1 1 1 1 1 1 1 1 1 1 1 1 1 1 1 1 1 1 1 1 1 1 1 1 1 0.0084920610955592484 1 1 1 1 1 1 0.0092872207208868941 1 1 1 1 1 1 1 1 0.0084283613245718109 1 1 0.0092746505674379757 1 1 1 1 1 1 1 1 1 1 1 1 1 0.0090672915626462697 1 1 1 1 0.0099377864333296453 1 1 1 1 1 1 1 1 0.008280682376928826 1 1 0.0098130274368045355 1 1 1 0.0094406657640259111 1 1 1 1 1 1 1 0.0082880365608390388 1 1 0.0072711584059476347 0.0099949328462706436 1 1 1 1 1 1 1 0.010318046185333152 0.010007629921931055 1 0.0069219301047048556 1 1 1 1 0.0098365515677651619 1 1 1 1 1 1 1 0.0096459020231797424 1 1 1 1 1 1 1 1 1 1 1 1 1 1 0.0039914726337539203 1 1 0.010027731424850635 1 1 1 1 1 1 1 1 1 1 1 1 1 1 1 1 1 1 1 1 0.0041220184133565017 1 1 1 1 1 1 1 1 1 0.0094942781544881186 1 1 1 0.0080264920553638763 1 1 0.01066558164262708 1 1 1 1 1 1 0.004257912630175803 1 1 1 1 1 0.0054852282179152969 0.014146046090812343 1 1 1 1 1 1 1 1 1 1 1 1 1 1 1 1 1 1 1 1 1 1 1 1 1 1 0.0099505972443495305 1 1 1 1 0.011283269354339173 0.009171915348987366 1 0.009701234221772867 1 1 1 1 1 1 1 1 1 1 0.01058629539981658 1 1 1 1 1 1 0.0085072600828577562 1 1 1 0.00074868621342543545 1 0.01344236334239741 1 1 1 1 1 1 1 1 1 1 1 1 1 1 1 1 1 1 1 1 1 1 1 1 1 0.010017123826089261 1 1 1 0.0099989266353584516 1 1 1 1 1 1 1 0.0095119968087430569 1 1 1 1 1 1 1 1 1 1 1 1 0.01007991036722603 1 1 1 0.0093168227382477986 0.010498405136996063 1 1 1 1 0.0097595867500553761 1 1 1 1 1 1 0.0090682546193558335 1 0.0093649194475367709 1 1 1 1 0.0097449141274593091 1 1 1 1 1 0.0097973666353138675 0.0099407567364072982 1 1 1 1 1 1 1 1 1 1 1 1 1 1 1 1 0.0095991254558893142 1 1 0.0094916843042289045 1 0.0095797539491013581 1 1 1 1 1 1 1 1 1 0.0097266724399889121 1 1 1 1 1 1 0.0092578391632669073 1 1 1 1 1 1 1 1 1 1 1 1 1 1 1 1 0.0043571342981906947 1 1 1 1 1 1 1 1 1 1 1 1 1 1 1 1 1 1 0.0090104665515925771 1 1 1 1 1 1 1 1 1 1 1 1 1 1 1 1 1 1 1 1 1 1 1 1 1 1 1 1 1 1 1 1 1 1 1 1 0.0081408299661683697 0.0093172665851019732 1 1 1 1 1 1 1 0.00968916945657744 1 1 1 1 1 1 1 1 1 1 1 1 1 1 0.0095245746815678708 1 1 1 0.0098352226698084563 1 1 1 1 1 1 1 1 1 1 1 1 1 0.010052802688244161 1 1 1 0.010320257605044177 0.0099932255244094322 1 1 1 1 0.0091015045003064732 0.010161829650722808 1 1 1 0.0099705012453538272 1 1 0.010124543788485459 1 1 0.010035150862592603 1 1 1 1 1 1 1 0.0095360268477496998 1 1 1 1 1 1 0.0095670482419571157 0.010000358625613102 1 0.0099946501808114655 0.010223472134131033 1 1 1 1 0.0096486541427965242 1 1 0.010491450092295304 0.0093454860302027484 1 0.0098065382253275015 0.0093830332595483453 1 1 1 0.0097764776390881093 1 0.01015631337825469 1 1 1 0.010243299486741001 1 0.0097275758405810184 1 1 0.0085497417885293196 1 1 1 0.0089122768433851068 1 1 0.01030692535048388 0.0095038581945659853 0.0089717272501719167 1 1 0.0096593401112214684 0.010075412337117975 1 1 1 1 1 1 1 0.010025960996948219 0.010906971559874842 1 1 1 1 1 1 1 1 1 1 0.010014575685753174 1 1 0.010671923687873019 0.0097759646564955366 1 1 1 1 1 1 1 1 1 1 1 1 1 1 1 1 0.007162451615426774 1 1 0.010002586320807937 1 0.0081292125423715472 1 0.0091931087772947461 0.010472424871603426 0.010094050234481374 1 1 1 1 1 0.010402957483468967 1 0.0096240654647477587 1 0.0084402981196282124 1 0.004256103785085872 0.0089731806969832531 1 1 0.00811713744540132 1 0.0095830591271140204 1 1 1 1 1 1 0.009953248924664199 1 0.0090978266536903465 1 1 0.0092864568692251973 1 0.0098949316786345071 1 1 1 0.0099173998933379699 1 1 0.0051634518578150684 1 1 0.0081920425128121765 0.010074312883786872 1 1 0.0078588228440341149 0.01000111728469009 1 1 1 1 0.0058559056792086908 1 1 1 1 1 1 1 1 1 0.0098552317576787972 0.0096502669658359817 0.0052981685503617378 0.0099844436129568406 1 1 0.0074590467248284616 0.010000728389122016 1 0.0081598756148361859 0.0076427775737489614 1 0.010301157019238862 1 1 1 0.010343396036775046 0.010258222835509159 0.0081961032018274642 1 1 1 1 0.0065919442444631604 1 1 0.006551726438823683 1 1 1 0.0035198208778601005 1 0.0096016290131025368 1 1 1 1 1 1 0.0063466445905644136 1 1 1 1 0.007902690362350721 1 0.00737596467122556 1 1 1 1 1 0.0065330343805355059 1 1 1 1 1 1 0.0087866288346266017 1 1 1 0.0095788797009766224 1 1 1 1 0.0097717663626279219 0.0086700099916451126 1 0.010001915458240637 1 1 1 0.0075013832782385341 1 0.0099998466701567354 1 1 1 1 1 1 1 1 0.0097741509110259479 1 1 0.0085091584139770759 0.0094842679417759118 1 1 1 0.0090260108054710086 1 1 1 0.0085888574915125269 0.0091438263628818885 1 1 0.0086004723619712703 1 0.0092691936237857247 0.0090369415831539276 1 1 1 0.0089132580090427998 1 0.0082220091863220279 1 0.0054314690981594228 1 1 1 1 0.0074246105659471033 0.0082905433653717962 1 0.0098791613415209686 1 1 1 1 0.0083229290165975564 1 1 0.008068261820267186 1 0.010042274322869587 1 0.0093294077745560196 0.0099705472117477528 0.0082025768617014026 1 1 0.010070232775648644 1 0.0096780799619298301 1 0.008970944357815154 0.0098876307706269265 0.0098235710885300961 1 1 0.0082439554783644044 1 1 1 0.008046216912040105 1 1 0.0099989840662284783 1 1 1 1 1 1 0.0084695943245145077 1 1 1 1 0.0081478284537556157 0.0094117769642116413 1 1 1 1 1 1 0.0097648087943585753 1 1 0.0099987754397455244 1 0.0092241399714986325 1 1 0.0096880419531099882 0.0089343081983449049 1 1 0.0086280065868655255 0.0095747739439605746 1 1 0.0087789622016136003 1 1 1 1 1 1 1 1 1 1 1 1 1 1 1 1 0.0099978162455068402 0.0090874941516660632 1 1 1 1 1 0.0093182946733984459 1 1 1 1 1 1 1 0.008079942151940812 0.008434449925492242 1 0.0087491066304579493 1 1 1 1 1 0.0082672220508786844 1 1 0.0088835681538959859 0.0086564363416566786 1 0.0092557153166619131 1 1 0.0090815165073275094 1 1 1 1 1 1 1 0.0083875958326114601 1 1 1 1 1 1 1 1 1 1 1 1 1 1 1 0.006127610898324894 1 1 1 0.0065206777026721764 1 1 0.0069162368601217578 1 1 0.007388585291073016 0.00675636318748353 1 1 0.0060490429057329905 0.0084280589850205204 1 1 1 1 1 1 1 1 1 1 0.0060037163663878039 0.0090110982785266535 1 0.0064217852605655927 1 1 0.0073897340202596206 0.0053512041342495299 1 1 0.011395366626618792 1 0.0055883459383964593 0.010113875054433235 1 1 0.0100466397432236 1 1 1 1 1 1 1 0.00600423137409988 1 1 1 1 1 1 1 1 1 1 1 1 1 1 1 1 1 1 1 1 1 1 1 1 1 1 1 1 1 1 1 1 1 1 0.0075245068763932846 1 1 0.009683445651842983 1 1 1 1 0.0057759148049444133 1 1 1 1 0.0097873167258314738 1 1 1 1 1 1 1 0.0092301605663003741 1 1 1 1 1 1 1 1 1 1 1 1 1 1 1 1 1 1 0.010933740605762339 1 0.011637708039564222 1 1 0.010205494472817805 1 1 1 1 1 1 1 1 0.0067222349546717242 1 1 1 1 1 0.010282260273113644 1 1 1 1 1 1 1 1 1 1 1 1 1 1 1 1 1 1 1 1 1 1 1 1 1 1 1 1 0.0051344615219522244 1 1 1 1 0.0031941342880712261 1 1 1 1 1 0.0094693280676742229 1 1 1 1 1 1 1 1 1 1 1 0.0098298519266365181 0.0072421904456829922 1 1 1 1 1 1 1 1 1 0.0095173583935411372 1 1 1 1 1 1 0.0099271264973155582 1 1 0.0074422793171502518 1 1 1 1 1 1 1 1 1 1 1 1 1 0.0075602743196337887 1 1 1 0.0081310502075348564 1 1 0.0088906792384207817 1 0.0095608289601728964 1 1 1 1 1 1 1 1 1 1 1 1 1 1 1 1 1 1 1 1 1 1 1 0.0088952846761649797 1 1 1 1 1 1 1 1 1 1 1 0.0089140502888517669 1 0.00945389485662264 1 1 1 0.010020719447451433 1 0.0069166892238360402 1 1 1 0.006124899865074647 1 1 1 1 1 1 1 1 1 1 1 1 1 1 1 1 1 0.0096055446066346476 1 1 1 1 1 1 1 1 1 0.0086639548953603516 1 1 1 1 1 1 0.0089465011223657173 1 1 1 1 1 1 1 1 1 1 0.0090921686481803474 1 1 1 1 1 1 1 0.0093229983796292888 1 1 0.0094069557406294673 1 0.013432867175518719 1 1 1 0.011113934982653128 0.004057401626866769 1 1 1 1 1 1 0.0056830312490146889 1 1 1 1 1 1 1 1 0.0099907036241675649 1 0.009621137426782729 0.0097258827927077865 1 1 1 1 1 1 1 1 1 0.0090224913824386473 1 1 1 1 0.0095839139744190865 1 1 1 1 1 0.0050988182623397217 1 1 1 1 1 1 1 1 0.0012878944430023565 1 0.010081310725466044 1 1 1 1 1 1 0.0096299367326902821 1 1 1 1 1 -9.540979117872439e-18 1 1 1 1 0.00041062523741457885 1 1 1 1 0.0091819892503529812 1 1 1 1 1 1 1 -6.9388939039072284e-18 1 1 1 1 1 1 1 1 1 1 1 1 1 1 1 1 0.007204255132994772 1 1 0.0099950453455611675 0.010039397771346981 1 1 1 1 1 1 0.010091209190583279 1 1 1 0.0066236959972448429 1 1 0.0098513862430078796 1 1 1 1 1 1 1 0.0077233582941877033 1 1 1 1 1 1 1 1 1 0.0095505785816277881 1 1 1 1 1 1 1 1 1 1 1 1 0.0093994844010877408 1 1 1 0.009937748914982291 1 1 1 1 1 0.0099123345355677048 1 0.0082518393212526013 1 1 1 0.010137746178371251 1 1 0.010199109365053832 1 1 1 1 1 0.010185421071351489 1 1 1 0.0079748444889435575 1 1 0.010591310326767281 1 1 1 1 0.010034602293233745 1 1 0.0077649382002422723 1 1 1 0.0079865464282742587 0.0089818026307000188 1 1 1 1 1 1 0.0077335586605323569 0.0081120022376387994 1 1 1 1 1 1 1 1 1 1 1 1 1 1 1 1 1 1 1 1 1 1 1 1 1 1 1 1 1 1 1 1 1 0.0098987701267760492 1 1 1 1 1 0.010009144908547957 1 1 1 1 0.0097473253371347761 0.0099475736346759831 1 1 0.0099050637423316306 0.010068654458734148 1 1 1 1 0.0083728765896206921 1 0.0092593698145052306 1 1 0.0076441680582196086 0.008248940677121749 1 0.0082865906719686664 1 1 1 1 1 1 0.0099738014581852025 1 1 0.010739711855676962 1 1 1 1 1 1 1 1 1 0.010209673825964233 1 1 0.0084808044125441427 1 0.009996303192266992 0.0096873699754259739 0.0078801152557510176 1 1 1 0.0099825849308488694 1 0.0094826901578484724 1 1 1 1 0.0063205748128331921 1 1 1 0.0067786611905450156 1 0.0072337155722777494 1 1 1 0.0055795045791584667 1 1 0.0081531190137595095 1 1 1 1 1 1 1 1 1 1 1 1 1 0.0054481407926142925 1 0.010259788733952016 1 1 1 1 0.0098996051233882117 1 1 1 1 0.0095998971858560454 1 1 1 1 1 1 1 1 1 1 1 0.0097171769196897004 1 1 1 1 1 1 0.0092711309533235198 1 1 1 1 1 1 1 1 0.0098370643689456496 0.0095624172428505246 1 1 1 1 1 1 1 1 1 1 1 1 1 0.0096817052651137023 1 1 0.010032022908272438 1 0.0087626298293245614 1 1 0.010211809934865829 1 1 0.0098732376317636102 1 1 1 1 1 1 1 1 1 0.0095599768629326936 1 1 1 1 1 1 1 1 1 1 1 1 1 0.009990478872366159 1 1 1 1 1 1 1 1 1 1 1 1 1 1 1 1 1 1 1 1 1 1 1 1 1 1 1 1 1 1 1 1 1 1 1 1 1 1 1 1 1 1 1 1 1 1 1 1 1 1 1 1 1 1 1 1 1 1 1 1 1 1 1 1 1 1 1 1 1 1 1 1 1 1 1 1 1 1 1 1 1 1 1 1 1 1 1 0.0098739601181805792 1 1 0.0099927905506538225 1 1 1 1 1 1 1 1 1 1 1 1 1 1 1 1 1 1 0.010216422994387842 1 1 1 1 0.0094908481211853808 1 1 1 1 1 1 1 1 1 1 1 1 1 1 1 1 1 1 1 1 1 1 1 1 1 0.0090904153151310924 1 1 1 1 1 0.010787945490502274 1 1 1 1 0.010259765315657983 1 1 1 1 1 1 1 1 1 1 1 1 1 1 1 1 1 0.011808534012257187 1 1 1 1 0.0091135740927834573 0.0073569655728872984 1 1 1 1 0.0095538079507123744 0.0088391387571468208 1 1 1 1 1 1 1 1 1 1 1 1 1 1 1 1 0.0098175713037562638 1 1 1 1 1 1 1 1 0.0077743856706087664 1 1 1 1 0.0086815864948134643 1 1 1 1 1 1 1 1 1 1 1 0.0094368425931600809 1 1 1 0.0092202779801474812 1 1 1 0.0094553388048567374 1 1 1 0.0097435676280815866 1 1 1 1 1 0.0089334723763577276 0.0091827367605378501 1 1 1 1 1 1 1 1 1 1 1 1 1 1 1 1 1 1 1 1 1 1 1 1 1 1 1 1 1 1 0.007256945551937467 1 1 1 1 1 0.0082148055546161902 1 1 0.0099758328675200528 1 1 1 1 1 1 1 1 0.0069522714152382443 1 1 0.0069074139865782855 1 1 1 1 1 1 0.010007147289143089 1 1 1 1 0.0087800213801953794 1 0.0069210935683397586 1 1 1 1 0.0095962948108306127 1 1 1 1 1 1 0.0060438034449027522 0.0098762474747891467 1 0.0068534186033260922 1 1 1 1 0.0074356652514230657 1 1 1 1 1 1 0.0089787070792034813 1 1 1 1 0.0097065328178560888 1 1 1 1 1 1 1 0.0097069706218995081 1 1 1 1 1 1 1 0.0093032278060331229 1 1 1 1 1 1 1 1 1 1 1 1 1 1 1 1 1 1 1 1 1 1 1 1 1 1 1 1 1 1 1 0.0090886757584837715 1 1 0.0090005157142414218 1 0.0067130836127183881 1 1 1 1 1 1 0.008823723189598582 1 1 1 1 0.009706166018713212 1 1 1 0.0055081756117605386 1 1 1 0.0060545576287627974 1 1 1 0.010003977289217135 1 0.0086225558725862624 1 1 1 1 0.0091256104239725716 1 1 1 1 1 1 1 1 1 0.0086968145615112635 1 0.0096689353457587671 1 1 1 1 1 1 1 1 1 1 1 1 1 0.0088834593873092834 1 1 1 1 0.0090137658458280916 1 0.0097899647446147067 1 0.0099372525639529006 0.0061489285552902995 1 1 1 1 1 1 1 1 0.0059737271515939707 1 0.0054511991719824217 0.0054779113592939715 1 1 1 1 1 1 1 1 1 1 1 1 1 1 0.0097627004439933569 1 1 1 1 1 1 0.010396751383488268 1 1 1 1 1 0.0091175286752698328 1 1 0.0099793941229211428 1 1 0.0051391867323187131 0.010298961902589087 1 0.010023092002348908 1 1 1 1 0.0056387581178251218 1 1 1 1 1 0.008086949992858956 0.0082077355087875892 1 1 1 0.0095667423072593044 0.008549026371929792 0.0088785713066986717 1 0.0096957247174092372 1 0.0088375105560248371 1 1 1 1 0.0098652074515409808 1 1 1 1 1 1 1 0.0093711716773941123 1 1 1 1 1 1 1 1 1 1 1 1 1 1 1 1 0.0084403428020655008 0.0093014144227962364 1 1 1 1 1 1 1 1 1 1 1 1 1 1 1 1 1 1 1 1 1 1 1 1 1 1 1 1 1 1 1 1 0.0081384146349516087 1 1 1 1 1 1 0.0063717015716096906 1 1 1 1 1 1 1 1 1 1 1 1 1 1 1 1 1 1 1 1 1 1 1 1 1 1 0.0097624086615372193 1 1 1 1 1 0.0085847277717747139 1 0.0094729022143212917 1 1 1 1 1 1 0.0024049855063169815 1 1 1 1 1 1 0.0015439957088667858 1 1 0.015738962539673832 1 1 0.015107445407051008 1 1 0.0038809819381566829 1 1 1 1 1 0.0015795537813965647 1 1 1 0.0090051803566682138 1 1 1 1 1 1 0.011064727866904678 1 0.009913962205178881 1 1 0.0069010819623370294 1 0.010987290435300182 1 1 0.01004316590524088 1 1 1 1 1 1 1 1 1 1 0.0098624405270873218 1 1 1 1 1 1 1 1 1 0.0082332869366580855 1 1 1 1 1 1 1 0.0090810133025650691 1 1 1 1 0.000492028791656135 1 1 1 0.00769118605653972 1 1 1 1 1 1 1 1 1 1 1 1 1 0.0029567796181363768 1 1 0.010309248024781335 1 1 0.0089528737261432411 1 1 0.016153780563681677 1 1 1 1 0.0010361993100899032 1 1 1 1 0.011553133264683598 1 1 1 1 1 1 1 1 1 1 1 1 1 1 0.0096612616666526662 1 1 1 1 1 1 1 1 1 1 1 1 1 1 1 0.010191538073312479 1 0.010047207470323765 1 1 1 1 1 1 1 1 0.010621503423692549 1 1 1 1 0.010150175355199954 1 1 1 1 1 1 1 1 1 1 1 1 1 1 1 1 1 1 1 1 1 1 1 1 1 0.0095658227437797096 1 1 1 1 1 1 1 0.0099220654290001712 1 1 1 1 1 1 1 1 1 0.0099540723198148304 1 1 1 1 1 1 1 1 1 1 1 1 1 1 1 1 1 1 1 1 1 1 0.0099679931091853375 1 1 1 1 1 1 1 1 1 1 1 1 1 0.00052707068761687764 1 1 1 1 -2.4286128663675299e-17 1 1 1 1 0.0092244183613614961 1 1 1 1 1 0.00086935775396373635 1 0.0092576922570484117 1 0.0025641635554191195 1 1 0.0079556817399750509 1 1 0.0052702657796363413 1 1 0.006018864958153642 1 1 1 1 1 1 0.0076528842885065056 1 1 1 1 1 1 0.0044629722825951417 1 1 1 1 0.0040441313024514609 1 0.0061531069299024261 1 1 1 1 1 1 1 1 0.0098921463248674967 1 0.0087213614889678839 1 1 1 1 1 1 1 1 1 1 1 1 1 1 1 1 0.0069009224289302232 1 1 0.0029976930082188501 0.0047457502540016166 1 0.01260256259002043 1 1 0.010439136285291672 1 1 1 1 1 1 1 1 1 0.0036964452516452199 1 1 0.0068681287183519572 1 0.0073438572675433109 1 0.0080609563121530371 1 1 0.013230086561043922 1 1 1 0.011533052503463263 1 1 1 1 1 1 0.010358410160280168 0.0066408634744143536 1 1 1 1 1 1 1 1 0.0074470067032470083 1 1 0.0070584260949159653 0.009945705504437255 1 1 0.0077299517421515525 1 1 1 1 1 1 1 1 0.0087812719197978336 1 1 0.0088359426753886697 1 1 0.01002939238712729 1 1 1 1 1 1 1 1 1 1 0.0094408822192719507 1 1 1 1 1 1 1 1 1 1 1 1 1 1 1 1 1 0.0086202303219725662 1 1 1 1 1 1 1 0.0072361824170340244 1 1 0.0086138554904650281 1 1 0.0090949402434505749 1 1 1 0.0097810107655488636 1 1 1 1 1 1 1 1 1 1 1 1 1 1 1 0.0086710958336252662 1 1 0.0086485076953424986 1 1 1 1 1 1 1 1 1 0.0086749081826331901 1 1 1 1 1 1 1 1 1 1 1 1 1 1 1 1 1 1 0.0071258969117166619 1 1 1 1 1 1 0.0083638529748103069 1 1 0.0077469178882766179 1 1 1 1 1 1 1 1 0.0042194853721836297 1 1 1 1 1 1 1 1 1 1 1 0.008759150544763469 1 1 1 0.0093541744558869391 1 1 1 1 1 1 1 1 1 1 1 1 1 1 1 1 1 1 1 0.010030810564370368 1 0.010504171491092552 1 1 0.0089964147650227703 1 1 1 0.0096680324187108993 1 1 1 1 1 1 1 1 1 1 1 1 1 1 1 1 1 1 1 0.0096120974815919018 1 1 0.0091046203361152978 1 1 1 1 0.009084426160947956 1 1 1 1 1 1 1 1 1 1 1 1 1 0.0090331451761824048 1 1 1 1 0.0078749603523149466 1 1 1 0.010026285404951728 1 1 1 1 1 1 1 1 1 1 1 1 1 1 1 1 1 1 1 1 1 1 1 1 1 1 1 1 1 1 1 1 1 1 1 1 1 1 1 1 1 1 1 1 1 1 1 1 1 1 1 1 1 1 1 1 1 1 1 1 1 1 1 1 1 1 1 1 1 1 1 1 1 1 1 1 1 1 1 1 1 1 1 1 1 0.0097164959664355725 1 1 1 1 1 1 1 1 1 0.0098526588191875999 1 1 1 1 1 1 1 1 1 1 1 1 0.0094955529748627834 1 1 1 1 1 1 1 0.0099994838859188886 1 0.0099901321203677874 1 1 1 1 1 0.010120643098858339 1 1 1 1 1 0.010032233290705364 1 1 1 1 1 1 1 1 1 1 1 1 1 1 1 1 1 1 1 1 1 1 1 1 0.0098638371472479624 1 1 1 1 1 1 1 0.010089823038427403 1 0.0098465990676047544 1 0.0089651163152146066 1 1 0.0099981675947668196 1 1 1 0.0082367858463203089 0.0098729528274272178 1 1 1 0.0099608247506654361 1 1 1 0.01000365726137537 1 1 1 0.010025384883926004 1 1 1 1 1 1 1 1 1 0.0099847177298737471 1 1 0.010279178236256143 1 1 1 0.0097870724770403438 1 0.010449068753780315 1 1 1 1 1 1 1 1 1 1 1 0.0096010735705123803 1 0.010544011652274357 1 1 1 1 0.0099505038348232187 1 1 1 1 1 1 0.01000975672855697 1 1 0.0092068432160125561 1 1 1 1 1 1 1 0.011928270293855228 0.0099993194308087164 1 0.01005392501922954 1 1 1 1 0.01001100705386844 1 1 1 1 1 1 1 1 1 1 1 0.010054426079463429 1 1 1 1 1 1 1 1 1 1 1 1 1 1 1 1 1 1 1 1 1 1 1 1 1 1 1 1 1 0.0094880375923880791 0.0091785919485986023 1 1 1 0.0093404657412085642 0.0099411912102331176 1 1 1 1 1 0.010014183077278867 0.0091565272982643796 1 1 0.0094258117286980508 1 1 1 0.0099995100869200697 1 0.0091025308200569036 1 1 1 1 1 1 1 1 1 1 1 1 1 1 1 1 0.0096239543658341326 1 0.0093915427533560452 1 0.0095260945935530875 1 1 1 1 1 1 1 1 1 1 1 1 1 1 0.0095144620254330719 1 1 1 1 0.0099668576655682958 1 1 0.0086008799934992226 1 1 1 1 1 1 1 0.0079282331441986875 1 1 1 1 1 0.0087313846736815897 1 1 1 0.0099931430705200146 1 1 1 1 1 1 1 0.007862285917861693 1 1 0.0069317552154301385 1 1 1 1 1 1 1 1 1 1 1 1 1 1 1 1 1 1 1 1 1 0.011575378819222198 1 1 1 1 1 1 1 1 0.009998457110356105 1 1 1 1 1 1 1 1 1 1 1 1 0.0061732265958399455 1 1 0.011859215106676802 1 1 1 1 0.0039352672667595616 0.01035857899021963 1 1 1 1 1 1 1 1 1 1 1 1 1 1 1 1 1 1 1 1 1 1 1 1 1 1 1 1 1 1 1 0.0042554648744444167 1 1 0.010137117519687149 1 1 1 1 0.010058954302732235 1 1 1 1 1 1 1 1 1 1 1 1 1 1 1 1 1 1 1 1 1 1 1 1 1 1 1 1 1 1 1 1 1 1 1 1 1 1 1 1 1 1 1 1 0.0095155434887222515 1 1 1 1 1 1 1 0.0094184360597510744 1 1 1 1 1 0.0094138733289762452 0.010003530371753354 1 0.0084262724078481427 1 1 0.0096282292480500253 1 1 1 1 1 1 1 1 1 1 0.0078370158885815687 1 1 1 1 1 1 1 1 1 1 1 1 1 1 1 1 1 1 1 0.0038790378584785228 1 1 0.0090909006341053818 1 1 0.004376176452877252 0.0090684195984387529 1 1 1 0.0095942512294260179 1 1 1 1 1 1 0.0074940158417168314 1 1 1 0.0046583094064745825 1 1 1 1 1 1 1 1 1 1 1 0.0023104799049615005 1 1 1 0.010028499815283231 1 1 1 0.0096436285727436143 1 1 1 1 1 1 0.0099744157619696128 1 1 1 1 1 1 1 1 1 1 1 1 1 1 1 1 1 1 1 1 1 1 1 1 1 1 1 1 1 1 1 1 0.0099202051924091421 0.0093044055744956108 1 1 1 1 1 1 1 0.0097299561366859834 1 1 1 1 1 1 0.009608960796954908 1 1 1 1 1 1 1 1 1 1 1 1 1 1 1 1 1 1 1 1 1 0.0096510609451659797 1 1 0.0096167322650926521 1 1 1 1 0.009914662603127183 1 1 1 1 1 1 1 1 0.0097441703126239006 1 1 0.0098337433649739441 1 1 1 1 1 1 0.0099567085945676363 1 1 1 1 1 1 1 1 1 1 1 1 1 1 1 1 1 1 1 1 1 1 1 0.0099960215306382095 1 1 1 1 1 1 1 1 1 1 1 1 1 1 1 0.0098352066257642173 1 1 0.0098469625617365955 1 1 1 1 1 1 1 1 1 1 1 1 1 1 1 1 1 0.0099282804108457613 1 1 1 1 1 1 1 1 1 1 1 1 1 1 1 1 1 1 1 1 0.0097794530874581922 1 1 1 1 1 1 1 1 1 0.0099906853025380701 1 1 1 1 1 1 1 1 1 1 1 1 1 0.0030565057791210673 1 1 0.0039842038158294409 1 0.0096575250617770211 1 1 0.0068117045606397864 1 1 1 1 1 1 1 0.0080325264653430956 1 1 1 1 1 1 1 1 0.0098987408811878966 1 1 1 1 1 1 1 1 1 1 1 1 1 1 1 1 1 1 1 1 0.0078100401665343964 1 1 1 1 0.0092719149434742302 1 1 0.0028571407014531258 1 1 1 1 1 1 1 1 1 1 1 1 1 1 1 1 1 0.0096932315152128828 1 1 1 1 1 1 1 0.0098495274823323289 1 1 1 1 1 1 1 1 1 1 1 1 1 1 1 1 1 1 0.0097324212149575168 1 1 1 1 1 0.005682522995785878 1 0.0083496617688614463 1 0.0044135116429405881 1 0.0064321462836917434 0.010705100293954018 0.010129369898416125 0.0085931230591151722 1 1 0.010059911081172589 1 0.010378442956268198 1 1 1 1 1 1 1 1 0.0041710988679601879 0.0042675940953844681 -2.7755575615628914e-17 0.0092792493112933035 1 1 1 1 1 1 1 1 1 1 1 1 0.009486603214825487 1 1 1 1 1 1 0.0085546824382062223 1 1 1 1 1 1 1 1 1 1 1 1 1 1 1 1 1 1 1 1 1 1 1 1 1 1 1 1 1 1 1 1 1 1 1 1 1 1 1 1 1 1 1 1 1 1 0.010186392767871501 1 1 0.012437894600527554 1 1 1 1 1 1 1 1 1 1 1 1 1 1 1 1 1 1 1 1 1 0.010064642493019534 1 1 1 1 1 1 1 1 1 1 1 1 1 1 1 1 1 1 0.010011350840602793 0.0069764520168777138 1 0.012020395770750036 1 1 0.00903936530771207 1 1 1 1 1 1 1 1 0.012272842031911231 1 1 1 1 1 1 1 1 1 1 1 1 1 1 1 1 1 1 1 1 1 1 1 1 1 1 1 1 1 1 1 1 1 1 1 0.0077447947385703344 1 1 1 1 1 1 1 1 1 0.011076571322258085 1 1 1 1 1 0.010366350403370868 1 1 1 1 1 1 1 0.0093408542667824581 1 1 1 1 1 1 1 0.0098014747359036376 1 1 1 1 1 1 0.01015060435496731 1 1 0.010692214387705273 1 1 1 1 1 1 1 1 1 1 1 1 1 1 1 1 1 1 1 1 1 0.0090757806132506346 1 0.0092763438010294956 1 1 0.0098159641622117058 1 1 1 1 1 1 1 1 1 1 1 1 1 1 1 1 1 1 1 1 0.0099990237347034345 1 1 1 1 0.0099337190743455268 1 1 1 1 1 1 1 1 1 1 1 1 1 1 1 1 1 1 1 1 1 1 1 1 1 1 1 1 1 1 1 1 1 1 1 1 1 1 1 1 1 1 1 1 1 1 1 1 1 1 1 1 1 1 1 1 0.0099446836451031369 1 1 1 1 1 1 1 1 1 1 1 1 1 1 0.010065525505961665 0.010034367905285569 1 1 1 1 0.010025310355394852 1 1 0.010207664429993419 1 1 0.010344483986792561 1 1 1 1 1 1 1 1 1 1 0.0087739964674489641 1 1 1 1 1 1 1 0.010414958323178108 1 0.0093030812917427649 0.0088583036158057186 1 1 1 1 0.010154402046742787 1 0.0057871806827664522 1 1 1 0.0099157109421547998 1 1 1 1 1 1 1 1 1 0.0099964436146687402 1 1 0.010039061036644929 1 0.010124690307696515 1 0.0085828082493880423 1 0.010178023044876298 1 1 1 0.0067001571804928446 0.009998771797923852 1 1 1 1 0.010421982484197873 1 0.0099941752498294394 1 1 1 1 0.0055445096910039238 1 1 1 1 1 1 1 1 1 1 1 1 1 1 1 1 0.0089077023823117135 1 1 1 1 1 0.0099999249664596244 1 1 1 0.0079679827529825203 0.0079772711703982556 0.0074054718083983659 1 1 0.0076021484359931873 1 1 0.0085115712059824558 1 1 0.0096424970845248748 1 1 1 1 1 1 0.01004015191811585 1 1 1 0.0099522412361443199 0.0088832102267758645 1 0.0098006046482815787 1 1 1 1 0.0075790252249680005 1 1 1 1 1 1 0.0072238651343703841 0.0090643168231004448 1 1 0.0069477377476851055 1 1 0.010360872283689638 1 1 1 1 1 0.0087049662738919471 1 1 1 1 1 1 1 1 1 1 1 1 0.0098588300281976637 1 1 1 1 1 1 1 1 1 1 0.0097746005666997683 1 0.008464866643245637 1 0.0072457052645889227 1 1 0.0079714402771337463 1 1 0.0092501296940318452 0.010065211058308579 0.010841055880848887 1 0.0030474211228527451 1 1 0.010568876641762768 1 0.01048313349364224 1 0.010636188353798972 1 1 1 1 1 1 1 1 1 1 1 1 1 1 1 0.00998594575601933 1 1 0.0081115092603417215 1 1 1 0.0095798784776060832 0.009324911453683183 1 1 0.0084212714478513872 0.0099938143025385361 0.0092606454874819763 1 1 1 1 1 0.0095896540996467453 1 1 0.0093469033558150269 1 1 0.010110100613127945 1 1 1 1 0.0098926544147004535 1 1 1 1 1 1 1 1 1 1 1 1 1 1 1 1 1 0.0097376194067768478 1 0.0096736500002740956 1 1 1 1 1 1 1 1 1 1 1 0.0098136444635561343 1 1 1 0.0093727601150551867 1 1 1 1 1 1 1 1 1 1 1 1 1 1 1 0.0091646000647795309 1 1 1 1 1 1 1 1 0.0096548228704430063 1 0.0097285212078032646 1 1 1 1 1 1 1 1 1 1 0.0094444814073341623 1 1 1 1 1 1 1 1 0.0017885968289589309 1 1 1 1 0.0097159601995308979 1 1 1 1 1 1 2.0066565420712862e-06 1 1 1 1 1 1 1 1 1 1 1 1 1 1 1 1 1 1 1 1 1 1 1 1 1 1 1 1 1 1 1 1 1 1 1 0.0091092541145208206 1 1 1 1 1 1 1 1 0.0075051154118526316 1 1 1 1 0.0062491638112151734 1 0.0098511273786137526 1 1 1 1 1 1 1 1 1 0.003747226097787661 1 1 1 1 0.0099056531746951476 1 1 1 1 1 1 1 1 1 1 1 1 1 1 0.010080888593455963 1 1 1 0.010302870479184118 0.0068853733600259415 1 1 1 1 1 1 1 0.007573754022733345 0.007529771938857302 1 1 1 1 0.0088238576450829029 0.0065810322207734487 1 0.0076810405770828356 1 1 1 0.0071741552169935236 1 1 1 0.0093783010807829744 0.0073357361370560321 1 1 0.0087182834516735148 0.0098672038860880308 1 1 1 1 1 1 1 1 1 1 0.0076336349785925475 1 1 1 1 0.0069936283323569388 1 1 1 0.0077647624396559155 1 1 1 1 1 0.0095974888930135012 0.010301043698348953 0.0090291333354141322 0.0099984369668064867 1 1 1 1 1 1 1 1 1 1 1 1 0.0099972086605843273 1 0.0097767455660477155 1 1 1 1 1 1 1 1 1 1 0.0099748692320226259 1 1 0.0099300869361000736 1 1 1 1 1 1 1 1 1 1 1 1 1 1 1 1 1 1 1 1 1 1 1 1 1 1 1 1 0.009826281533608797 0.0097026816421061403 1 1 1 1 1 1 0.010009057549890725 1 1 1 1 0.0099367601642046943 1 1 1 1 1 0.010001827655605231 1 1 1 1 1 0.0099961027148683518 1 0.0096917395970307907 1 1 1 0.0095121902486935486 1 1 0.0099954876850053085 1 0.0098588865042758995 1 0.0094109427319519559 1 0.0096226240459158559 1 1 0.00984181208818459 1 1 0.0095573170887171734 1 0.0099344693047770157 1 1 0.010242665117614496 0.0087882650255459334 1 1 1 1 0.010002746813419731 1 1 1 1 1 1 1 0.0095937442540083365 1 1 1 1 1 1 1 1 1 1 1 0.010066229675457422 1 1 1 0.0096155778478288004 1 1 1 1 1 0.010034066855466196 1 1 0.0098746263080230993 1 1 1 1 1 0.0097478811561792778 1 1 1 1 1 1 1 1 1 0.0097615076680576882 1 1 1 1 0.0094196071897560234 1 1 1 1 1 1 1 1 1 1 1 1 1 1 1 1 1 1 1 1 1 1 1 1 1 1 1 1 1 1 0.0097731610906235996 1 1 1 1 1 1 1 1 1 1 1 0.0098747015165221216 1 1 1 1 1 1 1 1 1 1 1 1 1 1 1 0.0094244035248055719 0.010036376101255327 1 1 1 0.010017445299630393 1 1 1 1 1 1 1 1 1 1 1 1 1 1 1 1 1 1 1 1 1 1 0.0097737466545805007 1 1 1 1 1 1 1 1 1 1 1 1 1 1 1 1 1 0.0096231114646050352 0.0098990451380583863 1 1 1 1 1 0.0090322861893495903 1 0.0088276150440671341 1 1 1 0.0079556975123308161 1 0.0083666261891695501 1 1 1 1 1 1 1 1 1 1 1 1 0.01010815324603696 1 1 1 0.009892848122195267 1 1 1 1 1 1 1 1 1 1 1 1 1 1 1 1 1 0.0096715227790206918 1 1 1 1 1 0.0098476869099362197 1 1 1 1 1 1 1 1 1 1 1 1 1 0.0084455338475431779 1 1 1 1 1 1 1 1 1 1 1 1 1 1 1 1 1 1 1 1 1 0.0095698584251062997 1 1 1 1 1 0.0099373156746922139 1 0.0088896794800517338 1 1 1 1 1 1 1 1 1 1 1 1 1 1 1 1 1 1 1 0.0098216478905073148 1 1 1 1 1 0.0082401580174731263 1 1 1 0.0098434711920092188 1 1 1 1 1 1 1 1 1 1 1 1 0.0082432251509113649 1 0.0099482324316202755 1 1 1 1 1 0.0099333986763159802 1 1 1 1 1 0.010349665851257538 1 1 1 1 1 1 1 1 1 1 1 1 1 1 1 1 1 0.0099724712800292794 1 1 1 1 1 0.010635894105964515 1 1 1 1 1 1 1 1 1 1 1 1 1 1 0.011452010790281172 1 0.0087837822626907584 0.0093059538447338337 1 1 1 1 0.010002792797811733 1 1 1 1 1 1 0.0088177705769239226 1 1 0.010775037285049985 1 1 1 1 1 1 1 0.011456446781710088 1 1 1 1 1 1 1 1 0.0094596557358150018 1 1 0.0099472704841222052 1 0.010534009973430972 1 1 1 1 1 1 1 1 1 1 1 1 1 1 1 1 1 1 1 1 1 0.010190636762608594 1 0.0099695391752247335 1 1 1 1 1 1 1 1 1 1 1 1 1 1 1 1 1 1 1 1 0.0094235438168342039 1 1 0.0096353626539126928 1 1 1 1 1 1 1 1 1 0.0089272871808388932 1 1 0.0097605612803803588 1 1 1 0.010089058287600056 1 1 1 1 1 1 1 1 1 1 1 1 1 1 1 1 1 1 1 0.0090089014262483887 1 1 1 1 1 1 1 1 1 1 1 1 1 1 1 1 1 1 0.010075858412224409 1 1 1 1 0.010015681262165715 1 1 1 1 0.009863229922687405 1 1 1 1 1 1 1 1 1 1 1 1 1 1 1 1 1 1 1 1 1 1 1 1 1 1 1 1 1 1 1 1 1 1 1 1 0.0097740261747596754 1 1 1 1 1 1 1 1 1 0.0041487778696529566 1 1 1 0.0051357909470581883 1 1 0.0096095436428210116 1 1 1 1 1 1 1 0.010887276709739106 1 0.010240842258124973 1 1 1 0.0075829579929278974 0.0089485681595057112 1 1 1 1 1 1 0.010655625824737355 1 1 0.0074678725035756382 1 1 1 1 1 1 1 0.0096069526176674434 1 1 1 1 1 0.0054239016436176107 1 1 1 1 1 1 1 1 1 1 1 1 1 0.010517036224310002 1 1 1 1 1 1 1 0.0066921550245612887 1 0.0040614651054598702 1 1 1 0.010980828208597949 1 1 1 1 1 1 1 0.0080006869494013214 1 1 1 1 1 1 0.0093365659654345151 1 1 1 0.0036582517727076058 1 1 1 1 1 1 1 1 1 1 1 1 1 1 1 1 1 0.010057334772234626 1 1 1 1 1 1 1 1 1 1 1 1 0.0099641967059986569 1 0.0098726168952405369 1 1 1 1 0.0099508268853328447 1 0.010016277183757675 1 1 1 1 1 1 1 0.010089279484399659 1 1 1 1 1 1 1 1 1 0.009313442233810575 1 0.010017698701857206 1 0.009175793737086279 1 0.0099819121762403911 1 1 0.0098147135301231928 1 0.0094687137510740451 0.0099943384965628414 1 0.009458903882955309 1 0.010020647531827149 1 1 1 0.0098181221728988518 1 0.010030638391654358 1 0.0098438129060560223 0.0099862759026871153 1 1 1 1 1 1 1 1 1 1 0.0100483311432297 1 1 1 0.0089087118107794554 1 1 1 0.0096738036043125843 1 1 1 0.010015856576343862 1 1 1 1 0.0099389295550556967 0.0099007968147313448 1 1 1 1 0.0098724361142817352 1 1 1 1 0.0097570014199881549 1 1 1 1 1 0.0091028391694227169 1 1 0.0090295304724893784 1 1 1 1 0.0099964146646137429 1 0.0095114862644516875 1 0.0090942187009190462 1 1 1 1 1 1 1 1 1 1 1 1 1 1 1 1 1 1 1 1 1 1 1 1 1 1 1 1 1 1 1 1 1 1 1 0.010525412858435067 1 1 1 1 1 1 1 1 1 1 1 1 1 1 1 1 1 0.011547882090453725 1 1 1 1 1 1 0.0072292187556377025 1 1 1 1 1 1 1 0.0053341886906245854 1 1 1 0.010093059124355808 0.0061812796023380662 0.01033212626114992 1 1 1 1 1 0.0054399693499421423 1 1 0.0099298431938794063 0.0094816459200662007 1 1 1 1 1 1 1 1 1 1 0.0084803720279412412 1 1 1 1 1 1 1 1 1 1 1 1 1 1 1 1 1 1 1 0.0075031199897256234 1 1 1 0.01080372681522352 0.0074020843427522864 1 1 1 0.010116423773141651 1 1 1 1 1 1 0.010261572115750368 1 0.010028422716696741 1 1 1 0.0099942814147014232 1 0.0097883727418560315 1 1 1 1 1 1 1 1 1 1 1 1 1 0.0087013701131583299 1 1 0.009875607542782933 1 1 1 1 1 0.010418944291114212 1 1 1 1 1 1 1 1 1 1 1 1 1 1 1 0.0098882932340105499 0.0098772716251945385 1 1 1 1 0.0094151569857302692 1 1 1 1 1 1 1 1 1 1 1 1 1 1 0.0071368250969400179 1 0.0065614503030993372 1 1 1 1 1 1 1 1 1 1 1 0.0069804398704081463 1 1 1 1 1 0.0072126037306200746 0.0092599171302232205 1 1 1 1 1 1 1 1 0.0099668516652284666 1 0.0051288940192638389 1 1 1 1 1 1 1 1 1 0.0079999839083488324 1 1 1 1 1 1 1 1 1 1 1 1 1 0.0081603872421702889 1 0.0086384615230543256 1 1 1 1 1 1 1 1 0.0079485514825360509 1 1 1 1 1 1 1 1 1 1 1 1 1 1 0.0082495973361046433 1 1 1 1 1 1 1 1 0.0085263359512809372 0.009758078574121266 1 1 1 1 1 1 1 1 0.0098186698826890836 1 1 1 0.0099837548439569018 1 1 1 1 1 0.010028920338499952 1 1 1 1 1 1 1 1 1 1 1 1 1 1 1 1 0.0095645679157181623 1 1 0.008922759503047599 1 1 0.010032443423061388 1 1 1 1 1 1 1 1 1 1 1 1 1 1 0.0097045253779866978 1 1 1 1 1 0.0092469380303342313 1 1 0.010108335148176367 1 1 1 1 1 1 1 1 1 1 1 1 1 1 1 1 1 1 1 1 1 1 1 1 1 1 1 1 1 1 1 0.0099899313538583737 1 1 1 1 0.010005766132951021 1 1 1 1 1 1 0.010027629548274219 0.009965922897387236 1 1 1 1 1 1 1 1 0.0099804589858071384 1 0.0099576597885604988 1 1 1 0.0099411249283392761 1 1 1 1 1 1 1 1 1 1 1 1 1 1 1 1 1 1 1 1 1 1 1 1 1 1 1 1 1 0.010001178031350363 1 1 1 1 1 1 1 1 1 1 1 1 1 1 1 1 1 1 1 1 1 1 1 0.010008899711840543 1 0.010007722196402611 1 1 1 1 0.0094560094582151529 1 1 1 1 0.0096788324484177787 1 1 1 1 1 1 1 1 1 1 1 1 1 0.0088142010455445809 1 1 1 1 1 1 1 1 1 1 1 1 0.0099321822166034621 1 1 1 1 0.0099973366227868784 1 1 1 0.00921213347373908 1 1 1 1 1 1 1 1 1 1 0.0092254063904074965 1 1 1 1 1 0.009778236653887459 1 1 1 1 1 1 1 1 1 1 1 0.0099827865085774427 1 1 1 0.0095306833102880972 1 1 1 1 1 1 1 0.0098236995761134868 1 1 1 1 1 0.0094451883414907022 1 1 1 1 1 1 1 1 1 0.0099746607031526713 1 1 0.0092912820090452382 1 1 0.010010058275608092 1 0.0096795103969514861 0.0095223843138856467 1 1 1 1 1 1 1 1 1 1 1 1 1 1 1 1 1 1 1 1 1 1 1 1 1 1 1 1 1 1 1 1 1 1 1 1 1 1 1 1 1 1 1 1 1 0.0049553540135205323 1 1 1 1 0.0048941046652620623 1 1 1 1 1 1 1 1 1 0.0095805751716077411 1 1 0.0050732697519586239 0.0085801048052924472 1 1 1 1 0.0091011893252810356 1 1 1 0.0052426832855782188 1 1 0.00864303668620779 1 1 1 0.0097826944957980777 1 1 1 1 0.0086085138810951724 1 0.0033398435934818508 1 1 1 1 1 0.0095350931688848936 0.0023834830969008559 1 1 1 1 1 1 1 1 1 1 1 1 1 1 1 1 1 1 1 1 1 1 1 0.0021939796302285035 1 1 1 1 1 1 1 1 1 1 1 1 0.0093464443870478128 1 1 1 1 1 0.0094515483948992545 0.010505362296691391 1 1 1 1 1 1 1 1 1 1 0.010123372890206163 1 1 1 1 1 1 1 1 1 0.0091302177033720962 0.0094334816713733879 1 1 1 1 1 1 0.0099331653169285605 0.0026899877921672862 1 1 1 0.0085946874626638935 1 0.0041343157973348088 0.0099825972044674249 1 0.0074552041888332945 1 0.0094336277295665703 1 1 1 1 1 1 1 1 1 1 0.0098213040790534056 1 1 1 1 0.0099061442811134211 1 0.010018918511861003 1 1 1 1 1 1 1 1 1 1 1 1 0.0024115977084522705 1 1 1 1 1 1 1 1 1 1 1 1 1 0.0092958364348153452 1 1 0.0093451178479054906 1 1 1 1 1 1 1 0.009414892302285139 1 1 1 1 1 1 1 1 1 1 1 1 1 1 0.0098142977256556949 1 1 1 1 0.0097942289786128508 1 0.012043054540168447 1 0.0094830712946257206 1 1 1 1 0.0099873250750235204 1 1 1 1 1 1 1 1 1 1 1 1 1 1 1 0.010146749180811456 1 0.010758338239936077 1 1 1 1 1 1 1 0.0097571899812006844 1 1 1 1 1 1 1 1 1 1 1 1 1 1 1 1 1 1 1 1 1 1 1 1 1 1 1 1 1 1 1 0.0088943192739485959 0.0070221130838110787 1 1 0.0074745961575947758 1 1 1 1 1 1 1 0.0098547223573961003 1 1 1 1 1 1 1 1 1 1 1 1 1 0.0096326704628873702 1 1 1 0.0080092163945916107 0.0099883541119835054 1 1 1 1 1 1 1 1 1 1 1 1 1 1 1 1 0.010005744082409111 1 1 0.0095477538436088052 1 1 0.0089505441197020169 1 1 1 1 1 0.010078415440553977 1 1 1 1 0.0064509127911605065 1 1 0.0093129481679259298 1 1 1 1 1 0.0074264706613877546 1 1 1 1 1 1 0.009764252706605598 1 1 1 1 1 1 1 1 1 1 1 1 1 1 1 1 1 1 1 1 1 1 1 0.0099890927968269202 1 1 1 1 1 1 0.0093490814643513078 1 1 1 1 1 1 1 0.0090057289048660946 1 1 1 0.01043197682452319 1 1 1 1 1 1 1 1 1 1 1 1 1 1 1 1 1 1 1 0.010028676789054692 1 0.0097264897814607777 1 1 1 0.0095117961533187825 1 0.010010992139141023 1 1 1 0.010138359218831149 1 1 1 1 1 1 1 1 1 1 1 1 0.0096810038252573231 1 1 1 1 1 1 1 1 0.0090107606495219462 1 1 1 1 1 1 1 1 1 1 1 1 1 1 1 0.0098349136768079905 1 1 1 1 0.00959123013860687 1 1 1 0.0094899308637660107 1 1 1 1 1 1 1 1 1 1 1 1 1 1 1 1 1 1 1 1 1 1 0.0076030822913586565 1 1 1 1 1 1 1 1 1 1 1 1 1 1 0.0073110298853043577 1 1 1 1 1 1 1 1 1 1 1 1 1 1 1 1 1 1 1 1 1 1 1 1 0.0096762147822232244 1 1 1 1 1 0.0096483415830759239 1 1 1 1 1 1 1 1 1 1 1 0.009138813602492947 1 1 1 1 0.0069886330466736373 1 1 1 1 0.0097324644285022906 0.009288092437672528 1 1 0.0071094275695067124 1 1 1 0.0075731267170478754 1 1 0.0077144137673573303 1 1 1 1 1 1 1 1 1 1 1 1 1 1 1 1 1 1 1 1 1 1 1 1 1 1 1 1 1 1 1 0.0065792005925667009 1 1 1 1 1 1 1 0.0044180726476080005 1 1 1 1 1 0.0099764729704585244 1 1 1 0.0085494128498017682 1 1 1 1 1 1 0.0089574703251684446 1 0.0097536982066206146 1 1 0.010036137285487523 1 1 1 0.007862424480500332 1 0.0030191939119263919 1 0.010020341787307355 1 1 0.010051505380790193 1 1 1 1 1 1 1 0.010236772008772051 1 1 0.0097998349586710803 1 0.010037042192266352 0.0094304874057073839 1 0.005899741878545077 1 1 0.0079913706018405924 1 0.0088195154528230759 1 1 1 0.011490961326868488 1 1 1 1 1 1 1 1 1 1 1 1 1 1 1 1 1 1 0.0092196130111888482 1 1 1 1 1 1 1 1 1 1 1 0.011448131379453002 0.0084485123641975645 1 1 1 1 0.0094454330710904439 1 1 0.010526633305144514 1 1 1 0.010089860624106873 1 1 1 1 1 1 1 0.010374977247631045 1 1 1 1 0.010091377054965191 1 1 1 1 1 1 1 1 0.0091164843739683712 1 1 0.0078889300068522607 1 1 0.009912713208089674 1 1 1 0.0083579408114890456 1 1 1 1 1 1 1 1 1 1 1 1 1 1 1 1 1 1 1 1 1 0.0093861735385834047 1 1 0.0097916078038084858 1 1 1 1 0.0096734092782639232 1 1 1 1 1 1 1 1 1 1 1 1 1 1 0.010052442186601991 1 0.0069527628077063631 1 1 1 1 1 1 0.010118569334685832 1 1 1 1 1 0.010025301258945851 0.0069304451290896612 1 1 1 1 1 1 1 1 1 1 1 1 1 1 1 1 1 1 1 1 1 1 1 1 1 1 1 1 0.010034794398312227 1 1 1 0.007430557263075328 1 1 1 1 1 1 1 1 1 0.0097168320881740999 1 1 1 1 1 1 1 0.0094558392331710386 1 1 1 1 0.0087739944093550223 1 1 1 1 0.0071206261592348949 1 1 1 1 1 1 0.0089606786947563893 1 1 1 0.0075987828761984177 1 1 1 1 1 1 1 1 0.0097755203682635735 1 1 1 1 1 1 1 1 1 1 1 1 1 1 1 1 1 0.010043690070585828 1 0.0099994833157498169 0.0077208024611950029 1 1 0.0066115111553133382 1 0.0077851156563419821 1 1 1 1 1 1 0.0092146393791918864 1 1 1 1 1 1 1 0.0094320954214684605 1 1 1 1 1 1 1 1 1 1 1 1 1 1 1 1 1 1 1 1 1 1 1 1 1 0.0096740353803438459 1 0.0091670691021959079 1 1 1 1 1 1 1 1 1 1 1 1 1 1 1 1 0.0059384893644649581 1 0.0075633924586940172 0.0062133365090698408 1 1 1 1 1 1 1 1 1 1 1 1 1 1 1 1 1 0.0056949173166225778 1 0.0060464923961185196 0.0065860867080682357 1 1 1 1 1 0.00657430736520093 0.0058524566630758787 1 1 1 1 1 0.0096601581249357287 0.010335938745374505 1 0.0087952037151889893 1 0.0089970069642201535 0.0099995517113048524 0.009317599061138479 1 0.0099074313181520685 1 1 1 0.0092452174348289264 1 1 0.0095719970139517552 1 0.0098836214592825482 1 0.0071408129479080245 1 1 1 1 1 1 1 0.0074223837308117265 1 1 0.010216086552017903 0.006247806513625582 1 0.0067203402115458997 1 1 1 0.0069927674861356148 1 0.0098720588424816257 1 1 1 1 1 0.0090855876033268338 0.010017841502571224 0.0068667626130495697 1 1 1 1 0.0081924199283877185 1 1 1 0.0069926073840643217 1 0.0093074830287670704 0.0056771096700465292 1 1 1 1 1 1 1 1 1 1 0.0085248601182905115 1 0.0098860134523842732 1 0.0092418508171935015 1 1 1 1 1 1 1 1 1 1 1 1 1 1 1 1 1 0.0092199802093982791 1 1 1 1 1 0.0097930444908326912 1 1 1 1 1 1 1 1 1 1 1 1 1 0.0096788532569108514 0.0099548875883776183 1 1 1 1 1 1 1 1 1 1 1 1 1 1 1 1 1 1 1 1 1 1 1 1 1 1 1 1 1 1 1 1 1 0.010015550345132129 1 1 1 1 0.0054258902974014343 1 0.0084735556760973524 1 0.0053906428325095398 1 1 1 1 1 1 0.0050777095391492735 1 0.007324754482222565 1 1 1 0.0099920459711302697 1 0.0064422596483247156 1 1 1 1 1 1 1 1 1 1 1 1 1 1 0.0020592415415579728 1 0.0099985767442933807 1 1 1 0.0080568614950027092 1 1 0.0080991641276413548 1 0.00080204248212676146 1 1 1 1 1 1 1 1 1 1 1 1 1 1 1 1 1 1 1 1 1 1 1 1 1 1 1 0.010349067077158339 1 1 1 1 0.0093055866648782473 1 1 1 1 1 1 1 1 0.0095317626326647149 1 1 1 0.0095113313580521518 1 1 1 1 0.009864941141914987 1 1 1 1 1 1 1 1 1 1 1 1 1 1 1 1 1 0.0093829654055124553 1 0.0099453206543845298 1 0.010009171436554262 1 0.0099821810648488326 0.0096997576128757482 0.0091755524106062851 1 1 1 1 0.0097109999562227586 1 0.0088000952704201506 1 1 0.0089427781362424116 1 0.0080824851023991173 1 1 1 0.007372131792202156 1 1 1 0.0088165054753910517 1 1 1 1 1 1 1 1 1 1 1 0.009850166532002283 1 1 1 1 1 1 1 1 1 1 1 1 1 1 1 1 1 1 1 1 1 1 1 1 1 1 1 1 0.0091275804827132025 1 1 0.0098472241026932271 1 1 1 1 1 1 0.0086357323760472369 1 0.01011969005351261 1 1 0.0091299171169486604 0.010710774765852695 1 1 1 1 1 1 1 1 1 1 0.010201239564600999 0.011031674368597054 1 1 1 1 1 1 1 1 1 1 1 1 1 1 1 0.011623180058246526 0.0080822615600758246 1 1 0.010488669222920508 1 1 1 1 1 1 1 0.0052735767227384423 1 1 0.0099903382706349152 1 1 1 1 0.0098124176676256392 1 1 0.010329592029102799 1 1 0.0090441330521907407 1 1 1 1 0.0057965793886230119 1 0.0098232529630576555 1 1 1 1 1 1 1 1 0.010057656206994333 1 1 0.0070776570357875043 1 1 1 1 1 0.0058804860193442821 1 1 1 1 1 1 0.0092289456020160279 1 0.0087450595795995206 0.0074827745214192543 0.010023562928439301 1 0.010016201415605459 1 1 1 0.0095102569571543505 1 1 1 1 1 1 1 0.0096529648279979063 1 1 1 1 1 1 1 1 1 1 1 1 1 1 0.0083911577656656765 1 1 1 0.0076520747285544147 1 1 1 1 1 1 1 1 1 1 0.010212059209983082 0.0093501904422295355 1 1 1 1 1 1 1 0.0098798725360916082 1 1 1 1 0.0097222872316895474 1 1 1 1 1 1 1 1 1 1 1 1 1 1 1 1 1 1 1 1 1 0.0088305768312119011 1 1 1 1 1 1 1 1 0.0099778151656993892 1 1 1 0.0070664614418442283 1 1 1 0.0083726064566041307 1 0.010258720332388881 1 1 1 1 1 1 1 1 1 1 1 1 1 1 1 1 1 1 1 1 1 1 1 1 1 1 1 1 1 1 1 1 1 1 1 1 1 1 1 1 1 1 1 1 1 1 1 1 1 1 1 1 1 1 1 1 1 1 1 1 1 1 1 1 1 1 1 1 1 1 1 1 1 1 1 1 1 1 1 1 1 1 1 0.0092102909537857304 1 1 1 1 1 1 1 1 0.0097788034215981791 1 1 1 1 0.0091048255027700586 1 1 1 1 1 0.010609764772158033 1 1 0.0095814030329075678 1 1 1 1 0.0093404909945438777 1 1 1 1 1 1 1 0.0095248484869367364 1 1 1 0.009246413187453657 1 1 1 1 1 1 1 1 1 1 1 0.0088661809930324492 1 0.0095007659682009443 1 1 1 1 1 1 1 1 1 1 1 1 1 0.0031196175484747533 1 0.0039976718224862921 1 1 0.010164175693223769 1 1 1 1 1 1 1 0.0071716614397707278 0.0072508876971154601 1 1 0.0087821663523927271 1 1 1 1 1 1 1 1 1 1 1 1 1 1 0.0090283992753146108 1 1 0.008691818026297652 1 1 0.0076513259358540302 1 1 1 1 0.0092093058463104567 1 0.0074945782692884336 1 1 1 1 0.0095619014254802147 1 1 0.008898522246730033 1 1 1 1 0.0099359891432511029 1 1 1 1 1 0.010661869552661409 1 1 0.0060801489261886749 1 1 1 1 1 1 0.0079124035044621926 1 1 0.0080460059284667637 1 0.010582890781138665 1 1 1 1 1 1 1 1 1 1 1 1 1 1 1 1 1 1 1 0.0073319218454310966 1 1 1 0.0087885815817605583 1 0.0079395154325827763 1 1 1 1 0.006857020957648537 0.0086028545801125639 1 0.0099902380621490813 1 0.0048337361132115694 1 1 1 1 1 0.010075698152775748 1 0.0065614620347468847 0.009953598526127613 1 1 1 0.0076546572849602867 1 0.0086680859388153526 1 1 1 1 1 1 1 1 1 1 1 1 1 1 1 1 1 1 1 1 1 1 1 1 1 1 1 1 1 1 0.012755525419673116 1 1 1 0.010471328005511789 0.011318947715104935 1 1 0.010010829944795508 1 1 0.0058331034237710626 1 1 1 1 0.0044547221927830234 0.0099999695886754305 1 1 0.0024840366167927638 1 1 1 0.0091828188369524732 1 1 0.0094809912378750957 1 1 1 1 1 1 1 1 1 1 1 1 1 1 1 1 1 1 1 1 1 1 0.0089173215118684528 1 1 0.0078481746703119287 1 1 1 1 1 1 1 0.008720442298388335 1 1 1 1 1 1 1 1 1 1 1 1 1 0.0091047603744592587 0.0071616287761144537 1 1 1 1 1 1 1 1 1 1 1 0.0098778658581823407 1 1 1 1 1 1 0.0068688465758141269 1 1 1 1 1 1 1 0.0061565783697294166 1 1 1 1 1 0.0060164529106015753 1 1 1 1 0.0099541340813961675 1 1 1 1 1 1 0.0097013142241044927 1 1 1 1 1 0.0097171069680529153 1 1 1 0.0065973470235667353 1 0.010113235086811556 1 1 0.0099104894259192389 1 1 0.0060920895815813458 1 1 1 1 0.0097610755455298844 1 1 0.0098832096873475352 1 1 1 1 1 1 1 0.010023828411482433 1 1 1 1 1 1 1 1 1 0.0098053702872430773 1 1 1 1 1 1 1 1 1 1 1 1 1 1 0.013364228676629359 1 1 0.010057561780866978 0.0096642183429039349 1 1 1 1 1 1 0.01023546309180879 1 1 0.0098793751319769842 0.0072531089335361593 1 1 1 1 1 1 1 1 1 1 1 0.0090275067124661931 1 1 1 0.0089764068339767394 1 1 1 1 1 0.0099610768091785967 1 1 1 1 1 1 1 0.013591909688822701 1 1 1 0.012716478650818141 1 1 1 0.012128775358083667 1 1 1 1 1 0.011055085330913518 1 1 1 0.0098199186896948953 1 1 1 1 1 1 0.0095038953630772437 1 0.0098526660729384794 1 1 1 1 1 0.0099611693184635391 1 1 1 1 1 1 1 1 1 1 0.010114013381717996 1 1 0.0099854124251134088 1 0.0092210023311301639 1 1 0.0072306031609631043 1 1 1 1 1 1 1 1 1 1 1 1 1 1 1 1 1 1 1 1 1 1 1 0.006980258619930956 1 1 1 1 0.0059981409297901276 1 1 1 0.0099209460077644279 1 1 1 1 1 1 1 1 1 1 1 1 1 0.0076655812409016323 1 1 1 1 0.0083672430456760202 1 0.0099594059029033746 1 1 1 1 1 1 1 1 1 1 1 1 1 1 1 1 0.0049038724520621725 1 1 1 1 1 1 1 1 0.010009382282753347 1 1 1 1 0.0052161753510145958 1 1 1 1 1 1 1 0.0097465205755009384 1 1 1 1 1 1 1 1 1 1 0.0027990375382966285 1 1 1 0.012722797013617605 1 1 1 1 1 1 1 1 1 1 1 0.0081715067676349784 1 1 1 0.009822182970993458 0.011201182236049189 1 1 1 1 0.00019053819789262641 1 1 1 1 1 1 -3.4694469519536142e-18 1 1 1 1 1 1 0.010069178315839589 1 1 1 1 1 1 1 1 1 1 1 1 1 0.0093521206378660623 1 0.0098576074391303042 1 1 0.0089702770745784047 1 1 1 1 1 1 1 0.0081563285038905933 1 1 0.009581002559481834 1 0.0095715433491825874 1 4.5539896966073287e-05 0.0073323312758670333 1 0.007651803617913757 1 -5.2041704279304213e-18 1 1 1 1 1 1 1 1 1 1 1 1 0.0081207070925193286 1 1 0.0079368483045465198 1 1 1 1 1 0.0099426283560050815 1 1 0.0059677254247286577 0.0055875619243128602 0.0090537906522500829 1 1 1 1 0.010000776047939624 1 1 1 1 1 1 1 1 0.0053632237683107252 1 0.0076679699254150052 1 1 1 1 1 1 1 1 0.0059743137075766745 1 0.0099952604936310585 1 1 0.010047672391808688 0.0026541852329920006 1 1 1 0.010935979390445249 1 1 1 1 1 0.0016922753191530738 1 1 1 0.0077911866464908872 1 0.0099522229936411799 1 0.008767690875087877 1 1 1 1 1 1 1 1 1 1 1 1 1 1 1 1 1 1 1 1 1 1 1 1 0.0096596543256331005 1 1 1 0.0026098926246797029 1 1 1 1 1 1 1 0.0026533849810176993 1 1 1 1 1 1 1 0.0028980027587265506 1 1 1 0.0032606741481256991 1 1 0.0047103255145170015 0.0096930824093285853 1 1 1 1 1 1 1 1 1 1 1 1 1 1 1 1 0.0054444059232563076 0.0068139405933341059 1 1 1 1 1 1 1 1 1 1 0.0097756775706030249 1 1 0.01006347655252853 1 1 1 1 1 0.0099696291920192224 1 0.0096678736546399018 1 1 0.007781057378768115 1 1 1 0.008424982178350672 1 1 0.0093212503696331831 1 1 1 1 0.0097289044388043106 1 0.0091184052098181156 1 1 1 1 1 1 1 1 1 1 1 1 1 1 1 0.0090184113720387024 1 1 1 1 1 0.008562135477024212 1 1 1 1 1 0.0096253383716629216 1 1 0.010049032194069784 1 1 1 1 1 1 1 0.0089757267506986645 1 1 1 1 0.0089830912407568124 1 1 1 1 1 1 1 1 1 1 1 1 1 1 1 1 1 1 1 1 0.0097960331505303928 0.010037469472682557 1 1 1 0.0099309871490181976 1 1 0.009982082295207995 1 1 1 1 0.0099726191920707155 1 1 0.0099412794688464763 1 1 1 1 1 1 1 1 1 1 1 1 1 1 0.0098675099467024786 1 1 1 1 1 0.0099404250314024476 1 1 1 1 0.0099717647546266781 1 1 1 1 1 1 1 1 1 0.0096353557705294111 1 1 1 0.0095062269194978906 1 1 1 1 1 1 0.0097411514989964362 1 1 1 1 1 1 1 0.009366903305867506 1 1 1 0.0093420499547035782 1 1 1 1 1 1 1 1 1 1 1 1 1 1 0.010001370780366475 1 1 1 1 1 1 1 1 1 0.0099538640325428258 1 1 1 1 1 0.010036312527336258 1 0.0098484279803116755 1 1 1 1 1 1 1 1 1 1 1 0.0096375540129846407 1 1 1 1 1 0.0091284283147016268 0.0096788023355513231 1 1 1 1 0.010009908860106003 1 1 0.0095522560528248958 1 1 1 1 0.0098297996037416593 1 1 1 0.0057931287773853833 1 1 1 1 1 1 0.0091160141210713599 0.0050595143265793271 1 1 0.0098926016784891598 1 1 0.008868677168515712 1 1 1 0.0082315429600504156 0.0099572402186242567 1 1 1 1 1 1 1 1 1 0.0096844067298195152 1 1 1 0.0091508671728243 1 1 1 1 1 1 1 1 0.0050045216893239066 1 1 0.0053445808322228928 1 1 0.0099145725123948609 1 1 1 1 1 1 1 1 1 1 1 1 1 1 1 1 1 1 0.010002305595717529 1 1 0.0095441466567825518 1 1 1 1 0.0097994043579589588 1 1 1 1 0.0094990632535696031 1 1 1 1 1 1 0.0098644471965809513 1 1 0.0097485519371237114 1 1 1 1 1 1 1 1 1 1 1 1 1 1 1 1 1 1 1 1 1 0.0098680907035108949 1 1 1 1 1 1 1 1 0.01001180198227505 1 1 0.0098162863591703398 0.0094445760400983739 1 1 0.006597477494669551 1 0.0092772990005793761 1 0.0091446760264524141 0.0090670885961648805 1 1 1 1 1 1 1 1 1 1 1 1 0.010309225746842758 1 1 1 0.009997495676801001 0.009968013925928448 1 1 1 1 1 0.0097236432882191956 1 0.0099986604942455554 1 1 1 1 1 1 1 0.0057949188813627567 1 1 0.010037386249259947 1 1 1 1 1 1 1 1 0.00316723655199036 1 1 1 1 1 1 1 1 1 1 1 0.010098712000663413 1 1 0.010287331989761873 1 1 1 1 1 1 1 1 0.010461120882241349 1 1 1 0.0082484533410436874 1 1 1 1 0.0099435521948961908 1 0.0099829747388603188 1 1 1 1 0.010625911275840739 1 1 0.011147196839027883 1 1 0.0086985576559357632 1 1 0.0069608623300923423 1 0.008303945173172015 0.009240669683911136 1 1 1 1 1 1 1 1 0.0072118406978948814 1 1 0.0045946756319745659 1 1 1 0.010045521911040516 1 0.00056490255962272614 1 1 1 1 1 0.00021726568218532333 1 1 1 1 1 1 1 1 1 1 1 1 0.0098385111599287763 1 1 1 1 1 1 1 1 1 1 1 1 1 1 1 1 1 1 1 1 1 1 1 1 1 1 1 0.010163868939122403 1 1 0.0091657677807872682 1 1 1 1 1 1 0.0076320512758084082 1 1 1 1 1 1 1 1 1 1 1 1 0.010020738867592473 1 1 0.003750119429783403 1 1 0.010350917675696607 1 1 1 0.0050933682702581917 1 1 0.0098675583819630534 1 1 0.0079862640864471895 1 0.0051810373944323976 1 1 0.0085197275249153034 1 1 0.0089834607822903007 1 0.0082455106444697269 1 1 1 1 1 1 1 1 0.0050097702376443887 1 0.0089659300013048334 1 0.0097645386492400989 1 1 0.0106128435842515 1 1 0.0068619822556831795 1 1 1 1 0.010015439511431386 1 1 1 1 1 1 1 1 1 1 1 1 0.0098304889143710911 1 0.0086076123344500568 1 0.0084618341313409031 1 1 1 1 1 1 1 0.010005919495393867 1 0.0075525492854606451 1 1 1 1 1 0.0092511247719540037 0.0089256313717629883 1 1 1 1 1 1 1 1 1 1 1 1 1 1 1 1 1 1 1 1 1 1 1 1 1 1 1 1 1 1 0.0095097771943365231 1 1 1 1 0.0096715825652229463 1 1 0.0091173256404125831 1 1 1 1 1 1 1 1 1 1 1 1 1 1 1 1 1 1 1 1 1 1 1 1 1 1 1 1 1 1 1 0.0097191628621025716 1 1 1 0.0093597672328300172 1 1 1 1 1 0.0098969029003503021 1 1 1 1 0.009864915680282197 1 1 1 1 1 1 1 0.0096961441869775795 1 1 1 1 1 1 1 1 0.0083651283015220637 0.010491597545168981 1 1 1 1 1 1 1 1 1 1 1 1 1 1 1 1 1 1 1 1 1 0.00946742119018186 1 1 1 1 1 1 1 1 0.009721407832213029 1 1 1 0.0096509972534848179 0.007799167612583262 1 1 1 1 1 1 0.0083689036263508154 0.0096948661048807221 1 1 0.0093414521895014823 1 1 0.0095342107147747511 1 1 1 1 1 1 0.0098474785085671361 1 1 1 0.0099428251897557187 1 1 1 1 1 1 1 1 1 1 1 1 1 1 1 1 1 1 1 1 1 1 1 1 1 1 1 1 1 1 1 1 1 1 1 1 1 1 0.0019838067651793169 1 1 1.5178830414797062e-18 1 1 1 1 1 1 1 1 0.0096583340140277869 1 1 1 0.0097677280741601379 1 1 1 1 1 1 1 1 0.0067081546958650557 1 1 1 1 1 0.0068521802400388684 1 1 1 1 1 1 1 1 0.0098923614289459505 1 1 1 0.0090046953142780516 1 1 1 1 1 1 1 0.00989523876038894 1 1 1 1 1 1 1 1 1 1 1 1 1 1 1 1 1 1 1 0.0090369735590026205 1 1 1 1 1 1 1 0.009744501800022419 0.0084989577761558511 1 1 1 1 1 1 1 1 1 1 1 1 1 1 1 1 1 1 1 1 1 1 1 1 1 1 1 1 1 1 1 1 1 1 1 1 1 0.0067259404982562762 1 1 1 1 1 1 1 1 1 1 1 0.00037022452358903009 1 1 1 1 1 1 1 0.0096837960768665077 1 1 0.00045972861451003613 1 1 1 1 1 1 1 1 1 1 1 1 1 1 1 1 1 1 1 1 1 1 0.010052304895830012 0.0033457820588359347 1 1 1 0.013249637500042705 1 1 0.0053078250477880534 1 1 1 1 0.0070771041660023359 1 1 1 0.0091802197159778047 1 1 1 1 1 0.0089863925770739053 1 1 1 0.0097691624985037882 1 1 1 1 1 1 1 0.0099594664289845269 1 1 1 1 1 1 1 1 1 1 1 0.0091108199759391325 1 1 1 1 1 1 1 1 1 1 1 0.0096726909117419019 1 1 1 1 1 1 1 0.00051787895643850938 1 1 0.0096620684378324086 1 1 1 0.0098811242961268607 7.1943316141364483e-05 1 1 1 1 1 1 1 1 1 1 1 1 1 1 1 1 1 1 1 1 1 1 1 1 1 1 1 1 0.0092210908766499899 0.0096868801618752391 1 1 1 1 1 1 1 
</DataArray>
</CellData>
</Piece>
</UnstructuredGrid>
</VTKFile>
